<?xml version="1.0"?>
<VTKFile type="UnstructuredGrid" version="0.1" byte_order="LittleEndian">
<UnstructuredGrid>
<Piece NumberOfPoints="31437" NumberOfCells="11058">
<Points>
<DataArray type="Float64" NumberOfComponents="3" format="ascii">
-0.5 -0.5 0 -0.4693898859210795 -0.46989398658712761 0 -0.50000000000000155 -0.43410224407606313 0 -0.5 -0.5 0 -0.4693898859210795 -0.46989398658712761 0 -0.4455677547368852 -0.49311614823673661 0 -0.5 -0.5 0 -0.4455677547368852 -0.49311614823673661 0 -0.44197976684141821 -0.5 0 -0.4693898859210795 -0.46989398658712761 0 -0.45159517787210068 -0.47236817397517178 0 -0.4455677547368852 -0.49311614823673661 0 -0.45159517787210068 -0.47236817397517178 0 -0.4455677547368852 -0.49311614823673661 0 -0.43616161820935878 -0.46826765614229893 0 -0.4455677547368852 -0.49311614823673661 0 -0.43616161820935878 -0.46826765614229893 0 -0.4455677547368852 -0.49311614823673661 0 -0.44197976684141821 -0.5 0 -0.42915695757430278 -0.48512374038843259 0 -0.4693898859210795 -0.46989398658712761 0 -0.45435423208969172 -0.45742703734763512 0 -0.47558516056061129 -0.43720788406666289 0 -0.4511703211212213 -0.44031352405726248 0 -0.42675548168183108 -0.44341916404786191 0 -0.4511703211212213 -0.44031352405726248 0 -0.45435423208969172 -0.45742703734763512 0 -0.42675548168183108 -0.44341916404786191 0 -0.45435423208969172 -0.45742703734763512 0 -0.43616161820935878 -0.46826765614229893 0 -0.42675548168183108 -0.44341916404786191 0 -0.45159517787210068 -0.47236817397517178 0 -0.45435423208969172 -0.45742703734763512 0 -0.43616161820935878 -0.46826765614229893 0 -0.4693898859210795 -0.46989398658712761 0 -0.45159517787210068 -0.47236817397517178 0 -0.45435423208969172 -0.45742703734763512 0 -0.4511703211212213 -0.44031352405726248 0 -0.47558516056061129 -0.43720788406666289 0 -0.4511703211212213 -0.44031352405726248 0 -0.45435423208969172 -0.45742703734763512 0 -0.47558516056061129 -0.43720788406666289 0 -0.4693898859210795 -0.46989398658712761 0 -0.50000000000000155 -0.43410224407606313 0 -0.47558516056061129 -0.43720788406666289 0 -0.50000000000000155 -0.43410224407606313 0 -0.47558516056061129 -0.43720788406666289 0 -0.50000000000000155 -0.43410224407606313 0 -0.48159678789274618 -0.41588014147794961 0 -0.47558516056061129 -0.43720788406666289 0 -0.50000000000000155 -0.43410224407606313 0 -0.48159678789274618 -0.41588014147794961 0 -0.5 -0.40435007947511409 0 -0.48159678789274618 -0.41588014147794961 0 -0.5 -0.40435007947511409 0 -0.47848868567956609 -0.40017211510486389 0 -0.48159678789274618 -0.41588014147794961 0 -0.46938220732299007 -0.40812115444227037 0 -0.46497389906557102 -0.42200011972238338 0 -0.48159678789274618 -0.41588014147794961 0 -0.46938220732299007 -0.40812115444227037 0 -0.47848868567956609 -0.40017211510486389 0 -0.48159678789274618 -0.41588014147794961 0 -0.47558516056061129 -0.43720788406666289 0 -0.46497389906557102 -0.42200011972238338 0 -0.48995874638196291 -0.38146906252364138 0 -0.5 -0.40435007947511409 0 -0.49999999999999561 -0.37459791487416488 0 -0.47813169204516442 -0.38401651827603911 0 -0.49149108773162042 -0.36848928190164348 0 -0.48995874638196291 -0.38146906252364138 0 -0.47813169204516442 -0.38401651827603911 0 -0.49149108773162042 -0.36848928190164348 0 -0.48995874638196291 -0.38146906252364138 0 -0.48653256441321657 -0.39192216899846299 0 -0.47813169204516442 -0.38401651827603911 0 -0.5 -0.40435007947511409 0 -0.48653256441321657 -0.39192216899846299 0 -0.47848868567956609 -0.40017211510486389 0 -0.48995874638196291 -0.38146906252364138 0 -0.5 -0.40435007947511409 0 -0.48653256441321657 -0.39192216899846299 0 -0.47848868567956609 -0.40017211510486389 0 -0.47813169204516442 -0.38401651827603911 0 -0.4676902102933998 -0.39615234829887119 0 -0.48653256441321657 -0.39192216899846299 0 -0.47848868567956609 -0.40017211510486389 0 -0.47813169204516442 -0.38401651827603911 0 -0.46938220732299007 -0.40812115444227037 0 -0.47848868567956609 -0.40017211510486389 0 -0.4676902102933998 -0.39615234829887119 0 -0.47813169204516442 -0.38401651827603911 0 -0.46100330925261301 -0.38461050287000431 0 -0.4676902102933998 -0.39615234829887119 0 -0.48653256441321657 -0.39192216899846299 0 -0.47813169204516442 -0.38401651827603911 0 -0.47813169204516442 -0.38401651827603911 0 -0.4676902102933998 -0.39615234829887119 0 -0.47813169204516442 -0.38401651827603911 0 -0.46512921493184201 -0.37178052205079692 0 -0.47813169204516442 -0.38401651827603911 0 -0.4763810039658154 -0.36947529490344572 0 -0.46512921493184201 -0.37178052205079692 0 -0.46100330925261301 -0.38461050287000431 0 -0.44898296761903578 -0.37831988735821998 0 -0.46512921493184201 -0.37178052205079692 0 -0.47813169204516442 -0.38401651827603911 0 -0.46100330925261301 -0.38461050287000431 0 -0.46512921493184201 -0.37178052205079692 0 -0.46100330925261301 -0.38461050287000431 0 -0.45208699884772019 -0.39225859342206842 0 -0.44898296761903578 -0.37831988735821998 0 -0.4676902102933998 -0.39615234829887119 0 -0.45208699884772019 -0.39225859342206842 0 -0.45724872854163517 -0.40828817832170328 0 -0.46100330925261301 -0.38461050287000431 0 -0.4676902102933998 -0.39615234829887119 0 -0.45208699884772019 -0.39225859342206842 0 -0.4676902102933998 -0.39615234829887119 0 -0.45724872854163517 -0.40828817832170328 0 -0.46938220732299007 -0.40812115444227037 0 -0.4676902102933998 -0.39615234829887119 0 -0.45724872854163517 -0.40828817832170328 0 -0.44098583873843128 -0.39894891315115588 0 -0.45208699884772019 -0.39225859342206842 0 -0.45724872854163517 -0.40828817832170328 0 -0.44098583873843128 -0.39894891315115588 0 -0.45208699884772019 -0.39225859342206842 0 -0.43661093864120648 -0.38723173053245591 0 -0.45208699884772019 -0.39225859342206842 0 -0.44898296761903578 -0.37831988735821998 0 -0.43661093864120648 -0.38723173053245591 0 -0.44898296761903578 -0.37831988735821998 0 -0.43661093864120648 -0.38723173053245591 0 -0.43437003921217299 -0.37166293730417471 0 -0.4511703211212213 -0.44031352405726248 0 -0.46497389906557102 -0.42200011972238338 0 -0.4487338767926719 -0.4220833155954189 0 -0.4511703211212213 -0.44031352405726248 0 -0.47558516056061129 -0.43720788406666289 0 -0.46497389906557102 -0.42200011972238338 0 -0.46497389906557102 -0.42200011972238338 0 -0.45724872854163517 -0.40828817832170328 0 -0.4487338767926719 -0.4220833155954189 0 -0.46938220732299007 -0.40812115444227037 0 -0.46497389906557102 -0.42200011972238338 0 -0.45724872854163517 -0.40828817832170328 0 -0.44098583873843128 -0.39894891315115588 0 -0.45724872854163517 -0.40828817832170328 0 -0.43630826276657569 -0.41239527853883118 0 -0.45724872854163517 -0.40828817832170328 0 -0.4487338767926719 -0.4220833155954189 0 -0.43630826276657569 -0.41239527853883118 0 -0.4487338767926719 -0.4220833155954189 0 -0.43472833862684679 -0.42734286431247009 0 -0.43630826276657569 -0.41239527853883118 0 -0.4511703211212213 -0.44031352405726248 0 -0.43472833862684679 -0.42734286431247009 0 -0.42675548168183108 -0.44341916404786191 0 -0.4511703211212213 -0.44031352405726248 0 -0.4487338767926719 -0.4220833155954189 0 -0.43472833862684679 -0.42734286431247009 0 -0.41729934322353962 -0.41843858025161568 0 -0.42675548168183108 -0.44341916404786191 0 -0.43472833862684679 -0.42734286431247009 0 -0.41729934322353962 -0.41843858025161568 0 -0.42675548168183108 -0.44341916404786191 0 -0.43630826276657569 -0.41239527853883118 0 -0.41729934322353962 -0.41843858025161568 0 -0.42669415989669429 -0.39861344655900138 0 -0.43472833862684679 -0.42734286431247009 0 -0.43630826276657569 -0.41239527853883118 0 -0.41729934322353962 -0.41843858025161568 0 -0.41729934322353962 -0.41843858025161568 0 -0.4045003483020449 -0.43038903260077521 0 -0.39960010968379012 -0.41453972798159527 0 -0.41729934322353962 -0.41843858025161568 0 -0.40784320476524683 -0.39345799645537022 0 -0.39960010968379012 -0.41453972798159527 0 -0.41729934322353962 -0.41843858025161568 0 -0.4045003483020449 -0.43038903260077521 0 -0.42675548168183108 -0.44341916404786191 0 -0.43661093864120648 -0.38723173053245591 0 -0.42669415989669429 -0.39861344655900138 0 -0.4211173712451669 -0.38120818042457999 0 -0.43661093864120648 -0.38723173053245591 0 -0.4211173712451669 -0.38120818042457999 0 -0.43437003921217299 -0.37166293730417471 0 -0.44098583873843128 -0.39894891315115588 0 -0.43661093864120648 -0.38723173053245591 0 -0.42669415989669429 -0.39861344655900138 0 -0.44098583873843128 -0.39894891315115588 0 -0.43630826276657569 -0.41239527853883118 0 -0.42669415989669429 -0.39861344655900138 0 -0.41729934322353962 -0.41843858025161568 0 -0.40784320476524683 -0.39345799645537022 0 -0.42669415989669429 -0.39861344655900138 0 -0.40784320476524683 -0.39345799645537022 0 -0.4211173712451669 -0.38120818042457999 0 -0.41729934322353962 -0.41843858025161568 0 -0.42669415989669429 -0.39861344655900138 0 -0.40784320476524683 -0.39345799645537022 0 -0.40784320476524683 -0.39345799645537022 0 -0.4211173712451669 -0.38120818042457999 0 -0.40530198185374822 -0.37456840561434901 0 -0.38997372814218478 -0.38968792006550251 0 -0.40530198185374822 -0.37456840561434901 0 -0.38210640565234888 -0.36209658018080798 0 -0.40784320476524683 -0.39345799645537022 0 -0.38997372814218478 -0.38968792006550251 0 -0.40530198185374822 -0.37456840561434901 0 -0.38997372814218478 -0.38968792006550251 0 -0.40530198185374822 -0.37456840561434901 0 -0.40784320476524683 -0.39345799645537022 0 -0.39404545923785889 -0.40396781220479328 0 -0.39960010968379012 -0.41453972798159527 0 -0.40784320476524683 -0.39345799645537022 0 -0.39404545923785889 -0.40396781220479328 0 -0.38997372814218478 -0.38968792006550251 0 -0.39404545923785889 -0.40396781220479328 0 -0.38997372814218478 -0.38968792006550251 0 -0.38997372814218478 -0.38968792006550251 0 -0.37087598893123191 -0.40852558738351169 0 -0.39404545923785889 -0.40396781220479328 0 -0.38997372814218478 -0.38968792006550251 0 -0.37087598893123191 -0.40852558738351169 0 -0.38997372814218478 -0.38968792006550251 0 -0.38210640565234888 -0.36209658018080798 0 -0.4045003483020449 -0.43038903260077521 0 -0.39960010968379012 -0.41453972798159527 0 -0.38935038449310461 -0.42701522743193171 0 -0.4045003483020449 -0.43038903260077521 0 -0.38935038449310461 -0.42701522743193171 0 -0.3898073931241034 -0.438182227287294 0 -0.39404545923785889 -0.40396781220479328 0 -0.39960010968379012 -0.41453972798159527 0 -0.38531058182726591 -0.41620706911152727 0 -0.39960010968379012 -0.41453972798159527 0 -0.38531058182726591 -0.41620706911152727 0 -0.38935038449310461 -0.42701522743193171 0 -0.39404545923785889 -0.40396781220479328 0 -0.38531058182726591 -0.41620706911152727 0 -0.37087598893123191 -0.40852558738351169 0 -0.38531058182726591 -0.41620706911152727 0 -0.37417829428298349 -0.43146169088868669 0 -0.37087598893123191 -0.40852558738351169 0 -0.38935038449310461 -0.42701522743193171 0 -0.3898073931241034 -0.438182227287294 0 -0.37417829428298349 -0.43146169088868669 0 -0.38531058182726591 -0.41620706911152727 0 -0.38935038449310461 -0.42701522743193171 0 -0.37417829428298349 -0.43146169088868669 0 -0.37853529578365891 -0.44955291471418451 0 -0.3898073931241034 -0.438182227287294 0 -0.37417829428298349 -0.43146169088868669 0 -0.37853529578365891 -0.44955291471418451 0 -0.3898073931241034 -0.438182227287294 0 -0.40264538873274508 -0.44648603938102333 0 -0.37853529578365891 -0.44955291471418451 0 -0.40264538873274508 -0.44648603938102333 0 -0.4045003483020449 -0.43038903260077521 0 -0.3898073931241034 -0.438182227287294 0 -0.40264538873274508 -0.44648603938102333 0 -0.37853529578365891 -0.44955291471418451 0 -0.40264538873274508 -0.44648603938102333 0 -0.39262463481464149 -0.45697925454882671 0 -0.40264538873274508 -0.44648603938102333 0 -0.39262463481464149 -0.45697925454882671 0 -0.40758808892094839 -0.453233842393446 0 -0.39432789083016079 -0.46882256159563152 0 -0.41549484657099611 -0.47162957606606992 0 -0.40758808892094839 -0.453233842393446 0 -0.39432789083016079 -0.46882256159563152 0 -0.40758808892094839 -0.453233842393446 0 -0.39262463481464149 -0.45697925454882671 0 -0.39432789083016079 -0.46882256159563152 0 -0.40758808892094839 -0.453233842393446 0 -0.39262463481464149 -0.45697925454882671 0 -0.37597164166466568 -0.46580128040374569 0 -0.39432789083016079 -0.46882256159563152 0 -0.37853529578365891 -0.44955291471418451 0 -0.39262463481464149 -0.45697925454882671 0 -0.37597164166466568 -0.46580128040374569 0 -0.37597164166466568 -0.46580128040374569 0 -0.38106769273937319 -0.48441128079781698 0 -0.39432789083016079 -0.46882256159563152 0 -0.38106769273937319 -0.48441128079781698 0 -0.39926137958187408 -0.5 0 -0.36780749464858481 -0.50000000000000178 0 -0.38106769273937319 -0.48441128079781698 0 -0.39432789083016079 -0.46882256159563152 0 -0.38106769273937319 -0.48441128079781698 0 -0.39926137958187408 -0.5 0 -0.40386175345934139 -0.4819974317695902 0 -0.40386175345934139 -0.4819974317695902 0 -0.39432789083016079 -0.46882256159563152 0 -0.41549484657099611 -0.47162957606606992 0 -0.38106769273937319 -0.48441128079781698 0 -0.40386175345934139 -0.4819974317695902 0 -0.39432789083016079 -0.46882256159563152 0 -0.44197976684141821 -0.5 0 -0.39926137958187408 -0.5 0 -0.42915695757430278 -0.48512374038843259 0 -0.40386175345934139 -0.4819974317695902 0 -0.41549484657099611 -0.47162957606606992 0 -0.42915695757430278 -0.48512374038843259 0 -0.39926137958187408 -0.5 0 -0.40386175345934139 -0.4819974317695902 0 -0.42915695757430278 -0.48512374038843259 0 -0.41549484657099611 -0.47162957606606992 0 -0.42915695757430278 -0.48512374038843259 0 -0.43616161820935878 -0.46826765614229893 0 -0.4455677547368852 -0.49311614823673661 0 -0.42915695757430278 -0.48512374038843259 0 -0.43616161820935878 -0.46826765614229893 0 -0.43616161820935878 -0.46826765614229893 0 -0.42675548168183108 -0.44341916404786191 0 -0.41549484657099611 -0.47162957606606992 0 -0.43616161820935878 -0.46826765614229893 0 -0.42675548168183108 -0.44341916404786191 0 -0.40264538873274508 -0.44648603938102333 0 -0.42675548168183108 -0.44341916404786191 0 -0.4045003483020449 -0.43038903260077521 0 -0.40264538873274508 -0.44648603938102333 0 -0.42675548168183108 -0.44341916404786191 0 -0.40264538873274508 -0.44648603938102333 0 -0.42675548168183108 -0.44341916404786191 0 -0.40758808892094839 -0.453233842393446 0 -0.41549484657099611 -0.47162957606606992 0 -0.42675548168183108 -0.44341916404786191 0 -0.40758808892094839 -0.453233842393446 0 -0.45250681151212718 -0.27610512798846459 0 -0.45903045715523538 -0.25856322888969352 0 -0.44650990765588522 -0.2479426543123702 0 -0.45250681151212718 -0.27610512798846459 0 -0.44650990765588522 -0.2479426543123702 0 -0.44390196515351121 -0.25814267971271537 0 -0.45250681151212718 -0.27610512798846459 0 -0.44650990765588522 -0.2479426543123702 0 -0.44390196515351121 -0.25814267971271537 0 -0.43362099483120448 -0.24901318902840261 0 -0.44650990765588522 -0.2479426543123702 0 -0.44390196515351121 -0.25814267971271537 0 -0.43270554621206481 -0.26345568667073799 0 -0.44390196515351121 -0.25814267971271537 0 -0.43957283857656038 -0.27174982646283369 0 -0.43270554621206481 -0.26345568667073799 0 -0.44390196515351121 -0.25814267971271537 0 -0.43957283857656038 -0.27174982646283369 0 -0.45250681151212718 -0.27610512798846459 0 -0.43957283857656038 -0.27174982646283369 0 -0.45081965501955151 -0.2853334432426432 0 -0.43957283857656038 -0.27174982646283369 0 -0.45081965501955151 -0.2853334432426432 0 -0.43969030715414209 -0.28452179123386262 0 -0.43957283857656038 -0.27174982646283369 0 -0.45250681151212718 -0.27610512798846459 0 -0.43957283857656038 -0.27174982646283369 0 -0.45250681151212718 -0.27610512798846459 0 -0.45081965501955151 -0.2853334432426432 0 -0.45250681151212718 -0.27610512798846459 0 -0.45358679393402962 -0.28117690790298272 0 -0.45081965501955151 -0.2853334432426432 0 -0.45250681151212718 -0.27610512798846459 0 -0.45358679393402962 -0.28117690790298272 0 -0.45250681151212718 -0.27610512798846459 0 -0.46452425516544837 -0.26829798952328981 0 -0.45903045715523538 -0.25856322888969352 0 -0.45250681151212718 -0.27610512798846459 0 -0.45358679393402962 -0.28117690790298272 0 -0.46582193506065928 -0.28058877568077439 0 -0.45250681151212718 -0.27610512798846459 0 -0.46582193506065928 -0.28058877568077439 0 -0.45250681151212718 -0.27610512798846459 0 -0.46582193506065928 -0.28058877568077439 0 -0.46452425516544837 -0.26829798952328981 0 -0.46452425516544837 -0.26829798952328981 0 -0.45903045715523538 -0.25856322888969352 0 -0.46954721486975082 -0.25787388564230262 0 -0.45903045715523538 -0.25856322888969352 0 -0.46954721486975082 -0.25787388564230262 0 -0.46206409657296588 -0.24259648698203931 0 -0.48247625842929442 -0.25079867930096522 0 -0.46954721486975082 -0.25787388564230262 0 -0.4829109675303308 -0.27208556234917769 0 -0.48247625842929442 -0.25079867930096522 0 -0.46954721486975082 -0.25787388564230262 0 -0.46206409657296588 -0.24259648698203931 0 -0.48247625842929442 -0.25079867930096522 0 -0.50000000000000178 -0.2635823490175796 0 -0.5 -0.2366731308737571 0 -0.48247625842929442 -0.25079867930096522 0 -0.50000000000000178 -0.2635823490175796 0 -0.4829109675303308 -0.27208556234917769 0 -0.50000000000000178 -0.2635823490175796 0 -0.4829109675303308 -0.27208556234917769 0 -0.50000000000000178 -0.2635823490175796 0 -0.4829109675303308 -0.27208556234917769 0 -0.49999999999999828 -0.29209767392225322 0 -0.46582193506065928 -0.28058877568077439 0 -0.4829109675303308 -0.27208556234917769 0 -0.46582193506065928 -0.28058877568077439 0 -0.4829109675303308 -0.27208556234917769 0 -0.48291096753032881 -0.28634322480151359 0 -0.46452425516544837 -0.26829798952328981 0 -0.46954721486975082 -0.25787388564230262 0 -0.4829109675303308 -0.27208556234917769 0 -0.46582193506065928 -0.28058877568077439 0 -0.46452425516544837 -0.26829798952328981 0 -0.4829109675303308 -0.27208556234917769 0 -0.46582193506065928 -0.28058877568077439 0 -0.48291096753032881 -0.28634322480151359 0 -0.46582193506065928 -0.28058877568077439 0 -0.48291096753032881 -0.28634322480151359 0 -0.46490439345674739 -0.29610589015314631 0 -0.48291096753032881 -0.28634322480151359 0 -0.4865049172157746 -0.30392218548478078 0 -0.46490439345674739 -0.29610589015314631 0 -0.4829109675303308 -0.27208556234917769 0 -0.48291096753032881 -0.28634322480151359 0 -0.49999999999999828 -0.29209767392225322 0 -0.48291096753032881 -0.28634322480151359 0 -0.49999999999999828 -0.29209767392225322 0 -0.48291096753032881 -0.28634322480151359 0 -0.49999999999999828 -0.29209767392225322 0 -0.4865049172157746 -0.30392218548478078 0 -0.49999999999999828 -0.29209767392225322 0 -0.4865049172157746 -0.30392218548478078 0 -0.5 -0.3182086499375808 0 -0.4865049172157746 -0.30392218548478078 0 -0.46993808953055488 -0.31081250866251547 0 -0.4814808773892344 -0.32012449356539968 0 -0.4865049172157746 -0.30392218548478078 0 -0.46993808953055488 -0.31081250866251547 0 -0.46490439345674739 -0.29610589015314631 0 -0.45517650136135618 -0.30822986802858032 0 -0.46490439345674739 -0.29610589015314631 0 -0.44614794401716168 -0.29995197525065309 0 -0.46993808953055488 -0.31081250866251547 0 -0.45517650136135618 -0.30822986802858032 0 -0.46490439345674739 -0.29610589015314631 0 -0.46490439345674739 -0.29610589015314631 0 -0.4501603705621145 -0.28838170510928729 0 -0.44614794401716168 -0.29995197525065309 0 -0.46582193506065928 -0.28058877568077439 0 -0.4501603705621145 -0.28838170510928729 0 -0.45081965501955151 -0.2853334432426432 0 -0.46582193506065928 -0.28058877568077439 0 -0.4501603705621145 -0.28838170510928729 0 -0.46582193506065928 -0.28058877568077439 0 -0.46490439345674739 -0.29610589015314631 0 -0.4501603705621145 -0.28838170510928729 0 -0.45358679393402962 -0.28117690790298272 0 -0.46582193506065928 -0.28058877568077439 0 -0.45081965501955151 -0.2853334432426432 0 -0.4501603705621145 -0.28838170510928729 0 -0.43969030715414209 -0.28452179123386262 0 -0.4344988060635695 -0.29617463453779957 0 -0.4501603705621145 -0.28838170510928729 0 -0.4344988060635695 -0.29617463453779957 0 -0.4501603705621145 -0.28838170510928729 0 -0.44614794401716168 -0.29995197525065309 0 -0.4344988060635695 -0.29617463453779957 0 -0.4501603705621145 -0.28838170510928729 0 -0.45081965501955151 -0.2853334432426432 0 -0.43969030715414209 -0.28452179123386262 0 -0.44040744117685399 -0.31076943082316411 0 -0.44614794401716168 -0.29995197525065309 0 -0.4344988060635695 -0.29617463453779957 0 -0.45517650136135618 -0.30822986802858032 0 -0.44040744117685399 -0.31076943082316411 0 -0.45035495763952832 -0.31659468454830247 0 -0.45517650136135618 -0.30822986802858032 0 -0.44040744117685399 -0.31076943082316411 0 -0.44614794401716168 -0.29995197525065309 0 -0.44631607629013581 -0.32536422710852958 0 -0.44517492680791021 -0.33523844808697312 0 -0.42692057701139863 -0.3221334683267002 0 -0.44040744117685399 -0.31076943082316411 0 -0.44631607629013581 -0.32536422710852958 0 -0.42692057701139863 -0.3221334683267002 0 -0.44631607629013581 -0.32536422710852958 0 -0.45035495763952832 -0.31659468454830247 0 -0.45755650816923271 -0.32302547837474438 0 -0.44631607629013581 -0.32536422710852958 0 -0.44517492680791021 -0.33523844808697312 0 -0.45755650816923271 -0.32302547837474438 0 -0.44040744117685399 -0.31076943082316411 0 -0.44631607629013581 -0.32536422710852958 0 -0.45035495763952832 -0.31659468454830247 0 -0.44040744117685399 -0.31076943082316411 0 -0.44631607629013581 -0.32536422710852958 0 -0.44517492680791021 -0.33523844808697312 0 -0.43595848927687147 -0.34432937671203878 0 -0.44517492680791021 -0.33523844808697312 0 -0.44780840697114382 -0.34588475084017589 0 -0.43595848927687147 -0.34432937671203878 0 -0.44517492680791021 -0.33523844808697312 0 -0.45797347398127308 -0.34442665273613682 0 -0.44517492680791021 -0.33523844808697312 0 -0.45797347398127308 -0.34442665273613682 0 -0.44780840697114382 -0.34588475084017589 0 -0.44517492680791021 -0.33523844808697312 0 -0.45755650816923271 -0.32302547837474438 0 -0.44517492680791021 -0.33523844808697312 0 -0.45632932808883192 -0.33407080861627669 0 -0.45755650816923271 -0.32302547837474438 0 -0.4646124033969109 -0.33359265526725401 0 -0.47370527688241387 -0.34111429249054698 0 -0.45797347398127308 -0.34442665273613682 0 -0.45632932808883192 -0.33407080861627669 0 -0.4646124033969109 -0.33359265526725401 0 -0.45755650816923271 -0.32302547837474438 0 -0.45632932808883192 -0.33407080861627669 0 -0.4646124033969109 -0.33359265526725401 0 -0.45797347398127308 -0.34442665273613682 0 -0.44517492680791021 -0.33523844808697312 0 -0.45632932808883192 -0.33407080861627669 0 -0.45797347398127308 -0.34442665273613682 0 -0.4646124033969109 -0.33359265526725401 0 -0.45755650816923271 -0.32302547837474438 0 -0.47008984040926899 -0.32355384113368052 0 -0.45517650136135618 -0.30822986802858032 0 -0.45035495763952832 -0.31659468454830247 0 -0.45755650816923271 -0.32302547837474438 0 -0.46993808953055488 -0.31081250866251547 0 -0.45517650136135618 -0.30822986802858032 0 -0.45755650816923271 -0.32302547837474438 0 -0.46993808953055488 -0.31081250866251547 0 -0.45755650816923271 -0.32302547837474438 0 -0.46993808953055488 -0.31081250866251547 0 -0.45755650816923271 -0.32302547837474438 0 -0.47008984040926899 -0.32355384113368052 0 -0.46993808953055488 -0.31081250866251547 0 -0.47008984040926899 -0.32355384113368052 0 -0.4814808773892344 -0.32012449356539968 0 -0.47008984040926899 -0.32355384113368052 0 -0.4814808773892344 -0.32012449356539968 0 -0.47686132356041228 -0.33021406979848877 0 -0.4814808773892344 -0.32012449356539968 0 -0.5 -0.3182086499375808 0 -0.48718252172492621 -0.33416414180533838 0 -0.4865049172157746 -0.30392218548478078 0 -0.4814808773892344 -0.32012449356539968 0 -0.5 -0.3182086499375808 0 -0.5 -0.3182086499375808 0 -0.48718252172492621 -0.33416414180533838 0 -0.49999999999999972 -0.34431962595290849 0 -0.48718252172492621 -0.33416414180533838 0 -0.48538601057731717 -0.34896724166910598 0 -0.49999999999999972 -0.34431962595290849 0 -0.48718252172492621 -0.33416414180533838 0 -0.47370527688241387 -0.34111429249054698 0 -0.48538601057731717 -0.34896724166910598 0 -0.4814808773892344 -0.32012449356539968 0 -0.48718252172492621 -0.33416414180533838 0 -0.47686132356041228 -0.33021406979848877 0 -0.48718252172492621 -0.33416414180533838 0 -0.47686132356041228 -0.33021406979848877 0 -0.47370527688241387 -0.34111429249054698 0 -0.4646124033969109 -0.33359265526725401 0 -0.47008984040926899 -0.32355384113368052 0 -0.47686132356041228 -0.33021406979848877 0 -0.4646124033969109 -0.33359265526725401 0 -0.47686132356041228 -0.33021406979848877 0 -0.47370527688241387 -0.34111429249054698 0 -0.47077202115463451 -0.35361485738530257 0 -0.48538601057731717 -0.34896724166910598 0 -0.48960933976290139 -0.35653107006816198 0 -0.47077202115463451 -0.35361485738530257 0 -0.48538601057731717 -0.34896724166910598 0 -0.47370527688241387 -0.34111429249054698 0 -0.47077202115463451 -0.35361485738530257 0 -0.48538601057731717 -0.34896724166910598 0 -0.48538601057731717 -0.34896724166910598 0 -0.48960933976290139 -0.35653107006816198 0 -0.49999999999999972 -0.34431962595290849 0 -0.48960933976290139 -0.35653107006816198 0 -0.49999999999999839 -0.35859962108307669 0 -0.49999999999999972 -0.34431962595290849 0 -0.48538601057731717 -0.34896724166910598 0 -0.49999999999999972 -0.34431962595290849 0 -0.49999999999999839 -0.35859962108307669 0 -0.49999999999999561 -0.37459791487416488 0 -0.49149108773162042 -0.36848928190164348 0 -0.49999999999999561 -0.37459791487416488 0 -0.49149108773162042 -0.36848928190164348 0 -0.48995874638196291 -0.38146906252364138 0 -0.49999999999999561 -0.37459791487416488 0 -0.49149108773162042 -0.36848928190164348 0 -0.48960933976290139 -0.35653107006816198 0 -0.49999999999999839 -0.35859962108307669 0 -0.49149108773162042 -0.36848928190164348 0 -0.49999999999999839 -0.35859962108307669 0 -0.49149108773162042 -0.36848928190164348 0 -0.47077202115463451 -0.35361485738530257 0 -0.4763810039658154 -0.36947529490344572 0 -0.46512921493184201 -0.37178052205079692 0 -0.47077202115463451 -0.35361485738530257 0 -0.49149108773162042 -0.36848928190164348 0 -0.4763810039658154 -0.36947529490344572 0 -0.47813169204516442 -0.38401651827603911 0 -0.49149108773162042 -0.36848928190164348 0 -0.4763810039658154 -0.36947529490344572 0 -0.47077202115463451 -0.35361485738530257 0 -0.48960933976290139 -0.35653107006816198 0 -0.49149108773162042 -0.36848928190164348 0 -0.47077202115463451 -0.35361485738530257 0 -0.49149108773162042 -0.36848928190164348 0 -0.44898296761903578 -0.37831988735821998 0 -0.46512921493184201 -0.37178052205079692 0 -0.4519140296119798 -0.36890886443998783 0 -0.47077202115463451 -0.35361485738530257 0 -0.46512921493184201 -0.37178052205079692 0 -0.45212673781851909 -0.35954452582555518 0 -0.46512921493184201 -0.37178052205079692 0 -0.4519140296119798 -0.36890886443998783 0 -0.45212673781851909 -0.35954452582555518 0 -0.46512921493184201 -0.37178052205079692 0 -0.45212673781851909 -0.35954452582555518 0 -0.47370527688241387 -0.34111429249054698 0 -0.47077202115463451 -0.35361485738530257 0 -0.45797347398127308 -0.34442665273613682 0 -0.47077202115463451 -0.35361485738530257 0 -0.45212673781851909 -0.35954452582555518 0 -0.47077202115463451 -0.35361485738530257 0 -0.45797347398127308 -0.34442665273613682 0 -0.45212673781851909 -0.35954452582555518 0 -0.47077202115463451 -0.35361485738530257 0 -0.45797347398127308 -0.34442665273613682 0 -0.44780840697114382 -0.34588475084017589 0 -0.45212673781851909 -0.35954452582555518 0 -0.43595848927687147 -0.34432937671203878 0 -0.44633128370233222 -0.36138762580694139 0 -0.43370998380748371 -0.3573795231220423 0 -0.43595848927687147 -0.34432937671203878 0 -0.45212673781851909 -0.35954452582555518 0 -0.43595848927687147 -0.34432937671203878 0 -0.45212673781851909 -0.35954452582555518 0 -0.44633128370233222 -0.36138762580694139 0 -0.43595848927687147 -0.34432937671203878 0 -0.45797347398127308 -0.34442665273613682 0 -0.44780840697114382 -0.34588475084017589 0 -0.45212673781851909 -0.35954452582555518 0 -0.43962315070201941 -0.36478156671593809 0 -0.44633128370233222 -0.36138762580694139 0 -0.43370998380748371 -0.3573795231220423 0 -0.43962315070201941 -0.36478156671593809 0 -0.44408129608608871 -0.36869618063059417 0 -0.44633128370233222 -0.36138762580694139 0 -0.44898296761903578 -0.37831988735821998 0 -0.44408129608608871 -0.36869618063059417 0 -0.43437003921217299 -0.37166293730417471 0 -0.43962315070201941 -0.36478156671593809 0 -0.44408129608608871 -0.36869618063059417 0 -0.43437003921217299 -0.37166293730417471 0 -0.44898296761903578 -0.37831988735821998 0 -0.44408129608608871 -0.36869618063059417 0 -0.4519140296119798 -0.36890886443998783 0 -0.4519140296119798 -0.36890886443998783 0 -0.45212673781851909 -0.35954452582555518 0 -0.44633128370233222 -0.36138762580694139 0 -0.44408129608608871 -0.36869618063059417 0 -0.4519140296119798 -0.36890886443998783 0 -0.44633128370233222 -0.36138762580694139 0 -0.45212673781851909 -0.35954452582555518 0 -0.44633128370233222 -0.36138762580694139 0 -0.4211173712451669 -0.38120818042457999 0 -0.43437003921217299 -0.37166293730417471 0 -0.42063023556530998 -0.35944889116319401 0 -0.43437003921217299 -0.37166293730417471 0 -0.43370998380748371 -0.3573795231220423 0 -0.42063023556530998 -0.35944889116319401 0 -0.43962315070201941 -0.36478156671593809 0 -0.43437003921217299 -0.37166293730417471 0 -0.43370998380748371 -0.3573795231220423 0 -0.43595848927687147 -0.34432937671203878 0 -0.42063023556530998 -0.35944889116319401 0 -0.41682888063467921 -0.34264652871163997 0 -0.43370998380748371 -0.3573795231220423 0 -0.43595848927687147 -0.34432937671203878 0 -0.42063023556530998 -0.35944889116319401 0 -0.43595848927687147 -0.34432937671203878 0 -0.42063023556530998 -0.35944889116319401 0 -0.42063023556530998 -0.35944889116319401 0 -0.40372181486876241 -0.35702243086260049 0 -0.41682888063467921 -0.34264652871163997 0 -0.42063023556530998 -0.35944889116319401 0 -0.40530198185374822 -0.37456840561434901 0 -0.40372181486876241 -0.35702243086260049 0 -0.4211173712451669 -0.38120818042457999 0 -0.42063023556530998 -0.35944889116319401 0 -0.40530198185374822 -0.37456840561434901 0 -0.42063023556530998 -0.35944889116319401 0 -0.40530198185374822 -0.37456840561434901 0 -0.40530198185374822 -0.37456840561434901 0 -0.38210640565234888 -0.36209658018080798 0 -0.40372181486876241 -0.35702243086260049 0 -0.38997372814218478 -0.38968792006550251 0 -0.38210640565234888 -0.36209658018080798 0 -0.36569124626444532 -0.37180181361828801 0 -0.38210640565234888 -0.36209658018080798 0 -0.37423908316251397 -0.33450524029611323 0 -0.38210640565234888 -0.36209658018080798 0 -0.39729839989232479 -0.3412297454625583 0 -0.37423908316251397 -0.33450524029611323 0 -0.38210640565234888 -0.36209658018080798 0 -0.40372181486876241 -0.35702243086260049 0 -0.39729839989232479 -0.3412297454625583 0 -0.40372181486876241 -0.35702243086260049 0 -0.39729839989232479 -0.3412297454625583 0 -0.41682888063467921 -0.34264652871163997 0 -0.39729839989232479 -0.3412297454625583 0 -0.4016830432278492 -0.32653661694136737 0 -0.40776997578543522 -0.33381823627229318 0 -0.39729839989232479 -0.3412297454625583 0 -0.39022017935552039 -0.3304129704461366 0 -0.4016830432278492 -0.32653661694136737 0 -0.39729839989232479 -0.3412297454625583 0 -0.39022017935552039 -0.3304129704461366 0 -0.37423908316251397 -0.33450524029611323 0 -0.39061220123029272 -0.31801186633890688 0 -0.38215388807684469 -0.30667483486445429 0 -0.37423908316251397 -0.33450524029611323 0 -0.39022017935552039 -0.3304129704461366 0 -0.39061220123029272 -0.31801186633890688 0 -0.37423908316251397 -0.33450524029611323 0 -0.39061220123029272 -0.31801186633890688 0 -0.4016830432278492 -0.32653661694136737 0 -0.40866622721488582 -0.30902848856642873 0 -0.39061220123029272 -0.31801186633890688 0 -0.40866622721488582 -0.30902848856642873 0 -0.39022017935552039 -0.3304129704461366 0 -0.39061220123029272 -0.31801186633890688 0 -0.4016830432278492 -0.32653661694136737 0 -0.41526957938688752 -0.32486005397360701 0 -0.42692057701139863 -0.3221334683267002 0 -0.40866622721488582 -0.30902848856642873 0 -0.4016830432278492 -0.32653661694136737 0 -0.41526957938688752 -0.32486005397360701 0 -0.40866622721488582 -0.30902848856642873 0 -0.42692057701139863 -0.3221334683267002 0 -0.40866622721488582 -0.30902848856642873 0 -0.41526957938688752 -0.32486005397360701 0 -0.41682888063467921 -0.34264652871163997 0 -0.40776997578543522 -0.33381823627229318 0 -0.39729839989232479 -0.3412297454625583 0 -0.41682888063467921 -0.34264652871163997 0 -0.40776997578543522 -0.33381823627229318 0 -0.4016830432278492 -0.32653661694136737 0 -0.41526957938688752 -0.32486005397360701 0 -0.40776997578543522 -0.33381823627229318 0 -0.43595848927687147 -0.34432937671203878 0 -0.41526957938688752 -0.32486005397360701 0 -0.42692057701139863 -0.3221334683267002 0 -0.44517492680791021 -0.33523844808697312 0 -0.42692057701139863 -0.3221334683267002 0 -0.43595848927687147 -0.34432937671203878 0 -0.41526957938688752 -0.32486005397360701 0 -0.43595848927687147 -0.34432937671203878 0 -0.41526957938688752 -0.32486005397360701 0 -0.41682888063467921 -0.34264652871163997 0 -0.44517492680791021 -0.33523844808697312 0 -0.43595848927687147 -0.34432937671203878 0 -0.42692057701139863 -0.3221334683267002 0 -0.44040744117685399 -0.31076943082316411 0 -0.42692057701139863 -0.3221334683267002 0 -0.4344988060635695 -0.29617463453779957 0 -0.42692057701139863 -0.3221334683267002 0 -0.4344988060635695 -0.29617463453779957 0 -0.40866622721488582 -0.30902848856642873 0 -0.44040744117685399 -0.31076943082316411 0 -0.4344988060635695 -0.29617463453779957 0 -0.4344988060635695 -0.29617463453779957 0 -0.42879857090914347 -0.28209460264167407 0 -0.41381415957883338 -0.2909205306124576 0 -0.4344988060635695 -0.29617463453779957 0 -0.42879857090914347 -0.28209460264167407 0 -0.43969030715414209 -0.28452179123386262 0 -0.4344988060635695 -0.29617463453779957 0 -0.42879857090914347 -0.28209460264167407 0 -0.42879857090914347 -0.28209460264167407 0 -0.41381415957883338 -0.2909205306124576 0 -0.41593904552211081 -0.28051617165289378 0 -0.41381415957883338 -0.2909205306124576 0 -0.40155637640146191 -0.27823681953168611 0 -0.41593904552211081 -0.28051617165289378 0 -0.4344988060635695 -0.29617463453779957 0 -0.41381415957883338 -0.2909205306124576 0 -0.40866622721488582 -0.30902848856642873 0 -0.4344988060635695 -0.29617463453779957 0 -0.40866622721488582 -0.30902848856642873 0 -0.41381415957883338 -0.2909205306124576 0 -0.40866622721488582 -0.30902848856642873 0 -0.39434032213154607 -0.29874377844212602 0 -0.39061220123029272 -0.31801186633890688 0 -0.40866622721488582 -0.30902848856642873 0 -0.39434032213154607 -0.29874377844212602 0 -0.40866622721488582 -0.30902848856642873 0 -0.39434032213154607 -0.29874377844212602 0 -0.38215388807684469 -0.30667483486445429 0 -0.37747628302526398 -0.28966348231794292 0 -0.37313955156662271 -0.2995243856431733 0 -0.39061220123029272 -0.31801186633890688 0 -0.39434032213154607 -0.29874377844212602 0 -0.38215388807684469 -0.30667483486445429 0 -0.38215388807684469 -0.30667483486445429 0 -0.37747628302526398 -0.28966348231794292 0 -0.39434032213154607 -0.29874377844212602 0 -0.38215388807684469 -0.30667483486445429 0 -0.38001441704820621 -0.28845906831782347 0 -0.38215388807684469 -0.30667483486445429 0 -0.38001441704820621 -0.28845906831782347 0 -0.37747628302526398 -0.28966348231794292 0 -0.38001441704820621 -0.28845906831782347 0 -0.37643938149776451 -0.28589251464414889 0 -0.38473079864955778 -0.27486676845784003 0 -0.38001441704820621 -0.28845906831782347 0 -0.37747628302526398 -0.28966348231794292 0 -0.38001441704820621 -0.28845906831782347 0 -0.37643938149776451 -0.28589251464414889 0 -0.37747628302526398 -0.28966348231794292 0 -0.37643938149776451 -0.28589251464414889 0 -0.37747628302526398 -0.28966348231794292 0 -0.38001441704820621 -0.28845906831782347 0 -0.37643938149776451 -0.28589251464414889 0 -0.39434032213154607 -0.29874377844212602 0 -0.38001441704820621 -0.28845906831782347 0 -0.38001441704820621 -0.28845906831782347 0 -0.40155637640146191 -0.27823681953168611 0 -0.41381415957883338 -0.2909205306124576 0 -0.39434032213154607 -0.29874377844212602 0 -0.40155637640146191 -0.27823681953168611 0 -0.39434032213154607 -0.29874377844212602 0 -0.38001441704820621 -0.28845906831782347 0 -0.40155637640146191 -0.27823681953168611 0 -0.40155637640146191 -0.27823681953168611 0 -0.39494261594802571 -0.25672133694366089 0 -0.42224884345966102 -0.26591625755569193 0 -0.40155637640146191 -0.27823681953168611 0 -0.38473079864955778 -0.27486676845784003 0 -0.39494261594802571 -0.25672133694366089 0 -0.38001441704820621 -0.28845906831782347 0 -0.40155637640146191 -0.27823681953168611 0 -0.38473079864955778 -0.27486676845784003 0 -0.37643938149776451 -0.28589251464414889 0 -0.38473079864955778 -0.27486676845784003 0 -0.37070120235233089 -0.26502410285188049 0 -0.38473079864955778 -0.27486676845784003 0 -0.39494261594802571 -0.25672133694366089 0 -0.37070120235233089 -0.26502410285188049 0 -0.39494261594802571 -0.25672133694366089 0 -0.37070120235233089 -0.26502410285188049 0 -0.36763638843639129 -0.24752641633162839 0 -0.39494261594802571 -0.25672133694366089 0 -0.36763638843639129 -0.24752641633162839 0 -0.39494261594802571 -0.25672133694366089 0 -0.41554106319171502 -0.24934750950123091 0 -0.40547752864021508 -0.2462674664576564 0 -0.42224884345966102 -0.26591625755569193 0 -0.41554106319171502 -0.24934750950123091 0 -0.39494261594802571 -0.25672133694366089 0 -0.42224884345966102 -0.26591625755569193 0 -0.41554106319171502 -0.24934750950123091 0 -0.39494261594802571 -0.25672133694366089 0 -0.42224884345966102 -0.26591625755569193 0 -0.43270554621206481 -0.26345568667073799 0 -0.41554106319171502 -0.24934750950123091 0 -0.41525943347572508 -0.24238471864089689 0 -0.40155637640146191 -0.27823681953168611 0 -0.42309833575471761 -0.26801457074554869 0 -0.40155637640146191 -0.27823681953168611 0 -0.41593904552211081 -0.28051617165289378 0 -0.42309833575471761 -0.26801457074554869 0 -0.40155637640146191 -0.27823681953168611 0 -0.42224884345966102 -0.26591625755569193 0 -0.42309833575471761 -0.26801457074554869 0 -0.42224884345966102 -0.26591625755569193 0 -0.42533221748793071 -0.26695453277679843 0 -0.42309833575471761 -0.26801457074554869 0 -0.42533221748793071 -0.26695453277679843 0 -0.42309833575471761 -0.26801457074554869 0 -0.43101533616910381 -0.27362021951365578 0 -0.42224884345966102 -0.26591625755569193 0 -0.42309833575471761 -0.26801457074554869 0 -0.42224884345966102 -0.26591625755569193 0 -0.42533221748793071 -0.26695453277679843 0 -0.42533221748793071 -0.26695453277679843 0 -0.42309833575471761 -0.26801457074554869 0 -0.42879857090914347 -0.28209460264167407 0 -0.41593904552211081 -0.28051617165289378 0 -0.42309833575471761 -0.26801457074554869 0 -0.42879857090914347 -0.28209460264167407 0 -0.42309833575471761 -0.26801457074554869 0 -0.43101533616910381 -0.27362021951365578 0 -0.42879857090914347 -0.28209460264167407 0 -0.42309833575471761 -0.26801457074554869 0 -0.43957283857656038 -0.27174982646283369 0 -0.43969030715414209 -0.28452179123386262 0 -0.43101533616910381 -0.27362021951365578 0 -0.43969030715414209 -0.28452179123386262 0 -0.42879857090914347 -0.28209460264167407 0 -0.43101533616910381 -0.27362021951365578 0 -0.43957283857656038 -0.27174982646283369 0 -0.42533221748793071 -0.26695453277679843 0 -0.43270554621206481 -0.26345568667073799 0 -0.43957283857656038 -0.27174982646283369 0 -0.42533221748793071 -0.26695453277679843 0 -0.43957283857656038 -0.27174982646283369 0 -0.43270554621206481 -0.26345568667073799 0 -0.43957283857656038 -0.27174982646283369 0 -0.42533221748793071 -0.26695453277679843 0 -0.43101533616910381 -0.27362021951365578 0 -0.43270554621206481 -0.26345568667073799 0 -0.43362099483120448 -0.24901318902840261 0 -0.41525943347572508 -0.24238471864089689 0 -0.43270554621206481 -0.26345568667073799 0 -0.41525943347572508 -0.24238471864089689 0 -0.42224884345966102 -0.26591625755569193 0 -0.43270554621206481 -0.26345568667073799 0 -0.41554106319171502 -0.24934750950123091 0 -0.44390196515351121 -0.25814267971271537 0 -0.43270554621206481 -0.26345568667073799 0 -0.43362099483120448 -0.24901318902840261 0 -0.42224884345966102 -0.26591625755569193 0 -0.42533221748793071 -0.26695453277679843 0 -0.43270554621206481 -0.26345568667073799 0 -0.42533221748793071 -0.26695453277679843 0 -0.43270554621206481 -0.26345568667073799 0 -0.32668719958874182 -0.25289879824443262 0 -0.31812285821311909 -0.26703629025402181 0 -0.30485749959899128 -0.25066017201951307 0 -0.31812285821311909 -0.26703629025402181 0 -0.33168168479372429 -0.28084638957102198 0 -0.31032624537311171 -0.28578529676129832 0 -0.31812285821311909 -0.26703629025402181 0 -0.33168168479372429 -0.28084638957102198 0 -0.34021815476681749 -0.25988893475811148 0 -0.33168168479372429 -0.28084638957102198 0 -0.34021815476681749 -0.25988893475811148 0 -0.34485724451046251 -0.27578198141850518 0 -0.32668719958874182 -0.25289879824443262 0 -0.31812285821311909 -0.26703629025402181 0 -0.34021815476681749 -0.25988893475811148 0 -0.32668719958874182 -0.25289879824443262 0 -0.34021815476681749 -0.25988893475811148 0 -0.34429130654076961 -0.24610019828169499 0 -0.34021815476681749 -0.25988893475811148 0 -0.35570049099982137 -0.25761193033048579 0 -0.35832876813229109 -0.27289072470113013 0 -0.34021815476681749 -0.25988893475811148 0 -0.35570049099982137 -0.25761193033048579 0 -0.34429130654076961 -0.24610019828169499 0 -0.37070120235233089 -0.26502410285188049 0 -0.36763638843639129 -0.24752641633162839 0 -0.36496302320689761 -0.24415569105961221 0 -0.37070120235233089 -0.26502410285188049 0 -0.36496302320689761 -0.24415569105961221 0 -0.35570049099982137 -0.25761193033048579 0 -0.37070120235233089 -0.26502410285188049 0 -0.36496302320689761 -0.24415569105961221 0 -0.35570049099982137 -0.25761193033048579 0 -0.37070120235233089 -0.26502410285188049 0 -0.35832876813229109 -0.27289072470113013 0 -0.37643938149776451 -0.28589251464414889 0 -0.37070120235233089 -0.26502410285188049 0 -0.35832876813229109 -0.27289072470113013 0 -0.37643938149776451 -0.28589251464414889 0 -0.37070120235233089 -0.26502410285188049 0 -0.37643938149776451 -0.28589251464414889 0 -0.35832876813229109 -0.27289072470113013 0 -0.34021815476681749 -0.25988893475811148 0 -0.35832876813229109 -0.27289072470113013 0 -0.34021815476681749 -0.25988893475811148 0 -0.35832876813229109 -0.27289072470113013 0 -0.34485724451046251 -0.27578198141850518 0 -0.35832876813229109 -0.27289072470113013 0 -0.34485724451046251 -0.27578198141850518 0 -0.35055969868425219 -0.28832229683493238 0 -0.35055969868425219 -0.28832229683493238 0 -0.36655627449170292 -0.29484532497887711 0 -0.35655659229824499 -0.30123912859925528 0 -0.35832876813229109 -0.27289072470113013 0 -0.35055969868425219 -0.28832229683493238 0 -0.36297103070150261 -0.28548771528977213 0 -0.37643938149776451 -0.28589251464414889 0 -0.35832876813229109 -0.27289072470113013 0 -0.36297103070150261 -0.28548771528977213 0 -0.35055969868425219 -0.28832229683493238 0 -0.36297103070150261 -0.28548771528977213 0 -0.36655627449170292 -0.29484532497887711 0 -0.37747628302526398 -0.28966348231794292 0 -0.36655627449170292 -0.29484532497887711 0 -0.37313955156662271 -0.2995243856431733 0 -0.37643938149776451 -0.28589251464414889 0 -0.37747628302526398 -0.28966348231794292 0 -0.36655627449170292 -0.29484532497887711 0 -0.37747628302526398 -0.28966348231794292 0 -0.36655627449170292 -0.29484532497887711 0 -0.37643938149776451 -0.28589251464414889 0 -0.36297103070150261 -0.28548771528977213 0 -0.36655627449170292 -0.29484532497887711 0 -0.38215388807684469 -0.30667483486445429 0 -0.37313955156662271 -0.2995243856431733 0 -0.36637176067267918 -0.30691390041141858 0 -0.36655627449170292 -0.29484532497887711 0 -0.37313955156662271 -0.2995243856431733 0 -0.36637176067267918 -0.30691390041141858 0 -0.36655627449170292 -0.29484532497887711 0 -0.36637176067267918 -0.30691390041141858 0 -0.35655659229824499 -0.30123912859925528 0 -0.36637176067267918 -0.30691390041141858 0 -0.35655659229824499 -0.30123912859925528 0 -0.35352881687585791 -0.3136323682150613 0 -0.35655659229824499 -0.30123912859925528 0 -0.34564051434479159 -0.30350180449225062 0 -0.35352881687585791 -0.3136323682150613 0 -0.35055969868425219 -0.28832229683493238 0 -0.35655659229824499 -0.30123912859925528 0 -0.34564051434479159 -0.30350180449225062 0 -0.34564051434479159 -0.30350180449225062 0 -0.34300538954410281 -0.31498156282984002 0 -0.35352881687585791 -0.3136323682150613 0 -0.34564051434479159 -0.30350180449225062 0 -0.33461883434803119 -0.3109226800901389 0 -0.34300538954410281 -0.31498156282984002 0 -0.33461883434803119 -0.3109226800901389 0 -0.33393251316124339 -0.29614860868649528 0 -0.32235152860511729 -0.30688472183488907 0 -0.34564051434479159 -0.30350180449225062 0 -0.33461883434803119 -0.3109226800901389 0 -0.33393251316124339 -0.29614860868649528 0 -0.35055969868425219 -0.28832229683493238 0 -0.34564051434479159 -0.30350180449225062 0 -0.33393251316124339 -0.29614860868649528 0 -0.33168168479372429 -0.28084638957102198 0 -0.34485724451046251 -0.27578198141850518 0 -0.35055969868425219 -0.28832229683493238 0 -0.33168168479372429 -0.28084638957102198 0 -0.35055969868425219 -0.28832229683493238 0 -0.33393251316124339 -0.29614860868649528 0 -0.33168168479372429 -0.28084638957102198 0 -0.33393251316124339 -0.29614860868649528 0 -0.32123663475256459 -0.29389421749249622 0 -0.33168168479372429 -0.28084638957102198 0 -0.32123663475256459 -0.29389421749249622 0 -0.31032624537311171 -0.28578529676129832 0 -0.32123663475256459 -0.29389421749249622 0 -0.32235152860511729 -0.30688472183488907 0 -0.3045233041268256 -0.30602890820680212 0 -0.32235152860511729 -0.30688472183488907 0 -0.31541585687025031 -0.31688033367094492 0 -0.3045233041268256 -0.30602890820680212 0 -0.33461883434803119 -0.3109226800901389 0 -0.32235152860511729 -0.30688472183488907 0 -0.3260477180317114 -0.31715367396191763 0 -0.33393251316124339 -0.29614860868649528 0 -0.32123663475256459 -0.29389421749249622 0 -0.32235152860511729 -0.30688472183488907 0 -0.32390586013769002 -0.32802921389439871 0 -0.31541585687025031 -0.31688033367094492 0 -0.30477175739617379 -0.32894015585591729 0 -0.32390586013769002 -0.32802921389439871 0 -0.3260477180317114 -0.31715367396191763 0 -0.31541585687025031 -0.31688033367094492 0 -0.32390586013769002 -0.32802921389439871 0 -0.3260477180317114 -0.31715367396191763 0 -0.33394651019746818 -0.3230514203192163 0 -0.32235152860511729 -0.30688472183488907 0 -0.3260477180317114 -0.31715367396191763 0 -0.31541585687025031 -0.31688033367094492 0 -0.32390586013769002 -0.32802921389439871 0 -0.31516377484695141 -0.33918310338193619 0 -0.30477175739617379 -0.32894015585591729 0 -0.31516377484695141 -0.33918310338193619 0 -0.32573087597113132 -0.33749676035515619 0 -0.32781054154519002 -0.34716650200969112 0 -0.32390586013769002 -0.32802921389439871 0 -0.31516377484695141 -0.33918310338193619 0 -0.32573087597113132 -0.33749676035515619 0 -0.32390586013769002 -0.32802921389439871 0 -0.32573087597113132 -0.33749676035515619 0 -0.33604332735469372 -0.3356082221345989 0 -0.32390586013769002 -0.32802921389439871 0 -0.33604332735469372 -0.3356082221345989 0 -0.33394651019746818 -0.3230514203192163 0 -0.32573087597113132 -0.33749676035515619 0 -0.33604332735469372 -0.3356082221345989 0 -0.32781054154519002 -0.34716650200969112 0 -0.33604332735469372 -0.3356082221345989 0 -0.33687710240822388 -0.34546504328531019 0 -0.32781054154519002 -0.34716650200969112 0 -0.33604332735469372 -0.3356082221345989 0 -0.34645446415536441 -0.34512572492859422 0 -0.33687710240822388 -0.34546504328531019 0 -0.33604332735469372 -0.3356082221345989 0 -0.34410768551637733 -0.32418209848164059 0 -0.34957105538068911 -0.33476369168150172 0 -0.33394651019746818 -0.3230514203192163 0 -0.34300538954410281 -0.31498156282984002 0 -0.34410768551637733 -0.32418209848164059 0 -0.33604332735469372 -0.3356082221345989 0 -0.33394651019746818 -0.3230514203192163 0 -0.34410768551637733 -0.32418209848164059 0 -0.33461883434803119 -0.3109226800901389 0 -0.3260477180317114 -0.31715367396191763 0 -0.33394651019746818 -0.3230514203192163 0 -0.33461883434803119 -0.3109226800901389 0 -0.33394651019746818 -0.3230514203192163 0 -0.34300538954410281 -0.31498156282984002 0 -0.34300538954410281 -0.31498156282984002 0 -0.34410768551637733 -0.32418209848164059 0 -0.35352881687585791 -0.3136323682150613 0 -0.34410768551637733 -0.32418209848164059 0 -0.35352881687585791 -0.3136323682150613 0 -0.35932560858701068 -0.3288993541390034 0 -0.38215388807684469 -0.30667483486445429 0 -0.36637176067267918 -0.30691390041141858 0 -0.37423908316251397 -0.33450524029611323 0 -0.36637176067267918 -0.30691390041141858 0 -0.35352881687585791 -0.3136323682150613 0 -0.35932560858701068 -0.3288993541390034 0 -0.36637176067267918 -0.30691390041141858 0 -0.37423908316251397 -0.33450524029611323 0 -0.36637176067267918 -0.30691390041141858 0 -0.37423908316251397 -0.33450524029611323 0 -0.35932560858701068 -0.3288993541390034 0 -0.37423908316251397 -0.33450524029611323 0 -0.35932560858701068 -0.3288993541390034 0 -0.36150279902957688 -0.3476085281020414 0 -0.34957105538068911 -0.33476369168150172 0 -0.34645446415536441 -0.34512572492859422 0 -0.36150279902957688 -0.3476085281020414 0 -0.35932560858701068 -0.3288993541390034 0 -0.34957105538068911 -0.33476369168150172 0 -0.36150279902957688 -0.3476085281020414 0 -0.34410768551637733 -0.32418209848164059 0 -0.35932560858701068 -0.3288993541390034 0 -0.34957105538068911 -0.33476369168150172 0 -0.33604332735469372 -0.3356082221345989 0 -0.34957105538068911 -0.33476369168150172 0 -0.34645446415536441 -0.34512572492859422 0 -0.34645446415536441 -0.34512572492859422 0 -0.35126081534607562 -0.36132361370178612 0 -0.3372000765776475 -0.35395972406835702 0 -0.34645446415536441 -0.34512572492859422 0 -0.36150279902957688 -0.3476085281020414 0 -0.35126081534607562 -0.36132361370178612 0 -0.38210640565234888 -0.36209658018080798 0 -0.37423908316251397 -0.33450524029611323 0 -0.36150279902957688 -0.3476085281020414 0 -0.38210640565234888 -0.36209658018080798 0 -0.36150279902957688 -0.3476085281020414 0 -0.36569124626444532 -0.37180181361828801 0 -0.36150279902957688 -0.3476085281020414 0 -0.36569124626444532 -0.37180181361828801 0 -0.35126081534607562 -0.36132361370178612 0 -0.36569124626444532 -0.37180181361828801 0 -0.35126081534607562 -0.36132361370178612 0 -0.34518014085019783 -0.38054248572951188 0 -0.35126081534607562 -0.36132361370178612 0 -0.33608732640952599 -0.36693530690411791 0 -0.34518014085019783 -0.38054248572951188 0 -0.33608732640952599 -0.36693530690411791 0 -0.32501851303064161 -0.35379684798053868 0 -0.32370339530108361 -0.37905699951369032 0 -0.35126081534607562 -0.36132361370178612 0 -0.33608732640952599 -0.36693530690411791 0 -0.3372000765776475 -0.35395972406835702 0 -0.34645446415536441 -0.34512572492859422 0 -0.3372000765776475 -0.35395972406835702 0 -0.33687710240822388 -0.34546504328531019 0 -0.3372000765776475 -0.35395972406835702 0 -0.33687710240822388 -0.34546504328531019 0 -0.32781054154519002 -0.34716650200969112 0 -0.3372000765776475 -0.35395972406835702 0 -0.32501851303064161 -0.35379684798053868 0 -0.32781054154519002 -0.34716650200969112 0 -0.33608732640952599 -0.36693530690411791 0 -0.3372000765776475 -0.35395972406835702 0 -0.32501851303064161 -0.35379684798053868 0 -0.32501851303064161 -0.35379684798053868 0 -0.32781054154519002 -0.34716650200969112 0 -0.30704186003693562 -0.35741554977855911 0 -0.32781054154519002 -0.34716650200969112 0 -0.30704186003693562 -0.35741554977855911 0 -0.31516377484695141 -0.33918310338193619 0 -0.32781054154519002 -0.34716650200969112 0 -0.30704186003693562 -0.35741554977855911 0 -0.32501851303064161 -0.35379684798053868 0 -0.32370339530108361 -0.37905699951369032 0 -0.32501851303064161 -0.35379684798053868 0 -0.30704186003693562 -0.35741554977855911 0 -0.32370339530108361 -0.37905699951369032 0 -0.30704186003693562 -0.35741554977855911 0 -0.32370339530108361 -0.37905699951369032 0 -0.30206308429670131 -0.37554412924890312 0 -0.30704186003693562 -0.35741554977855911 0 -0.28627317852868128 -0.36766459754742709 0 -0.30206308429670131 -0.37554412924890312 0 -0.31516377484695141 -0.33918310338193619 0 -0.30704186003693562 -0.35741554977855911 0 -0.30154239024997359 -0.34416922324245702 0 -0.30704186003693562 -0.35741554977855911 0 -0.30154239024997359 -0.34416922324245702 0 -0.29205994909443439 -0.35299462283682531 0 -0.30704186003693562 -0.35741554977855911 0 -0.29205994909443439 -0.35299462283682531 0 -0.28627317852868128 -0.36766459754742709 0 -0.30154239024997359 -0.34416922324245702 0 -0.29205994909443439 -0.35299462283682531 0 -0.28634081901621877 -0.34066336222146948 0 -0.29205994909443439 -0.35299462283682531 0 -0.27910149764036241 -0.35506038139421359 0 -0.28634081901621877 -0.34066336222146948 0 -0.29205994909443439 -0.35299462283682531 0 -0.28627317852868128 -0.36766459754742709 0 -0.27910149764036241 -0.35506038139421359 0 -0.30704186003693562 -0.35741554977855911 0 -0.28627317852868128 -0.36766459754742709 0 -0.28627317852868128 -0.36766459754742709 0 -0.26550449702042478 -0.37791364531629068 0 -0.28627317852868128 -0.36766459754742709 0 -0.2722835108055448 -0.36497889714934278 0 -0.26550449702042478 -0.37791364531629068 0 -0.28627317852868128 -0.36766459754742709 0 -0.2722835108055448 -0.36497889714934278 0 -0.27910149764036241 -0.35506038139421359 0 -0.2722835108055448 -0.36497889714934278 0 -0.25945300193790272 -0.36607833130048428 0 -0.26862729865648249 -0.35787533843795799 0 -0.2722835108055448 -0.36497889714934278 0 -0.25945300193790272 -0.36607833130048428 0 -0.26550449702042478 -0.37791364531629068 0 -0.25852834620404241 -0.37471377798124272 0 -0.25945300193790272 -0.36607833130048428 0 -0.26550449702042478 -0.37791364531629068 0 -0.25945300193790272 -0.36607833130048428 0 -0.26550449702042478 -0.37791364531629068 0 -0.25945300193790272 -0.36607833130048428 0 -0.25178209278130109 -0.37293710369370131 0 -0.25296301334509169 -0.35338542617414909 0 -0.25945300193790272 -0.36607833130048428 0 -0.26862729865648249 -0.35787533843795799 0 -0.25945300193790272 -0.36607833130048428 0 -0.25296301334509169 -0.35338542617414909 0 -0.25852834620404241 -0.37471377798124272 0 -0.25945300193790272 -0.36607833130048428 0 -0.25178209278130109 -0.37293710369370131 0 -0.25945300193790272 -0.36607833130048428 0 -0.25178209278130109 -0.37293710369370131 0 -0.25945300193790272 -0.36607833130048428 0 -0.25296301334509169 -0.35338542617414909 0 -0.26862729865648249 -0.35787533843795799 0 -0.25296301334509169 -0.35338542617414909 0 -0.26669043888165822 -0.34453614803468119 0 -0.24850765480441239 -0.33898137260458949 0 -0.25296301334509169 -0.35338542617414909 0 -0.26669043888165822 -0.34453614803468119 0 -0.26862729865648249 -0.35787533843795799 0 -0.26669043888165822 -0.34453614803468119 0 -0.27910149764036241 -0.35506038139421359 0 -0.28634081901621877 -0.34066336222146948 0 -0.26669043888165822 -0.34453614803468119 0 -0.26862729865648249 -0.35787533843795799 0 -0.27910149764036241 -0.35506038139421359 0 -0.2722835108055448 -0.36497889714934278 0 -0.26862729865648249 -0.35787533843795799 0 -0.27910149764036241 -0.35506038139421359 0 -0.26669043888165822 -0.34453614803468119 0 -0.26710768102597182 -0.32636796782193139 0 -0.28634081901621877 -0.34066336222146948 0 -0.26710768102597182 -0.32636796782193139 0 -0.28848690308976699 -0.32062648599878241 0 -0.28634081901621877 -0.34066336222146948 0 -0.26669043888165822 -0.34453614803468119 0 -0.26710768102597182 -0.32636796782193139 0 -0.24850765480441239 -0.33898137260458949 0 -0.26710768102597182 -0.32636796782193139 0 -0.24850765480441239 -0.33898137260458949 0 -0.24118879768923929 -0.32109687829571992 0 -0.26710768102597182 -0.32636796782193139 0 -0.25341448451129928 -0.29791910057935322 0 -0.24118879768923929 -0.32109687829571992 0 -0.26710768102597182 -0.32636796782193139 0 -0.27969095388364501 -0.30113203588779192 0 -0.26710768102597182 -0.32636796782193139 0 -0.28848690308976699 -0.32062648599878241 0 -0.27969095388364501 -0.30113203588779192 0 -0.28848690308976699 -0.32062648599878241 0 -0.28634081901621877 -0.34066336222146948 0 -0.30477175739617379 -0.32894015585591729 0 -0.30154239024997359 -0.34416922324245702 0 -0.28634081901621877 -0.34066336222146948 0 -0.30477175739617379 -0.32894015585591729 0 -0.31516377484695141 -0.33918310338193619 0 -0.30154239024997359 -0.34416922324245702 0 -0.30477175739617379 -0.32894015585591729 0 -0.31541585687025031 -0.31688033367094492 0 -0.30477175739617379 -0.32894015585591729 0 -0.3045233041268256 -0.30602890820680212 0 -0.28848690308976699 -0.32062648599878241 0 -0.30477175739617379 -0.32894015585591729 0 -0.3045233041268256 -0.30602890820680212 0 -0.32123663475256459 -0.29389421749249622 0 -0.3045233041268256 -0.30602890820680212 0 -0.31032624537311171 -0.28578529676129832 0 -0.31032624537311171 -0.28578529676129832 0 -0.29670368253122509 -0.29221058620238621 0 -0.2922742267413182 -0.27589610395365249 0 -0.3045233041268256 -0.30602890820680212 0 -0.31032624537311171 -0.28578529676129832 0 -0.29670368253122509 -0.29221058620238621 0 -0.27969095388364501 -0.30113203588779192 0 -0.2922742267413182 -0.27589610395365249 0 -0.29670368253122509 -0.29221058620238621 0 -0.27969095388364501 -0.30113203588779192 0 -0.2922742267413182 -0.27589610395365249 0 -0.3045233041268256 -0.30602890820680212 0 -0.29670368253122509 -0.29221058620238621 0 -0.27969095388364501 -0.30113203588779192 0 -0.28848690308976699 -0.32062648599878241 0 -0.3045233041268256 -0.30602890820680212 0 -0.27969095388364501 -0.30113203588779192 0 -0.26710768102597182 -0.32636796782193139 0 -0.27969095388364501 -0.30113203588779192 0 -0.25341448451129928 -0.29791910057935322 0 -0.25341448451129928 -0.29791910057935322 0 -0.27020442203411849 -0.2821928020931373 0 -0.25179616738339811 -0.27149644277122242 0 -0.27969095388364501 -0.30113203588779192 0 -0.27020442203411849 -0.2821928020931373 0 -0.2922742267413182 -0.27589610395365249 0 -0.27969095388364501 -0.30113203588779192 0 -0.25341448451129928 -0.29791910057935322 0 -0.27020442203411849 -0.2821928020931373 0 -0.27020442203411849 -0.2821928020931373 0 -0.27384627765093189 -0.26452032727366659 0 -0.2922742267413182 -0.27589610395365249 0 -0.27020442203411849 -0.2821928020931373 0 -0.25179616738339811 -0.27149644277122242 0 -0.27384627765093189 -0.26452032727366659 0 -0.25179616738339811 -0.27149644277122242 0 -0.27384627765093189 -0.26452032727366659 0 -0.25179616738339811 -0.27149644277122242 0 -0.25629565504287088 -0.25225484723897162 0 -0.27384627765093189 -0.26452032727366659 0 -0.25629565504287088 -0.25225484723897162 0 -0.27384627765093189 -0.26452032727366659 0 -0.28167448013983393 -0.24283303262047859 0 -0.27384627765093189 -0.26452032727366659 0 -0.2922742267413182 -0.27589610395365249 0 -0.30485749959899128 -0.25066017201951307 0 -0.27384627765093189 -0.26452032727366659 0 -0.30485749959899128 -0.25066017201951307 0 -0.28167448013983393 -0.24283303262047859 0 -0.31812285821311909 -0.26703629025402181 0 -0.31032624537311171 -0.28578529676129832 0 -0.2922742267413182 -0.27589610395365249 0 -0.31812285821311909 -0.26703629025402181 0 -0.2922742267413182 -0.27589610395365249 0 -0.30485749959899128 -0.25066017201951307 0 -0.2922742267413182 -0.27589610395365249 0 -0.30485749959899128 -0.25066017201951307 0 -0.32923167851917168 -0.46861111325519211 0 -0.33690859445471061 -0.4572372465040882 0 -0.31975804211240971 -0.45483745411314469 0 -0.32923167851917168 -0.46861111325519211 0 -0.33690859445471061 -0.4572372465040882 0 -0.34485028816753538 -0.46797255521223069 0 -0.33690859445471061 -0.4572372465040882 0 -0.33627776063986331 -0.44214531989252798 0 -0.31975804211240971 -0.45483745411314469 0 -0.33690859445471061 -0.4572372465040882 0 -0.33627776063986331 -0.44214531989252798 0 -0.35442520283457268 -0.45261979004734559 0 -0.33627776063986331 -0.44214531989252798 0 -0.31975804211240971 -0.45483745411314469 0 -0.32107315984196771 -0.42957730257999338 0 -0.31975804211240971 -0.45483745411314469 0 -0.32107315984196771 -0.42957730257999338 0 -0.31975804211240971 -0.45483745411314469 0 -0.32107315984196771 -0.42957730257999338 0 -0.30695801881886259 -0.44165903542061818 0 -0.32923167851917168 -0.46861111325519211 0 -0.31975804211240971 -0.45483745411314469 0 -0.31844292438285221 -0.48009760564629622 0 -0.31975804211240971 -0.45483745411314469 0 -0.31844292438285221 -0.48009760564629622 0 -0.3121128734405243 -0.46992174344853571 0 -0.31975804211240971 -0.45483745411314469 0 -0.31844292438285221 -0.48009760564629622 0 -0.31975804211240971 -0.45483745411314469 0 -0.30695801881886259 -0.44165903542061818 0 -0.3121128734405243 -0.46992174344853571 0 -0.31844292438285221 -0.48009760564629622 0 -0.3121128734405243 -0.46992174344853571 0 -0.31844292438285221 -0.48009760564629622 0 -0.31749968100825438 -0.49821497266178172 0 -0.3121128734405243 -0.46992174344853571 0 -0.31749968100825438 -0.49821497266178172 0 -0.3121128734405243 -0.46992174344853571 0 -0.32923167851917168 -0.46861111325519211 0 -0.31844292438285221 -0.48009760564629622 0 -0.33059038238782862 -0.48358369684318447 0 -0.31844292438285221 -0.48009760564629622 0 -0.33024745624165502 -0.49907395995981157 0 -0.31844292438285221 -0.48009760564629622 0 -0.31749968100825438 -0.49821497266178172 0 -0.31844292438285221 -0.48009760564629622 0 -0.31749968100825438 -0.49821497266178172 0 -0.33024745624165502 -0.49907395995981157 0 -0.31844292438285221 -0.48009760564629622 0 -0.33024745624165502 -0.49907395995981157 0 -0.33059038238782862 -0.48358369684318447 0 -0.31749968100825438 -0.49821497266178172 0 -0.31740674723874962 -0.49999999999999961 0 -0.30540273537287821 -0.50000000000000111 0 -0.31749968100825438 -0.49821497266178172 0 -0.31740674723874962 -0.49999999999999961 0 -0.31749968100825438 -0.49821497266178172 0 -0.31740674723874962 -0.49999999999999961 0 -0.33024745624165502 -0.49907395995981157 0 -0.31740674723874962 -0.49999999999999961 0 -0.33024745624165502 -0.49907395995981157 0 -0.34260712094366708 -0.5 0 -0.33024745624165502 -0.49907395995981157 0 -0.33735523679812912 -0.49018629267011649 0 -0.33059038238782862 -0.48358369684318447 0 -0.33735523679812912 -0.49018629267011649 0 -0.33059038238782862 -0.48358369684318447 0 -0.337674615997335 -0.47994951268450592 0 -0.33735523679812912 -0.49018629267011649 0 -0.337674615997335 -0.47994951268450592 0 -0.34841112140478919 -0.48630851219043741 0 -0.33735523679812912 -0.49018629267011649 0 -0.34260712094366708 -0.5 0 -0.34841112140478919 -0.48630851219043741 0 -0.33024745624165502 -0.49907395995981157 0 -0.33735523679812912 -0.49018629267011649 0 -0.34260712094366708 -0.5 0 -0.337674615997335 -0.47994951268450592 0 -0.34841112140478919 -0.48630851219043741 0 -0.34485028816753538 -0.46797255521223069 0 -0.32923167851917168 -0.46861111325519211 0 -0.33059038238782862 -0.48358369684318447 0 -0.337674615997335 -0.47994951268450592 0 -0.32923167851917168 -0.46861111325519211 0 -0.337674615997335 -0.47994951268450592 0 -0.34485028816753538 -0.46797255521223069 0 -0.34841112140478919 -0.48630851219043741 0 -0.36049166777996761 -0.4785102427764768 0 -0.34485028816753538 -0.46797255521223069 0 -0.34260712094366708 -0.5 0 -0.34841112140478919 -0.48630851219043741 0 -0.36780749464858481 -0.50000000000000178 0 -0.34841112140478919 -0.48630851219043741 0 -0.36780749464858481 -0.50000000000000178 0 -0.36049166777996761 -0.4785102427764768 0 -0.38106769273937319 -0.48441128079781698 0 -0.36780749464858481 -0.50000000000000178 0 -0.36049166777996761 -0.4785102427764768 0 -0.38106769273937319 -0.48441128079781698 0 -0.36780749464858481 -0.50000000000000178 0 -0.37597164166466568 -0.46580128040374569 0 -0.38106769273937319 -0.48441128079781698 0 -0.36049166777996761 -0.4785102427764768 0 -0.37853529578365891 -0.44955291471418451 0 -0.37597164166466568 -0.46580128040374569 0 -0.35442520283457268 -0.45261979004734559 0 -0.37597164166466568 -0.46580128040374569 0 -0.36049166777996761 -0.4785102427764768 0 -0.35442520283457268 -0.45261979004734559 0 -0.33690859445471061 -0.4572372465040882 0 -0.34485028816753538 -0.46797255521223069 0 -0.35442520283457268 -0.45261979004734559 0 -0.36049166777996761 -0.4785102427764768 0 -0.34485028816753538 -0.46797255521223069 0 -0.35442520283457268 -0.45261979004734559 0 -0.33627776063986331 -0.44214531989252798 0 -0.35442520283457268 -0.45261979004734559 0 -0.35177824972027733 -0.42736325470151942 0 -0.37853529578365891 -0.44955291471418451 0 -0.35442520283457268 -0.45261979004734559 0 -0.37853529578365891 -0.44955291471418451 0 -0.35442520283457268 -0.45261979004734559 0 -0.37417829428298349 -0.43146169088868669 0 -0.37417829428298349 -0.43146169088868669 0 -0.37087598893123191 -0.40852558738351169 0 -0.35177824972027733 -0.42736325470151942 0 -0.35442520283457268 -0.45261979004734559 0 -0.37417829428298349 -0.43146169088868669 0 -0.35177824972027733 -0.42736325470151942 0 -0.37087598893123191 -0.40852558738351169 0 -0.35177824972027733 -0.42736325470151942 0 -0.37087598893123191 -0.40852558738351169 0 -0.35177824972027733 -0.42736325470151942 0 -0.34481381397160121 -0.40100414065480228 0 -0.35177824972027733 -0.42736325470151942 0 -0.34481381397160121 -0.40100414065480228 0 -0.3356470568606042 -0.41767175227846243 0 -0.38997372814218478 -0.38968792006550251 0 -0.36569124626444532 -0.37180181361828801 0 -0.36412358856628829 -0.38955175393007863 0 -0.37087598893123191 -0.40852558738351169 0 -0.36412358856628829 -0.38955175393007863 0 -0.34481381397160121 -0.40100414065480228 0 -0.38997372814218478 -0.38968792006550251 0 -0.37087598893123191 -0.40852558738351169 0 -0.36412358856628829 -0.38955175393007863 0 -0.36569124626444532 -0.37180181361828801 0 -0.36412358856628829 -0.38955175393007863 0 -0.34518014085019783 -0.38054248572951188 0 -0.36412358856628829 -0.38955175393007863 0 -0.34481381397160121 -0.40100414065480228 0 -0.34518014085019783 -0.38054248572951188 0 -0.33608732640952599 -0.36693530690411791 0 -0.34518014085019783 -0.38054248572951188 0 -0.32370339530108361 -0.37905699951369032 0 -0.34481381397160121 -0.40100414065480228 0 -0.34518014085019783 -0.38054248572951188 0 -0.32370339530108361 -0.37905699951369032 0 -0.34481381397160121 -0.40100414065480228 0 -0.32238827757152572 -0.40431715104684179 0 -0.32370339530108361 -0.37905699951369032 0 -0.32238827757152572 -0.40431715104684179 0 -0.32370339530108361 -0.37905699951369032 0 -0.3096926479326409 -0.38963218926313231 0 -0.32238827757152572 -0.40431715104684179 0 -0.32370339530108361 -0.37905699951369032 0 -0.33627776063986331 -0.44214531989252798 0 -0.35177824972027733 -0.42736325470151942 0 -0.3356470568606042 -0.41767175227846243 0 -0.33627776063986331 -0.44214531989252798 0 -0.3356470568606042 -0.41767175227846243 0 -0.32107315984196771 -0.42957730257999338 0 -0.34481381397160121 -0.40100414065480228 0 -0.32238827757152572 -0.40431715104684179 0 -0.3356470568606042 -0.41767175227846243 0 -0.32238827757152572 -0.40431715104684179 0 -0.32107315984196771 -0.42957730257999338 0 -0.32238827757152572 -0.40431715104684179 0 -0.32107315984196771 -0.42957730257999338 0 -0.30180316419720021 -0.4133963273927011 0 -0.32238827757152572 -0.40431715104684179 0 -0.3356470568606042 -0.41767175227846243 0 -0.32107315984196771 -0.42957730257999338 0 -0.30180316419720021 -0.4133963273927011 0 -0.30695801881886259 -0.44165903542061818 0 -0.32107315984196771 -0.42957730257999338 0 -0.30180316419720021 -0.4133963273927011 0 -0.30695801881886259 -0.44165903542061818 0 -0.30180316419720021 -0.4133963273927011 0 -0.29839993487127281 -0.4422494551191819 0 -0.30695801881886259 -0.44165903542061818 0 -0.30180316419720021 -0.4133963273927011 0 -0.28911275003402559 -0.40642030922616218 0 -0.30226526430328737 -0.40029387759847662 0 -0.28743478892099011 -0.42080418518488483 0 -0.27646964297070747 -0.39935891525058781 0 -0.28911275003402559 -0.40642030922616218 0 -0.28743478892099011 -0.42080418518488483 0 -0.27646964297070747 -0.39935891525058781 0 -0.30180316419720021 -0.4133963273927011 0 -0.28911275003402559 -0.40642030922616218 0 -0.28743478892099011 -0.42080418518488483 0 -0.28743478892099011 -0.42080418518488483 0 -0.28474333325853229 -0.42592388753151522 0 -0.29839993487127281 -0.4422494551191819 0 -0.28474333325853229 -0.42592388753151522 0 -0.29842810334952802 -0.44792281549002572 0 -0.28743478892099011 -0.42080418518488483 0 -0.29839993487127281 -0.4422494551191819 0 -0.30180316419720021 -0.4133963273927011 0 -0.28743478892099011 -0.42080418518488483 0 -0.29839993487127281 -0.4422494551191819 0 -0.28474333325853229 -0.42592388753151522 0 -0.27627659156621542 -0.43611795142254017 0 -0.28770030429133547 -0.4413674517619835 0 -0.32370339530108361 -0.37905699951369032 0 -0.30206308429670131 -0.37554412924890312 0 -0.3096926479326409 -0.38963218926313231 0 -0.30206308429670131 -0.37554412924890312 0 -0.3096926479326409 -0.38963218926313231 0 -0.29804321819060642 -0.38894878890774931 0 -0.32238827757152572 -0.40431715104684179 0 -0.30180316419720021 -0.4133963273927011 0 -0.30226526430328737 -0.40029387759847662 0 -0.32238827757152572 -0.40431715104684179 0 -0.3096926479326409 -0.38963218926313231 0 -0.30226526430328737 -0.40029387759847662 0 -0.3096926479326409 -0.38963218926313231 0 -0.29804321819060642 -0.38894878890774931 0 -0.30226526430328737 -0.40029387759847662 0 -0.28911275003402559 -0.40642030922616218 0 -0.30226526430328737 -0.40029387759847662 0 -0.28959305032683103 -0.39520217132611662 0 -0.28911275003402559 -0.40642030922616218 0 -0.28389391859471558 -0.39802030109345482 0 -0.28959305032683103 -0.39520217132611662 0 -0.28911275003402559 -0.40642030922616218 0 -0.28389391859471558 -0.39802030109345482 0 -0.27646964297070747 -0.39935891525058781 0 -0.28389391859471558 -0.39802030109345482 0 -0.28959305032683103 -0.39520217132611662 0 -0.28040023104729861 -0.39109980857095311 0 -0.29804321819060642 -0.38894878890774931 0 -0.30226526430328737 -0.40029387759847662 0 -0.28959305032683103 -0.39520217132611662 0 -0.28627317852868128 -0.36766459754742709 0 -0.30206308429670131 -0.37554412924890312 0 -0.28648801526002898 -0.38220223210776499 0 -0.29804321819060642 -0.38894878890774931 0 -0.28959305032683103 -0.39520217132611662 0 -0.28648801526002898 -0.38220223210776499 0 -0.28959305032683103 -0.39520217132611662 0 -0.28648801526002898 -0.38220223210776499 0 -0.28040023104729861 -0.39109980857095311 0 -0.30206308429670131 -0.37554412924890312 0 -0.29804321819060642 -0.38894878890774931 0 -0.28648801526002898 -0.38220223210776499 0 -0.28040023104729861 -0.39109980857095311 0 -0.27646964297070747 -0.39935891525058781 0 -0.26550449702042478 -0.37791364531629068 0 -0.28627317852868128 -0.36766459754742709 0 -0.28648801526002898 -0.38220223210776499 0 -0.26550449702042478 -0.37791364531629068 0 -0.28648801526002898 -0.38220223210776499 0 -0.28040023104729861 -0.39109980857095311 0 -0.26550449702042478 -0.37791364531629068 0 -0.27646964297070747 -0.39935891525058781 0 -0.25737379307654112 -0.38192603161449451 0 -0.26550449702042478 -0.37791364531629068 0 -0.27646964297070747 -0.39935891525058781 0 -0.26550449702042478 -0.37791364531629068 0 -0.27105856316753668 -0.40392495957300478 0 -0.27646964297070747 -0.39935891525058781 0 -0.25737379307654112 -0.38192603161449451 0 -0.28389391859471558 -0.39802030109345482 0 -0.28040023104729861 -0.39109980857095311 0 -0.27646964297070747 -0.39935891525058781 0 -0.27105856316753668 -0.40392495957300478 0 -0.25615395697672111 -0.39794072374507161 0 -0.25737379307654112 -0.38192603161449451 0 -0.25615395697672111 -0.39794072374507161 0 -0.25675704345483302 -0.41399047922132559 0 -0.2372374953434499 -0.39186300702011151 0 -0.27105856316753668 -0.40392495957300478 0 -0.25615395697672111 -0.39794072374507161 0 -0.25675704345483302 -0.41399047922132559 0 -0.27105856316753668 -0.40392495957300478 0 -0.25737379307654112 -0.38192603161449451 0 -0.25615395697672111 -0.39794072374507161 0 -0.25737379307654112 -0.38192603161449451 0 -0.2372374953434499 -0.39186300702011151 0 -0.25852834620404241 -0.37471377798124272 0 -0.25178209278130109 -0.37293710369370131 0 -0.25737379307654112 -0.38192603161449451 0 -0.25178209278130109 -0.37293710369370131 0 -0.25737379307654112 -0.38192603161449451 0 -0.25737379307654112 -0.38192603161449451 0 -0.26550449702042478 -0.37791364531629068 0 -0.25852834620404241 -0.37471377798124272 0 -0.25737379307654112 -0.38192603161449451 0 -0.26550449702042478 -0.37791364531629068 0 -0.27627659156621542 -0.43611795142254017 0 -0.25675704345483302 -0.41399047922132559 0 -0.26985739239770701 -0.42203879299246649 0 -0.27627659156621542 -0.43611795142254017 0 -0.25675704345483302 -0.41399047922132559 0 -0.26985739239770701 -0.42203879299246649 0 -0.27627659156621542 -0.43611795142254017 0 -0.28474333325853229 -0.42592388753151522 0 -0.26985739239770701 -0.42203879299246649 0 -0.27627659156621542 -0.43611795142254017 0 -0.28743478892099011 -0.42080418518488483 0 -0.28474333325853229 -0.42592388753151522 0 -0.27105856316753668 -0.40392495957300478 0 -0.28474333325853229 -0.42592388753151522 0 -0.27105856316753668 -0.40392495957300478 0 -0.28743478892099011 -0.42080418518488483 0 -0.27105856316753668 -0.40392495957300478 0 -0.27646964297070747 -0.39935891525058781 0 -0.27105856316753668 -0.40392495957300478 0 -0.26985739239770701 -0.42203879299246649 0 -0.25675704345483302 -0.41399047922132559 0 -0.28474333325853229 -0.42592388753151522 0 -0.27105856316753668 -0.40392495957300478 0 -0.26985739239770701 -0.42203879299246649 0 -0.27627659156621542 -0.43611795142254017 0 -0.25675704345483302 -0.41399047922132559 0 -0.25613493996594611 -0.44308430256210402 0 -0.26598355951797459 -0.46198459013414239 0 -0.25447177372430901 -0.47256854492859168 0 -0.24074618635915179 -0.45782887579484738 0 -0.25613493996594611 -0.44308430256210402 0 -0.26598355951797459 -0.46198459013414239 0 -0.24074618635915179 -0.45782887579484738 0 -0.26598355951797459 -0.46198459013414239 0 -0.24074618635915179 -0.45782887579484738 0 -0.26598355951797459 -0.46198459013414239 0 -0.28598530616843648 -0.457411967615027 0 -0.27199666413780188 -0.48113257779397811 0 -0.27627659156621542 -0.43611795142254017 0 -0.26598355951797459 -0.46198459013414239 0 -0.28598530616843648 -0.457411967615027 0 -0.27627659156621542 -0.43611795142254017 0 -0.28598530616843648 -0.457411967615027 0 -0.27627659156621542 -0.43611795142254017 0 -0.25613493996594611 -0.44308430256210402 0 -0.26598355951797459 -0.46198459013414239 0 -0.27627659156621542 -0.43611795142254017 0 -0.28598530616843648 -0.457411967615027 0 -0.29148368562634452 -0.45335680086499081 0 -0.27627659156621542 -0.43611795142254017 0 -0.29148368562634452 -0.45335680086499081 0 -0.27627659156621542 -0.43611795142254017 0 -0.28770030429133547 -0.4413674517619835 0 -0.29148368562634452 -0.45335680086499081 0 -0.28474333325853229 -0.42592388753151522 0 -0.29839993487127281 -0.4422494551191819 0 -0.29842810334952802 -0.44792281549002572 0 -0.28474333325853229 -0.42592388753151522 0 -0.28770030429133547 -0.4413674517619835 0 -0.29842810334952802 -0.44792281549002572 0 -0.28770030429133547 -0.4413674517619835 0 -0.29148368562634452 -0.45335680086499081 0 -0.29842810334952802 -0.44792281549002572 0 -0.28598530616843648 -0.457411967615027 0 -0.2956940207706571 -0.47870598380751422 0 -0.28598530616843648 -0.457411967615027 0 -0.29579237820775311 -0.46637902523850461 0 -0.2956940207706571 -0.47870598380751422 0 -0.28598530616843648 -0.457411967615027 0 -0.29579237820775311 -0.46637902523850461 0 -0.29148368562634452 -0.45335680086499081 0 -0.29842810334952802 -0.44792281549002572 0 -0.3121128734405243 -0.46992174344853571 0 -0.30669077968647418 -0.4705956503074411 0 -0.29842810334952802 -0.44792281549002572 0 -0.3121128734405243 -0.46992174344853571 0 -0.30936508082155528 -0.46369472505347892 0 -0.29842810334952802 -0.44792281549002572 0 -0.3121128734405243 -0.46992174344853571 0 -0.29148368562634452 -0.45335680086499081 0 -0.30669077968647418 -0.4705956503074411 0 -0.30936508082155528 -0.46369472505347892 0 -0.30695801881886259 -0.44165903542061818 0 -0.3121128734405243 -0.46992174344853571 0 -0.30695801881886259 -0.44165903542061818 0 -0.3121128734405243 -0.46992174344853571 0 -0.29148368562634452 -0.45335680086499081 0 -0.29842810334952802 -0.44792281549002572 0 -0.30669077968647418 -0.4705956503074411 0 -0.29579237820775311 -0.46637902523850461 0 -0.29148368562634452 -0.45335680086499081 0 -0.30669077968647418 -0.4705956503074411 0 -0.30936508082155528 -0.46369472505347892 0 -0.29839993487127281 -0.4422494551191819 0 -0.29842810334952802 -0.44792281549002572 0 -0.30936508082155528 -0.46369472505347892 0 -0.29839993487127281 -0.4422494551191819 0 -0.30936508082155528 -0.46369472505347892 0 -0.29839993487127281 -0.4422494551191819 0 -0.30695801881886259 -0.44165903542061818 0 -0.30540273537287821 -0.50000000000000111 0 -0.30759734089306751 -0.48519836929519622 0 -0.2956940207706571 -0.47870598380751422 0 -0.31749968100825438 -0.49821497266178172 0 -0.30759734089306751 -0.48519836929519622 0 -0.3121128734405243 -0.46992174344853571 0 -0.30540273537287821 -0.50000000000000111 0 -0.2956940207706571 -0.47870598380751422 0 -0.31749968100825438 -0.49821497266178172 0 -0.30540273537287821 -0.50000000000000111 0 -0.30759734089306751 -0.48519836929519622 0 -0.30759734089306751 -0.48519836929519622 0 -0.3121128734405243 -0.46992174344853571 0 -0.30421870930608919 -0.47622946522699028 0 -0.3121128734405243 -0.46992174344853571 0 -0.30669077968647418 -0.4705956503074411 0 -0.30421870930608919 -0.47622946522699028 0 -0.30421870930608919 -0.47622946522699028 0 -0.30017300821963189 -0.47264815756009448 0 -0.2956940207706571 -0.47870598380751422 0 -0.29579237820775311 -0.46637902523850461 0 -0.30669077968647418 -0.4705956503074411 0 -0.30017300821963189 -0.47264815756009448 0 -0.29579237820775311 -0.46637902523850461 0 -0.30017300821963189 -0.47264815756009448 0 -0.2956940207706571 -0.47870598380751422 0 -0.30669077968647418 -0.4705956503074411 0 -0.30421870930608919 -0.47622946522699028 0 -0.30017300821963189 -0.47264815756009448 0 -0.30759734089306751 -0.48519836929519622 0 -0.30421870930608919 -0.47622946522699028 0 -0.2956940207706571 -0.47870598380751422 0 -0.28598530616843648 -0.457411967615027 0 -0.2956940207706571 -0.47870598380751422 0 -0.27199666413780188 -0.48113257779397811 0 -0.2956940207706571 -0.47870598380751422 0 -0.27883941489242742 -0.5 0 -0.27199666413780188 -0.48113257779397811 0 -0.30540273537287821 -0.50000000000000111 0 -0.2956940207706571 -0.47870598380751422 0 -0.27883941489242742 -0.5 0 -0.27883941489242742 -0.5 0 -0.27199666413780188 -0.48113257779397811 0 -0.25227609441197668 -0.5 0 -0.27199666413780188 -0.48113257779397811 0 -0.25447177372430901 -0.47256854492859168 0 -0.25280804960538678 -0.48701474838965231 0 -0.26598355951797459 -0.46198459013414239 0 -0.27199666413780188 -0.48113257779397811 0 -0.25447177372430901 -0.47256854492859168 0 -0.27199666413780188 -0.48113257779397811 0 -0.25280804960538678 -0.48701474838965231 0 -0.25227609441197668 -0.5 0 -0.25227609441197668 -0.5 0 -0.2389944341717514 -0.49295238022766619 0 -0.22571277393152589 -0.5 0 -0.25280804960538678 -0.48701474838965231 0 -0.2389944341717514 -0.49295238022766619 0 -0.22451540759921229 -0.47986483691178322 0 -0.25280804960538678 -0.48701474838965231 0 -0.25227609441197668 -0.5 0 -0.2389944341717514 -0.49295238022766619 0 -0.24082440900122951 -0.47488193253033872 0 -0.22451540759921229 -0.47986483691178322 0 -0.24074618635915179 -0.45782887579484738 0 -0.25447177372430901 -0.47256854492859168 0 -0.25280804960538678 -0.48701474838965231 0 -0.24082440900122951 -0.47488193253033872 0 -0.25280804960538678 -0.48701474838965231 0 -0.24082440900122951 -0.47488193253033872 0 -0.22451540759921229 -0.47986483691178322 0 -0.25280804960538678 -0.48701474838965231 0 -0.22451540759921229 -0.47986483691178322 0 -0.2389944341717514 -0.49295238022766619 0 -0.22451540759921229 -0.47986483691178322 0 -0.22571277393152589 -0.5 0 -0.22451540759921229 -0.47986483691178322 0 -0.22571277393152589 -0.5 0 -0.2137217641301293 -0.48910586138858142 0 -0.25613493996594611 -0.44308430256210402 0 -0.24074618635915179 -0.45782887579484738 0 -0.23645587082536751 -0.4365076759126606 0 -0.25447177372430901 -0.47256854492859168 0 -0.24082440900122951 -0.47488193253033872 0 -0.24074618635915179 -0.45782887579484738 0 -0.24074618635915179 -0.45782887579484738 0 -0.2155088132003288 -0.45367316145555242 0 -0.22451540759921229 -0.47986483691178322 0 -0.24074618635915179 -0.45782887579484738 0 -0.2155088132003288 -0.45367316145555242 0 -0.2155088132003288 -0.45367316145555242 0 -0.21628915791866271 -0.4276491881897535 0 -0.23645587082536751 -0.4365076759126606 0 -0.24074618635915179 -0.45782887579484738 0 -0.2155088132003288 -0.45367316145555242 0 -0.23645587082536751 -0.4365076759126606 0 -0.2155088132003288 -0.45367316145555242 0 -0.19027144004150581 -0.4495174471162573 0 -0.21628915791866271 -0.4276491881897535 0 -0.2155088132003288 -0.45367316145555242 0 -0.19027144004150581 -0.4495174471162573 0 -0.1962227655930377 -0.47271492543391408 0 -0.2155088132003288 -0.45367316145555242 0 -0.19027144004150581 -0.4495174471162573 0 -0.22571277393152589 -0.5 0 -0.2069894528316297 -0.49327112431137687 0 -0.2137217641301293 -0.48910586138858142 0 -0.22571277393152589 -0.5 0 -0.2069894528316297 -0.49327112431137687 0 -0.19914945345107521 -0.5 0 -0.2069894528316297 -0.49327112431137687 0 -0.2137217641301293 -0.48910586138858142 0 -0.20080207127658181 -0.48342414301337078 0 -0.22451540759921229 -0.47986483691178322 0 -0.1962227655930377 -0.47271492543391408 0 -0.22451540759921229 -0.47986483691178322 0 -0.2155088132003288 -0.45367316145555242 0 -0.1962227655930377 -0.47271492543391408 0 -0.22451540759921229 -0.47986483691178322 0 -0.20080207127658181 -0.48342414301337078 0 -0.1962227655930377 -0.47271492543391408 0 -0.22451540759921229 -0.47986483691178322 0 -0.2137217641301293 -0.48910586138858142 0 -0.20080207127658181 -0.48342414301337078 0 -0.20080207127658181 -0.48342414301337078 0 -0.1962227655930377 -0.47271492543391408 0 -0.19150942793128109 -0.49357565882254922 0 -0.19914945345107521 -0.5 0 -0.19655238254375021 -0.49902486443713379 0 -0.17258613297062431 -0.5 0 -0.2069894528316297 -0.49327112431137687 0 -0.20080207127658181 -0.48342414301337078 0 -0.19556120136883651 -0.49382561715493228 0 -0.20080207127658181 -0.48342414301337078 0 -0.19556120136883651 -0.49382561715493228 0 -0.19150942793128109 -0.49357565882254922 0 -0.2069894528316297 -0.49327112431137687 0 -0.19556120136883651 -0.49382561715493228 0 -0.19914945345107521 -0.5 0 -0.19556120136883651 -0.49382561715493228 0 -0.19914945345107521 -0.5 0 -0.19655238254375021 -0.49902486443713379 0 -0.19655238254375021 -0.49902486443713379 0 -0.19150942793128109 -0.49357565882254922 0 -0.19556120136883651 -0.49382561715493228 0 -0.19655238254375021 -0.49902486443713379 0 -0.19150942793128109 -0.49357565882254922 0 -0.19556120136883651 -0.49382561715493228 0 -0.19150942793128109 -0.49357565882254922 0 -0.19655238254375021 -0.49902486443713379 0 -0.19150942793128109 -0.49357565882254922 0 -0.17258613297062431 -0.5 0 -0.19150942793128109 -0.49357565882254922 0 -0.17258613297062431 -0.5 0 -0.1651709655028136 -0.49195081028459059 0 -0.19150942793128109 -0.49357565882254922 0 -0.1651709655028136 -0.49195081028459059 0 -0.1718389873511503 -0.47232060429844569 0 -0.19150942793128109 -0.49357565882254922 0 -0.1651709655028136 -0.49195081028459059 0 -0.17258613297062431 -0.5 0 -0.1651709655028136 -0.49195081028459059 0 -0.14602281249017349 -0.5 0 -0.1651709655028136 -0.49195081028459059 0 -0.1718389873511503 -0.47232060429844569 0 -0.15087263772947199 -0.47316947021365729 0 -0.19150942793128109 -0.49357565882254922 0 -0.1718389873511503 -0.47232060429844569 0 -0.1962227655930377 -0.47271492543391408 0 -0.19150942793128109 -0.49357565882254922 0 -0.1718389873511503 -0.47232060429844569 0 -0.1962227655930377 -0.47271492543391408 0 -0.1718389873511503 -0.47232060429844569 0 -0.1679301235868631 -0.46556501395604499 0 -0.1962227655930377 -0.47271492543391408 0 -0.1679301235868631 -0.46556501395604499 0 -0.19027144004150581 -0.4495174471162573 0 -0.1962227655930377 -0.47271492543391408 0 -0.17551191820948109 -0.45224377399667531 0 -0.1962227655930377 -0.47271492543391408 0 -0.17551191820948109 -0.45224377399667531 0 -0.1679301235868631 -0.46556501395604499 0 -0.19027144004150581 -0.4495174471162573 0 -0.17551191820948109 -0.45224377399667531 0 -0.17828216694819549 -0.4388094163031282 0 -0.17551191820948109 -0.45224377399667531 0 -0.17828216694819549 -0.4388094163031282 0 -0.16722091777681519 -0.44485920800690631 0 -0.17828216694819549 -0.4388094163031282 0 -0.16722091777681519 -0.44485920800690631 0 -0.16662777576137511 -0.43443108756567989 0 -0.16722091777681519 -0.44485920800690631 0 -0.1589642435887588 -0.44119252463666658 0 -0.16662777576137511 -0.43443108756567989 0 -0.17551191820948109 -0.45224377399667531 0 -0.16722091777681519 -0.44485920800690631 0 -0.16481130463476759 -0.45387115373080428 0 -0.15912809751831311 -0.44860729180848341 0 -0.16481130463476759 -0.45387115373080428 0 -0.1521685467710196 -0.45106554977434182 0 -0.16722091777681519 -0.44485920800690631 0 -0.15912809751831311 -0.44860729180848341 0 -0.16481130463476759 -0.45387115373080428 0 -0.15912809751831311 -0.44860729180848341 0 -0.1589642435887588 -0.44119252463666658 0 -0.1521685467710196 -0.45106554977434182 0 -0.16722091777681519 -0.44485920800690631 0 -0.15912809751831311 -0.44860729180848341 0 -0.1589642435887588 -0.44119252463666658 0 -0.1718389873511503 -0.47232060429844569 0 -0.1521685467710196 -0.45106554977434182 0 -0.1718389873511503 -0.47232060429844569 0 -0.1679301235868631 -0.46556501395604499 0 -0.1521685467710196 -0.45106554977434182 0 -0.1718389873511503 -0.47232060429844569 0 -0.1521685467710196 -0.45106554977434182 0 -0.15087263772947199 -0.47316947021365729 0 -0.1679301235868631 -0.46556501395604499 0 -0.16481130463476759 -0.45387115373080428 0 -0.1521685467710196 -0.45106554977434182 0 -0.17551191820948109 -0.45224377399667531 0 -0.1679301235868631 -0.46556501395604499 0 -0.16481130463476759 -0.45387115373080428 0 -0.1521685467710196 -0.45106554977434182 0 -0.12635218594803019 -0.46018442496427658 0 -0.15087263772947199 -0.47316947021365729 0 -0.1521685467710196 -0.45106554977434182 0 -0.13724615959765449 -0.43494104296893638 0 -0.1521685467710196 -0.45106554977434182 0 -0.13724615959765449 -0.43494104296893638 0 -0.14546992303966269 -0.43655492598442452 0 -0.1521685467710196 -0.45106554977434182 0 -0.13251726744824899 -0.44646725858880232 0 -0.13724615959765449 -0.43494104296893638 0 -0.1521685467710196 -0.45106554977434182 0 -0.14546992303966269 -0.43655492598442452 0 -0.1519206978488761 -0.43644464247428499 0 -0.1589642435887588 -0.44119252463666658 0 -0.1521685467710196 -0.45106554977434182 0 -0.1519206978488761 -0.43644464247428499 0 -0.15912809751831311 -0.44860729180848341 0 -0.1521685467710196 -0.45106554977434182 0 -0.1521685467710196 -0.45106554977434182 0 -0.13251726744824899 -0.44646725858880232 0 -0.12635218594803019 -0.46018442496427658 0 -0.13251726744824899 -0.44646725858880232 0 -0.12635218594803019 -0.46018442496427658 0 -0.116327848528598 -0.44169922825859581 0 -0.13251726744824899 -0.44646725858880232 0 -0.1267486715966917 -0.43608496120513951 0 -0.116327848528598 -0.44169922825859581 0 -0.13251726744824899 -0.44646725858880232 0 -0.1267486715966917 -0.43608496120513951 0 -0.13724615959765449 -0.43494104296893638 0 -0.1521685467710196 -0.45106554977434182 0 -0.12635218594803019 -0.46018442496427658 0 -0.12635218594803019 -0.46018442496427658 0 -0.13883250307434611 -0.4903259617466319 0 -0.11249404064587799 -0.48870111320868359 0 -0.12635218594803019 -0.46018442496427658 0 -0.13883250307434611 -0.4903259617466319 0 -0.15087263772947199 -0.47316947021365729 0 -0.13883250307434611 -0.4903259617466319 0 -0.14602281249017349 -0.5 0 -0.1194594920097227 -0.49999999999999589 0 -0.13883250307434611 -0.4903259617466319 0 -0.11249404064587799 -0.48870111320868359 0 -0.1651709655028136 -0.49195081028459059 0 -0.13883250307434611 -0.4903259617466319 0 -0.15087263772947199 -0.47316947021365729 0 -0.1651709655028136 -0.49195081028459059 0 -0.13883250307434611 -0.4903259617466319 0 -0.1651709655028136 -0.49195081028459059 0 -0.13883250307434611 -0.4903259617466319 0 -0.14602281249017349 -0.5 0 -0.14240230753615329 -0.40392921446081398 0 -0.15177499139493059 -0.38559751999059549 0 -0.1326699181470313 -0.38921089184346769 0 -0.14240230753615329 -0.40392921446081398 0 -0.15177499139493059 -0.38559751999059549 0 -0.15889117454955859 -0.40589411130550362 0 -0.15177499139493059 -0.38559751999059549 0 -0.1326699181470313 -0.38921089184346769 0 -0.1468868262158215 -0.36531213330060558 0 -0.15177499139493059 -0.38559751999059549 0 -0.16372302652915999 -0.3805738775139425 0 -0.1468868262158215 -0.36531213330060558 0 -0.1326699181470313 -0.38921089184346769 0 -0.1468868262158215 -0.36531213330060558 0 -0.12710913607479821 -0.37057925255166407 0 -0.14240230753615329 -0.40392921446081398 0 -0.1326699181470313 -0.38921089184346769 0 -0.1198954880377377 -0.40761406757102819 0 -0.13542262062233701 -0.43012604607797111 0 -0.1198954880377377 -0.40761406757102819 0 -0.1372639709389101 -0.41709304119502938 0 -0.13542262062233701 -0.43012604607797111 0 -0.1198954880377377 -0.40761406757102819 0 -0.14240230753615329 -0.40392921446081398 0 -0.1372639709389101 -0.41709304119502938 0 -0.1198954880377377 -0.40761406757102819 0 -0.1267486715966917 -0.43608496120513951 0 -0.13542262062233701 -0.43012604607797111 0 -0.1157769084892489 -0.4272547779199336 0 -0.1372639709389101 -0.41709304119502938 0 -0.13542262062233701 -0.43012604607797111 0 -0.14144156276065389 -0.42527066473916653 0 -0.13542262062233701 -0.43012604607797111 0 -0.14057120929505301 -0.43103214330522482 0 -0.14144156276065389 -0.42527066473916653 0 -0.1267486715966917 -0.43608496120513951 0 -0.13542262062233701 -0.43012604607797111 0 -0.13724615959765449 -0.43494104296893638 0 -0.13542262062233701 -0.43012604607797111 0 -0.14057120929505301 -0.43103214330522482 0 -0.13724615959765449 -0.43494104296893638 0 -0.14057120929505301 -0.43103214330522482 0 -0.13724615959765449 -0.43494104296893638 0 -0.14546992303966269 -0.43655492598442452 0 -0.14546992303966269 -0.43655492598442452 0 -0.14568582509071121 -0.42930245904401992 0 -0.1519206978488761 -0.43644464247428499 0 -0.14057120929505301 -0.43103214330522482 0 -0.14546992303966269 -0.43655492598442452 0 -0.14568582509071121 -0.42930245904401992 0 -0.14568582509071121 -0.42930245904401992 0 -0.14144156276065389 -0.42527066473916653 0 -0.14826418785625819 -0.41879963407358728 0 -0.14057120929505301 -0.43103214330522482 0 -0.14568582509071121 -0.42930245904401992 0 -0.14144156276065389 -0.42527066473916653 0 -0.1530371043128462 -0.42817878084843508 0 -0.14826418785625819 -0.41879963407358728 0 -0.16171176367287721 -0.42288282798680282 0 -0.14568582509071121 -0.42930245904401992 0 -0.1530371043128462 -0.42817878084843508 0 -0.14826418785625819 -0.41879963407358728 0 -0.1530371043128462 -0.42817878084843508 0 -0.1519206978488761 -0.43644464247428499 0 -0.1584399234098221 -0.43307668678955258 0 -0.14568582509071121 -0.42930245904401992 0 -0.1530371043128462 -0.42817878084843508 0 -0.1519206978488761 -0.43644464247428499 0 -0.14240230753615329 -0.40392921446081398 0 -0.14826418785625819 -0.41879963407358728 0 -0.15889117454955859 -0.40589411130550362 0 -0.14240230753615329 -0.40392921446081398 0 -0.1372639709389101 -0.41709304119502938 0 -0.14826418785625819 -0.41879963407358728 0 -0.1372639709389101 -0.41709304119502938 0 -0.14144156276065389 -0.42527066473916653 0 -0.14826418785625819 -0.41879963407358728 0 -0.16171176367287721 -0.42288282798680282 0 -0.17723470850185979 -0.41151074028866153 0 -0.15889117454955859 -0.40589411130550362 0 -0.14826418785625819 -0.41879963407358728 0 -0.16171176367287721 -0.42288282798680282 0 -0.15889117454955859 -0.40589411130550362 0 -0.16171176367287721 -0.42288282798680282 0 -0.17475819065965981 -0.4253522174927184 0 -0.17723470850185979 -0.41151074028866153 0 -0.1589642435887588 -0.44119252463666658 0 -0.1519206978488761 -0.43644464247428499 0 -0.1584399234098221 -0.43307668678955258 0 -0.1584399234098221 -0.43307668678955258 0 -0.16171176367287721 -0.42288282798680282 0 -0.16662777576137511 -0.43443108756567989 0 -0.1589642435887588 -0.44119252463666658 0 -0.1584399234098221 -0.43307668678955258 0 -0.16662777576137511 -0.43443108756567989 0 -0.1530371043128462 -0.42817878084843508 0 -0.1584399234098221 -0.43307668678955258 0 -0.16171176367287721 -0.42288282798680282 0 -0.16171176367287721 -0.42288282798680282 0 -0.16662777576137511 -0.43443108756567989 0 -0.17475819065965981 -0.4253522174927184 0 -0.17828216694819549 -0.4388094163031282 0 -0.17475819065965981 -0.4253522174927184 0 -0.19527208350163441 -0.4234642685545727 0 -0.17828216694819549 -0.4388094163031282 0 -0.16662777576137511 -0.43443108756567989 0 -0.17475819065965981 -0.4253522174927184 0 -0.17475819065965981 -0.4253522174927184 0 -0.17723470850185979 -0.41151074028866153 0 -0.19527208350163441 -0.4234642685545727 0 -0.17723470850185979 -0.41151074028866153 0 -0.18555671673175991 -0.39250819044721152 0 -0.1952134243462208 -0.40328967868685872 0 -0.17723470850185979 -0.41151074028866153 0 -0.18555671673175991 -0.39250819044721152 0 -0.17065535581810781 -0.39188472969158622 0 -0.15177499139493059 -0.38559751999059549 0 -0.15889117454955859 -0.40589411130550362 0 -0.17065535581810781 -0.39188472969158622 0 -0.17723470850185979 -0.41151074028866153 0 -0.15889117454955859 -0.40589411130550362 0 -0.17065535581810781 -0.39188472969158622 0 -0.17065535581810781 -0.39188472969158622 0 -0.16372302652915999 -0.3805738775139425 0 -0.1810596558249114 -0.37560889557154792 0 -0.15177499139493059 -0.38559751999059549 0 -0.17065535581810781 -0.39188472969158622 0 -0.16372302652915999 -0.3805738775139425 0 -0.18555671673175991 -0.39250819044721152 0 -0.17065535581810781 -0.39188472969158622 0 -0.1810596558249114 -0.37560889557154792 0 -0.1810596558249114 -0.37560889557154792 0 -0.19918410240495979 -0.38392337307564889 0 -0.196918668663152 -0.37020223486109288 0 -0.18555671673175991 -0.39250819044721152 0 -0.1810596558249114 -0.37560889557154792 0 -0.19918410240495979 -0.38392337307564889 0 -0.19918410240495979 -0.38392337307564889 0 -0.196918668663152 -0.37020223486109288 0 -0.20992757436673851 -0.37114289533966333 0 -0.19918410240495979 -0.38392337307564889 0 -0.1952134243462208 -0.40328967868685872 0 -0.20874171948151429 -0.39315575475755749 0 -0.18555671673175991 -0.39250819044721152 0 -0.19918410240495979 -0.38392337307564889 0 -0.1952134243462208 -0.40328967868685872 0 -0.1952134243462208 -0.40328967868685872 0 -0.21479474156341469 -0.40600851912214753 0 -0.20874171948151429 -0.39315575475755749 0 -0.21479474156341469 -0.40600851912214753 0 -0.20874171948151429 -0.39315575475755749 0 -0.2193817763716874 -0.3901622986331017 0 -0.20874171948151429 -0.39315575475755749 0 -0.2148570446198568 -0.38201038698090728 0 -0.2193817763716874 -0.3901622986331017 0 -0.19918410240495979 -0.38392337307564889 0 -0.20874171948151429 -0.39315575475755749 0 -0.2148570446198568 -0.38201038698090728 0 -0.19918410240495979 -0.38392337307564889 0 -0.2148570446198568 -0.38201038698090728 0 -0.20992757436673851 -0.37114289533966333 0 -0.19027144004150581 -0.4495174471162573 0 -0.19527208350163441 -0.4234642685545727 0 -0.21628915791866271 -0.4276491881897535 0 -0.19027144004150581 -0.4495174471162573 0 -0.17828216694819549 -0.4388094163031282 0 -0.19527208350163441 -0.4234642685545727 0 -0.1952134243462208 -0.40328967868685872 0 -0.21479474156341469 -0.40600851912214753 0 -0.19527208350163441 -0.4234642685545727 0 -0.17723470850185979 -0.41151074028866153 0 -0.1952134243462208 -0.40328967868685872 0 -0.19527208350163441 -0.4234642685545727 0 -0.21479474156341469 -0.40600851912214753 0 -0.19527208350163441 -0.4234642685545727 0 -0.21479474156341469 -0.40600851912214753 0 -0.19527208350163441 -0.4234642685545727 0 -0.21628915791866271 -0.4276491881897535 0 -0.21628915791866271 -0.4276491881897535 0 -0.2345529617916268 -0.41677898593316409 0 -0.23645587082536751 -0.4365076759126606 0 -0.21479474156341469 -0.40600851912214753 0 -0.21628915791866271 -0.4276491881897535 0 -0.22738588161411261 -0.40654546369238997 0 -0.21628915791866271 -0.4276491881897535 0 -0.22738588161411261 -0.40654546369238997 0 -0.2345529617916268 -0.41677898593316409 0 -0.25675704345483302 -0.41399047922132559 0 -0.2345529617916268 -0.41677898593316409 0 -0.2372374953434499 -0.39186300702011151 0 -0.25675704345483302 -0.41399047922132559 0 -0.25613493996594611 -0.44308430256210402 0 -0.23645587082536751 -0.4365076759126606 0 -0.25675704345483302 -0.41399047922132559 0 -0.2345529617916268 -0.41677898593316409 0 -0.23645587082536751 -0.4365076759126606 0 -0.23431739962519479 -0.38855276968972241 0 -0.22574676483315639 -0.37883704870963442 0 -0.23431739962519479 -0.38855276968972241 0 -0.22574676483315639 -0.37883704870963442 0 -0.2372892476308251 -0.37744977955633141 0 -0.22574676483315639 -0.37883704870963442 0 -0.2372892476308251 -0.37744977955633141 0 -0.23731073328364549 -0.36947219613226462 0 -0.2148570446198568 -0.38201038698090728 0 -0.22574676483315639 -0.37883704870963442 0 -0.221428928134909 -0.36828508539720051 0 -0.2148570446198568 -0.38201038698090728 0 -0.22574676483315639 -0.37883704870963442 0 -0.2193817763716874 -0.3901622986331017 0 -0.23431739962519479 -0.38855276968972241 0 -0.22574676483315639 -0.37883704870963442 0 -0.2193817763716874 -0.3901622986331017 0 -0.21479474156341469 -0.40600851912214753 0 -0.23431739962519479 -0.38855276968972241 0 -0.23157249238798669 -0.39465860508820522 0 -0.21479474156341469 -0.40600851912214753 0 -0.23431739962519479 -0.38855276968972241 0 -0.2193817763716874 -0.3901622986331017 0 -0.21479474156341469 -0.40600851912214753 0 -0.23431739962519479 -0.38855276968972241 0 -0.21479474156341469 -0.40600851912214753 0 -0.22738588161411261 -0.40654546369238997 0 -0.23157249238798669 -0.39465860508820522 0 -0.22738588161411261 -0.40654546369238997 0 -0.2345529617916268 -0.41677898593316409 0 -0.2372374953434499 -0.39186300702011151 0 -0.22738588161411261 -0.40654546369238997 0 -0.23157249238798669 -0.39465860508820522 0 -0.2372374953434499 -0.39186300702011151 0 -0.25675704345483302 -0.41399047922132559 0 -0.2372374953434499 -0.39186300702011151 0 -0.23431739962519479 -0.38855276968972241 0 -0.23157249238798669 -0.39465860508820522 0 -0.2372374953434499 -0.39186300702011151 0 -0.23157249238798669 -0.39465860508820522 0 -0.2372374953434499 -0.39186300702011151 0 -0.25178209278130109 -0.37293710369370131 0 -0.23431739962519479 -0.38855276968972241 0 -0.2372374953434499 -0.39186300702011151 0 -0.25178209278130109 -0.37293710369370131 0 -0.23431739962519479 -0.38855276968972241 0 -0.25178209278130109 -0.37293710369370131 0 -0.23431739962519479 -0.38855276968972241 0 -0.2372892476308251 -0.37744977955633141 0 -0.25737379307654112 -0.38192603161449451 0 -0.2372374953434499 -0.39186300702011151 0 -0.25178209278130109 -0.37293710369370131 0 -0.25737379307654112 -0.38192603161449451 0 -0.2372374953434499 -0.39186300702011151 0 -0.23431739962519479 -0.38855276968972241 0 -0.2372374953434499 -0.39186300702011151 0 -0.25178209278130109 -0.37293710369370131 0 -0.25296301334509169 -0.35338542617414909 0 -0.2405989544282213 -0.35495966941138801 0 -0.25178209278130109 -0.37293710369370131 0 -0.23731073328364549 -0.36947219613226462 0 -0.2405989544282213 -0.35495966941138801 0 -0.25178209278130109 -0.37293710369370131 0 -0.2405989544282213 -0.35495966941138801 0 -0.23731073328364549 -0.36947219613226462 0 -0.22734536248591539 -0.35517649695999448 0 -0.2405989544282213 -0.35495966941138801 0 -0.25178209278130109 -0.37293710369370131 0 -0.2372892476308251 -0.37744977955633141 0 -0.23731073328364549 -0.36947219613226462 0 -0.22574676483315639 -0.37883704870963442 0 -0.23731073328364549 -0.36947219613226462 0 -0.221428928134909 -0.36828508539720051 0 -0.23731073328364549 -0.36947219613226462 0 -0.221428928134909 -0.36828508539720051 0 -0.22734536248591539 -0.35517649695999448 0 -0.221428928134909 -0.36828508539720051 0 -0.22734536248591539 -0.35517649695999448 0 -0.21614092110227079 -0.35689280864274658 0 -0.21897851802408169 -0.34509473254085682 0 -0.22734536248591539 -0.35517649695999448 0 -0.22941581607514211 -0.33698223512907438 0 -0.22734536248591539 -0.35517649695999448 0 -0.2405989544282213 -0.35495966941138801 0 -0.22941581607514211 -0.33698223512907438 0 -0.21897851802408169 -0.34509473254085682 0 -0.22734536248591539 -0.35517649695999448 0 -0.21614092110227079 -0.35689280864274658 0 -0.2405989544282213 -0.35495966941138801 0 -0.22941581607514211 -0.33698223512907438 0 -0.25296301334509169 -0.35338542617414909 0 -0.2405989544282213 -0.35495966941138801 0 -0.24850765480441239 -0.33898137260458949 0 -0.2405989544282213 -0.35495966941138801 0 -0.24850765480441239 -0.33898137260458949 0 -0.22941581607514211 -0.33698223512907438 0 -0.24850765480441239 -0.33898137260458949 0 -0.24118879768923929 -0.32109687829571992 0 -0.22941581607514211 -0.33698223512907438 0 -0.24118879768923929 -0.32109687829571992 0 -0.22259027895592151 -0.32421160212531941 0 -0.22941581607514211 -0.33698223512907438 0 -0.24118879768923929 -0.32109687829571992 0 -0.22259027895592151 -0.32421160212531941 0 -0.2260968707626885 -0.30211899151405158 0 -0.22259027895592151 -0.32421160212531941 0 -0.2260968707626885 -0.30211899151405158 0 -0.21363158128548959 -0.31213349011567498 0 -0.22259027895592151 -0.32421160212531941 0 -0.22941581607514211 -0.33698223512907438 0 -0.214089367151584 -0.33333411741825653 0 -0.21897851802408169 -0.34509473254085682 0 -0.22941581607514211 -0.33698223512907438 0 -0.214089367151584 -0.33333411741825653 0 -0.21897851802408169 -0.34509473254085682 0 -0.214089367151584 -0.33333411741825653 0 -0.2075045155710514 -0.34434349554133942 0 -0.214089367151584 -0.33333411741825653 0 -0.19779305490184579 -0.33188626504128321 0 -0.2075045155710514 -0.34434349554133942 0 -0.214089367151584 -0.33333411741825653 0 -0.2083079585172766 -0.321825738095178 0 -0.19779305490184579 -0.33188626504128321 0 -0.22259027895592151 -0.32421160212531941 0 -0.2083079585172766 -0.321825738095178 0 -0.21363158128548959 -0.31213349011567498 0 -0.22259027895592151 -0.32421160212531941 0 -0.214089367151584 -0.33333411741825653 0 -0.2083079585172766 -0.321825738095178 0 -0.2083079585172766 -0.321825738095178 0 -0.20308984650200351 -0.31289129921487552 0 -0.21363158128548959 -0.31213349011567498 0 -0.2083079585172766 -0.321825738095178 0 -0.19779305490184579 -0.33188626504128321 0 -0.18088463916216699 -0.31287542871528989 0 -0.2083079585172766 -0.321825738095178 0 -0.20308984650200351 -0.31289129921487552 0 -0.18088463916216699 -0.31287542871528989 0 -0.2083079585172766 -0.321825738095178 0 -0.18088463916216699 -0.31287542871528989 0 -0.19779305490184579 -0.33188626504128321 0 -0.18970455520979251 -0.34745833399752951 0 -0.2075045155710514 -0.34434349554133942 0 -0.19779305490184579 -0.33188626504128321 0 -0.18970455520979251 -0.34745833399752951 0 -0.18321050274585821 -0.33333410624007448 0 -0.18970455520979251 -0.34745833399752951 0 -0.2021507285191598 -0.35834878372009388 0 -0.2075045155710514 -0.34434349554133942 0 -0.18970455520979251 -0.34745833399752951 0 -0.2021507285191598 -0.35834878372009388 0 -0.18954624389734259 -0.36036005600234922 0 -0.1810596558249114 -0.37560889557154792 0 -0.18954624389734259 -0.36036005600234922 0 -0.196918668663152 -0.37020223486109288 0 -0.2021507285191598 -0.35834878372009388 0 -0.18954624389734259 -0.36036005600234922 0 -0.196918668663152 -0.37020223486109288 0 -0.2021507285191598 -0.35834878372009388 0 -0.196918668663152 -0.37020223486109288 0 -0.20992757436673851 -0.37114289533966333 0 -0.2021507285191598 -0.35834878372009388 0 -0.20992757436673851 -0.37114289533966333 0 -0.21614092110227079 -0.35689280864274658 0 -0.2148570446198568 -0.38201038698090728 0 -0.221428928134909 -0.36828508539720051 0 -0.20992757436673851 -0.37114289533966333 0 -0.221428928134909 -0.36828508539720051 0 -0.20992757436673851 -0.37114289533966333 0 -0.21614092110227079 -0.35689280864274658 0 -0.21897851802408169 -0.34509473254085682 0 -0.21614092110227079 -0.35689280864274658 0 -0.2075045155710514 -0.34434349554133942 0 -0.2021507285191598 -0.35834878372009388 0 -0.21614092110227079 -0.35689280864274658 0 -0.2075045155710514 -0.34434349554133942 0 -0.23594881676123919 -0.26223752936390238 0 -0.2160922748366445 -0.26905614541317319 0 -0.2094712174019627 -0.25197159488848869 0 -0.23594881676123919 -0.26223752936390238 0 -0.2094712174019627 -0.25197159488848869 0 -0.2364859768612623 -0.24275999707851101 0 -0.25179616738339811 -0.27149644277122242 0 -0.25629565504287088 -0.25225484723897162 0 -0.23594881676123919 -0.26223752936390238 0 -0.25629565504287088 -0.25225484723897162 0 -0.23594881676123919 -0.26223752936390238 0 -0.2364859768612623 -0.24275999707851101 0 -0.25179616738339811 -0.27149644277122242 0 -0.23594881676123919 -0.26223752936390238 0 -0.22974605711586429 -0.2784725582687782 0 -0.25179616738339811 -0.27149644277122242 0 -0.22974605711586429 -0.2784725582687782 0 -0.23594881676123919 -0.26223752936390238 0 -0.22974605711586429 -0.2784725582687782 0 -0.2160922748366445 -0.26905614541317319 0 -0.22974605711586429 -0.2784725582687782 0 -0.2260968707626885 -0.30211899151405158 0 -0.20769594684833059 -0.28544867376633398 0 -0.25341448451129928 -0.29791910057935322 0 -0.22974605711586429 -0.2784725582687782 0 -0.2260968707626885 -0.30211899151405158 0 -0.25341448451129928 -0.29791910057935322 0 -0.25179616738339811 -0.27149644277122242 0 -0.22974605711586429 -0.2784725582687782 0 -0.25341448451129928 -0.29791910057935322 0 -0.24118879768923929 -0.32109687829571992 0 -0.2260968707626885 -0.30211899151405158 0 -0.2260968707626885 -0.30211899151405158 0 -0.21363158128548959 -0.31213349011567498 0 -0.20807295168955789 -0.29961981962895051 0 -0.20308984650200351 -0.31289129921487552 0 -0.21363158128548959 -0.31213349011567498 0 -0.20807295168955789 -0.29961981962895051 0 -0.20308984650200351 -0.31289129921487552 0 -0.20807295168955789 -0.29961981962895051 0 -0.18564583658079689 -0.29242478926389021 0 -0.20308984650200351 -0.31289129921487552 0 -0.18564583658079689 -0.29242478926389021 0 -0.18088463916216699 -0.31287542871528989 0 -0.20308984650200351 -0.31289129921487552 0 -0.18564583658079689 -0.29242478926389021 0 -0.20807295168955789 -0.29961981962895051 0 -0.20769594684833059 -0.28544867376633398 0 -0.18564583658079689 -0.29242478926389021 0 -0.20769594684833059 -0.28544867376633398 0 -0.18564583658079689 -0.29242478926389021 0 -0.20769594684833059 -0.28544867376633398 0 -0.18656347794224051 -0.27575555325237128 0 -0.18564583658079689 -0.29242478926389021 0 -0.22974605711586429 -0.2784725582687782 0 -0.20769594684833059 -0.28544867376633398 0 -0.2260968707626885 -0.30211899151405158 0 -0.20807295168955789 -0.29961981962895051 0 -0.20769594684833059 -0.28544867376633398 0 -0.20769594684833059 -0.28544867376633398 0 -0.2160922748366445 -0.26905614541317319 0 -0.19667230246410311 -0.26671554588368668 0 -0.22974605711586429 -0.2784725582687782 0 -0.20769594684833059 -0.28544867376633398 0 -0.2160922748366445 -0.26905614541317319 0 -0.20769594684833059 -0.28544867376633398 0 -0.19667230246410311 -0.26671554588368668 0 -0.18656347794224051 -0.27575555325237128 0 -0.19667230246410311 -0.26671554588368668 0 -0.18892555511637321 -0.25057676676141982 0 -0.2094712174019627 -0.25197159488848869 0 -0.2160922748366445 -0.26905614541317319 0 -0.19667230246410311 -0.26671554588368668 0 -0.2094712174019627 -0.25197159488848869 0 -0.16410655646475911 -0.25494090352279258 0 -0.17626101241971229 -0.26417755872883852 0 -0.1727660715931342 -0.24236873598104761 0 -0.1665422913982593 -0.27001119861910711 0 -0.14743874621572239 -0.2475976079743237 0 -0.16410655646475911 -0.25494090352279258 0 -0.1665422913982593 -0.27001119861910711 0 -0.14743874621572239 -0.2475976079743237 0 -0.16410655646475911 -0.25494090352279258 0 -0.17626101241971229 -0.26417755872883852 0 -0.1665422913982593 -0.27001119861910711 0 -0.17626101241971229 -0.26417755872883852 0 -0.1727660715931342 -0.24236873598104761 0 -0.19667230246410311 -0.26671554588368668 0 -0.18892555511637321 -0.25057676676141982 0 -0.17626101241971229 -0.26417755872883852 0 -0.18892555511637321 -0.25057676676141982 0 -0.17626101241971229 -0.26417755872883852 0 -0.1727660715931342 -0.24236873598104761 0 -0.19667230246410311 -0.26671554588368668 0 -0.17626101241971229 -0.26417755872883852 0 -0.18656347794224051 -0.27575555325237128 0 -0.1665422913982593 -0.27001119861910711 0 -0.18564583658079689 -0.29242478926389021 0 -0.17626101241971229 -0.26417755872883852 0 -0.18656347794224051 -0.27575555325237128 0 -0.1665422913982593 -0.27001119861910711 0 -0.18656347794224051 -0.27575555325237128 0 -0.1665422913982593 -0.27001119861910711 0 -0.18564583658079689 -0.29242478926389021 0 -0.1665422913982593 -0.27001119861910711 0 -0.16889954865393869 -0.28714968744843689 0 -0.15589587489671769 -0.28119332026765098 0 -0.1598469203918931 -0.29311220761876539 0 -0.15346131980705741 -0.30392511933540223 0 -0.15589587489671769 -0.28119332026765098 0 -0.1598469203918931 -0.29311220761876539 0 -0.16889954865393869 -0.28714968744843689 0 -0.15589587489671769 -0.28119332026765098 0 -0.1598469203918931 -0.29311220761876539 0 -0.16889954865393869 -0.28714968744843689 0 -0.16113093820985841 -0.30018070342357162 0 -0.16889954865393869 -0.28714968744843689 0 -0.18564583658079689 -0.29242478926389021 0 -0.16113093820985841 -0.30018070342357162 0 -0.18564583658079689 -0.29242478926389021 0 -0.16113093820985841 -0.30018070342357162 0 -0.1665422913982593 -0.27001119861910711 0 -0.16889954865393869 -0.28714968744843689 0 -0.18564583658079689 -0.29242478926389021 0 -0.18564583658079689 -0.29242478926389021 0 -0.16113093820985841 -0.30018070342357162 0 -0.18088463916216699 -0.31287542871528989 0 -0.16113093820985841 -0.30018070342357162 0 -0.15346131980705741 -0.30392511933540223 0 -0.18088463916216699 -0.31287542871528989 0 -0.15346131980705741 -0.30392511933540223 0 -0.18088463916216699 -0.31287542871528989 0 -0.16312498210386481 -0.31760164227140691 0 -0.15346131980705741 -0.30392511933540223 0 -0.18088463916216699 -0.31287542871528989 0 -0.1598469203918931 -0.29311220761876539 0 -0.16113093820985841 -0.30018070342357162 0 -0.15346131980705741 -0.30392511933540223 0 -0.15346131980705741 -0.30392511933540223 0 -0.13499479199465561 -0.29789809047893667 0 -0.14032614384612291 -0.31286687660011808 0 -0.15346131980705741 -0.30392511933540223 0 -0.13499479199465561 -0.29789809047893667 0 -0.14721496087458449 -0.29175987109538021 0 -0.15346131980705741 -0.30392511933540223 0 -0.13499479199465561 -0.29789809047893667 0 -0.12599293952874191 -0.30922481775250371 0 -0.13499479199465561 -0.29789809047893667 0 -0.12058512512032871 -0.28942757248747192 0 -0.12599293952874191 -0.30922481775250371 0 -0.13499479199465561 -0.29789809047893667 0 -0.14032614384612291 -0.31286687660011808 0 -0.13499479199465561 -0.29789809047893667 0 -0.13887973687750529 -0.28273705332217808 0 -0.14721496087458449 -0.29175987109538021 0 -0.13499479199465561 -0.29789809047893667 0 -0.13887973687750529 -0.28273705332217808 0 -0.12058512512032871 -0.28942757248747192 0 -0.15346131980705741 -0.30392511933540223 0 -0.15589587489671769 -0.28119332026765098 0 -0.15346131980705741 -0.30392511933540223 0 -0.14721496087458449 -0.29175987109538021 0 -0.15589587489671769 -0.28119332026765098 0 -0.13887973687750529 -0.28273705332217808 0 -0.14721496087458449 -0.29175987109538021 0 -0.15589587489671769 -0.28119332026765098 0 -0.13887973687750529 -0.28273705332217808 0 -0.14499409829405871 -0.26632994298924789 0 -0.15589587489671769 -0.28119332026765098 0 -0.1665422913982593 -0.27001119861910711 0 -0.14499409829405871 -0.26632994298924789 0 -0.15589587489671769 -0.28119332026765098 0 -0.13887973687750529 -0.28273705332217808 0 -0.12959357008468689 -0.26981352261438141 0 -0.12058512512032871 -0.28942757248747192 0 -0.13887973687750529 -0.28273705332217808 0 -0.14499409829405871 -0.26632994298924789 0 -0.12959357008468689 -0.26981352261438141 0 -0.14499409829405871 -0.26632994298924789 0 -0.12783502876700201 -0.25298843725821879 0 -0.14743874621572239 -0.2475976079743237 0 -0.14499409829405871 -0.26632994298924789 0 -0.12959357008468689 -0.26981352261438141 0 -0.12783502876700201 -0.25298843725821879 0 -0.1665422913982593 -0.27001119861910711 0 -0.14499409829405871 -0.26632994298924789 0 -0.14743874621572239 -0.2475976079743237 0 -0.17162689016521271 -0.34552554633050919 0 -0.15934025003253169 -0.35695693823075342 0 -0.17619109003182529 -0.35894738637180301 0 -0.17162689016521271 -0.34552554633050919 0 -0.15934025003253169 -0.35695693823075342 0 -0.1490783240795662 -0.34484979531220439 0 -0.16372302652915999 -0.3805738775139425 0 -0.1810596558249114 -0.37560889557154792 0 -0.16586894506116109 -0.36777454809812932 0 -0.15934025003253169 -0.35695693823075342 0 -0.16586894506116109 -0.36777454809812932 0 -0.1468868262158215 -0.36531213330060558 0 -0.16372302652915999 -0.3805738775139425 0 -0.16586894506116109 -0.36777454809812932 0 -0.1468868262158215 -0.36531213330060558 0 -0.15934025003253169 -0.35695693823075342 0 -0.16586894506116109 -0.36777454809812932 0 -0.17619109003182529 -0.35894738637180301 0 -0.1810596558249114 -0.37560889557154792 0 -0.18954624389734259 -0.36036005600234922 0 -0.17619109003182529 -0.35894738637180301 0 -0.1810596558249114 -0.37560889557154792 0 -0.16586894506116109 -0.36777454809812932 0 -0.17619109003182529 -0.35894738637180301 0 -0.18970455520979251 -0.34745833399752951 0 -0.17162689016521271 -0.34552554633050919 0 -0.17619109003182529 -0.35894738637180301 0 -0.18970455520979251 -0.34745833399752951 0 -0.18954624389734259 -0.36036005600234922 0 -0.17619109003182529 -0.35894738637180301 0 -0.18970455520979251 -0.34745833399752951 0 -0.17162689016521271 -0.34552554633050919 0 -0.18321050274585821 -0.33333410624007448 0 -0.17162689016521271 -0.34552554633050919 0 -0.18321050274585821 -0.33333410624007448 0 -0.1668841475029238 -0.32921856371113217 0 -0.19779305490184579 -0.33188626504128321 0 -0.18321050274585821 -0.33333410624007448 0 -0.18088463916216699 -0.31287542871528989 0 -0.18321050274585821 -0.33333410624007448 0 -0.18088463916216699 -0.31287542871528989 0 -0.1668841475029238 -0.32921856371113217 0 -0.18088463916216699 -0.31287542871528989 0 -0.16312498210386481 -0.31760164227140691 0 -0.1668841475029238 -0.32921856371113217 0 -0.16312498210386481 -0.31760164227140691 0 -0.1668841475029238 -0.32921856371113217 0 -0.1512698219433109 -0.32438745732380331 0 -0.17162689016521271 -0.34552554633050919 0 -0.1668841475029238 -0.32921856371113217 0 -0.1490783240795662 -0.34484979531220439 0 -0.1668841475029238 -0.32921856371113217 0 -0.1512698219433109 -0.32438745732380331 0 -0.1490783240795662 -0.34484979531220439 0 -0.1512698219433109 -0.32438745732380331 0 -0.1490783240795662 -0.34484979531220439 0 -0.1512698219433109 -0.32438745732380331 0 -0.13159680307313529 -0.32895416856543203 0 -0.1490783240795662 -0.34484979531220439 0 -0.15346131980705741 -0.30392511933540223 0 -0.1512698219433109 -0.32438745732380331 0 -0.14032614384612291 -0.31286687660011808 0 -0.1512698219433109 -0.32438745732380331 0 -0.14032614384612291 -0.31286687660011808 0 -0.13159680307313529 -0.32895416856543203 0 -0.15346131980705741 -0.30392511933540223 0 -0.16312498210386481 -0.31760164227140691 0 -0.1512698219433109 -0.32438745732380331 0 -0.15346131980705741 -0.30392511933540223 0 -0.1512698219433109 -0.32438745732380331 0 -0.12599293952874191 -0.30922481775250371 0 -0.14032614384612291 -0.31286687660011808 0 -0.13159680307313529 -0.32895416856543203 0 -0.13159680307313529 -0.32895416856543203 0 -0.1343693470551266 -0.35046182981923629 0 -0.1490783240795662 -0.34484979531220439 0 -0.13159680307313529 -0.32895416856543203 0 -0.1343693470551266 -0.35046182981923629 0 -0.1171756458323117 -0.34261379936627512 0 -0.1343693470551266 -0.35046182981923629 0 -0.12710913607479821 -0.37057925255166407 0 -0.1171756458323117 -0.34261379936627512 0 -0.1343693470551266 -0.35046182981923629 0 -0.1490783240795662 -0.34484979531220439 0 -0.1468868262158215 -0.36531213330060558 0 -0.15934025003253169 -0.35695693823075342 0 -0.1490783240795662 -0.34484979531220439 0 -0.1468868262158215 -0.36531213330060558 0 -0.1490783240795662 -0.34484979531220439 0 -0.1468868262158215 -0.36531213330060558 0 -0.1343693470551266 -0.35046182981923629 0 -0.1468868262158215 -0.36531213330060558 0 -0.12710913607479821 -0.37057925255166407 0 -0.12710913607479821 -0.37057925255166407 0 -0.1090926814075614 -0.36123185804470642 0 -0.1043683554531384 -0.38510208906408527 0 -0.1090926814075614 -0.36123185804470642 0 -0.088841222868538919 -0.36259011055714219 0 -0.1043683554531384 -0.38510208906408527 0 -0.088841222868538919 -0.36259011055714219 0 -0.1043683554531384 -0.38510208906408527 0 -0.1090926814075614 -0.36123185804470642 0 -0.092849739713128487 -0.33598747693130948 0 -0.088841222868538919 -0.36259011055714219 0 -0.1090926814075614 -0.36123185804470642 0 -0.1171756458323117 -0.34261379936627512 0 -0.092849739713128487 -0.33598747693130948 0 -0.12710913607479821 -0.37057925255166407 0 -0.1171756458323117 -0.34261379936627512 0 -0.12710913607479821 -0.37057925255166407 0 -0.1090926814075614 -0.36123185804470642 0 -0.1171756458323117 -0.34261379936627512 0 -0.13159680307313529 -0.32895416856543203 0 -0.1171756458323117 -0.34261379936627512 0 -0.1072421555898251 -0.31464834618088622 0 -0.1171756458323117 -0.34261379936627512 0 -0.1072421555898251 -0.31464834618088622 0 -0.12599293952874191 -0.30922481775250371 0 -0.13159680307313529 -0.32895416856543203 0 -0.1072421555898251 -0.31464834618088622 0 -0.1072421555898251 -0.31464834618088622 0 -0.092849739713128487 -0.33598747693130948 0 -0.088755692644659143 -0.30965184683632019 0 -0.1171756458323117 -0.34261379936627512 0 -0.1072421555898251 -0.31464834618088622 0 -0.092849739713128487 -0.33598747693130948 0 -0.092849739713128487 -0.33598747693130948 0 -0.075302732016328006 -0.32328020580781142 0 -0.088755692644659143 -0.30965184683632019 0 -0.075302732016328006 -0.32328020580781142 0 -0.053383708123482629 -0.31312996528376852 0 -0.075302732016328006 -0.32328020580781142 0 -0.065581464885759305 -0.33805534237264118 0 -0.053383708123482629 -0.31312996528376852 0 -0.092849739713128487 -0.33598747693130948 0 -0.075302732016328006 -0.32328020580781142 0 -0.065581464885759305 -0.33805534237264118 0 -0.065581464885759305 -0.33805534237264118 0 -0.088841222868538919 -0.36259011055714219 0 -0.05711441804753721 -0.35770276753055691 0 -0.088841222868538919 -0.36259011055714219 0 -0.05711441804753721 -0.35770276753055691 0 -0.070975503871026122 -0.37926512097795351 0 -0.092849739713128487 -0.33598747693130948 0 -0.065581464885759305 -0.33805534237264118 0 -0.088841222868538919 -0.36259011055714219 0 -0.1079564112694113 -0.2662030335678045 0 -0.084869941128291729 -0.25247235779422461 0 -0.1086921457049473 -0.24280249907401519 0 -0.12783502876700201 -0.25298843725821879 0 -0.1079564112694113 -0.2662030335678045 0 -0.1086921457049473 -0.24280249907401519 0 -0.12959357008468689 -0.26981352261438141 0 -0.12783502876700201 -0.25298843725821879 0 -0.1079564112694113 -0.2662030335678045 0 -0.12959357008468689 -0.26981352261438141 0 -0.1079564112694113 -0.2662030335678045 0 -0.12058512512032871 -0.28942757248747192 0 -0.1079564112694113 -0.2662030335678045 0 -0.097308665347338508 -0.28668289299549687 0 -0.085870172585279902 -0.27196656986707679 0 -0.1079564112694113 -0.2662030335678045 0 -0.097308665347338508 -0.28668289299549687 0 -0.12058512512032871 -0.28942757248747192 0 -0.12599293952874191 -0.30922481775250371 0 -0.1072421555898251 -0.31464834618088622 0 -0.12058512512032871 -0.28942757248747192 0 -0.1072421555898251 -0.31464834618088622 0 -0.097308665347338508 -0.28668289299549687 0 -0.088755692644659143 -0.30965184683632019 0 -0.1072421555898251 -0.31464834618088622 0 -0.097308665347338508 -0.28668289299549687 0 -0.1072421555898251 -0.31464834618088622 0 -0.097308665347338508 -0.28668289299549687 0 -0.12058512512032871 -0.28942757248747192 0 -0.075302732016328006 -0.32328020580781142 0 -0.088755692644659143 -0.30965184683632019 0 -0.073994170054461378 -0.29551334001843949 0 -0.097308665347338508 -0.28668289299549687 0 -0.088755692644659143 -0.30965184683632019 0 -0.073994170054461378 -0.29551334001843949 0 -0.075302732016328006 -0.32328020580781142 0 -0.073994170054461378 -0.29551334001843949 0 -0.053383708123482629 -0.31312996528376852 0 -0.073994170054461378 -0.29551334001843949 0 -0.066490554756674772 -0.27013103281387851 0 -0.051201388369552812 -0.28878346145132022 0 -0.097308665347338508 -0.28668289299549687 0 -0.073994170054461378 -0.29551334001843949 0 -0.085870172585279902 -0.27196656986707679 0 -0.073994170054461378 -0.29551334001843949 0 -0.085870172585279902 -0.27196656986707679 0 -0.066490554756674772 -0.27013103281387851 0 -0.066490554756674772 -0.27013103281387851 0 -0.084869941128291729 -0.25247235779422461 0 -0.061554342990853231 -0.25113123870213921 0 -0.1079564112694113 -0.2662030335678045 0 -0.085870172585279902 -0.27196656986707679 0 -0.084869941128291729 -0.25247235779422461 0 -0.085870172585279902 -0.27196656986707679 0 -0.066490554756674772 -0.27013103281387851 0 -0.084869941128291729 -0.25247235779422461 0 -0.044743832239017477 -0.26243826449173591 0 -0.02958787285616624 -0.26289895315762501 0 -0.02801485863948721 -0.2461010478703036 0 -0.066490554756674772 -0.27013103281387851 0 -0.044743832239017477 -0.26243826449173591 0 -0.061554342990853231 -0.25113123870213921 0 -0.044743832239017477 -0.26243826449173591 0 -0.061554342990853231 -0.25113123870213921 0 -0.045852841200671929 -0.23969174770891269 0 -0.066490554756674772 -0.27013103281387851 0 -0.044743832239017477 -0.26243826449173591 0 -0.051201388369552812 -0.28878346145132022 0 -0.044743832239017477 -0.26243826449173591 0 -0.036858423023912609 -0.28577950815247538 0 -0.027490259649605161 -0.27697500933877189 0 -0.044743832239017477 -0.26243826449173591 0 -0.036858423023912609 -0.28577950815247538 0 -0.051201388369552812 -0.28878346145132022 0 -0.044743832239017477 -0.26243826449173591 0 -0.027490259649605161 -0.27697500933877189 0 -0.02958787285616624 -0.26289895315762501 0 -0.036858423023912609 -0.28577950815247538 0 -0.051201388369552812 -0.28878346145132022 0 -0.031464684230637252 -0.30297972475972562 0 -0.073994170054461378 -0.29551334001843949 0 -0.051201388369552812 -0.28878346145132022 0 -0.053383708123482629 -0.31312996528376852 0 -0.031464684230637252 -0.30297972475972562 0 -0.053383708123482629 -0.31312996528376852 0 -0.031464684230637252 -0.30297972475972562 0 -0.053383708123482629 -0.31312996528376852 0 -0.029490238006115721 -0.31810603139155541 0 -0.051201388369552812 -0.28878346145132022 0 -0.031464684230637252 -0.30297972475972562 0 -0.053383708123482629 -0.31312996528376852 0 -0.031464684230637252 -0.30297972475972562 0 -0.0095456603377921771 -0.29282948423568211 0 -0.031464684230637252 -0.30297972475972562 0 -0.015525548193752819 -0.31196672942324061 0 -0.029490238006115721 -0.31810603139155541 0 -0.031464684230637252 -0.30297972475972562 0 -0.015525548193752819 -0.31196672942324061 0 -0.0095456603377921771 -0.29282948423568211 0 -0.015525548193752819 -0.31196672942324061 0 -0.0001097783325532953 -0.30639892047602713 0 -0.0095456603377921771 -0.29282948423568211 0 -0.015525548193752819 -0.31196672942324061 0 -0.0095456603377921771 -0.29282948423568211 0 -0.0001097783325532953 -0.30639892047602713 0 -0.0095456603377921771 -0.29282948423568211 0 0.00084207949546891842 -0.28801913965445369 0 -0.0095456603377921771 -0.29282948423568211 0 -0.0040781865195992214 -0.275332101419207 0 0.00084207949546891842 -0.28801913965445369 0 -0.0095456603377921771 -0.29282948423568211 0 -0.0040781865195992214 -0.275332101419207 0 -0.0095456603377921771 -0.29282948423568211 0 -0.01513379940660649 -0.28148042456067518 0 -0.0040781865195992214 -0.275332101419207 0 -0.0095456603377921771 -0.29282948423568211 0 0.00084207949546891842 -0.28801913965445369 0 -0.031464684230637252 -0.30297972475972562 0 -0.0095456603377921771 -0.29282948423568211 0 -0.024172043748659101 -0.28814364767908512 0 -0.0095456603377921771 -0.29282948423568211 0 -0.01513379940660649 -0.28148042456067518 0 -0.024172043748659101 -0.28814364767908512 0 -0.01513379940660649 -0.28148042456067518 0 -0.024172043748659101 -0.28814364767908512 0 -0.027490259649605161 -0.27697500933877189 0 -0.036858423023912609 -0.28577950815247538 0 -0.031464684230637252 -0.30297972475972562 0 -0.024172043748659101 -0.28814364767908512 0 -0.036858423023912609 -0.28577950815247538 0 -0.024172043748659101 -0.28814364767908512 0 -0.027490259649605161 -0.27697500933877189 0 -0.01513379940660649 -0.28148042456067518 0 -0.027490259649605161 -0.27697500933877189 0 -0.015990629899430508 -0.2639160348264209 0 -0.027490259649605161 -0.27697500933877189 0 -0.015990629899430508 -0.2639160348264209 0 -0.02958787285616624 -0.26289895315762501 0 -0.0040781865195992214 -0.275332101419207 0 0.001389287298594218 -0.25783471860273199 0 -0.01513379940660649 -0.28148042456067518 0 -0.0040781865195992214 -0.275332101419207 0 -0.015990629899430508 -0.2639160348264209 0 -0.0040781865195992214 -0.275332101419207 0 -0.015990629899430508 -0.2639160348264209 0 0.001389287298594218 -0.25783471860273199 0 -0.015990629899430508 -0.2639160348264209 0 -0.0076987751499405961 -0.24543657877108971 0 0.001389287298594218 -0.25783471860273199 0 -0.015990629899430508 -0.2639160348264209 0 -0.02801485863948721 -0.2461010478703036 0 -0.0076987751499405961 -0.24543657877108971 0 -0.015990629899430508 -0.2639160348264209 0 -0.02958787285616624 -0.26289895315762501 0 -0.02801485863948721 -0.2461010478703036 0 -0.05711441804753721 -0.35770276753055691 0 -0.047379286681812093 -0.33730708977145057 0 -0.028802934558979029 -0.35294302895551333 0 -0.028802934558979029 -0.35294302895551333 0 -0.04314951267219188 -0.37621508319525637 0 -0.05711441804753721 -0.35770276753055691 0 -0.028802934558979029 -0.35294302895551333 0 -0.04314951267219188 -0.37621508319525637 0 -0.020197730823344549 -0.36259301910361169 0 -0.04314951267219188 -0.37621508319525637 0 -0.041293545712737717 -0.38147545932935623 0 -0.05711441804753721 -0.35770276753055691 0 -0.04314951267219188 -0.37621508319525637 0 -0.070975503871026122 -0.37926512097795351 0 -0.065581464885759305 -0.33805534237264118 0 -0.05711441804753721 -0.35770276753055691 0 -0.047379286681812093 -0.33730708977145057 0 -0.065581464885759305 -0.33805534237264118 0 -0.047379286681812093 -0.33730708977145057 0 -0.053383708123482629 -0.31312996528376852 0 -0.047379286681812093 -0.33730708977145057 0 -0.053383708123482629 -0.31312996528376852 0 -0.035471202396781649 -0.33029777013833012 0 -0.053383708123482629 -0.31312996528376852 0 -0.035471202396781649 -0.33029777013833012 0 -0.029490238006115721 -0.31810603139155541 0 -0.047379286681812093 -0.33730708977145057 0 -0.035471202396781649 -0.33029777013833012 0 -0.028802934558979029 -0.35294302895551333 0 -0.035471202396781649 -0.33029777013833012 0 -0.021505436049713 -0.33110397461079921 0 -0.028802934558979029 -0.35294302895551333 0 -0.01445635644576619 -0.32967097471577023 0 -0.0148318569375627 -0.34549765056984771 0 -0.028802934558979029 -0.35294302895551333 0 -0.021505436049713 -0.33110397461079921 0 -0.01445635644576619 -0.32967097471577023 0 -0.028802934558979029 -0.35294302895551333 0 -0.01445635644576619 -0.32967097471577023 0 -0.028802934558979029 -0.35294302895551333 0 -0.015525548193752819 -0.31196672942324061 0 -0.021505436049713 -0.33110397461079921 0 -0.015525548193752819 -0.31196672942324061 0 -0.021505436049713 -0.33110397461079921 0 -0.01445635644576619 -0.32967097471577023 0 -0.015525548193752819 -0.31196672942324061 0 -0.021505436049713 -0.33110397461079921 0 -0.029490238006115721 -0.31810603139155541 0 -0.035471202396781649 -0.33029777013833012 0 -0.021505436049713 -0.33110397461079921 0 -0.029490238006115721 -0.31810603139155541 0 -0.0001097783325532953 -0.30639892047602713 0 -0.01445635644576619 -0.32967097471577023 0 -0.0001097783325532953 -0.30639892047602713 0 -0.01445635644576619 -0.32967097471577023 0 0.0031498237463885681 -0.32561115355848907 0 -0.015525548193752819 -0.31196672942324061 0 -0.0001097783325532953 -0.30639892047602713 0 -0.01445635644576619 -0.32967097471577023 0 -0.01445635644576619 -0.32967097471577023 0 -0.0148318569375627 -0.34549765056984771 0 0.00089808406604861835 -0.34371057887786732 0 -0.01445635644576619 -0.32967097471577023 0 0.00089808406604861835 -0.34371057887786732 0 0.0031498237463885681 -0.32561115355848907 0 -0.020197730823344549 -0.36259301910361169 0 -0.0033811721168725828 -0.36432141729733819 0 0.00089808406604861835 -0.34371057887786732 0 -0.0148318569375627 -0.34549765056984771 0 -0.020197730823344549 -0.36259301910361169 0 0.00089808406604861835 -0.34371057887786732 0 -0.020197730823344549 -0.36259301910361169 0 0.00089808406604861835 -0.34371057887786732 0 -0.0148318569375627 -0.34549765056984771 0 -0.028802934558979029 -0.35294302895551333 0 -0.020197730823344549 -0.36259301910361169 0 -0.020197730823344549 -0.36259301910361169 0 -0.02078285437542602 -0.38155576872625591 0 -0.028518385581780131 -0.37865447982029488 0 -0.020197730823344549 -0.36259301910361169 0 -0.012165234755364979 -0.3736394913015238 0 -0.02078285437542602 -0.38155576872625591 0 -0.020197730823344549 -0.36259301910361169 0 -0.041293545712737717 -0.38147545932935623 0 -0.020197730823344549 -0.36259301910361169 0 -0.028518385581780131 -0.37865447982029488 0 -0.041293545712737717 -0.38147545932935623 0 -0.028802934558979029 -0.35294302895551333 0 -0.020197730823344549 -0.36259301910361169 0 -0.04314951267219188 -0.37621508319525637 0 -0.012165234755364979 -0.3736394913015238 0 -0.0033811721168725828 -0.36432141729733819 0 -0.0042991817058167497 -0.38608776007888962 0 -0.0033811721168725828 -0.36432141729733819 0 -0.0042991817058167497 -0.38608776007888962 0 0.0066728154701173222 -0.36766635767071087 0 -0.020197730823344549 -0.36259301910361169 0 -0.012165234755364979 -0.3736394913015238 0 -0.0033811721168725828 -0.36432141729733819 0 -0.012165234755364979 -0.3736394913015238 0 -0.0042991817058167497 -0.38608776007888962 0 -0.02078285437542602 -0.38155576872625591 0 -0.0042991817058167497 -0.38608776007888962 0 -0.003874804091683717 -0.40226267332460158 0 0.005190832503114251 -0.39120422671356669 0 -0.0042991817058167497 -0.38608776007888962 0 -0.024407216188660361 -0.39858625047051671 0 -0.0042991817058167497 -0.38608776007888962 0 -0.003874804091683717 -0.40226267332460158 0 -0.024407216188660361 -0.39858625047051671 0 -0.003874804091683717 -0.40226267332460158 0 -0.024407216188660361 -0.39858625047051671 0 -0.018881500773306688 -0.41199688820732611 0 -0.0042991817058167497 -0.38608776007888962 0 -0.024407216188660361 -0.39858625047051671 0 -0.02078285437542602 -0.38155576872625591 0 -0.024407216188660361 -0.39858625047051671 0 -0.02078285437542602 -0.38155576872625591 0 -0.031799411415612253 -0.38899367212195601 0 -0.02078285437542602 -0.38155576872625591 0 -0.028518385581780131 -0.37865447982029488 0 -0.031799411415612253 -0.38899367212195601 0 -0.041293545712737717 -0.38147545932935623 0 -0.031799411415612253 -0.38899367212195601 0 -0.040418909122344159 -0.39778899380022431 0 -0.028518385581780131 -0.37865447982029488 0 -0.041293545712737717 -0.38147545932935623 0 -0.031799411415612253 -0.38899367212195601 0 -0.041293545712737717 -0.38147545932935623 0 -0.040418909122344159 -0.39778899380022431 0 -0.05749609078540472 -0.39948713743499942 0 -0.040418909122344159 -0.39778899380022431 0 -0.05749609078540472 -0.39948713743499942 0 -0.039148256876670909 -0.41666134431090729 0 -0.024407216188660361 -0.39858625047051671 0 -0.031799411415612253 -0.38899367212195601 0 -0.040418909122344159 -0.39778899380022431 0 -0.024407216188660361 -0.39858625047051671 0 -0.040418909122344159 -0.39778899380022431 0 -0.039148256876670909 -0.41666134431090729 0 -0.04314951267219188 -0.37621508319525637 0 -0.05749609078540472 -0.39948713743499942 0 -0.070975503871026122 -0.37926512097795351 0 -0.04314951267219188 -0.37621508319525637 0 -0.041293545712737717 -0.38147545932935623 0 -0.05749609078540472 -0.39948713743499942 0 -0.04314951267219188 -0.37621508319525637 0 -0.05749609078540472 -0.39948713743499942 0 -0.05749609078540472 -0.39948713743499942 0 -0.039148256876670909 -0.41666134431090729 0 -0.071842668898617554 -0.42275919167474252 0 -0.049801438632991663 -0.43601279411208083 0 -0.039148256876670909 -0.41666134431090729 0 -0.071842668898617554 -0.42275919167474252 0 -0.049801438632991663 -0.43601279411208083 0 -0.065817334916284678 -0.44595810204174119 0 -0.071842668898617554 -0.42275919167474252 0 -0.049801438632991663 -0.43601279411208083 0 -0.039148256876670909 -0.41666134431090729 0 -0.030165167468855541 -0.43892286347769149 0 -0.039148256876670909 -0.41666134431090729 0 -0.020247734810040881 -0.42594208601791589 0 -0.030165167468855541 -0.43892286347769149 0 -0.020247734810040881 -0.42594208601791589 0 -0.030165167468855541 -0.43892286347769149 0 -0.01694588708312849 -0.43878254254840582 0 -0.039148256876670909 -0.41666134431090729 0 -0.020247734810040881 -0.42594208601791589 0 -0.018881500773306688 -0.41199688820732611 0 -0.024407216188660361 -0.39858625047051671 0 -0.039148256876670909 -0.41666134431090729 0 -0.018881500773306688 -0.41199688820732611 0 -0.003874804091683717 -0.40226267332460158 0 -0.018881500773306688 -0.41199688820732611 0 -0.0067294918994775773 -0.41653208691268861 0 -0.020247734810040881 -0.42594208601791589 0 -0.018881500773306688 -0.41199688820732611 0 -0.0067294918994775773 -0.41653208691268861 0 -0.0067294918994775773 -0.41653208691268861 0 0.0039341323720228924 -0.42045757728254091 0 0.001614574853448068 -0.41053238532083602 0 -0.003874804091683717 -0.40226267332460158 0 -0.0067294918994775773 -0.41653208691268861 0 0.001614574853448068 -0.41053238532083602 0 -0.020247734810040881 -0.42594208601791589 0 -0.0067294918994775773 -0.41653208691268861 0 -0.0044734541324917346 -0.43050294303249642 0 -0.020247734810040881 -0.42594208601791589 0 -0.0044734541324917346 -0.43050294303249642 0 -0.01694588708312849 -0.43878254254840582 0 -0.0067294918994775773 -0.41653208691268861 0 -0.0044734541324917346 -0.43050294303249642 0 0.0039341323720228924 -0.42045757728254091 0 -0.0064696008314648933 -0.44538347630650588 0 -0.023373478172789411 -0.45316134390741919 0 -0.01694588708312849 -0.43878254254840582 0 -0.0064696008314648933 -0.44538347630650588 0 -0.01173380145029454 -0.45902410223848839 0 -0.023373478172789411 -0.45316134390741919 0 -0.0044734541324917346 -0.43050294303249642 0 -0.0064696008314648933 -0.44538347630650588 0 0.00098856455182785743 -0.44494076730793158 0 -0.0044734541324917346 -0.43050294303249642 0 -0.0064696008314648933 -0.44538347630650588 0 -0.01694588708312849 -0.43878254254840582 0 -0.0064696008314648933 -0.44538347630650588 0 -0.0023298791104773078 -0.45519920744487702 0 0.00098856455182785743 -0.44494076730793158 0 -0.0023298791104773078 -0.45519920744487702 0 -0.01173380145029454 -0.45902410223848839 0 -0.0033510519106745231 -0.47117148210379811 0 -0.0064696008314648933 -0.44538347630650588 0 -0.0023298791104773078 -0.45519920744487702 0 -0.01173380145029454 -0.45902410223848839 0 -0.01173380145029454 -0.45902410223848839 0 -0.0033510519106745231 -0.47117148210379811 0 -0.023204170644509099 -0.46936899946846877 0 -0.01173380145029454 -0.45902410223848839 0 -0.023373478172789411 -0.45316134390741919 0 -0.023204170644509099 -0.46936899946846877 0 -0.023373478172789411 -0.45316134390741919 0 -0.023204170644509099 -0.46936899946846877 0 -0.034514394691062961 -0.46614482604589269 0 -0.023373478172789411 -0.45316134390741919 0 -0.030165167468855541 -0.43892286347769149 0 -0.01694588708312849 -0.43878254254840582 0 -0.0038120330512322461 -0.49973285163179071 0 -0.0056526033319179696 -0.4862165672612675 0 -0.023048369815564702 -0.48809402893168491 0 -0.0038120330512322461 -0.49973285163179071 0 -0.023048369815564702 -0.48809402893168491 0 -0.0038120330512322461 -0.49973285163179071 0 -0.0056526033319179696 -0.4862165672612675 0 0.0076010414497993187 -0.48586790637779581 0 -0.0033510519106745231 -0.47117148210379811 0 -0.023048369815564702 -0.48809402893168491 0 -0.0056526033319179696 -0.4862165672612675 0 -0.0033510519106745231 -0.47117148210379811 0 -0.023048369815564702 -0.48809402893168491 0 -0.0056526033319179696 -0.4862165672612675 0 -0.0033510519106745231 -0.47117148210379811 0 0.0076010414497993187 -0.48586790637779581 0 -0.0033510519106745231 -0.47117148210379811 0 -0.023204170644509099 -0.46936899946846877 0 -0.023048369815564702 -0.48809402893168491 0 -0.023204170644509099 -0.46936899946846877 0 -0.023048369815564702 -0.48809402893168491 0 -0.041666503340319648 -0.47682924615332378 0 -0.0038120330512322461 -0.49973285163179071 0 -0.023048369815564702 -0.48809402893168491 0 -0.020469244332495421 -0.5 0 -0.030044932408939171 -0.49420214848967498 0 -0.020469244332495421 -0.5 0 -0.036906549644188602 -0.50000000000000422 0 -0.023048369815564702 -0.48809402893168491 0 -0.030044932408939171 -0.49420214848967498 0 -0.023048369815564702 -0.48809402893168491 0 -0.030044932408939171 -0.49420214848967498 0 -0.020469244332495421 -0.5 0 -0.030044932408939171 -0.49420214848967498 0 -0.036906549644188602 -0.50000000000000422 0 -0.053541896647639677 -0.48590253237785391 0 -0.023048369815564702 -0.48809402893168491 0 -0.030044932408939171 -0.49420214848967498 0 -0.041666503340319648 -0.47682924615332378 0 -0.030044932408939171 -0.49420214848967498 0 -0.041666503340319648 -0.47682924615332378 0 -0.053541896647639677 -0.48590253237785391 0 -0.030044932408939171 -0.49420214848967498 0 -0.053541896647639677 -0.48590253237785391 0 -0.030044932408939171 -0.49420214848967498 0 -0.036906549644188602 -0.50000000000000422 0 -0.023204170644509099 -0.46936899946846877 0 -0.041666503340319648 -0.47682924615332378 0 -0.034514394691062961 -0.46614482604589269 0 -0.023048369815564702 -0.48809402893168491 0 -0.041666503340319648 -0.47682924615332378 0 -0.041666503340319648 -0.47682924615332378 0 -0.053541896647639677 -0.48590253237785391 0 -0.060284636865075618 -0.46556446337496432 0 -0.041666503340319648 -0.47682924615332378 0 -0.060284636865075618 -0.46556446337496432 0 -0.036906549644188602 -0.50000000000000422 0 -0.053541896647639677 -0.48590253237785391 0 -0.064424197099366642 -0.5 0 -0.023373478172789411 -0.45316134390741919 0 -0.030165167468855541 -0.43892286347769149 0 -0.04203376500452962 -0.4557624690553217 0 -0.049801438632991663 -0.43601279411208083 0 -0.030165167468855541 -0.43892286347769149 0 -0.04203376500452962 -0.4557624690553217 0 -0.041666503340319648 -0.47682924615332378 0 -0.04203376500452962 -0.4557624690553217 0 -0.034514394691062961 -0.46614482604589269 0 -0.023373478172789411 -0.45316134390741919 0 -0.04203376500452962 -0.4557624690553217 0 -0.034514394691062961 -0.46614482604589269 0 -0.04203376500452962 -0.4557624690553217 0 -0.060284636865075618 -0.46556446337496432 0 -0.065817334916284678 -0.44595810204174119 0 -0.041666503340319648 -0.47682924615332378 0 -0.04203376500452962 -0.4557624690553217 0 -0.060284636865075618 -0.46556446337496432 0 -0.049801438632991663 -0.43601279411208083 0 -0.04203376500452962 -0.4557624690553217 0 -0.065817334916284678 -0.44595810204174119 0 -0.065817334916284678 -0.44595810204174119 0 -0.077973180960914823 -0.46089200555029047 0 -0.086189247011830394 -0.44603124591448562 0 -0.065817334916284678 -0.44595810204174119 0 -0.086189247011830394 -0.44603124591448562 0 -0.071842668898617554 -0.42275919167474252 0 -0.060284636865075618 -0.46556446337496432 0 -0.065817334916284678 -0.44595810204174119 0 -0.077973180960914823 -0.46089200555029047 0 -0.060284636865075618 -0.46556446337496432 0 -0.077973180960914823 -0.46089200555029047 0 -0.077038860886340182 -0.47760291626603268 0 -0.086189247011830394 -0.44603124591448562 0 -0.1005358251250462 -0.46930330015422678 0 -0.077973180960914823 -0.46089200555029047 0 -0.086189247011830394 -0.44603124591448562 0 -0.1005358251250462 -0.46930330015422678 0 -0.053541896647639677 -0.48590253237785391 0 -0.07739630705030888 -0.49104822294670353 0 -0.064424197099366642 -0.5 0 -0.053541896647639677 -0.48590253237785391 0 -0.07739630705030888 -0.49104822294670353 0 -0.077038860886340182 -0.47760291626603268 0 -0.07739630705030888 -0.49104822294670353 0 -0.064424197099366642 -0.5 0 -0.091941844554544683 -0.5 0 -0.053541896647639677 -0.48590253237785391 0 -0.077038860886340182 -0.47760291626603268 0 -0.053541896647639677 -0.48590253237785391 0 -0.060284636865075618 -0.46556446337496432 0 -0.077038860886340182 -0.47760291626603268 0 -0.077038860886340182 -0.47760291626603268 0 -0.098461308510359669 -0.48783541862396118 0 -0.1005358251250462 -0.46930330015422678 0 -0.077038860886340182 -0.47760291626603268 0 -0.1005358251250462 -0.46930330015422678 0 -0.077973180960914823 -0.46089200555029047 0 -0.077038860886340182 -0.47760291626603268 0 -0.1005358251250462 -0.46930330015422678 0 -0.07739630705030888 -0.49104822294670353 0 -0.077038860886340182 -0.47760291626603268 0 -0.098461308510359669 -0.48783541862396118 0 -0.07739630705030888 -0.49104822294670353 0 -0.091941844554544683 -0.5 0 -0.098461308510359669 -0.48783541862396118 0 -0.091941844554544683 -0.5 0 -0.11249404064587799 -0.48870111320868359 0 -0.1194594920097227 -0.49999999999999589 0 -0.091941844554544683 -0.5 0 -0.098461308510359669 -0.48783541862396118 0 -0.11249404064587799 -0.48870111320868359 0 -0.098461308510359669 -0.48783541862396118 0 -0.11249404064587799 -0.48870111320868359 0 -0.1005358251250462 -0.46930330015422678 0 -0.11249404064587799 -0.48870111320868359 0 -0.098461308510359669 -0.48783541862396118 0 -0.1005358251250462 -0.46930330015422678 0 -0.11249404064587799 -0.48870111320868359 0 -0.12635218594803019 -0.46018442496427658 0 -0.1005358251250462 -0.46930330015422678 0 -0.11249404064587799 -0.48870111320868359 0 -0.13883250307434611 -0.4903259617466319 0 -0.11249404064587799 -0.48870111320868359 0 -0.1194594920097227 -0.49999999999999589 0 -0.11249404064587799 -0.48870111320868359 0 -0.1194594920097227 -0.49999999999999589 0 -0.086189247011830394 -0.44603124591448562 0 -0.1037267804727937 -0.45159223747697269 0 -0.10392948612976589 -0.43729380935645318 0 -0.1037267804727937 -0.45159223747697269 0 -0.116327848528598 -0.44169922825859581 0 -0.10392948612976589 -0.43729380935645318 0 -0.086189247011830394 -0.44603124591448562 0 -0.1005358251250462 -0.46930330015422678 0 -0.1037267804727937 -0.45159223747697269 0 -0.12635218594803019 -0.46018442496427658 0 -0.1005358251250462 -0.46930330015422678 0 -0.12635218594803019 -0.46018442496427658 0 -0.1005358251250462 -0.46930330015422678 0 -0.1037267804727937 -0.45159223747697269 0 -0.12635218594803019 -0.46018442496427658 0 -0.1037267804727937 -0.45159223747697269 0 -0.116327848528598 -0.44169922825859581 0 -0.1267486715966917 -0.43608496120513951 0 -0.116327848528598 -0.44169922825859581 0 -0.1157769084892489 -0.4272547779199336 0 -0.116327848528598 -0.44169922825859581 0 -0.1157769084892489 -0.4272547779199336 0 -0.10392948612976589 -0.43729380935645318 0 -0.086189247011830394 -0.44603124591448562 0 -0.10392948612976589 -0.43729380935645318 0 -0.097626646146358464 -0.41989155721227828 0 -0.1157769084892489 -0.4272547779199336 0 -0.10392948612976589 -0.43729380935645318 0 -0.097626646146358464 -0.41989155721227828 0 -0.13542262062233701 -0.43012604607797111 0 -0.1157769084892489 -0.4272547779199336 0 -0.1198954880377377 -0.40761406757102819 0 -0.1157769084892489 -0.4272547779199336 0 -0.097626646146358464 -0.41989155721227828 0 -0.1198954880377377 -0.40761406757102819 0 -0.1198954880377377 -0.40761406757102819 0 -0.1043683554531384 -0.38510208906408527 0 -0.097626646146358464 -0.41989155721227828 0 -0.1198954880377377 -0.40761406757102819 0 -0.1043683554531384 -0.38510208906408527 0 -0.097626646146358464 -0.41989155721227828 0 -0.1043683554531384 -0.38510208906408527 0 -0.081357013902623482 -0.40093921066712213 0 -0.1326699181470313 -0.38921089184346769 0 -0.1198954880377377 -0.40761406757102819 0 -0.1043683554531384 -0.38510208906408527 0 -0.1326699181470313 -0.38921089184346769 0 -0.12710913607479821 -0.37057925255166407 0 -0.1043683554531384 -0.38510208906408527 0 -0.1043683554531384 -0.38510208906408527 0 -0.081357013902623482 -0.40093921066712213 0 -0.070975503871026122 -0.37926512097795351 0 -0.088841222868538919 -0.36259011055714219 0 -0.1043683554531384 -0.38510208906408527 0 -0.070975503871026122 -0.37926512097795351 0 -0.05749609078540472 -0.39948713743499942 0 -0.081357013902623482 -0.40093921066712213 0 -0.070975503871026122 -0.37926512097795351 0 -0.05749609078540472 -0.39948713743499942 0 -0.071842668898617554 -0.42275919167474252 0 -0.05749609078540472 -0.39948713743499942 0 -0.081357013902623482 -0.40093921066712213 0 -0.071842668898617554 -0.42275919167474252 0 -0.086189247011830394 -0.44603124591448562 0 -0.071842668898617554 -0.42275919167474252 0 -0.086189247011830394 -0.44603124591448562 0 -0.097626646146358464 -0.41989155721227828 0 -0.071842668898617554 -0.42275919167474252 0 -0.097626646146358464 -0.41989155721227828 0 -0.081357013902623482 -0.40093921066712213 0 -0.071842668898617554 -0.42275919167474252 0 -0.083401873140895089 -0.093692963245560798 0 -0.10127743641107211 -0.074333843226573326 0 -0.083401873140895089 -0.093692963245560798 0 -0.083335371951451978 -0.076547038697564365 0 -0.10127743641107211 -0.074333843226573326 0 -0.083401873140895089 -0.093692963245560798 0 -0.083335371951451978 -0.076547038697564365 0 -0.071908828865399191 -0.084770114906107988 0 -0.087166213924459446 -0.064703183340834497 0 -0.083335371951451978 -0.076547038697564365 0 -0.10127743641107211 -0.074333843226573326 0 -0.087166213924459446 -0.064703183340834497 0 -0.083335371951451978 -0.076547038697564365 0 -0.06850295887236145 -0.06455039279721575 0 -0.083335371951451978 -0.076547038697564365 0 -0.06850295887236145 -0.06455039279721575 0 -0.071908828865399191 -0.084770114906107988 0 -0.083401873140895089 -0.093692963245560798 0 -0.071908828865399191 -0.084770114906107988 0 -0.066185794693203098 -0.096043606364286868 0 -0.06850295887236145 -0.06455039279721575 0 -0.071908828865399191 -0.084770114906107988 0 -0.055689799951144633 -0.085995370319152886 0 -0.071908828865399191 -0.084770114906107988 0 -0.066185794693203098 -0.096043606364286868 0 -0.055689799951144633 -0.085995370319152886 0 -0.083401873140895089 -0.093692963245560798 0 -0.065526309870718114 -0.1130520832645482 0 -0.082380823308875056 -0.1134657330846166 0 -0.083401873140895089 -0.093692963245560798 0 -0.066185794693203098 -0.096043606364286868 0 -0.065526309870718114 -0.1130520832645482 0 -0.083401873140895089 -0.093692963245560798 0 -0.065526309870718114 -0.1130520832645482 0 -0.065526309870718114 -0.1130520832645482 0 -0.082380823308875056 -0.1134657330846166 0 -0.066275864413308613 -0.131273552593409 0 -0.082380823308875056 -0.1134657330846166 0 -0.084900982226074395 -0.13013590190327931 0 -0.066275864413308613 -0.131273552593409 0 -0.098547206991163872 -0.1086809898263341 0 -0.084900982226074395 -0.13013590190327931 0 -0.082380823308875056 -0.1134657330846166 0 -0.098547206991163872 -0.1086809898263341 0 -0.084900982226074395 -0.13013590190327931 0 -0.083401873140895089 -0.093692963245560798 0 -0.082380823308875056 -0.1134657330846166 0 -0.098547206991163872 -0.1086809898263341 0 -0.083401873140895089 -0.093692963245560798 0 -0.098547206991163872 -0.1086809898263341 0 -0.098499277678230468 -0.093583262820984364 0 -0.098547206991163872 -0.1086809898263341 0 -0.11219343175625129 -0.087226077749387634 0 -0.098499277678230468 -0.093583262820984364 0 -0.098547206991163872 -0.1086809898263341 0 -0.11219343175625129 -0.087226077749387634 0 -0.098547206991163872 -0.1086809898263341 0 -0.11589347819808329 -0.1017419704558797 0 -0.11219343175625129 -0.087226077749387634 0 -0.098547206991163872 -0.1086809898263341 0 -0.084900982226074395 -0.13013590190327931 0 -0.107117776724591 -0.12877886610635991 0 -0.098547206991163872 -0.1086809898263341 0 -0.11803336620412511 -0.1152214066271247 0 -0.107117776724591 -0.12877886610635991 0 -0.11803336620412511 -0.1152214066271247 0 -0.107117776724591 -0.12877886610635991 0 -0.12933457122310771 -0.12742183030944179 0 -0.098547206991163872 -0.1086809898263341 0 -0.11803336620412511 -0.1152214066271247 0 -0.11589347819808329 -0.1017419704558797 0 -0.11803336620412511 -0.1152214066271247 0 -0.11589347819808329 -0.1017419704558797 0 -0.12580692259109499 -0.1082200962336379 0 -0.11589347819808329 -0.1017419704558797 0 -0.12383558658528469 -0.099353472240349405 0 -0.12580692259109499 -0.1082200962336379 0 -0.11589347819808329 -0.1017419704558797 0 -0.12383558658528469 -0.099353472240349405 0 -0.1214926841576925 -0.09030319264560574 0 -0.1214926841576925 -0.09030319264560574 0 -0.11219343175625129 -0.087226077749387634 0 -0.12583965652133869 -0.06577116567244104 0 -0.11589347819808329 -0.1017419704558797 0 -0.1214926841576925 -0.09030319264560574 0 -0.11219343175625129 -0.087226077749387634 0 -0.11219343175625129 -0.087226077749387634 0 -0.098499277678230468 -0.093583262820984364 0 -0.10127743641107211 -0.074333843226573326 0 -0.083401873140895089 -0.093692963245560798 0 -0.098499277678230468 -0.093583262820984364 0 -0.10127743641107211 -0.074333843226573326 0 -0.087166213924459446 -0.064703183340834497 0 -0.10127743641107211 -0.074333843226573326 0 -0.099441385213067293 -0.055274759557815023 0 -0.11219343175625129 -0.087226077749387634 0 -0.10127743641107211 -0.074333843226573326 0 -0.11461588109247781 -0.070576452463996964 0 -0.10127743641107211 -0.074333843226573326 0 -0.11915299968124921 -0.054974723207585868 0 -0.11219343175625129 -0.087226077749387634 0 -0.11461588109247781 -0.070576452463996964 0 -0.12583965652133869 -0.06577116567244104 0 -0.10127743641107211 -0.074333843226573326 0 -0.11461588109247781 -0.070576452463996964 0 -0.11915299968124921 -0.054974723207585868 0 -0.11219343175625129 -0.087226077749387634 0 -0.12583965652133869 -0.06577116567244104 0 -0.11461588109247781 -0.070576452463996964 0 -0.11915299968124921 -0.054974723207585868 0 -0.12583965652133869 -0.06577116567244104 0 -0.11915299968124921 -0.054974723207585868 0 -0.12583965652133869 -0.06577116567244104 0 -0.12878385973229289 -0.058611199083569737 0 -0.11916153802425219 -0.03705019889878873 0 -0.1066178782302066 -0.042586170885867712 0 -0.10343927067620121 -0.027496787255641902 0 -0.11915299968124921 -0.054974723207585868 0 -0.11916153802425219 -0.03705019889878873 0 -0.1066178782302066 -0.042586170885867712 0 -0.1066178782302066 -0.042586170885867712 0 -0.099441385213067293 -0.055274759557815023 0 -0.091894197556262991 -0.038134385509507027 0 -0.1066178782302066 -0.042586170885867712 0 -0.10343927067620121 -0.027496787255641902 0 -0.091894197556262991 -0.038134385509507027 0 -0.11915299968124921 -0.054974723207585868 0 -0.1066178782302066 -0.042586170885867712 0 -0.099441385213067293 -0.055274759557815023 0 -0.10127743641107211 -0.074333843226573326 0 -0.11915299968124921 -0.054974723207585868 0 -0.099441385213067293 -0.055274759557815023 0 -0.1177298695792065 -0.019182939174269689 0 -0.12556787346907991 0.0072178933967609119 0 -0.11007925314357569 0.0059405837614587911 0 -0.11916153802425219 -0.03705019889878873 0 -0.1177298695792065 -0.019182939174269689 0 -0.13702856295142629 -0.035615603188598542 0 -0.11916153802425219 -0.03705019889878873 0 -0.1177298695792065 -0.019182939174269689 0 -0.10343927067620121 -0.027496787255641902 0 -0.1177298695792065 -0.019182939174269689 0 -0.10343927067620121 -0.027496787255641902 0 -0.097117650338324313 -0.0065218119333480939 0 -0.10343927067620121 -0.027496787255641902 0 -0.097117650338324313 -0.0065218119333480939 0 -0.085298954831714693 -0.021167374727442581 0 -0.1177298695792065 -0.019182939174269689 0 -0.097117650338324313 -0.0065218119333480939 0 -0.098431176206989657 -0.0027502751599372609 0 -0.1177298695792065 -0.019182939174269689 0 -0.098431176206989657 -0.0027502751599372609 0 -0.1177298695792065 -0.019182939174269689 0 -0.098431176206989657 -0.0027502751599372609 0 -0.11007925314357569 0.0059405837614587911 0 -0.097117650338324313 -0.0065218119333480939 0 -0.098431176206989657 -0.0027502751599372609 0 -0.086110148374193937 -0.001970309334132247 0 -0.086110148374193937 -0.001970309334132247 0 -0.06975928411668901 -0.01229153909763884 0 -0.079132482834772755 0.013682388854395209 0 -0.097117650338324313 -0.0065218119333480939 0 -0.085298954831714693 -0.021167374727442581 0 -0.06975928411668901 -0.01229153909763884 0 -0.097117650338324313 -0.0065218119333480939 0 -0.086110148374193937 -0.001970309334132247 0 -0.06975928411668901 -0.01229153909763884 0 -0.097117650338324313 -0.0065218119333480939 0 -0.06975928411668901 -0.01229153909763884 0 -0.10343927067620121 -0.027496787255641902 0 -0.085298954831714693 -0.021167374727442581 0 -0.091894197556262991 -0.038134385509507027 0 -0.085298954831714693 -0.021167374727442581 0 -0.06975928411668901 -0.01229153909763884 0 -0.064431175921479511 -0.03619473564280809 0 -0.087166213924459446 -0.064703183340834497 0 -0.099441385213067293 -0.055274759557815023 0 -0.083273917174344389 -0.052809882425003993 0 -0.087166213924459446 -0.064703183340834497 0 -0.06850295887236145 -0.06455039279721575 0 -0.083273917174344389 -0.052809882425003993 0 -0.099441385213067293 -0.055274759557815023 0 -0.083273917174344389 -0.052809882425003993 0 -0.091894197556262991 -0.038134385509507027 0 -0.085298954831714693 -0.021167374727442581 0 -0.091894197556262991 -0.038134385509507027 0 -0.064431175921479511 -0.03619473564280809 0 -0.083273917174344389 -0.052809882425003993 0 -0.091894197556262991 -0.038134385509507027 0 -0.064431175921479511 -0.03619473564280809 0 -0.06850295887236145 -0.06455039279721575 0 -0.083273917174344389 -0.052809882425003993 0 -0.064431175921479511 -0.03619473564280809 0 -0.06850295887236145 -0.06455039279721575 0 -0.064431175921479511 -0.03619473564280809 0 -0.040511632783899278 -0.052659690746082427 0 -0.03383812840200736 -0.032967183953005103 0 -0.040511632783899278 -0.052659690746082427 0 -0.026456690322350061 -0.04249480998376251 0 -0.064431175921479511 -0.03619473564280809 0 -0.03383812840200736 -0.032967183953005103 0 -0.040511632783899278 -0.052659690746082427 0 -0.06975928411668901 -0.01229153909763884 0 -0.042400917895053458 -0.018061266261929641 0 -0.06975928411668901 -0.01229153909763884 0 -0.042400917895053458 -0.018061266261929641 0 -0.043910064218845822 0.0067164781922273448 0 -0.06975928411668901 -0.01229153909763884 0 -0.064431175921479511 -0.03619473564280809 0 -0.042400917895053458 -0.018061266261929641 0 -0.064431175921479511 -0.03619473564280809 0 -0.03383812840200736 -0.032967183953005103 0 -0.042400917895053458 -0.018061266261929641 0 -0.042400917895053458 -0.018061266261929641 0 -0.03107858007825207 -0.001663579753201861 0 -0.043910064218845822 0.0067164781922273448 0 -0.042400917895053458 -0.018061266261929641 0 -0.03107858007825207 -0.001663579753201861 0 -0.017106853781966899 -0.0079614540549606486 0 -0.03107858007825207 -0.001663579753201861 0 -0.017106853781966899 -0.0079614540549606486 0 -0.02125360262080429 0.008884990623213615 0 -0.042400917895053458 -0.018061266261929641 0 -0.015042551673417949 -0.023830993426220429 0 -0.03383812840200736 -0.032967183953005103 0 -0.042400917895053458 -0.018061266261929641 0 -0.015042551673417949 -0.023830993426220429 0 -0.03383812840200736 -0.032967183953005103 0 -0.015042551673417949 -0.023830993426220429 0 -0.01665974857876424 -0.033608286724587232 0 -0.042400917895053458 -0.018061266261929641 0 -0.017106853781966899 -0.0079614540549606486 0 -0.015042551673417949 -0.023830993426220429 0 -0.017106853781966899 -0.0079614540549606486 0 -0.015042551673417949 -0.023830993426220429 0 -0.0037500937347733861 -0.018262017718794009 0 -0.015042551673417949 -0.023830993426220429 0 -0.002343545123954707 -0.031073266458213379 0 -0.01665974857876424 -0.033608286724587232 0 -0.015042551673417949 -0.023830993426220429 0 -0.002343545123954707 -0.031073266458213379 0 -0.0037500937347733861 -0.018262017718794009 0 -0.017106853781966899 -0.0079614540549606486 0 -0.0017141771070067441 -0.0048886145369329021 0 -0.02125360262080429 0.008884990623213615 0 -0.017106853781966899 -0.0079614540549606486 0 -0.0037500937347733861 -0.018262017718794009 0 -0.0017141771070067441 -0.0048886145369329021 0 -0.040511632783899278 -0.052659690746082427 0 -0.018199609829662591 -0.052460507413591553 0 -0.026456690322350061 -0.04249480998376251 0 -0.040511632783899278 -0.052659690746082427 0 -0.018199609829662591 -0.052460507413591553 0 -0.023444649686632849 -0.070170540828560016 0 -0.03383812840200736 -0.032967183953005103 0 -0.026456690322350061 -0.04249480998376251 0 -0.01665974857876424 -0.033608286724587232 0 -0.018199609829662591 -0.052460507413591553 0 -0.026456690322350061 -0.04249480998376251 0 -0.01665974857876424 -0.033608286724587232 0 -0.018199609829662591 -0.052460507413591553 0 -0.01665974857876424 -0.033608286724587232 0 -0.0001970176772471792 -0.049185650133073217 0 -0.01665974857876424 -0.033608286724587232 0 -0.0001970176772471792 -0.049185650133073217 0 -0.002343545123954707 -0.031073266458213379 0 -0.01665974857876424 -0.033608286724587232 0 -0.0001970176772471792 -0.049185650133073217 0 -0.018199609829662591 -0.052460507413591553 0 -0.0001970176772471792 -0.049185650133073217 0 -0.0028087424043249328 -0.067091052758769379 0 -0.018199609829662591 -0.052460507413591553 0 -0.0028087424043249328 -0.067091052758769379 0 -0.023444649686632849 -0.070170540828560016 0 -0.0028087424043249328 -0.067091052758769379 0 -0.0090426097571271805 -0.083167598585272715 0 0.0062428489020568186 -0.082759276782587501 0 -0.0028087424043249328 -0.067091052758769379 0 -0.0090426097571271805 -0.083167598585272715 0 -0.023444649686632849 -0.070170540828560016 0 -0.0090426097571271805 -0.083167598585272715 0 -0.0076998164921834658 -0.097922567374214869 0 0.0062428489020568186 -0.082759276782587501 0 -0.0090426097571271805 -0.083167598585272715 0 -0.01750268910455148 -0.097894555182231835 0 -0.0076998164921834658 -0.097922567374214869 0 -0.023444649686632849 -0.070170540828560016 0 -0.035928907220760142 -0.087344998099106036 0 -0.01750268910455148 -0.097894555182231835 0 -0.023444649686632849 -0.070170540828560016 0 -0.01750268910455148 -0.097894555182231835 0 -0.0090426097571271805 -0.083167598585272715 0 -0.023444649686632849 -0.070170540828560016 0 -0.01750268910455148 -0.097894555182231835 0 -0.040511632783899278 -0.052659690746082427 0 -0.023444649686632849 -0.070170540828560016 0 -0.044815589702959673 -0.072144198558023412 0 -0.023444649686632849 -0.070170540828560016 0 -0.044815589702959673 -0.072144198558023412 0 -0.035928907220760142 -0.087344998099106036 0 -0.044815589702959673 -0.072144198558023412 0 -0.035928907220760142 -0.087344998099106036 0 -0.055689799951144633 -0.085995370319152886 0 -0.035928907220760142 -0.087344998099106036 0 -0.055689799951144633 -0.085995370319152886 0 -0.043373122711502579 -0.097605474562165825 0 -0.06850295887236145 -0.06455039279721575 0 -0.044815589702959673 -0.072144198558023412 0 -0.055689799951144633 -0.085995370319152886 0 -0.06850295887236145 -0.06455039279721575 0 -0.040511632783899278 -0.052659690746082427 0 -0.044815589702959673 -0.072144198558023412 0 -0.065526309870718114 -0.1130520832645482 0 -0.049668054436134909 -0.1160523662535078 0 -0.054402161637858458 -0.1027075000860645 0 -0.065526309870718114 -0.1130520832645482 0 -0.049668054436134909 -0.1160523662535078 0 -0.04765074660054272 -0.13241120328353709 0 -0.065526309870718114 -0.1130520832645482 0 -0.04765074660054272 -0.13241120328353709 0 -0.049668054436134909 -0.1160523662535078 0 -0.054402161637858458 -0.1027075000860645 0 -0.039382264488066317 -0.11049563064095411 0 -0.066185794693203098 -0.096043606364286868 0 -0.065526309870718114 -0.1130520832645482 0 -0.054402161637858458 -0.1027075000860645 0 -0.055689799951144633 -0.085995370319152886 0 -0.054402161637858458 -0.1027075000860645 0 -0.043373122711502579 -0.097605474562165825 0 -0.066185794693203098 -0.096043606364286868 0 -0.055689799951144633 -0.085995370319152886 0 -0.054402161637858458 -0.1027075000860645 0 -0.054402161637858458 -0.1027075000860645 0 -0.043373122711502579 -0.097605474562165825 0 -0.039382264488066317 -0.11049563064095411 0 -0.035928907220760142 -0.087344998099106036 0 -0.043373122711502579 -0.097605474562165825 0 -0.031462480259683352 -0.10148387366555151 0 -0.031462480259683352 -0.10148387366555151 0 -0.039382264488066317 -0.11049563064095411 0 -0.024343971224397621 -0.1138595794662856 0 -0.043373122711502579 -0.097605474562165825 0 -0.031462480259683352 -0.10148387366555151 0 -0.039382264488066317 -0.11049563064095411 0 -0.049668054436134909 -0.1160523662535078 0 -0.041378789583488937 -0.12159541399243499 0 -0.04765074660054272 -0.13241120328353709 0 -0.039382264488066317 -0.11049563064095411 0 -0.030389237699978831 -0.1236166629474954 0 -0.024343971224397621 -0.1138595794662856 0 -0.049668054436134909 -0.1160523662535078 0 -0.039382264488066317 -0.11049563064095411 0 -0.041378789583488937 -0.12159541399243499 0 -0.039382264488066317 -0.11049563064095411 0 -0.041378789583488937 -0.12159541399243499 0 -0.030389237699978831 -0.1236166629474954 0 -0.030389237699978831 -0.1236166629474954 0 -0.024343971224397621 -0.1138595794662856 0 -0.01156072852247016 -0.12561856953590339 0 -0.024343971224397621 -0.1138595794662856 0 -0.01750268910455148 -0.097894555182231835 0 -0.01156072852247016 -0.12561856953590339 0 -0.031462480259683352 -0.10148387366555151 0 -0.024343971224397621 -0.1138595794662856 0 -0.01750268910455148 -0.097894555182231835 0 -0.035928907220760142 -0.087344998099106036 0 -0.031462480259683352 -0.10148387366555151 0 -0.01750268910455148 -0.097894555182231835 0 -0.01750268910455148 -0.097894555182231835 0 -0.0076998164921834658 -0.097922567374214869 0 -0.01156072852247016 -0.12561856953590339 0 -0.0076998164921834658 -0.097922567374214869 0 -0.01156072852247016 -0.12561856953590339 0 0.0071772414290887793 -0.1104649531920479 0 -0.01750268910455148 -0.097894555182231835 0 -0.01156072852247016 -0.12561856953590339 0 -0.01156072852247016 -0.12561856953590339 0 -0.021842299270316359 -0.1374716567337847 0 -0.0056187679403888434 -0.153342583889575 0 -0.01156072852247016 -0.12561856953590339 0 -0.0056187679403888434 -0.153342583889575 0 -0.030389237699978831 -0.1236166629474954 0 -0.01156072852247016 -0.12561856953590339 0 -0.021842299270316359 -0.1374716567337847 0 -0.021842299270316359 -0.1374716567337847 0 -0.03690256822093417 -0.1330677184623506 0 -0.031722746341140501 -0.14966112509151819 0 -0.030389237699978831 -0.1236166629474954 0 -0.021842299270316359 -0.1374716567337847 0 -0.03690256822093417 -0.1330677184623506 0 -0.018624128330071169 -0.1510798330086002 0 -0.01579474608173994 -0.16691104689950079 0 -0.031722746341140501 -0.14966112509151819 0 -0.021842299270316359 -0.1374716567337847 0 -0.018624128330071169 -0.1510798330086002 0 -0.031722746341140501 -0.14966112509151819 0 -0.021842299270316359 -0.1374716567337847 0 -0.018624128330071169 -0.1510798330086002 0 -0.0056187679403888434 -0.153342583889575 0 -0.01156072852247016 -0.12561856953590339 0 -0.0056187679403888434 -0.153342583889575 0 0.012195426818498299 -0.14453755382671191 0 -0.018624128330071169 -0.1510798330086002 0 -0.0056187679403888434 -0.153342583889575 0 -0.01579474608173994 -0.16691104689950079 0 -0.0056187679403888434 -0.153342583889575 0 -0.00017606275572031361 -0.16802454960933011 0 -0.01579474608173994 -0.16691104689950079 0 -0.01579474608173994 -0.16691104689950079 0 0.0001332541776606494 -0.18416096870748341 0 -0.00017606275572031361 -0.16802454960933011 0 -0.01579474608173994 -0.16691104689950079 0 0.0001332541776606494 -0.18416096870748341 0 -0.02432689164679518 -0.17813156273868061 0 -0.01579474608173994 -0.16691104689950079 0 0.0001332541776606494 -0.18416096870748341 0 -0.02432689164679518 -0.17813156273868061 0 -0.02483173316352889 -0.1931221571803457 0 0.0001332541776606494 -0.18416096870748341 0 -0.02432689164679518 -0.17813156273868061 0 -0.01579474608173994 -0.16691104689950079 0 -0.035440713460037812 -0.16732993654423539 0 -0.01579474608173994 -0.16691104689950079 0 -0.035440713460037812 -0.16732993654423539 0 -0.031722746341140501 -0.14966112509151819 0 -0.01579474608173994 -0.16691104689950079 0 -0.031722746341140501 -0.14966112509151819 0 -0.035440713460037812 -0.16732993654423539 0 -0.049614479111904732 -0.1517952191911254 0 -0.031722746341140501 -0.14966112509151819 0 -0.035440713460037812 -0.16732993654423539 0 -0.054903679441608358 -0.16659318138903631 0 -0.049614479111904732 -0.1517952191911254 0 -0.035440713460037812 -0.16732993654423539 0 -0.045046111282138437 -0.18254650501597031 0 -0.054903679441608358 -0.16659318138903631 0 -0.02432689164679518 -0.17813156273868061 0 -0.045046111282138437 -0.18254650501597031 0 -0.02483173316352889 -0.1931221571803457 0 -0.02432689164679518 -0.17813156273868061 0 -0.035440713460037812 -0.16732993654423539 0 -0.045046111282138437 -0.18254650501597031 0 -0.045046111282138437 -0.18254650501597031 0 -0.054903679441608358 -0.16659318138903631 0 -0.068252797682375438 -0.17718951980485101 0 -0.045046111282138437 -0.18254650501597031 0 -0.061046536487588753 -0.19802112490132881 0 -0.068252797682375438 -0.17718951980485101 0 -0.054903679441608358 -0.16659318138903631 0 -0.049614479111904732 -0.1517952191911254 0 -0.070204071448593142 -0.15324272697480901 0 -0.049614479111904732 -0.1517952191911254 0 -0.058436290393587297 -0.14218067551072011 0 -0.070204071448593142 -0.15324272697480901 0 -0.049614479111904732 -0.1517952191911254 0 -0.058436290393587297 -0.14218067551072011 0 -0.04765074660054272 -0.13241120328353709 0 -0.04765074660054272 -0.13241120328353709 0 -0.066275864413308613 -0.131273552593409 0 -0.058436290393587297 -0.14218067551072011 0 -0.04765074660054272 -0.13241120328353709 0 -0.066275864413308613 -0.131273552593409 0 -0.065526309870718114 -0.1130520832645482 0 -0.04765074660054272 -0.13241120328353709 0 -0.066275864413308613 -0.131273552593409 0 -0.04765074660054272 -0.13241120328353709 0 -0.03690256822093417 -0.1330677184623506 0 -0.031722746341140501 -0.14966112509151819 0 -0.041378789583488937 -0.12159541399243499 0 -0.04765074660054272 -0.13241120328353709 0 -0.03690256822093417 -0.1330677184623506 0 -0.04765074660054272 -0.13241120328353709 0 -0.03690256822093417 -0.1330677184623506 0 -0.041378789583488937 -0.12159541399243499 0 -0.030389237699978831 -0.1236166629474954 0 -0.03690256822093417 -0.1330677184623506 0 -0.04765074660054272 -0.13241120328353709 0 -0.031722746341140501 -0.14966112509151819 0 -0.049614479111904732 -0.1517952191911254 0 -0.04765074660054272 -0.13241120328353709 0 -0.031722746341140501 -0.14966112509151819 0 -0.02801485863948721 -0.2461010478703036 0 -0.0076987751499405961 -0.24543657877108971 0 -0.014538579917676771 -0.22536070502753569 0 -0.0076987751499405961 -0.24543657877108971 0 -0.014538579917676771 -0.22536070502753569 0 0.0026361890209762799 -0.2340569800989358 0 -0.014538579917676771 -0.22536070502753569 0 -0.00011561062830193539 -0.2166814117034169 0 0.0026361890209762799 -0.2340569800989358 0 -0.014538579917676771 -0.22536070502753569 0 -0.02543590581660812 -0.20977354535272799 0 -0.036396955685488938 -0.2228381832342414 0 -0.02801485863948721 -0.2461010478703036 0 -0.014538579917676771 -0.22536070502753569 0 -0.036396955685488938 -0.2228381832342414 0 -0.014538579917676771 -0.22536070502753569 0 -0.02543590581660812 -0.20977354535272799 0 -0.0091779261855240435 -0.20407756478235239 0 -0.014538579917676771 -0.22536070502753569 0 -0.0091779261855240435 -0.20407756478235239 0 -0.00011561062830193539 -0.2166814117034169 0 -0.0091779261855240435 -0.20407756478235239 0 -0.02483173316352889 -0.1931221571803457 0 0.0001332541776606494 -0.18416096870748341 0 -0.02543590581660812 -0.20977354535272799 0 -0.02483173316352889 -0.1931221571803457 0 -0.042234334130821977 -0.20346911653916469 0 -0.02543590581660812 -0.20977354535272799 0 -0.0091779261855240435 -0.20407756478235239 0 -0.02483173316352889 -0.1931221571803457 0 -0.045046111282138437 -0.18254650501597031 0 -0.02483173316352889 -0.1931221571803457 0 -0.042234334130821977 -0.20346911653916469 0 -0.045046111282138437 -0.18254650501597031 0 -0.061046536487588753 -0.19802112490132881 0 -0.042234334130821977 -0.20346911653916469 0 -0.061046536487588753 -0.19802112490132881 0 -0.042234334130821977 -0.20346911653916469 0 -0.057367912056401092 -0.22046571569657911 0 -0.02543590581660812 -0.20977354535272799 0 -0.042234334130821977 -0.20346911653916469 0 -0.036396955685488938 -0.2228381832342414 0 -0.042234334130821977 -0.20346911653916469 0 -0.036396955685488938 -0.2228381832342414 0 -0.057367912056401092 -0.22046571569657911 0 -0.036396955685488938 -0.2228381832342414 0 -0.057367912056401092 -0.22046571569657911 0 -0.045852841200671929 -0.23969174770891269 0 -0.057367912056401092 -0.22046571569657911 0 -0.045852841200671929 -0.23969174770891269 0 -0.070353849611193522 -0.23427097268568839 0 -0.061554342990853231 -0.25113123870213921 0 -0.045852841200671929 -0.23969174770891269 0 -0.070353849611193522 -0.23427097268568839 0 -0.044743832239017477 -0.26243826449173591 0 -0.02801485863948721 -0.2461010478703036 0 -0.045852841200671929 -0.23969174770891269 0 -0.02801485863948721 -0.2461010478703036 0 -0.036396955685488938 -0.2228381832342414 0 -0.045852841200671929 -0.23969174770891269 0 -0.084869941128291729 -0.25247235779422461 0 -0.070353849611193522 -0.23427097268568839 0 -0.088365848285404044 -0.22344236815007029 0 -0.084869941128291729 -0.25247235779422461 0 -0.061554342990853231 -0.25113123870213921 0 -0.070353849611193522 -0.23427097268568839 0 -0.070353849611193522 -0.23427097268568839 0 -0.088365848285404044 -0.22344236815007029 0 -0.072078451258480655 -0.2122152357120064 0 -0.057367912056401092 -0.22046571569657911 0 -0.070353849611193522 -0.23427097268568839 0 -0.072078451258480655 -0.2122152357120064 0 -0.088365848285404044 -0.22344236815007029 0 -0.081334006525220534 -0.19446231285035159 0 -0.1048131160832988 -0.20302252503021651 0 -0.088365848285404044 -0.22344236815007029 0 -0.072078451258480655 -0.2122152357120064 0 -0.081334006525220534 -0.19446231285035159 0 -0.061046536487588753 -0.19802112490132881 0 -0.057367912056401092 -0.22046571569657911 0 -0.072078451258480655 -0.2122152357120064 0 -0.061046536487588753 -0.19802112490132881 0 -0.072078451258480655 -0.2122152357120064 0 -0.081334006525220534 -0.19446231285035159 0 -0.061046536487588753 -0.19802112490132881 0 -0.081334006525220534 -0.19446231285035159 0 -0.068252797682375438 -0.17718951980485101 0 -0.081334006525220534 -0.19446231285035159 0 -0.1048131160832988 -0.20302252503021651 0 -0.092660398581224143 -0.17496860772350681 0 -0.1048131160832988 -0.20302252503021651 0 -0.1248207282618711 -0.19669610267740309 0 -0.1127005227411124 -0.1821946020395997 0 -0.1048131160832988 -0.20302252503021651 0 -0.1248207282618711 -0.19669610267740309 0 -0.12833520103318549 -0.22518401732954019 0 -0.1048131160832988 -0.20302252503021651 0 -0.1075515777767089 -0.22361285239596049 0 -0.12833520103318549 -0.22518401732954019 0 -0.088365848285404044 -0.22344236815007029 0 -0.1048131160832988 -0.20302252503021651 0 -0.1075515777767089 -0.22361285239596049 0 -0.088365848285404044 -0.22344236815007029 0 -0.1075515777767089 -0.22361285239596049 0 -0.1086921457049473 -0.24280249907401519 0 -0.1075515777767089 -0.22361285239596049 0 -0.1086921457049473 -0.24280249907401519 0 -0.12833520103318549 -0.22518401732954019 0 -0.12783502876700201 -0.25298843725821879 0 -0.1086921457049473 -0.24280249907401519 0 -0.12833520103318549 -0.22518401732954019 0 -0.084869941128291729 -0.25247235779422461 0 -0.088365848285404044 -0.22344236815007029 0 -0.1086921457049473 -0.24280249907401519 0 -0.084900982226074395 -0.13013590190327931 0 -0.070204071448593142 -0.15324272697480901 0 -0.096619965914585451 -0.13945363721733731 0 -0.070204071448593142 -0.15324272697480901 0 -0.097532765092022369 -0.15439758474588891 0 -0.096619965914585451 -0.13945363721733731 0 -0.084900982226074395 -0.13013590190327931 0 -0.066275864413308613 -0.131273552593409 0 -0.084900982226074395 -0.13013590190327931 0 -0.066275864413308613 -0.131273552593409 0 -0.070204071448593142 -0.15324272697480901 0 -0.058436290393587297 -0.14218067551072011 0 -0.066275864413308613 -0.131273552593409 0 -0.070204071448593142 -0.15324272697480901 0 -0.084900982226074395 -0.13013590190327931 0 -0.070204071448593142 -0.15324272697480901 0 -0.070204071448593142 -0.15324272697480901 0 -0.068252797682375438 -0.17718951980485101 0 -0.092660398581224143 -0.17496860772350681 0 -0.054903679441608358 -0.16659318138903631 0 -0.070204071448593142 -0.15324272697480901 0 -0.068252797682375438 -0.17718951980485101 0 -0.081334006525220534 -0.19446231285035159 0 -0.068252797682375438 -0.17718951980485101 0 -0.092660398581224143 -0.17496860772350681 0 -0.070204071448593142 -0.15324272697480901 0 -0.092660398581224143 -0.17496860772350681 0 -0.097532765092022369 -0.15439758474588891 0 -0.092660398581224143 -0.17496860772350681 0 -0.1135437011428916 -0.16317933827688269 0 -0.097532765092022369 -0.15439758474588891 0 -0.092660398581224143 -0.17496860772350681 0 -0.1127005227411124 -0.1821946020395997 0 -0.1135437011428916 -0.16317933827688269 0 -0.1048131160832988 -0.20302252503021651 0 -0.092660398581224143 -0.17496860772350681 0 -0.1127005227411124 -0.1821946020395997 0 -0.1248207282618711 -0.19669610267740309 0 -0.1127005227411124 -0.1821946020395997 0 -0.1275645391723457 -0.17614376176498389 0 -0.1127005227411124 -0.1821946020395997 0 -0.1135437011428916 -0.16317933827688269 0 -0.1275645391723457 -0.17614376176498389 0 -0.1135437011428916 -0.16317933827688269 0 -0.1328318515709806 -0.15595991990435429 0 -0.1275645391723457 -0.17614376176498389 0 -0.1135437011428916 -0.16317933827688269 0 -0.1164093308288017 -0.1437716232281761 0 -0.1328318515709806 -0.15595991990435429 0 -0.1164093308288017 -0.1437716232281761 0 -0.097532765092022369 -0.15439758474588891 0 -0.096619965914585451 -0.13945363721733731 0 -0.1135437011428916 -0.16317933827688269 0 -0.1164093308288017 -0.1437716232281761 0 -0.097532765092022369 -0.15439758474588891 0 -0.084900982226074395 -0.13013590190327931 0 -0.107117776724591 -0.12877886610635991 0 -0.096619965914585451 -0.13945363721733731 0 -0.084900982226074395 -0.13013590190327931 0 -0.107117776724591 -0.12877886610635991 0 -0.1164093308288017 -0.1437716232281761 0 -0.107117776724591 -0.12877886610635991 0 -0.096619965914585451 -0.13945363721733731 0 -0.1164093308288017 -0.1437716232281761 0 -0.107117776724591 -0.12877886610635991 0 -0.12933457122310771 -0.12742183030944179 0 -0.107117776724591 -0.12877886610635991 0 -0.12933457122310771 -0.12742183030944179 0 -0.1164093308288017 -0.1437716232281761 0 -0.12933457122310771 -0.12742183030944179 0 -0.13764287478037859 -0.1401185416950195 0 -0.12933457122310771 -0.12742183030944179 0 -0.13938054483533971 -0.1305805708381467 0 -0.13996885211182239 -0.12301634781075919 0 -0.12933457122310771 -0.12742183030944179 0 -0.13764287478037859 -0.1401185416950195 0 -0.13938054483533971 -0.1305805708381467 0 -0.13938054483533971 -0.1305805708381467 0 -0.1475601102145471 -0.13425467418188369 0 -0.14895609415868619 -0.12619786816724751 0 -0.1475601102145471 -0.13425467418188369 0 -0.15788365290732839 -0.14950077418069491 0 -0.1539373843910028 -0.1248756160283097 0 -0.15788365290732839 -0.14950077418069491 0 -0.1539373843910028 -0.1248756160283097 0 -0.13938054483533971 -0.1305805708381467 0 -0.14895609415868619 -0.12619786816724751 0 -0.13996885211182239 -0.12301634781075919 0 -0.13764287478037859 -0.1401185416950195 0 -0.13938054483533971 -0.1305805708381467 0 -0.1475601102145471 -0.13425467418188369 0 -0.1475601102145471 -0.13425467418188369 0 -0.14895609415868619 -0.12619786816724751 0 -0.1539373843910028 -0.1248756160283097 0 -0.14895609415868619 -0.12619786816724751 0 -0.1539373843910028 -0.1248756160283097 0 -0.13764287478037859 -0.1401185416950195 0 -0.1328318515709806 -0.15595991990435429 0 -0.15788365290732839 -0.14950077418069491 0 -0.13764287478037859 -0.1401185416950195 0 -0.1475601102145471 -0.13425467418188369 0 -0.15788365290732839 -0.14950077418069491 0 -0.1164093308288017 -0.1437716232281761 0 -0.13764287478037859 -0.1401185416950195 0 -0.1328318515709806 -0.15595991990435429 0 -0.1328318515709806 -0.15595991990435429 0 -0.1275645391723457 -0.17614376176498389 0 -0.14426065105709671 -0.17088651936548571 0 -0.1248207282618711 -0.19669610267740309 0 -0.1275645391723457 -0.17614376176498389 0 -0.13722978026012181 -0.18794608832617779 0 -0.1275645391723457 -0.17614376176498389 0 -0.14426065105709671 -0.17088651936548571 0 -0.13722978026012181 -0.18794608832617779 0 -0.14426065105709671 -0.17088651936548571 0 -0.13722978026012181 -0.18794608832617779 0 -0.15165610317683781 -0.1923662576698883 0 -0.14426065105709671 -0.17088651936548571 0 -0.16182992142365321 -0.17412593233308041 0 -0.15165610317683781 -0.1923662576698883 0 -0.14426065105709671 -0.17088651936548571 0 -0.16182992142365321 -0.17412593233308041 0 -0.15788365290732839 -0.14950077418069491 0 -0.1328318515709806 -0.15595991990435429 0 -0.14426065105709671 -0.17088651936548571 0 -0.15788365290732839 -0.14950077418069491 0 -0.16182992142365321 -0.17412593233308041 0 -0.15788365290732839 -0.14950077418069491 0 -0.16182992142365321 -0.17412593233308041 0 -0.1779544038151496 -0.1604904100460712 0 -0.15788365290732839 -0.14950077418069491 0 -0.16182992142365321 -0.17412593233308041 0 -0.16577618993997559 -0.1987510904854661 0 -0.16182992142365321 -0.17412593233308041 0 -0.18358862197428549 -0.1819139903055616 0 -0.16577618993997559 -0.1987510904854661 0 -0.16182992142365321 -0.17412593233308041 0 -0.18358862197428549 -0.1819139903055616 0 -0.1779544038151496 -0.1604904100460712 0 -0.1779544038151496 -0.1604904100460712 0 -0.17409634554499279 -0.14204284984917359 0 -0.18838790903847041 -0.14941601334815841 0 -0.17409634554499279 -0.14204284984917359 0 -0.18618129614755211 -0.13630232341644871 0 -0.18838790903847041 -0.14941601334815841 0 -0.18618129614755211 -0.13630232341644871 0 -0.1842286152679713 -0.12661734350652029 0 -0.1750270927952241 -0.1305656516260055 0 -0.1842286152679713 -0.12661734350652029 0 -0.1750270927952241 -0.1305656516260055 0 -0.17563335395410951 -0.12399147955036841 0 -0.1750270927952241 -0.1305656516260055 0 -0.17563335395410951 -0.12399147955036841 0 -0.16939619444479001 -0.1222348389161928 0 -0.17409634554499279 -0.14204284984917359 0 -0.18618129614755211 -0.13630232341644871 0 -0.1750270927952241 -0.1305656516260055 0 -0.16588553728496491 -0.133788950428708 0 -0.15788365290732839 -0.14950077418069491 0 -0.1539373843910028 -0.1248756160283097 0 -0.17409634554499279 -0.14204284984917359 0 -0.1750270927952241 -0.1305656516260055 0 -0.16588553728496491 -0.133788950428708 0 -0.1750270927952241 -0.1305656516260055 0 -0.16588553728496491 -0.133788950428708 0 -0.16939619444479001 -0.1222348389161928 0 -0.16588553728496491 -0.133788950428708 0 -0.16939619444479001 -0.1222348389161928 0 -0.1539373843910028 -0.1248756160283097 0 -0.1779544038151496 -0.1604904100460712 0 -0.17409634554499279 -0.14204284984917359 0 -0.15788365290732839 -0.14950077418069491 0 -0.17409634554499279 -0.14204284984917359 0 -0.16588553728496491 -0.133788950428708 0 -0.15788365290732839 -0.14950077418069491 0 -0.14743874621572239 -0.2475976079743237 0 -0.12833520103318549 -0.22518401732954019 0 -0.12783502876700201 -0.25298843725821879 0 -0.14743874621572239 -0.2475976079743237 0 -0.12833520103318549 -0.22518401732954019 0 -0.12833520103318549 -0.22518401732954019 0 -0.1500180300514892 -0.22610408346424191 0 -0.14122423683073909 -0.2059784605126613 0 -0.14743874621572239 -0.2475976079743237 0 -0.12833520103318549 -0.22518401732954019 0 -0.1500180300514892 -0.22610408346424191 0 -0.1500180300514892 -0.22610408346424191 0 -0.14122423683073909 -0.2059784605126613 0 -0.15692119610639019 -0.20712122309741299 0 -0.1248207282618711 -0.19669610267740309 0 -0.12833520103318549 -0.22518401732954019 0 -0.14122423683073909 -0.2059784605126613 0 -0.1248207282618711 -0.19669610267740309 0 -0.14122423683073909 -0.2059784605126613 0 -0.13722978026012181 -0.18794608832617779 0 -0.14122423683073909 -0.2059784605126613 0 -0.15165610317683781 -0.1923662576698883 0 -0.15692119610639019 -0.20712122309741299 0 -0.14122423683073909 -0.2059784605126613 0 -0.13722978026012181 -0.18794608832617779 0 -0.15165610317683781 -0.1923662576698883 0 -0.16182992142365321 -0.17412593233308041 0 -0.15165610317683781 -0.1923662576698883 0 -0.16577618993997559 -0.1987510904854661 0 -0.15165610317683781 -0.1923662576698883 0 -0.16577618993997559 -0.1987510904854661 0 -0.15692119610639019 -0.20712122309741299 0 -0.16577618993997559 -0.1987510904854661 0 -0.15692119610639019 -0.20712122309741299 0 -0.18358862197428549 -0.1819139903055616 0 -0.1769779994952661 -0.2078606967614495 0 -0.19169346038107221 -0.2056017573465955 0 -0.18358862197428549 -0.1819139903055616 0 -0.16577618993997559 -0.1987510904854661 0 -0.18358862197428549 -0.1819139903055616 0 -0.16577618993997559 -0.1987510904854661 0 -0.1769779994952661 -0.2078606967614495 0 -0.1769779994952661 -0.2078606967614495 0 -0.18945717170295381 -0.22765039832503761 0 -0.19169346038107221 -0.2056017573465955 0 -0.1769779994952661 -0.2078606967614495 0 -0.16927113076655609 -0.22055991323325669 0 -0.18945717170295381 -0.22765039832503761 0 -0.16577618993997559 -0.1987510904854661 0 -0.16927113076655609 -0.22055991323325669 0 -0.16577618993997559 -0.1987510904854661 0 -0.15692119610639019 -0.20712122309741299 0 -0.16927113076655609 -0.22055991323325669 0 -0.16577618993997559 -0.1987510904854661 0 -0.1769779994952661 -0.2078606967614495 0 -0.16927113076655609 -0.22055991323325669 0 -0.1500180300514892 -0.22610408346424191 0 -0.15692119610639019 -0.20712122309741299 0 -0.16927113076655609 -0.22055991323325669 0 -0.1500180300514892 -0.22610408346424191 0 -0.16927113076655609 -0.22055991323325669 0 -0.1727660715931342 -0.24236873598104761 0 -0.16927113076655609 -0.22055991323325669 0 -0.1727660715931342 -0.24236873598104761 0 -0.16927113076655609 -0.22055991323325669 0 -0.1727660715931342 -0.24236873598104761 0 -0.18945717170295381 -0.22765039832503761 0 -0.18892555511637321 -0.25057676676141982 0 -0.1727660715931342 -0.24236873598104761 0 -0.18945717170295381 -0.22765039832503761 0 -0.14743874621572239 -0.2475976079743237 0 -0.1500180300514892 -0.22610408346424191 0 -0.1727660715931342 -0.24236873598104761 0 -0.16410655646475911 -0.25494090352279258 0 -0.14743874621572239 -0.2475976079743237 0 -0.1727660715931342 -0.24236873598104761 0 -0.2094712174019627 -0.25197159488848869 0 -0.21799112996290129 -0.2347077037479621 0 -0.18945717170295381 -0.22765039832503761 0 -0.18892555511637321 -0.25057676676141982 0 -0.2094712174019627 -0.25197159488848869 0 -0.18945717170295381 -0.22765039832503761 0 -0.21799112996290129 -0.2347077037479621 0 -0.18945717170295381 -0.22765039832503761 0 -0.20904733673491629 -0.21904942968521801 0 -0.20904733673491629 -0.21904942968521801 0 -0.22022934895714039 -0.195802896824911 0 -0.18945717170295381 -0.22765039832503761 0 -0.20904733673491629 -0.21904942968521801 0 -0.19169346038107221 -0.2056017573465955 0 -0.20904733673491629 -0.21904942968521801 0 -0.19169346038107221 -0.2056017573465955 0 -0.20224450491594709 -0.19095832928353321 0 -0.18358862197428549 -0.1819139903055616 0 -0.19169346038107221 -0.2056017573465955 0 -0.20224450491594709 -0.19095832928353321 0 -0.20224450491594709 -0.19095832928353321 0 -0.22022934895714039 -0.195802896824911 0 -0.21407366408617839 -0.1781756205606676 0 -0.20904733673491629 -0.21904942968521801 0 -0.20224450491594709 -0.19095832928353321 0 -0.22022934895714039 -0.195802896824911 0 -0.22022934895714039 -0.195802896824911 0 -0.24499582568668921 -0.199876813227855 0 -0.24437869601346679 -0.1832135136856004 0 -0.24499582568668921 -0.199876813227855 0 -0.23643786163579519 -0.21889296493550611 0 -0.26366411232843379 -0.2102590821007225 0 -0.20904733673491629 -0.21904942968521801 0 -0.22022934895714039 -0.195802896824911 0 -0.23643786163579519 -0.21889296493550611 0 -0.22022934895714039 -0.195802896824911 0 -0.24499582568668921 -0.199876813227855 0 -0.23643786163579519 -0.21889296493550611 0 -0.21799112996290129 -0.2347077037479621 0 -0.23643786163579519 -0.21889296493550611 0 -0.2364859768612623 -0.24275999707851101 0 -0.21799112996290129 -0.2347077037479621 0 -0.20904733673491629 -0.21904942968521801 0 -0.23643786163579519 -0.21889296493550611 0 -0.23643786163579519 -0.21889296493550611 0 -0.2364859768612623 -0.24275999707851101 0 -0.26161275900665248 -0.22827944956374771 0 -0.2094712174019627 -0.25197159488848869 0 -0.21799112996290129 -0.2347077037479621 0 -0.2364859768612623 -0.24275999707851101 0 -0.2012286096889187 -0.14143557303523979 0 -0.2014010540085964 -0.16507689012565799 0 -0.2192134860429073 -0.1482397899457544 0 -0.21351264570173731 -0.13427694553410641 0 -0.2012286096889187 -0.14143557303523979 0 -0.2192134860429073 -0.1482397899457544 0 -0.21351264570173731 -0.13427694553410641 0 -0.21954027755853531 -0.1240718775908452 0 -0.21289474324248739 -0.1235200614577861 0 -0.21351264570173731 -0.13427694553410641 0 -0.20520253925967691 -0.1290102321136174 0 -0.21289474324248739 -0.1235200614577861 0 -0.21351264570173731 -0.13427694553410641 0 -0.20520253925967691 -0.1290102321136174 0 -0.2012286096889187 -0.14143557303523979 0 -0.20520253925967691 -0.1290102321136174 0 -0.1944932702146776 -0.1271454774563307 0 -0.2012286096889187 -0.14143557303523979 0 -0.18618129614755211 -0.13630232341644871 0 -0.1842286152679713 -0.12661734350652029 0 -0.1944932702146776 -0.1271454774563307 0 -0.18618129614755211 -0.13630232341644871 0 -0.1944932702146776 -0.1271454774563307 0 -0.2012286096889187 -0.14143557303523979 0 -0.2012286096889187 -0.14143557303523979 0 -0.18838790903847041 -0.14941601334815841 0 -0.2014010540085964 -0.16507689012565799 0 -0.18618129614755211 -0.13630232341644871 0 -0.2012286096889187 -0.14143557303523979 0 -0.18838790903847041 -0.14941601334815841 0 -0.18358862197428549 -0.1819139903055616 0 -0.1779544038151496 -0.1604904100460712 0 -0.2014010540085964 -0.16507689012565799 0 -0.1779544038151496 -0.1604904100460712 0 -0.18838790903847041 -0.14941601334815841 0 -0.2014010540085964 -0.16507689012565799 0 -0.18358862197428549 -0.1819139903055616 0 -0.20224450491594709 -0.19095832928353321 0 -0.2014010540085964 -0.16507689012565799 0 -0.18358862197428549 -0.1819139903055616 0 -0.2014010540085964 -0.16507689012565799 0 -0.20224450491594709 -0.19095832928353321 0 -0.2014010540085964 -0.16507689012565799 0 -0.21407366408617839 -0.1781756205606676 0 -0.2014010540085964 -0.16507689012565799 0 -0.2192134860429073 -0.1482397899457544 0 -0.2014010540085964 -0.16507689012565799 0 -0.21407366408617839 -0.1781756205606676 0 -0.2192134860429073 -0.1482397899457544 0 -0.21407366408617839 -0.1781756205606676 0 -0.23141136117936459 -0.17255636396460389 0 -0.2192134860429073 -0.1482397899457544 0 -0.23141136117936459 -0.17255636396460389 0 -0.24259337340158871 -0.14930983110429691 0 -0.2192134860429073 -0.1482397899457544 0 -0.22022934895714039 -0.195802896824911 0 -0.21407366408617839 -0.1781756205606676 0 -0.23141136117936459 -0.17255636396460389 0 -0.22022934895714039 -0.195802896824911 0 -0.23141136117936459 -0.17255636396460389 0 -0.22022934895714039 -0.195802896824911 0 -0.23141136117936459 -0.17255636396460389 0 -0.24437869601346679 -0.1832135136856004 0 -0.23141136117936459 -0.17255636396460389 0 -0.24437869601346679 -0.1832135136856004 0 -0.2470619943256305 -0.16721927933326469 0 -0.2470619943256305 -0.16721927933326469 0 -0.24259337340158871 -0.14930983110429691 0 -0.2573839745710631 -0.15777921827395641 0 -0.23141136117936459 -0.17255636396460389 0 -0.2470619943256305 -0.16721927933326469 0 -0.24259337340158871 -0.14930983110429691 0 -0.23141136117936459 -0.17255636396460389 0 -0.24259337340158871 -0.14930983110429691 0 -0.24259337340158871 -0.14930983110429691 0 -0.2192134860429073 -0.1482397899457544 0 -0.23702591807721821 -0.13140268976585071 0 -0.2192134860429073 -0.1482397899457544 0 -0.23702591807721821 -0.13140268976585071 0 -0.21351264570173731 -0.13427694553410641 0 -0.2192134860429073 -0.1482397899457544 0 -0.22379042613363909 -0.13104281692284961 0 -0.2192134860429073 -0.1482397899457544 0 -0.22379042613363909 -0.13104281692284961 0 -0.23702591807721821 -0.13140268976585071 0 -0.21351264570173731 -0.13427694553410641 0 -0.22379042613363909 -0.13104281692284961 0 -0.21954027755853531 -0.1240718775908452 0 -0.22379042613363909 -0.13104281692284961 0 -0.23702591807721821 -0.13140268976585071 0 -0.22814610942998831 -0.1192812239619287 0 -0.24259337340158871 -0.14930983110429691 0 -0.25377538562381252 -0.12606329824398979 0 -0.24259337340158871 -0.14930983110429691 0 -0.23702591807721821 -0.13140268976585071 0 -0.25377538562381252 -0.12606329824398979 0 -0.23702591807721821 -0.13140268976585071 0 -0.23966789462010279 -0.12116623863378941 0 -0.25377538562381252 -0.12606329824398979 0 -0.23966789462010279 -0.12116623863378941 0 -0.23972416534939189 -0.10791774256338769 0 -0.25377538562381252 -0.12606329824398979 0 -0.23972416534939189 -0.10791774256338769 0 -0.25377538562381252 -0.12606329824398979 0 -0.23702591807721821 -0.13140268976585071 0 -0.23966789462010279 -0.12116623863378941 0 -0.22814610942998831 -0.1192812239619287 0 -0.23966789462010279 -0.12116623863378941 0 -0.23972416534939189 -0.10791774256338769 0 -0.22814610942998831 -0.1192812239619287 0 -0.23598985463903091 -0.1030953042555231 0 -0.25488579166916281 -0.092466019461763166 0 -0.25198872355577911 -0.08874521833347214 0 -0.22778265604467199 -0.099667059451293893 0 -0.25198872355577911 -0.08874521833347214 0 -0.23598985463903091 -0.1030953042555231 0 -0.22778265604467199 -0.099667059451293893 0 -0.25198872355577911 -0.08874521833347214 0 -0.23972416534939189 -0.10791774256338769 0 -0.23598985463903091 -0.1030953042555231 0 -0.26209077900181088 -0.1012057994624954 0 -0.23972416534939189 -0.10791774256338769 0 -0.23598985463903091 -0.1030953042555231 0 -0.23598985463903091 -0.1030953042555231 0 -0.2250916607050871 -0.10088124360302581 0 -0.21049111351496069 -0.1098637845927639 0 -0.23972416534939189 -0.10791774256338769 0 -0.23598985463903091 -0.1030953042555231 0 -0.21163235033943209 -0.1163477475197839 0 -0.23598985463903091 -0.1030953042555231 0 -0.21049111351496069 -0.1098637845927639 0 -0.23598985463903091 -0.1030953042555231 0 -0.22778265604467199 -0.099667059451293893 0 -0.2250916607050871 -0.10088124360302581 0 -0.22778265604467199 -0.099667059451293893 0 -0.2250916607050871 -0.10088124360302581 0 -0.23972416534939189 -0.10791774256338769 0 -0.21163235033943209 -0.1163477475197839 0 -0.23972416534939189 -0.10791774256338769 0 -0.22814610942998831 -0.1192812239619287 0 -0.21163235033943209 -0.1163477475197839 0 -0.23598985463903091 -0.1030953042555231 0 -0.21049111351496069 -0.1098637845927639 0 -0.21163235033943209 -0.1163477475197839 0 -0.21954027755853531 -0.1240718775908452 0 -0.22814610942998831 -0.1192812239619287 0 -0.21163235033943209 -0.1163477475197839 0 -0.22379042613363909 -0.13104281692284961 0 -0.21954027755853531 -0.1240718775908452 0 -0.22814610942998831 -0.1192812239619287 0 -0.2389523958333552 -0.063677888411648093 0 -0.25726249546116431 -0.060574549320073882 0 -0.25198872355577911 -0.08874521833347214 0 -0.2389523958333552 -0.063677888411648093 0 -0.2249877387796877 -0.075137004143832314 0 -0.25198872355577911 -0.08874521833347214 0 -0.22778265604467199 -0.099667059451293893 0 -0.2249877387796877 -0.075137004143832314 0 -0.25198872355577911 -0.08874521833347214 0 -0.22778265604467199 -0.099667059451293893 0 -0.2250916607050871 -0.10088124360302581 0 -0.2249877387796877 -0.075137004143832314 0 -0.22778265604467199 -0.099667059451293893 0 -0.2249877387796877 -0.075137004143832314 0 -0.2250916607050871 -0.10088124360302581 0 -0.2249877387796877 -0.075137004143832314 0 -0.20644685051871031 -0.086886212565228993 0 -0.2249877387796877 -0.075137004143832314 0 -0.2221928215147029 -0.050606948836370791 0 -0.2389523958333552 -0.063677888411648093 0 -0.2249877387796877 -0.075137004143832314 0 -0.2221928215147029 -0.050606948836370791 0 -0.2249877387796877 -0.075137004143832314 0 -0.20644685051871031 -0.086886212565228993 0 -0.2024025875224596 -0.063908640537694156 0 -0.20644685051871031 -0.086886212565228993 0 -0.2024025875224596 -0.063908640537694156 0 -0.2249877387796877 -0.075137004143832314 0 -0.2024025875224596 -0.063908640537694156 0 -0.20930906060730239 -0.052811295425753108 0 -0.19285478718332391 -0.083275790697052959 0 -0.19637492946815771 -0.099597694493761602 0 -0.17793030362858431 -0.094758619131030244 0 -0.20644685051871031 -0.086886212565228993 0 -0.19285478718332391 -0.083275790697052959 0 -0.19637492946815771 -0.099597694493761602 0 -0.19285478718332391 -0.083275790697052959 0 -0.2024025875224596 -0.063908640537694156 0 -0.18596928727876319 -0.068876494018185297 0 -0.20644685051871031 -0.086886212565228993 0 -0.19285478718332391 -0.083275790697052959 0 -0.2024025875224596 -0.063908640537694156 0 -0.21049111351496069 -0.1098637845927639 0 -0.20388342745056379 -0.1186731030846243 0 -0.21163235033943209 -0.1163477475197839 0 -0.20388342745056379 -0.1186731030846243 0 -0.21289474324248739 -0.1235200614577861 0 -0.21163235033943209 -0.1163477475197839 0 -0.20520253925967691 -0.1290102321136174 0 -0.20388342745056379 -0.1186731030846243 0 -0.21289474324248739 -0.1235200614577861 0 -0.20388342745056379 -0.1186731030846243 0 -0.21163235033943209 -0.1163477475197839 0 -0.21954027755853531 -0.1240718775908452 0 -0.21289474324248739 -0.1235200614577861 0 -0.21163235033943209 -0.1163477475197839 0 -0.21289474324248739 -0.1235200614577861 0 -0.21163235033943209 -0.1163477475197839 0 -0.21049111351496069 -0.1098637845927639 0 -0.21163235033943209 -0.1163477475197839 0 -0.2250916607050871 -0.10088124360302581 0 -0.20644685051871031 -0.086886212565228993 0 -0.21049111351496069 -0.1098637845927639 0 -0.20644685051871031 -0.086886212565228993 0 -0.21049111351496069 -0.1098637845927639 0 -0.19637492946815771 -0.099597694493761602 0 -0.20644685051871031 -0.086886212565228993 0 -0.21049111351496069 -0.1098637845927639 0 -0.19637492946815771 -0.099597694493761602 0 -0.19019121674668271 -0.1152522644183193 0 -0.17793030362858431 -0.094758619131030244 0 -0.21049111351496069 -0.1098637845927639 0 -0.19637492946815771 -0.099597694493761602 0 -0.19019121674668271 -0.1152522644183193 0 -0.21049111351496069 -0.1098637845927639 0 -0.19019121674668271 -0.1152522644183193 0 -0.21049111351496069 -0.1098637845927639 0 -0.20388342745056379 -0.1186731030846243 0 -0.19019121674668271 -0.1152522644183193 0 -0.20520253925967691 -0.1290102321136174 0 -0.1944932702146776 -0.1271454774563307 0 -0.20388342745056379 -0.1186731030846243 0 -0.1944932702146776 -0.1271454774563307 0 -0.20388342745056379 -0.1186731030846243 0 -0.19019121674668271 -0.1152522644183193 0 -0.1842286152679713 -0.12661734350652029 0 -0.1944932702146776 -0.1271454774563307 0 -0.19019121674668271 -0.1152522644183193 0 -0.19019121674668271 -0.1152522644183193 0 -0.1698913199784047 -0.120640744243875 0 -0.17793030362858431 -0.094758619131030244 0 -0.19019121674668271 -0.1152522644183193 0 -0.1698913199784047 -0.120640744243875 0 -0.1842286152679713 -0.12661734350652029 0 -0.19019121674668271 -0.1152522644183193 0 -0.17563335395410951 -0.12399147955036841 0 -0.19019121674668271 -0.1152522644183193 0 -0.17563335395410951 -0.12399147955036841 0 -0.1698913199784047 -0.120640744243875 0 -0.1698913199784047 -0.120640744243875 0 -0.1539373843910028 -0.1248756160283097 0 -0.17563335395410951 -0.12399147955036841 0 -0.16939619444479001 -0.1222348389161928 0 -0.1698913199784047 -0.120640744243875 0 -0.1698913199784047 -0.120640744243875 0 -0.16139392180490411 -0.12095710683832731 0 -0.1539373843910028 -0.1248756160283097 0 -0.16939619444479001 -0.1222348389161928 0 -0.1698913199784047 -0.120640744243875 0 -0.1539373843910028 -0.1248756160283097 0 -0.1649434202757771 -0.11748157662031621 0 -0.1698913199784047 -0.120640744243875 0 -0.16139392180490411 -0.12095710683832731 0 -0.16939619444479001 -0.1222348389161928 0 -0.1698913199784047 -0.120640744243875 0 -0.1649434202757771 -0.11748157662031621 0 -0.1698913199784047 -0.120640744243875 0 -0.16534240239906109 -0.11122649772430709 0 -0.1649434202757771 -0.11748157662031621 0 -0.16534240239906109 -0.11122649772430709 0 -0.16175963998594381 -0.11660559086207389 0 -0.16534240239906109 -0.11122649772430709 0 -0.16175963998594381 -0.11660559086207389 0 -0.15809218119320961 -0.1139362313778198 0 -0.16175963998594381 -0.11660559086207389 0 -0.15809218119320961 -0.1139362313778198 0 -0.1582707500875222 -0.11865454134575749 0 -0.1582707500875222 -0.11865454134575749 0 -0.15689311758124561 -0.1214066084533605 0 -0.16139392180490411 -0.12095710683832731 0 -0.15809218119320961 -0.1139362313778198 0 -0.1582707500875222 -0.11865454134575749 0 -0.15321488987230811 -0.1203671691972058 0 -0.15689311758124561 -0.1214066084533605 0 -0.16139392180490411 -0.12095710683832731 0 -0.1539373843910028 -0.1248756160283097 0 -0.16175963998594381 -0.11660559086207389 0 -0.1582707500875222 -0.11865454134575749 0 -0.16139392180490411 -0.12095710683832731 0 -0.1649434202757771 -0.11748157662031621 0 -0.16175963998594381 -0.11660559086207389 0 -0.16139392180490411 -0.12095710683832731 0 -0.16534240239906109 -0.11122649772430709 0 -0.15939271680009551 -0.1024795672246404 0 -0.17793030362858431 -0.094758619131030244 0 -0.15939271680009551 -0.1024795672246404 0 -0.17793030362858431 -0.094758619131030244 0 -0.16087638401548479 -0.088091307167585509 0 -0.1698913199784047 -0.120640744243875 0 -0.16534240239906109 -0.11122649772430709 0 -0.17793030362858431 -0.094758619131030244 0 -0.16534240239906109 -0.11122649772430709 0 -0.15809218119320961 -0.1139362313778198 0 -0.15939271680009551 -0.1024795672246404 0 -0.1698913199784047 -0.120640744243875 0 -0.17793030362858431 -0.094758619131030244 0 -0.17793030362858431 -0.094758619131030244 0 -0.18596928727876319 -0.068876494018185297 0 -0.19285478718332391 -0.083275790697052959 0 -0.17793030362858431 -0.094758619131030244 0 -0.18596928727876319 -0.068876494018185297 0 -0.17793030362858431 -0.094758619131030244 0 -0.18596928727876319 -0.068876494018185297 0 -0.1662943896951237 -0.073315763333988732 0 -0.18596928727876319 -0.068876494018185297 0 -0.17011281519710911 -0.062844588808299989 0 -0.1662943896951237 -0.073315763333988732 0 -0.18596928727876319 -0.068876494018185297 0 -0.17011281519710911 -0.062844588808299989 0 -0.17838769268590099 -0.058880568233990682 0 -0.17011281519710911 -0.062844588808299989 0 -0.1466993958473122 -0.069681807136512508 0 -0.1620836762902842 -0.057096064827045247 0 -0.17011281519710911 -0.062844588808299989 0 -0.1662943896951237 -0.073315763333988732 0 -0.1466993958473122 -0.069681807136512508 0 -0.17793030362858431 -0.094758619131030244 0 -0.1662943896951237 -0.073315763333988732 0 -0.16087638401548479 -0.088091307167585509 0 -0.1662943896951237 -0.073315763333988732 0 -0.16087638401548479 -0.088091307167585509 0 -0.1547026130708824 -0.081079738499876819 0 -0.1547026130708824 -0.081079738499876819 0 -0.14494028272560899 -0.093230076361420514 0 -0.1466993958473122 -0.069681807136512508 0 -0.14494028272560899 -0.093230076361420514 0 -0.1466993958473122 -0.069681807136512508 0 -0.13409604000250189 -0.079992499891058569 0 -0.14494028272560899 -0.093230076361420514 0 -0.1466993958473122 -0.069681807136512508 0 -0.16087638401548479 -0.088091307167585509 0 -0.1547026130708824 -0.081079738499876819 0 -0.14494028272560899 -0.093230076361420514 0 -0.1662943896951237 -0.073315763333988732 0 -0.1547026130708824 -0.081079738499876819 0 -0.1466993958473122 -0.069681807136512508 0 -0.1466993958473122 -0.069681807136512508 0 -0.1620836762902842 -0.057096064827045247 0 -0.1466993958473122 -0.069681807136512508 0 -0.13409604000250189 -0.079992499891058569 0 -0.13632600238921161 -0.062256591761182638 0 -0.12583965652133869 -0.06577116567244104 0 -0.13409604000250189 -0.079992499891058569 0 -0.13632600238921161 -0.062256591761182638 0 -0.1466993958473122 -0.069681807136512508 0 -0.13409604000250189 -0.079992499891058569 0 -0.1214926841576925 -0.09030319264560574 0 -0.13409604000250189 -0.079992499891058569 0 -0.13214926139426819 -0.097148629626274352 0 -0.1214926841576925 -0.09030319264560574 0 -0.12583965652133869 -0.06577116567244104 0 -0.13409604000250189 -0.079992499891058569 0 -0.14494028272560899 -0.093230076361420514 0 -0.13409604000250189 -0.079992499891058569 0 -0.13214926139426819 -0.097148629626274352 0 -0.1214926841576925 -0.09030319264560574 0 -0.13409604000250189 -0.079992499891058569 0 -0.12383558658528469 -0.099353472240349405 0 -0.1214926841576925 -0.09030319264560574 0 -0.13214926139426819 -0.097148629626274352 0 -0.14494028272560899 -0.093230076361420514 0 -0.13214926139426819 -0.097148629626274352 0 -0.13571641831647219 -0.10651747162520291 0 -0.12383558658528469 -0.099353472240349405 0 -0.13214926139426819 -0.097148629626274352 0 -0.12580692259109499 -0.1082200962336379 0 -0.13214926139426819 -0.097148629626274352 0 -0.13571641831647219 -0.10651747162520291 0 -0.12580692259109499 -0.1082200962336379 0 -0.13571641831647219 -0.10651747162520291 0 -0.12580692259109499 -0.1082200962336379 0 -0.13150024149670961 -0.1164846868310945 0 -0.11803336620412511 -0.1152214066271247 0 -0.12580692259109499 -0.1082200962336379 0 -0.13150024149670961 -0.1164846868310945 0 -0.11803336620412511 -0.1152214066271247 0 -0.12933457122310771 -0.12742183030944179 0 -0.13150024149670961 -0.1164846868310945 0 -0.12933457122310771 -0.12742183030944179 0 -0.13150024149670961 -0.1164846868310945 0 -0.13996885211182239 -0.12301634781075919 0 -0.13150024149670961 -0.1164846868310945 0 -0.13996885211182239 -0.12301634781075919 0 -0.14318116960390481 -0.11677834558632851 0 -0.13571641831647219 -0.10651747162520291 0 -0.13150024149670961 -0.1164846868310945 0 -0.14318116960390481 -0.11677834558632851 0 -0.14318116960390481 -0.11677834558632851 0 -0.1474604913531867 -0.1206347851322962 0 -0.15104695525805231 -0.1112376958132852 0 -0.14895609415868619 -0.12619786816724751 0 -0.13996885211182239 -0.12301634781075919 0 -0.1474604913531867 -0.1206347851322962 0 -0.13996885211182239 -0.12301634781075919 0 -0.14318116960390481 -0.11677834558632851 0 -0.1474604913531867 -0.1206347851322962 0 -0.1474604913531867 -0.1206347851322962 0 -0.15321488987230811 -0.1203671691972058 0 -0.15104695525805231 -0.1112376958132852 0 -0.14895609415868619 -0.12619786816724751 0 -0.1507913386706535 -0.1230676663959733 0 -0.1539373843910028 -0.1248756160283097 0 -0.1474604913531867 -0.1206347851322962 0 -0.1507913386706535 -0.1230676663959733 0 -0.15321488987230811 -0.1203671691972058 0 -0.14895609415868619 -0.12619786816724751 0 -0.1474604913531867 -0.1206347851322962 0 -0.1507913386706535 -0.1230676663959733 0 -0.1582707500875222 -0.11865454134575749 0 -0.15689311758124561 -0.1214066084533605 0 -0.15321488987230811 -0.1203671691972058 0 -0.15321488987230811 -0.1203671691972058 0 -0.1539373843910028 -0.1248756160283097 0 -0.1507913386706535 -0.1230676663959733 0 -0.15321488987230811 -0.1203671691972058 0 -0.1539373843910028 -0.1248756160283097 0 -0.15689311758124561 -0.1214066084533605 0 -0.15321488987230811 -0.1203671691972058 0 -0.1539373843910028 -0.1248756160283097 0 -0.15809218119320961 -0.1139362313778198 0 -0.15321488987230811 -0.1203671691972058 0 -0.15104695525805231 -0.1112376958132852 0 -0.15809218119320961 -0.1139362313778198 0 -0.15939271680009551 -0.1024795672246404 0 -0.15104695525805231 -0.1112376958132852 0 -0.15939271680009551 -0.1024795672246404 0 -0.14494028272560899 -0.093230076361420514 0 -0.15104695525805231 -0.1112376958132852 0 -0.15939271680009551 -0.1024795672246404 0 -0.16087638401548479 -0.088091307167585509 0 -0.14494028272560899 -0.093230076361420514 0 -0.14494028272560899 -0.093230076361420514 0 -0.14318116960390481 -0.11677834558632851 0 -0.15104695525805231 -0.1112376958132852 0 -0.14494028272560899 -0.093230076361420514 0 -0.13571641831647219 -0.10651747162520291 0 -0.14318116960390481 -0.11677834558632851 0 -0.14494028272560899 -0.093230076361420514 0 -0.14318116960390481 -0.11677834558632851 0 -0.14252420476131239 -0.016986695032510289 0 -0.14936500461568139 -0.022255316232830322 0 -0.13557379809726799 -0.021215961908931241 0 -0.14252420476131239 -0.016986695032510289 0 -0.14936500461568139 -0.022255316232830322 0 -0.14763420981309339 -0.014579362196792151 0 -0.14936500461568139 -0.022255316232830322 0 -0.13702856295142629 -0.035615603188598542 0 -0.14936500461568139 -0.022255316232830322 0 -0.13557379809726799 -0.021215961908931241 0 -0.13702856295142629 -0.035615603188598542 0 -0.14961602991363279 -0.03063844865272336 0 -0.14936500461568139 -0.022255316232830322 0 -0.13702856295142629 -0.035615603188598542 0 -0.14961602991363279 -0.03063844865272336 0 -0.15454954580731889 -0.025450495956794751 0 -0.14936500461568139 -0.022255316232830322 0 -0.15454954580731889 -0.025450495956794751 0 -0.14936500461568139 -0.022255316232830322 0 -0.14763420981309339 -0.014579362196792151 0 -0.15503263680019749 -0.0007777768832181349 0 -0.14763420981309339 -0.014579362196792151 0 -0.1366996570809571 -0.0074265268786072348 0 -0.15454954580731889 -0.025450495956794751 0 -0.15503263680019749 -0.0007777768832181349 0 -0.15454954580731889 -0.025450495956794751 0 -0.15503263680019749 -0.0007777768832181349 0 -0.14763420981309339 -0.014579362196792151 0 -0.14252420476131239 -0.016986695032510289 0 -0.14763420981309339 -0.014579362196792151 0 -0.1366996570809571 -0.0074265268786072348 0 -0.14252420476131239 -0.016986695032510289 0 -0.1366996570809571 -0.0074265268786072348 0 -0.13557379809726799 -0.021215961908931241 0 -0.1177298695792065 -0.019182939174269689 0 -0.1366996570809571 -0.0074265268786072348 0 -0.12556787346907991 0.0072178933967609119 0 -0.1177298695792065 -0.019182939174269689 0 -0.13557379809726799 -0.021215961908931241 0 -0.13702856295142629 -0.035615603188598542 0 -0.1177298695792065 -0.019182939174269689 0 -0.13702856295142629 -0.035615603188598542 0 -0.1177298695792065 -0.019182939174269689 0 -0.1366996570809571 -0.0074265268786072348 0 -0.13557379809726799 -0.021215961908931241 0 -0.11915299968124921 -0.054974723207585868 0 -0.11916153802425219 -0.03705019889878873 0 -0.13702856295142629 -0.035615603188598542 0 -0.13702856295142629 -0.035615603188598542 0 -0.1338167803373721 -0.051442315693069389 0 -0.14851367415866301 -0.045395072191799432 0 -0.11915299968124921 -0.054974723207585868 0 -0.13702856295142629 -0.035615603188598542 0 -0.1338167803373721 -0.051442315693069389 0 -0.13632600238921161 -0.062256591761182638 0 -0.14851367415866301 -0.045395072191799432 0 -0.11915299968124921 -0.054974723207585868 0 -0.13702856295142629 -0.035615603188598542 0 -0.1338167803373721 -0.051442315693069389 0 -0.11915299968124921 -0.054974723207585868 0 -0.12878385973229289 -0.058611199083569737 0 -0.1338167803373721 -0.051442315693069389 0 -0.12583965652133869 -0.06577116567244104 0 -0.12878385973229289 -0.058611199083569737 0 -0.13632600238921161 -0.062256591761182638 0 -0.12878385973229289 -0.058611199083569737 0 -0.1338167803373721 -0.051442315693069389 0 -0.13632600238921161 -0.062256591761182638 0 -0.1466993958473122 -0.069681807136512508 0 -0.14851367415866301 -0.045395072191799432 0 -0.1466993958473122 -0.069681807136512508 0 -0.15392582657047421 -0.057305466838683441 0 -0.14851367415866301 -0.045395072191799432 0 -0.1466993958473122 -0.069681807136512508 0 -0.13632600238921161 -0.062256591761182638 0 -0.14851367415866301 -0.045395072191799432 0 -0.15406645481443901 -0.050123215030371371 0 -0.15392582657047421 -0.057305466838683441 0 -0.14851367415866301 -0.045395072191799432 0 -0.15406645481443901 -0.050123215030371371 0 -0.14851367415866301 -0.045395072191799432 0 -0.15406645481443901 -0.050123215030371371 0 -0.15392582657047421 -0.057305466838683441 0 -0.1466993958473122 -0.069681807136512508 0 -0.15392582657047421 -0.057305466838683441 0 -0.1620836762902842 -0.057096064827045247 0 -0.15454954580731889 -0.025450495956794751 0 -0.15406645481443901 -0.050123215030371371 0 -0.15454954580731889 -0.025450495956794751 0 -0.15406645481443901 -0.050123215030371371 0 -0.15965065761310629 -0.035483307895546198 0 -0.14961602991363279 -0.03063844865272336 0 -0.15454954580731889 -0.025450495956794751 0 -0.15406645481443901 -0.050123215030371371 0 -0.14961602991363279 -0.03063844865272336 0 -0.15406645481443901 -0.050123215030371371 0 -0.14851367415866301 -0.045395072191799432 0 -0.14961602991363279 -0.03063844865272336 0 -0.13702856295142629 -0.035615603188598542 0 -0.14851367415866301 -0.045395072191799432 0 -0.13702856295142629 -0.035615603188598542 0 -0.14851367415866301 -0.045395072191799432 0 -0.14961602991363279 -0.03063844865272336 0 -0.14851367415866301 -0.045395072191799432 0 -0.15965065761310629 -0.035483307895546198 0 -0.16466050905101151 -0.033771130128151632 0 -0.1633343335210293 -0.028426200484770271 0 -0.16234764412998981 -0.037910040687287941 0 -0.15965065761310629 -0.035483307895546198 0 -0.16466050905101151 -0.033771130128151632 0 -0.16234764412998981 -0.037910040687287941 0 -0.15965065761310629 -0.035483307895546198 0 -0.16075543081999941 -0.044098279112623748 0 -0.15406645481443901 -0.050123215030371371 0 -0.15965065761310629 -0.035483307895546198 0 -0.16075543081999941 -0.044098279112623748 0 -0.16075543081999941 -0.044098279112623748 0 -0.16436523872650941 -0.042090245433967763 0 -0.16540148986955491 -0.0471751418369332 0 -0.16234764412998981 -0.037910040687287941 0 -0.16075543081999941 -0.044098279112623748 0 -0.16436523872650941 -0.042090245433967763 0 -0.1680505809312188 -0.04275672379200865 0 -0.16540148986955491 -0.0471751418369332 0 -0.17337169297182509 -0.044107090005199807 0 -0.16234764412998981 -0.037910040687287941 0 -0.16436523872650941 -0.042090245433967763 0 -0.1668100542583173 -0.038616766741863741 0 -0.16436523872650941 -0.042090245433967763 0 -0.1680505809312188 -0.04275672379200865 0 -0.1668100542583173 -0.038616766741863741 0 -0.16436523872650941 -0.042090245433967763 0 -0.1680505809312188 -0.04275672379200865 0 -0.16540148986955491 -0.0471751418369332 0 -0.1680505809312188 -0.04275672379200865 0 -0.17173980915588699 -0.039302504758594481 0 -0.1668100542583173 -0.038616766741863741 0 -0.1680505809312188 -0.04275672379200865 0 -0.17173980915588699 -0.039302504758594481 0 -0.17337169297182509 -0.044107090005199807 0 -0.17173980915588699 -0.039302504758594481 0 -0.17019790132556739 -0.035288941527968201 0 -0.1668100542583173 -0.038616766741863741 0 -0.17019790132556739 -0.035288941527968201 0 -0.17295677023518041 -0.031472245974092483 0 -0.16836175301582509 -0.029997396932642761 0 -0.17019790132556739 -0.035288941527968201 0 -0.16466050905101151 -0.033771130128151632 0 -0.16836175301582509 -0.029997396932642761 0 -0.16234764412998981 -0.037910040687287941 0 -0.16466050905101151 -0.033771130128151632 0 -0.1668100542583173 -0.038616766741863741 0 -0.17019790132556739 -0.035288941527968201 0 -0.16466050905101151 -0.033771130128151632 0 -0.1668100542583173 -0.038616766741863741 0 -0.15406645481443901 -0.050123215030371371 0 -0.15392582657047421 -0.057305466838683441 0 -0.1620836762902842 -0.057096064827045247 0 -0.15406645481443901 -0.050123215030371371 0 -0.16075543081999941 -0.044098279112623748 0 -0.1618972469584429 -0.050216944689174113 0 -0.15406645481443901 -0.050123215030371371 0 -0.1620836762902842 -0.057096064827045247 0 -0.1618972469584429 -0.050216944689174113 0 -0.15406645481443901 -0.050123215030371371 0 -0.1620836762902842 -0.057096064827045247 0 -0.1620836762902842 -0.057096064827045247 0 -0.1618972469584429 -0.050216944689174113 0 -0.16787313804342011 -0.052359757919121487 0 -0.16075543081999941 -0.044098279112623748 0 -0.1618972469584429 -0.050216944689174113 0 -0.16540148986955491 -0.0471751418369332 0 -0.16540148986955491 -0.0471751418369332 0 -0.16787313804342011 -0.052359757919121487 0 -0.17337169297182509 -0.044107090005199807 0 -0.1618972469584429 -0.050216944689174113 0 -0.16540148986955491 -0.0471751418369332 0 -0.16787313804342011 -0.052359757919121487 0 -0.17011281519710911 -0.062844588808299989 0 -0.16787313804342011 -0.052359757919121487 0 -0.17545298763213479 -0.053953142208001272 0 -0.17011281519710911 -0.062844588808299989 0 -0.1620836762902842 -0.057096064827045247 0 -0.16787313804342011 -0.052359757919121487 0 -0.1620836762902842 -0.057096064827045247 0 -0.16787313804342011 -0.052359757919121487 0 -0.18596928727876319 -0.068876494018185297 0 -0.18710911928993831 -0.048711232512849909 0 -0.18142909673256211 -0.054811971835912722 0 -0.17011281519710911 -0.062844588808299989 0 -0.17838769268590099 -0.058880568233990682 0 -0.17545298763213479 -0.053953142208001272 0 -0.17838769268590099 -0.058880568233990682 0 -0.17545298763213479 -0.053953142208001272 0 -0.18142909673256211 -0.054811971835912722 0 -0.16787313804342011 -0.052359757919121487 0 -0.17545298763213479 -0.053953142208001272 0 -0.1803374636539245 -0.045993654502061769 0 -0.17545298763213479 -0.053953142208001272 0 -0.18142909673256211 -0.054811971835912722 0 -0.1803374636539245 -0.045993654502061769 0 -0.18710911928993831 -0.048711232512849909 0 -0.18142909673256211 -0.054811971835912722 0 -0.1803374636539245 -0.045993654502061769 0 -0.18596928727876319 -0.068876494018185297 0 -0.17838769268590099 -0.058880568233990682 0 -0.18142909673256211 -0.054811971835912722 0 -0.16787313804342011 -0.052359757919121487 0 -0.1803374636539245 -0.045993654502061769 0 -0.18904688023952879 -0.035037708701731528 0 -0.16787313804342011 -0.052359757919121487 0 -0.17337169297182509 -0.044107090005199807 0 -0.18904688023952879 -0.035037708701731528 0 -0.17337169297182509 -0.044107090005199807 0 -0.1817358508546548 -0.03727776237730622 0 -0.18904688023952879 -0.035037708701731528 0 -0.16787313804342011 -0.052359757919121487 0 -0.18904688023952879 -0.035037708701731528 0 -0.17630791123599759 -0.034809071110684132 0 -0.17588199626678511 -0.039223114777523597 0 -0.1817358508546548 -0.03727776237730622 0 -0.17630791123599759 -0.034809071110684132 0 -0.18126387444551861 -0.032918468816954649 0 -0.1771972994291581 -0.03026144959750077 0 -0.17630791123599759 -0.034809071110684132 0 -0.17295677023518041 -0.031472245974092483 0 -0.1771972994291581 -0.03026144959750077 0 -0.17019790132556739 -0.035288941527968201 0 -0.17630791123599759 -0.034809071110684132 0 -0.17295677023518041 -0.031472245974092483 0 -0.17173980915588699 -0.039302504758594481 0 -0.17019790132556739 -0.035288941527968201 0 -0.17630791123599759 -0.034809071110684132 0 -0.17173980915588699 -0.039302504758594481 0 -0.17630791123599759 -0.034809071110684132 0 -0.17588199626678511 -0.039223114777523597 0 -0.17337169297182509 -0.044107090005199807 0 -0.17588199626678511 -0.039223114777523597 0 -0.1817358508546548 -0.03727776237730622 0 -0.17173980915588699 -0.039302504758594481 0 -0.17337169297182509 -0.044107090005199807 0 -0.17588199626678511 -0.039223114777523597 0 -0.1803374636539245 -0.045993654502061769 0 -0.18736817237531589 -0.042930657191124072 0 -0.18904688023952879 -0.035037708701731528 0 -0.18710911928993831 -0.048711232512849909 0 -0.1803374636539245 -0.045993654502061769 0 -0.18736817237531589 -0.042930657191124072 0 -0.1817358508546548 -0.03727776237730622 0 -0.1842123487596285 -0.034519726748958798 0 -0.18904688023952879 -0.035037708701731528 0 -0.1817358508546548 -0.03727776237730622 0 -0.18126387444551861 -0.032918468816954649 0 -0.1842123487596285 -0.034519726748958798 0 -0.17630791123599759 -0.034809071110684132 0 -0.1817358508546548 -0.03727776237730622 0 -0.18126387444551861 -0.032918468816954649 0 -0.1842123487596285 -0.034519726748958798 0 -0.18571156966468369 -0.031739240254060289 0 -0.18904688023952879 -0.035037708701731528 0 -0.18126387444551861 -0.032918468816954649 0 -0.1842123487596285 -0.034519726748958798 0 -0.18571156966468369 -0.031739240254060289 0 -0.18571156966468369 -0.031739240254060289 0 -0.1861938186237703 -0.028980630801800331 0 -0.19034599357342649 -0.03101377091285264 0 -0.1861938186237703 -0.028980630801800331 0 -0.18629944452798169 -0.024265949227070711 0 -0.18241826672898931 -0.028903562813217688 0 -0.18571156966468369 -0.031739240254060289 0 -0.1861938186237703 -0.028980630801800331 0 -0.18241826672898931 -0.028903562813217688 0 -0.18629944452798169 -0.024265949227070711 0 -0.18241826672898931 -0.028903562813217688 0 -0.17870459279615269 -0.024993909200701301 0 -0.18126387444551861 -0.032918468816954649 0 -0.18241826672898931 -0.028903562813217688 0 -0.1771972994291581 -0.03026144959750077 0 -0.18126387444551861 -0.032918468816954649 0 -0.18571156966468369 -0.031739240254060289 0 -0.18241826672898931 -0.028903562813217688 0 -0.18629944452798169 -0.024265949227070711 0 -0.1808558016078973 -0.018430813851812049 0 -0.18868388801054009 -0.01379672052263062 0 -0.18629944452798169 -0.024265949227070711 0 -0.1808558016078973 -0.018430813851812049 0 -0.17870459279615269 -0.024993909200701301 0 -0.1808558016078973 -0.018430813851812049 0 -0.17403117848623009 -0.018975915109125441 0 -0.17870459279615269 -0.024993909200701301 0 -0.17403117848623009 -0.018975915109125441 0 -0.17870459279615269 -0.024993909200701301 0 -0.17271898616935369 -0.02700437070166653 0 -0.1771972994291581 -0.03026144959750077 0 -0.17870459279615269 -0.024993909200701301 0 -0.17271898616935369 -0.02700437070166653 0 -0.18241826672898931 -0.028903562813217688 0 -0.1771972994291581 -0.03026144959750077 0 -0.17870459279615269 -0.024993909200701301 0 -0.17295677023518041 -0.031472245974092483 0 -0.1771972994291581 -0.03026144959750077 0 -0.17271898616935369 -0.02700437070166653 0 -0.17295677023518041 -0.031472245974092483 0 -0.17271898616935369 -0.02700437070166653 0 -0.16836175301582509 -0.029997396932642761 0 -0.16466050905101151 -0.033771130128151632 0 -0.16836175301582509 -0.029997396932642761 0 -0.1633343335210293 -0.028426200484770271 0 -0.16836175301582509 -0.029997396932642761 0 -0.16744164826977309 -0.022943092159925429 0 -0.1633343335210293 -0.028426200484770271 0 -0.17271898616935369 -0.02700437070166653 0 -0.16836175301582509 -0.029997396932642761 0 -0.16744164826977309 -0.022943092159925429 0 -0.16744164826977309 -0.022943092159925429 0 -0.16137045285518339 -0.01976896273832086 0 -0.1673276318014878 -0.01246787586118098 0 -0.17403117848623009 -0.018975915109125441 0 -0.17271898616935369 -0.02700437070166653 0 -0.16744164826977309 -0.022943092159925429 0 -0.17403117848623009 -0.018975915109125441 0 -0.16744164826977309 -0.022943092159925429 0 -0.1673276318014878 -0.01246787586118098 0 -0.15454954580731889 -0.025450495956794751 0 -0.16137045285518339 -0.01976896273832086 0 -0.15940993631731171 -0.027456245078296419 0 -0.15454954580731889 -0.025450495956794751 0 -0.15965065761310629 -0.035483307895546198 0 -0.15940993631731171 -0.027456245078296419 0 -0.15965065761310629 -0.035483307895546198 0 -0.15940993631731171 -0.027456245078296419 0 -0.1633343335210293 -0.028426200484770271 0 -0.16137045285518339 -0.01976896273832086 0 -0.15940993631731171 -0.027456245078296419 0 -0.1633343335210293 -0.028426200484770271 0 -0.16744164826977309 -0.022943092159925429 0 -0.16137045285518339 -0.01976896273832086 0 -0.1633343335210293 -0.028426200484770271 0 -0.15454954580731889 -0.025450495956794751 0 -0.15503263680019749 -0.0007777768832181349 0 -0.16137045285518339 -0.01976896273832086 0 -0.15503263680019749 -0.0007777768832181349 0 -0.16137045285518339 -0.01976896273832086 0 -0.1673276318014878 -0.01246787586118098 0 -0.15503263680019749 -0.0007777768832181349 0 -0.1673276318014878 -0.01246787586118098 0 -0.16830554702749151 -0.0032033071549828502 0 -0.1673276318014878 -0.01246787586118098 0 -0.16830554702749151 -0.0032033071549828502 0 -0.17713841027271601 -0.0080154288794663884 0 -0.16830554702749151 -0.0032033071549828502 0 -0.17713841027271601 -0.0080154288794663884 0 -0.17153781234355059 0.0060450729046612759 0 -0.17713841027271601 -0.0080154288794663884 0 -0.18868388801054009 -0.01379672052263062 0 -0.1870217824476452 0.0034203298675906692 0 -0.17403117848623009 -0.018975915109125441 0 -0.1673276318014878 -0.01246787586118098 0 -0.17713841027271601 -0.0080154288794663884 0 -0.1808558016078973 -0.018430813851812049 0 -0.17403117848623009 -0.018975915109125441 0 -0.17713841027271601 -0.0080154288794663884 0 -0.1808558016078973 -0.018430813851812049 0 -0.17713841027271601 -0.0080154288794663884 0 -0.18868388801054009 -0.01379672052263062 0 -0.19862120244163989 -0.0071476648083789096 0 -0.18868388801054009 -0.01379672052263062 0 -0.1870217824476452 0.0034203298675906692 0 -0.18868388801054009 -0.01379672052263062 0 -0.1870217824476452 0.0034203298675906692 0 -0.19862120244163989 -0.0071476648083789096 0 -0.1870217824476452 0.0034203298675906692 0 -0.19974405812964821 0.0019229094918305121 0 -0.19862120244163989 -0.0071476648083789096 0 -0.1870217824476452 0.0034203298675906692 0 -0.19862120244163989 -0.0071476648083789096 0 -0.20885505400841611 -0.003771341377249614 0 -0.19974405812964821 0.0019229094918305121 0 -0.19862120244163989 -0.0071476648083789096 0 -0.1983984102509074 -0.021547650271904039 0 -0.21022062243563919 -0.01771565948434355 0 -0.19862120244163989 -0.0071476648083789096 0 -0.18868388801054009 -0.01379672052263062 0 -0.1983984102509074 -0.021547650271904039 0 -0.1983984102509074 -0.021547650271904039 0 -0.21022062243563919 -0.01771565948434355 0 -0.18904688023952879 -0.035037708701731528 0 -0.21022062243563919 -0.01771565948434355 0 -0.18904688023952879 -0.035037708701731528 0 -0.20147708417021659 -0.033595947735885652 0 -0.21022062243563919 -0.01771565948434355 0 -0.18904688023952879 -0.035037708701731528 0 -0.18868388801054009 -0.01379672052263062 0 -0.19034599357342649 -0.03101377091285264 0 -0.1983984102509074 -0.021547650271904039 0 -0.18868388801054009 -0.01379672052263062 0 -0.19034599357342649 -0.03101377091285264 0 -0.18629944452798169 -0.024265949227070711 0 -0.18868388801054009 -0.01379672052263062 0 -0.19034599357342649 -0.03101377091285264 0 -0.19034599357342649 -0.03101377091285264 0 -0.1983984102509074 -0.021547650271904039 0 -0.18904688023952879 -0.035037708701731528 0 -0.1861938186237703 -0.028980630801800331 0 -0.18629944452798169 -0.024265949227070711 0 -0.19034599357342649 -0.03101377091285264 0 -0.21022062243563919 -0.01771565948434355 0 -0.2093946187275966 -0.02940600747602972 0 -0.20147708417021659 -0.033595947735885652 0 -0.21022062243563919 -0.01771565948434355 0 -0.2093946187275966 -0.02940600747602972 0 -0.21939790424971889 -0.02607689352890917 0 -0.21022062243563919 -0.01771565948434355 0 -0.21939790424971889 -0.02607689352890917 0 -0.21774397115121369 -0.011560875151757371 0 -0.21939790424971889 -0.02607689352890917 0 -0.21022062243563919 -0.01771565948434355 0 -0.21774397115121369 -0.011560875151757371 0 -0.21939790424971889 -0.02607689352890917 0 -0.21774397115121369 -0.011560875151757371 0 -0.20885505400841611 -0.003771341377249614 0 -0.21585417110216501 0.0050252686686873514 0 -0.21022062243563919 -0.01771565948434355 0 -0.21774397115121369 -0.011560875151757371 0 -0.20885505400841611 -0.003771341377249614 0 -0.21774397115121369 -0.011560875151757371 0 -0.21585417110216501 0.0050252686686873514 0 -0.21022062243563919 -0.01771565948434355 0 -0.21774397115121369 -0.011560875151757371 0 -0.19862120244163989 -0.0071476648083789096 0 -0.21022062243563919 -0.01771565948434355 0 -0.20885505400841611 -0.003771341377249614 0 -0.19862120244163989 -0.0071476648083789096 0 -0.21022062243563919 -0.01771565948434355 0 -0.2024025875224596 -0.063908640537694156 0 -0.19835832452620891 -0.040931068510159319 0 -0.18596928727876319 -0.068876494018185297 0 -0.1940082709289421 -0.042994368905340349 0 -0.18596928727876319 -0.068876494018185297 0 -0.18710911928993831 -0.048711232512849909 0 -0.1940082709289421 -0.042994368905340349 0 -0.2024025875224596 -0.063908640537694156 0 -0.19835832452620891 -0.040931068510159319 0 -0.1940082709289421 -0.042994368905340349 0 -0.2024025875224596 -0.063908640537694156 0 -0.18596928727876319 -0.068876494018185297 0 -0.1940082709289421 -0.042994368905340349 0 -0.19835832452620891 -0.040931068510159319 0 -0.1940082709289421 -0.042994368905340349 0 -0.19429221295478599 -0.038625996981442673 0 -0.18736817237531589 -0.042930657191124072 0 -0.19024444427429149 -0.040631181391796577 0 -0.18904688023952879 -0.035037708701731528 0 -0.18710911928993831 -0.048711232512849909 0 -0.18736817237531589 -0.042930657191124072 0 -0.18968250171712189 -0.043816860000277728 0 -0.18710911928993831 -0.048711232512849909 0 -0.1940082709289421 -0.042994368905340349 0 -0.18968250171712189 -0.043816860000277728 0 -0.1940082709289421 -0.042994368905340349 0 -0.18968250171712189 -0.043816860000277728 0 -0.19024444427429149 -0.040631181391796577 0 -0.18736817237531589 -0.042930657191124072 0 -0.18968250171712189 -0.043816860000277728 0 -0.19024444427429149 -0.040631181391796577 0 -0.1940082709289421 -0.042994368905340349 0 -0.19024444427429149 -0.040631181391796577 0 -0.19429221295478599 -0.038625996981442673 0 -0.19429221295478599 -0.038625996981442673 0 -0.18904688023952879 -0.035037708701731528 0 -0.20147708417021659 -0.033595947735885652 0 -0.19024444427429149 -0.040631181391796577 0 -0.19429221295478599 -0.038625996981442673 0 -0.18904688023952879 -0.035037708701731528 0 -0.18571156966468369 -0.031739240254060289 0 -0.19034599357342649 -0.03101377091285264 0 -0.18904688023952879 -0.035037708701731528 0 -0.19835832452620891 -0.040931068510159319 0 -0.19429221295478599 -0.038625996981442673 0 -0.20147708417021659 -0.033595947735885652 0 -0.21002163563262449 -0.038904693585517867 0 -0.2221928215147029 -0.050606948836370791 0 -0.21939790424971889 -0.02607689352890917 0 -0.19835832452620891 -0.040931068510159319 0 -0.20147708417021659 -0.033595947735885652 0 -0.21002163563262449 -0.038904693585517867 0 -0.2093946187275966 -0.02940600747602972 0 -0.20147708417021659 -0.033595947735885652 0 -0.21002163563262449 -0.038904693585517867 0 -0.2093946187275966 -0.02940600747602972 0 -0.21002163563262449 -0.038904693585517867 0 -0.21939790424971889 -0.02607689352890917 0 -0.19835832452620891 -0.040931068510159319 0 -0.21002163563262449 -0.038904693585517867 0 -0.20930906060730239 -0.052811295425753108 0 -0.2024025875224596 -0.063908640537694156 0 -0.19835832452620891 -0.040931068510159319 0 -0.20930906060730239 -0.052811295425753108 0 -0.21002163563262449 -0.038904693585517867 0 -0.20930906060730239 -0.052811295425753108 0 -0.2221928215147029 -0.050606948836370791 0 -0.2249877387796877 -0.075137004143832314 0 -0.20930906060730239 -0.052811295425753108 0 -0.2221928215147029 -0.050606948836370791 0 -0.2389523958333552 -0.063677888411648093 0 -0.2221928215147029 -0.050606948836370791 0 -0.2383301998554419 -0.043325721424491329 0 -0.2221928215147029 -0.050606948836370791 0 -0.2383301998554419 -0.043325721424491329 0 -0.21939790424971889 -0.02607689352890917 0 -0.2383301998554419 -0.043325721424491329 0 -0.21939790424971889 -0.02607689352890917 0 -0.2383301998554419 -0.043325721424491329 0 -0.21939790424971889 -0.02607689352890917 0 -0.23194289861147779 -0.025583722274839731 0 -0.2221928215147029 -0.050606948836370791 0 -0.21939790424971889 -0.02607689352890917 0 -0.2383301998554419 -0.043325721424491329 0 -0.23194289861147779 -0.025583722274839731 0 -0.24035151185146261 -0.03077375472687743 0 -0.2383301998554419 -0.043325721424491329 0 -0.24035151185146261 -0.03077375472687743 0 -0.25007854201827351 -0.033592477647878247 0 -0.2383301998554419 -0.043325721424491329 0 -0.25007854201827351 -0.033592477647878247 0 -0.25063272814674742 -0.048766628000050487 0 -0.2383301998554419 -0.043325721424491329 0 -0.25726249546116431 -0.060574549320073882 0 -0.25063272814674742 -0.048766628000050487 0 -0.2383301998554419 -0.043325721424491329 0 -0.25726249546116431 -0.060574549320073882 0 -0.2389523958333552 -0.063677888411648093 0 -0.2383301998554419 -0.043325721424491329 0 -0.25726249546116431 -0.060574549320073882 0 -0.21774397115121369 -0.011560875151757371 0 -0.21585417110216501 0.0050252686686873514 0 -0.23248444109947011 0.00049817154703871071 0 -0.21774397115121369 -0.011560875151757371 0 -0.23160011225297469 -0.0132782839662517 0 -0.23248444109947011 0.00049817154703871071 0 -0.21774397115121369 -0.011560875151757371 0 -0.23248444109947011 0.00049817154703871071 0 -0.21774397115121369 -0.011560875151757371 0 -0.23160011225297469 -0.0132782839662517 0 -0.21939790424971889 -0.02607689352890917 0 -0.23160011225297469 -0.0132782839662517 0 -0.21939790424971889 -0.02607689352890917 0 -0.23194289861147779 -0.025583722274839731 0 -0.23160011225297469 -0.0132782839662517 0 -0.23194289861147779 -0.025583722274839731 0 -0.2424818216969353 -0.02138702759043392 0 -0.23194289861147779 -0.025583722274839731 0 -0.24035151185146261 -0.03077375472687743 0 -0.2424818216969353 -0.02138702759043392 0 -0.24035151185146261 -0.03077375472687743 0 -0.2424818216969353 -0.02138702759043392 0 -0.25007854201827351 -0.033592477647878247 0 -0.2424818216969353 -0.02138702759043392 0 -0.25437592724591201 -0.02070334971747995 0 -0.25007854201827351 -0.033592477647878247 0 -0.23160011225297469 -0.0132782839662517 0 -0.2576939527910227 -0.0063643693398820061 0 -0.23248444109947011 0.00049817154703871071 0 -0.2576939527910227 -0.0063643693398820061 0 -0.23248444109947011 0.00049817154703871071 0 -0.23160011225297469 -0.0132782839662517 0 -0.2424818216969353 -0.02138702759043392 0 -0.2576939527910227 -0.0063643693398820061 0 -0.2576939527910227 -0.0063643693398820061 0 -0.25437592724591201 -0.02070334971747995 0 -0.26577373531142617 -0.029405559222431141 0 -0.25437592724591201 -0.02070334971747995 0 -0.26577373531142617 -0.029405559222431141 0 -0.25007854201827351 -0.033592477647878247 0 -0.2424818216969353 -0.02138702759043392 0 -0.2576939527910227 -0.0063643693398820061 0 -0.25437592724591201 -0.02070334971747995 0 -0.26577373531142617 -0.029405559222431141 0 -0.27708907497038021 -0.024010109626521461 0 -0.2850461278883698 -0.033133083496410698 0 -0.2576939527910227 -0.0063643693398820061 0 -0.26577373531142617 -0.029405559222431141 0 -0.27708907497038021 -0.024010109626521461 0 -0.2576939527910227 -0.0063643693398820061 0 -0.27708907497038021 -0.024010109626521461 0 -0.28290346448257531 -0.01322691022680233 0 -0.2576939527910227 -0.0063643693398820061 0 -0.27446539300758138 -0.0029427578754109558 0 -0.26735024964930421 0.0082973299709941245 0 -0.2576939527910227 -0.0063643693398820061 0 -0.28290346448257531 -0.01322691022680233 0 -0.2576939527910227 -0.0063643693398820061 0 -0.27446539300758138 -0.0029427578754109558 0 -0.28290346448257531 -0.01322691022680233 0 -0.28776762822947971 -0.0028187501940638991 0 -0.28290346448257531 -0.01322691022680233 0 -0.28969509355496542 -0.02085214998082837 0 -0.28776762822947971 -0.0028187501940638991 0 -0.30415140992251077 -0.02583026600631215 0 -0.27446539300758138 -0.0029427578754109558 0 -0.28776762822947971 -0.0028187501940638991 0 -0.28290346448257531 -0.01322691022680233 0 -0.28776762822947971 -0.0028187501940638991 0 -0.28969509355496542 -0.02085214998082837 0 -0.30415140992251077 -0.02583026600631215 0 -0.28969509355496542 -0.02085214998082837 0 -0.30415140992251077 -0.02583026600631215 0 -0.2850461278883698 -0.033133083496410698 0 -0.27708907497038021 -0.024010109626521461 0 -0.28290346448257531 -0.01322691022680233 0 -0.28969509355496542 -0.02085214998082837 0 -0.27708907497038021 -0.024010109626521461 0 -0.28969509355496542 -0.02085214998082837 0 -0.2850461278883698 -0.033133083496410698 0 -0.28776762822947971 -0.0028187501940638991 0 -0.30415140992251077 -0.02583026600631215 0 -0.31054202565351829 -0.0025006363205047209 0 -0.29723437045927609 -0.048816730545726258 0 -0.29711040575866859 -0.068386197035912435 0 -0.31802602045045131 -0.058949016856174277 0 -0.29723437045927609 -0.048816730545726258 0 -0.32053519161554062 -0.048841781818561372 0 -0.29723437045927609 -0.048816730545726258 0 -0.31802602045045131 -0.058949016856174277 0 -0.32053519161554062 -0.048841781818561372 0 -0.30415140992251077 -0.02583026600631215 0 -0.32053519161554062 -0.048841781818561372 0 -0.30415140992251077 -0.02583026600631215 0 -0.29723437045927609 -0.048816730545726258 0 -0.32053519161554062 -0.048841781818561372 0 -0.29723437045927609 -0.048816730545726258 0 -0.2850461278883698 -0.033133083496410698 0 -0.27393354930301173 -0.048791679272888369 0 -0.30415140992251077 -0.02583026600631215 0 -0.29723437045927609 -0.048816730545726258 0 -0.2850461278883698 -0.033133083496410698 0 -0.29723437045927609 -0.048816730545726258 0 -0.27393354930301173 -0.048791679272888369 0 -0.29723437045927609 -0.048816730545726258 0 -0.28591381534980648 -0.058530145259879388 0 -0.27393354930301173 -0.048791679272888369 0 -0.29723437045927609 -0.048816730545726258 0 -0.28591381534980648 -0.058530145259879388 0 -0.29711040575866859 -0.068386197035912435 0 -0.28591381534980648 -0.058530145259879388 0 -0.27393354930301173 -0.048791679272888369 0 -0.27332616279521732 -0.061429937767124507 0 -0.27393354930301173 -0.048791679272888369 0 -0.27332616279521732 -0.061429937767124507 0 -0.25726249546116431 -0.060574549320073882 0 -0.26577373531142617 -0.029405559222431141 0 -0.2850461278883698 -0.033133083496410698 0 -0.27393354930301173 -0.048791679272888369 0 -0.26577373531142617 -0.029405559222431141 0 -0.27393354930301173 -0.048791679272888369 0 -0.2615175977170508 -0.040703059985797728 0 -0.26577373531142617 -0.029405559222431141 0 -0.2615175977170508 -0.040703059985797728 0 -0.25007854201827351 -0.033592477647878247 0 -0.27393354930301173 -0.048791679272888369 0 -0.2615175977170508 -0.040703059985797728 0 -0.25063272814674742 -0.048766628000050487 0 -0.2615175977170508 -0.040703059985797728 0 -0.25007854201827351 -0.033592477647878247 0 -0.25063272814674742 -0.048766628000050487 0 -0.27393354930301173 -0.048791679272888369 0 -0.25063272814674742 -0.048766628000050487 0 -0.27393354930301173 -0.048791679272888369 0 -0.25726249546116431 -0.060574549320073882 0 -0.25063272814674742 -0.048766628000050487 0 -0.25726249546116431 -0.060574549320073882 0 -0.25198872355577911 -0.08874521833347214 0 -0.27619479106688799 -0.077823377215654993 0 -0.25488579166916281 -0.092466019461763166 0 -0.2716977696386853 -0.09139329914006071 0 -0.26525658211929881 -0.095326635656484138 0 -0.25488579166916281 -0.092466019461763166 0 -0.25198872355577911 -0.08874521833347214 0 -0.27619479106688799 -0.077823377215654993 0 -0.25198872355577911 -0.08874521833347214 0 -0.27619479106688799 -0.077823377215654993 0 -0.25488579166916281 -0.092466019461763166 0 -0.2716977696386853 -0.09139329914006071 0 -0.28219131211204962 -0.083286685080393733 0 -0.25488579166916281 -0.092466019461763166 0 -0.27619479106688799 -0.077823377215654993 0 -0.28219131211204962 -0.083286685080393733 0 -0.25488579166916281 -0.092466019461763166 0 -0.28219131211204962 -0.083286685080393733 0 -0.2716977696386853 -0.09139329914006071 0 -0.26525658211929881 -0.095326635656484138 0 -0.28445739265422959 -0.094493856361602402 0 -0.2716977696386853 -0.09139329914006071 0 -0.28445739265422959 -0.094493856361602402 0 -0.28219131211204962 -0.083286685080393733 0 -0.27619479106688799 -0.077823377215654993 0 -0.28219131211204962 -0.083286685080393733 0 -0.27332616279521732 -0.061429937767124507 0 -0.25726249546116431 -0.060574549320073882 0 -0.27619479106688799 -0.077823377215654993 0 -0.28591381534980648 -0.058530145259879388 0 -0.27332616279521732 -0.061429937767124507 0 -0.27619479106688799 -0.077823377215654993 0 -0.25726249546116431 -0.060574549320073882 0 -0.27619479106688799 -0.077823377215654993 0 -0.23972416534939189 -0.10791774256338769 0 -0.25823257846970332 -0.1167971413218226 0 -0.25377538562381252 -0.12606329824398979 0 -0.23972416534939189 -0.10791774256338769 0 -0.25823257846970332 -0.1167971413218226 0 -0.2564436745805358 -0.1091215601238554 0 -0.25823257846970332 -0.1167971413218226 0 -0.26769666732698588 -0.1186210239418634 0 -0.26162350383602712 -0.12586204547997529 0 -0.25823257846970332 -0.1167971413218226 0 -0.25377538562381252 -0.12606329824398979 0 -0.26162350383602712 -0.12586204547997529 0 -0.25823257846970332 -0.1167971413218226 0 -0.25377538562381252 -0.12606329824398979 0 -0.25823257846970332 -0.1167971413218226 0 -0.26572717550123681 -0.1105655571477149 0 -0.26769666732698588 -0.1186210239418634 0 -0.25823257846970332 -0.1167971413218226 0 -0.2564436745805358 -0.1091215601238554 0 -0.26572717550123681 -0.1105655571477149 0 -0.23598985463903091 -0.1030953042555231 0 -0.26525658211929881 -0.095326635656484138 0 -0.23972416534939189 -0.10791774256338769 0 -0.26209077900181088 -0.1012057994624954 0 -0.23972416534939189 -0.10791774256338769 0 -0.2564436745805358 -0.1091215601238554 0 -0.26209077900181088 -0.1012057994624954 0 -0.23598985463903091 -0.1030953042555231 0 -0.25488579166916281 -0.092466019461763166 0 -0.26525658211929881 -0.095326635656484138 0 -0.23598985463903091 -0.1030953042555231 0 -0.26525658211929881 -0.095326635656484138 0 -0.26209077900181088 -0.1012057994624954 0 -0.2564436745805358 -0.1091215601238554 0 -0.26209077900181088 -0.1012057994624954 0 -0.26572717550123681 -0.1105655571477149 0 -0.26525658211929881 -0.095326635656484138 0 -0.26209077900181088 -0.1012057994624954 0 -0.28445739265422959 -0.094493856361602402 0 -0.26209077900181088 -0.1012057994624954 0 -0.28445739265422959 -0.094493856361602402 0 -0.26209077900181088 -0.1012057994624954 0 -0.27063532969724202 -0.10425925507257899 0 -0.28445739265422959 -0.094493856361602402 0 -0.27746021857199171 -0.10477263022912769 0 -0.27063532969724202 -0.10425925507257899 0 -0.28445739265422959 -0.094493856361602402 0 -0.27746021857199171 -0.10477263022912769 0 -0.2812508962315568 -0.1121123567014933 0 -0.2843183518542185 -0.102964753025936 0 -0.27746021857199171 -0.10477263022912769 0 -0.27063532969724202 -0.10425925507257899 0 -0.27325114621951369 -0.1118918055249354 0 -0.27063532969724202 -0.10425925507257899 0 -0.26572717550123681 -0.1105655571477149 0 -0.27325114621951369 -0.1118918055249354 0 -0.26209077900181088 -0.1012057994624954 0 -0.27063532969724202 -0.10425925507257899 0 -0.26572717550123681 -0.1105655571477149 0 -0.26572717550123681 -0.1105655571477149 0 -0.27325114621951369 -0.1118918055249354 0 -0.26769666732698588 -0.1186210239418634 0 -0.27325114621951369 -0.1118918055249354 0 -0.27673658998806949 -0.1210200100568338 0 -0.26769666732698588 -0.1186210239418634 0 -0.27325114621951369 -0.1118918055249354 0 -0.27673658998806949 -0.1210200100568338 0 -0.2812508962315568 -0.1121123567014933 0 -0.27746021857199171 -0.10477263022912769 0 -0.27325114621951369 -0.1118918055249354 0 -0.2812508962315568 -0.1121123567014933 0 -0.27673658998806949 -0.1210200100568338 0 -0.28641143398283642 -0.1233571739504746 0 -0.27981815069376043 -0.12713665778527411 0 -0.27673658998806949 -0.1210200100568338 0 -0.27000463643582362 -0.12559445905647759 0 -0.27579213018186122 -0.1272857721082411 0 -0.26769666732698588 -0.1186210239418634 0 -0.26162350383602712 -0.12586204547997529 0 -0.27000463643582362 -0.12559445905647759 0 -0.27673658998806949 -0.1210200100568338 0 -0.26769666732698588 -0.1186210239418634 0 -0.27000463643582362 -0.12559445905647759 0 -0.27673658998806949 -0.1210200100568338 0 -0.28641143398283642 -0.1233571739504746 0 -0.2812508962315568 -0.1121123567014933 0 -0.28641143398283642 -0.1233571739504746 0 -0.2812508962315568 -0.1121123567014933 0 -0.28959297176918242 -0.10886338484861301 0 -0.28641143398283642 -0.1233571739504746 0 -0.28959297176918242 -0.10886338484861301 0 -0.30026653662906139 -0.1193056747817124 0 -0.28959297176918242 -0.10886338484861301 0 -0.30026653662906139 -0.1193056747817124 0 -0.28959297176918242 -0.10886338484861301 0 -0.29922765274705349 -0.1084042022662111 0 -0.30026653662906139 -0.1193056747817124 0 -0.28959297176918242 -0.10886338484861301 0 -0.2843183518542185 -0.102964753025936 0 -0.29641413823400692 -0.096244811504970718 0 -0.28959297176918242 -0.10886338484861301 0 -0.29641413823400692 -0.096244811504970718 0 -0.29922765274705349 -0.1084042022662111 0 -0.2812508962315568 -0.1121123567014933 0 -0.28959297176918242 -0.10886338484861301 0 -0.2843183518542185 -0.102964753025936 0 -0.27746021857199171 -0.10477263022912769 0 -0.2843183518542185 -0.102964753025936 0 -0.28445739265422959 -0.094493856361602402 0 -0.2843183518542185 -0.102964753025936 0 -0.28445739265422959 -0.094493856361602402 0 -0.29641413823400692 -0.096244811504970718 0 -0.29641413823400692 -0.096244811504970718 0 -0.31063696435596327 -0.1092029379295484 0 -0.31077860726608808 -0.092607317088285374 0 -0.29641413823400692 -0.096244811504970718 0 -0.31063696435596327 -0.1092029379295484 0 -0.29641413823400692 -0.096244811504970718 0 -0.31063696435596327 -0.1092029379295484 0 -0.29922765274705349 -0.1084042022662111 0 -0.31063696435596327 -0.1092029379295484 0 -0.29922765274705349 -0.1084042022662111 0 -0.30026653662906139 -0.1193056747817124 0 -0.31063696435596327 -0.1092029379295484 0 -0.30026653662906139 -0.1193056747817124 0 -0.31380117029564097 -0.1221993035913318 0 -0.31063696435596327 -0.1092029379295484 0 -0.30026653662906139 -0.1193056747817124 0 -0.28591381534980648 -0.058530145259879388 0 -0.27619479106688799 -0.077823377215654993 0 -0.29711040575866859 -0.068386197035912435 0 -0.27619479106688799 -0.077823377215654993 0 -0.29711040575866859 -0.068386197035912435 0 -0.27619479106688799 -0.077823377215654993 0 -0.28219131211204962 -0.083286685080393733 0 -0.29711040575866859 -0.068386197035912435 0 -0.28219131211204962 -0.083286685080393733 0 -0.29711040575866859 -0.068386197035912435 0 -0.30356802129338462 -0.076100447339231769 0 -0.29641413823400692 -0.096244811504970718 0 -0.28219131211204962 -0.083286685080393733 0 -0.30356802129338462 -0.076100447339231769 0 -0.28219131211204962 -0.083286685080393733 0 -0.30356802129338462 -0.076100447339231769 0 -0.28445739265422959 -0.094493856361602402 0 -0.29641413823400692 -0.096244811504970718 0 -0.28219131211204962 -0.083286685080393733 0 -0.29641413823400692 -0.096244811504970718 0 -0.28219131211204962 -0.083286685080393733 0 -0.31077860726608808 -0.092607317088285374 0 -0.30356802129338462 -0.076100447339231769 0 -0.31818717205734992 -0.082043193932642158 0 -0.29641413823400692 -0.096244811504970718 0 -0.31077860726608808 -0.092607317088285374 0 -0.30356802129338462 -0.076100447339231769 0 -0.29711040575866859 -0.068386197035912435 0 -0.30356802129338462 -0.076100447339231769 0 -0.31802602045045131 -0.058949016856174277 0 -0.29711040575866859 -0.068386197035912435 0 -0.31802602045045131 -0.058949016856174277 0 -0.30356802129338462 -0.076100447339231769 0 -0.32494473047471939 -0.068914209598069417 0 -0.30356802129338462 -0.076100447339231769 0 -0.32494473047471939 -0.068914209598069417 0 -0.31802602045045131 -0.058949016856174277 0 -0.30356802129338462 -0.076100447339231769 0 -0.32494473047471939 -0.068914209598069417 0 -0.31818717205734992 -0.082043193932642158 0 -0.32494473047471939 -0.068914209598069417 0 -0.31818717205734992 -0.082043193932642158 0 -0.33966325128568181 -0.080925903812079272 0 -0.31818717205734992 -0.082043193932642158 0 -0.33966325128568181 -0.080925903812079272 0 -0.3251501078208226 -0.095064420870813834 0 -0.31077860726608808 -0.092607317088285374 0 -0.31818717205734992 -0.082043193932642158 0 -0.3251501078208226 -0.095064420870813834 0 -0.33966325128568181 -0.080925903812079272 0 -0.33253746965446518 -0.097066232342963535 0 -0.34393825667921057 -0.092456415041809153 0 -0.33966325128568181 -0.080925903812079272 0 -0.3251501078208226 -0.095064420870813834 0 -0.33253746965446518 -0.097066232342963535 0 -0.33966325128568181 -0.080925903812079272 0 -0.3251501078208226 -0.095064420870813834 0 -0.32494473047471939 -0.068914209598069417 0 -0.33966325128568181 -0.080925903812079272 0 -0.34318779094827451 -0.072195522729566017 0 -0.32494473047471939 -0.068914209598069417 0 -0.34632143965605461 -0.061727971856907683 0 -0.32494473047471939 -0.068914209598069417 0 -0.34318779094827451 -0.072195522729566017 0 -0.34632143965605461 -0.061727971856907683 0 -0.31063696435596327 -0.1092029379295484 0 -0.32393059900451499 -0.1213144969784314 0 -0.31380117029564097 -0.1221993035913318 0 -0.31063696435596327 -0.1092029379295484 0 -0.32393059900451499 -0.1213144969784314 0 -0.32442080515514499 -0.10836641081934439 0 -0.31063696435596327 -0.1092029379295484 0 -0.32393059900451499 -0.1213144969784314 0 -0.32393059900451499 -0.1213144969784314 0 -0.32442080515514499 -0.10836641081934439 0 -0.33488085165376758 -0.11524614418513809 0 -0.31063696435596327 -0.1092029379295484 0 -0.31077860726608808 -0.092607317088285374 0 -0.3251501078208226 -0.095064420870813834 0 -0.32442080515514499 -0.10836641081934439 0 -0.32795890923761439 -0.1017672121715698 0 -0.3251501078208226 -0.095064420870813834 0 -0.31063696435596327 -0.1092029379295484 0 -0.3251501078208226 -0.095064420870813834 0 -0.31063696435596327 -0.1092029379295484 0 -0.32442080515514499 -0.10836641081934439 0 -0.3251501078208226 -0.095064420870813834 0 -0.33253746965446518 -0.097066232342963535 0 -0.33488085165376758 -0.11524614418513809 0 -0.32795890923761439 -0.1017672121715698 0 -0.33253746965446518 -0.097066232342963535 0 -0.33488085165376758 -0.11524614418513809 0 -0.33253746965446518 -0.097066232342963535 0 -0.33987283522796169 -0.106604064534659 0 -0.33488085165376758 -0.11524614418513809 0 -0.32795890923761439 -0.1017672121715698 0 -0.3251501078208226 -0.095064420870813834 0 -0.33253746965446518 -0.097066232342963535 0 -0.33253746965446518 -0.097066232342963535 0 -0.34060642094134069 -0.099880357366773836 0 -0.34393825667921057 -0.092456415041809153 0 -0.33253746965446518 -0.097066232342963535 0 -0.34060642094134069 -0.099880357366773836 0 -0.33987283522796169 -0.106604064534659 0 -0.34060642094134069 -0.099880357366773836 0 -0.33987283522796169 -0.106604064534659 0 -0.3483751805016233 -0.1031363213007306 0 -0.32442080515514499 -0.10836641081934439 0 -0.32795890923761439 -0.1017672121715698 0 -0.33488085165376758 -0.11524614418513809 0 -0.32393059900451499 -0.1213144969784314 0 -0.33488085165376758 -0.11524614418513809 0 -0.33722423365306808 -0.13342605602731281 0 -0.33488085165376758 -0.11524614418513809 0 -0.34599817361953678 -0.1156749996663768 0 -0.33722423365306808 -0.13342605602731281 0 -0.33488085165376758 -0.11524614418513809 0 -0.33722423365306808 -0.13342605602731281 0 -0.33987283522796169 -0.106604064534659 0 -0.33488085165376758 -0.11524614418513809 0 -0.34599817361953678 -0.1156749996663768 0 -0.35609805216295731 -0.1239645566225392 0 -0.34599817361953678 -0.1156749996663768 0 -0.33722423365306808 -0.13342605602731281 0 -0.34599817361953678 -0.1156749996663768 0 -0.3554628894296834 -0.1105450098494828 0 -0.3483751805016233 -0.1031363213007306 0 -0.35609805216295731 -0.1239645566225392 0 -0.34599817361953678 -0.1156749996663768 0 -0.3554628894296834 -0.1105450098494828 0 -0.3554628894296834 -0.1105450098494828 0 -0.3483751805016233 -0.1031363213007306 0 -0.36114146813594022 -0.10181661363338131 0 -0.33987283522796169 -0.106604064534659 0 -0.34599817361953678 -0.1156749996663768 0 -0.3483751805016233 -0.1031363213007306 0 -0.3483751805016233 -0.1031363213007306 0 -0.35410652452326857 -0.094366647530434208 0 -0.34393825667921057 -0.092456415041809153 0 -0.34060642094134069 -0.099880357366773836 0 -0.3483751805016233 -0.1031363213007306 0 -0.34393825667921057 -0.092456415041809153 0 -0.3483751805016233 -0.1031363213007306 0 -0.35410652452326857 -0.094366647530434208 0 -0.36114146813594022 -0.10181661363338131 0 -0.35410652452326857 -0.094366647530434208 0 -0.36114146813594022 -0.10181661363338131 0 -0.36682054226390892 -0.093317061399949205 0 -0.37441445482735508 -0.1006425317381917 0 -0.36682054226390892 -0.093317061399949205 0 -0.37605859450557888 -0.087850185844221468 0 -0.37441445482735508 -0.1006425317381917 0 -0.36114146813594022 -0.10181661363338131 0 -0.36682054226390892 -0.093317061399949205 0 -0.37441445482735508 -0.1006425317381917 0 -0.36114146813594022 -0.10181661363338131 0 -0.36789085540848759 -0.1123088477459004 0 -0.3554628894296834 -0.1105450098494828 0 -0.36114146813594022 -0.10181661363338131 0 -0.36789085540848759 -0.1123088477459004 0 -0.35609805216295731 -0.1239645566225392 0 -0.36789085540848759 -0.1123088477459004 0 -0.37354062536167182 -0.12582601144509939 0 -0.35609805216295731 -0.1239645566225392 0 -0.3554628894296834 -0.1105450098494828 0 -0.36789085540848759 -0.1123088477459004 0 -0.35332693888808792 -0.07332450201770041 0 -0.35893913492121782 -0.078824921953448923 0 -0.36324337637980653 -0.072250359667636432 0 -0.35332693888808792 -0.07332450201770041 0 -0.36324337637980653 -0.072250359667636432 0 -0.35685798594843471 -0.058185886590858341 0 -0.35332693888808792 -0.07332450201770041 0 -0.35685798594843471 -0.058185886590858341 0 -0.34632143965605461 -0.061727971856907683 0 -0.34318779094827451 -0.072195522729566017 0 -0.35332693888808792 -0.07332450201770041 0 -0.34632143965605461 -0.061727971856907683 0 -0.35332693888808792 -0.07332450201770041 0 -0.34632143965605461 -0.061727971856907683 0 -0.34318779094827451 -0.072195522729566017 0 -0.35332693888808792 -0.07332450201770041 0 -0.35039343523689598 -0.08262090646827612 0 -0.33966325128568181 -0.080925903812079272 0 -0.34318779094827451 -0.072195522729566017 0 -0.35039343523689598 -0.08262090646827612 0 -0.33966325128568181 -0.080925903812079272 0 -0.35039343523689598 -0.08262090646827612 0 -0.34393825667921057 -0.092456415041809153 0 -0.35410652452326857 -0.094366647530434208 0 -0.35039343523689598 -0.08262090646827612 0 -0.34393825667921057 -0.092456415041809153 0 -0.35410652452326857 -0.094366647530434208 0 -0.35039343523689598 -0.08262090646827612 0 -0.35978538059436249 -0.086637426804298104 0 -0.35332693888808792 -0.07332450201770041 0 -0.35039343523689598 -0.08262090646827612 0 -0.35893913492121782 -0.078824921953448923 0 -0.35039343523689598 -0.08262090646827612 0 -0.35893913492121782 -0.078824921953448923 0 -0.35978538059436249 -0.086637426804298104 0 -0.35893913492121782 -0.078824921953448923 0 -0.35978538059436249 -0.086637426804298104 0 -0.36866090010190289 -0.080570130804515971 0 -0.35410652452326857 -0.094366647530434208 0 -0.36682054226390892 -0.093317061399949205 0 -0.35978538059436249 -0.086637426804298104 0 -0.36682054226390892 -0.093317061399949205 0 -0.35978538059436249 -0.086637426804298104 0 -0.36866090010190289 -0.080570130804515971 0 -0.36682054226390892 -0.093317061399949205 0 -0.36866090010190289 -0.080570130804515971 0 -0.37605859450557888 -0.087850185844221468 0 -0.36866090010190289 -0.080570130804515971 0 -0.37799702667314838 -0.078401096956575211 0 -0.37605859450557888 -0.087850185844221468 0 -0.36866090010190289 -0.080570130804515971 0 -0.37429876585117111 -0.070669772669764125 0 -0.37799702667314838 -0.078401096956575211 0 -0.36866090010190289 -0.080570130804515971 0 -0.37429876585117111 -0.070669772669764125 0 -0.36324337637980653 -0.072250359667636432 0 -0.35893913492121782 -0.078824921953448923 0 -0.36866090010190289 -0.080570130804515971 0 -0.36324337637980653 -0.072250359667636432 0 -0.36324337637980653 -0.072250359667636432 0 -0.37055742933408498 -0.062434775947277178 0 -0.35685798594843471 -0.058185886590858341 0 -0.36324337637980653 -0.072250359667636432 0 -0.35685798594843471 -0.058185886590858341 0 -0.37429876585117111 -0.070669772669764125 0 -0.37055742933408498 -0.062434775947277178 0 -0.37983562140874522 -0.061256720421780771 0 -0.37429876585117111 -0.070669772669764125 0 -0.36324337637980653 -0.072250359667636432 0 -0.37055742933408498 -0.062434775947277178 0 -0.37066707183289921 -0.048895679807857258 0 -0.35263134951699471 -0.048876289169324211 0 -0.36469791183471417 -0.043677090619103458 0 -0.35685798594843471 -0.058185886590858341 0 -0.37916156541937229 -0.050688061589009722 0 -0.37066707183289921 -0.048895679807857258 0 -0.35263134951699471 -0.048876289169324211 0 -0.37055742933408498 -0.062434775947277178 0 -0.35685798594843471 -0.058185886590858341 0 -0.37916156541937229 -0.050688061589009722 0 -0.37066707183289921 -0.048895679807857258 0 -0.35685798594843471 -0.058185886590858341 0 -0.35263134951699471 -0.048876289169324211 0 -0.37066707183289921 -0.048895679807857258 0 -0.35685798594843471 -0.058185886590858341 0 -0.37916156541937229 -0.050688061589009722 0 -0.35685798594843471 -0.058185886590858341 0 -0.34632143965605461 -0.061727971856907683 0 -0.35685798594843471 -0.058185886590858341 0 -0.35263134951699471 -0.048876289169324211 0 -0.35685798594843471 -0.058185886590858341 0 -0.35263134951699471 -0.048876289169324211 0 -0.34650002645825528 -0.053840795444478888 0 -0.35263134951699471 -0.048876289169324211 0 -0.3505432953788058 -0.044277137163654577 0 -0.3403793924814783 -0.048863116795851758 0 -0.35263134951699471 -0.048876289169324211 0 -0.34650002645825528 -0.053840795444478888 0 -0.3403793924814783 -0.048863116795851758 0 -0.35263134951699471 -0.048876289169324211 0 -0.3403793924814783 -0.048863116795851758 0 -0.34650002645825528 -0.053840795444478888 0 -0.34632143965605461 -0.061727971856907683 0 -0.33854855237971931 -0.048861148415656162 0 -0.35685798594843471 -0.058185886590858341 0 -0.34650002645825528 -0.053840795444478888 0 -0.34632143965605461 -0.061727971856907683 0 -0.3505432953788058 -0.044277137163654577 0 -0.34089668694222502 -0.023029499122290749 0 -0.34006851108501862 -0.035897031738604479 0 -0.3505432953788058 -0.044277137163654577 0 -0.35600156421276968 -0.02940427513685975 0 -0.34089668694222502 -0.023029499122290749 0 -0.3505432953788058 -0.044277137163654577 0 -0.34089668694222502 -0.023029499122290749 0 -0.3505432953788058 -0.044277137163654577 0 -0.3403793924814783 -0.048863116795851758 0 -0.34329372305079597 -0.04347860105346437 0 -0.3505432953788058 -0.044277137163654577 0 -0.3403793924814783 -0.048863116795851758 0 -0.3505432953788058 -0.044277137163654577 0 -0.34329372305079597 -0.04347860105346437 0 -0.34006851108501862 -0.035897031738604479 0 -0.35263134951699471 -0.048876289169324211 0 -0.3505432953788058 -0.044277137163654577 0 -0.36469791183471417 -0.043677090619103458 0 -0.35263134951699471 -0.048876289169324211 0 -0.3505432953788058 -0.044277137163654577 0 -0.3505432953788058 -0.044277137163654577 0 -0.36469791183471417 -0.043677090619103458 0 -0.37314351985125138 -0.034079856634633088 0 -0.3505432953788058 -0.044277137163654577 0 -0.37314351985125138 -0.034079856634633088 0 -0.35600156421276968 -0.02940427513685975 0 -0.3505432953788058 -0.044277137163654577 0 -0.37314351985125138 -0.034079856634633088 0 -0.36469791183471417 -0.043677090619103458 0 -0.37314351985125138 -0.034079856634633088 0 -0.37650432259361988 -0.042256490320048197 0 -0.37066707183289921 -0.048895679807857258 0 -0.36469791183471417 -0.043677090619103458 0 -0.37650432259361988 -0.042256490320048197 0 -0.36607524130911723 -0.026466771779731779 0 -0.36714619297318518 -0.0089019998620189309 0 -0.35594606158755349 -0.01701078138301582 0 -0.37314351985125138 -0.034079856634633088 0 -0.36607524130911723 -0.026466771779731779 0 -0.38070483690457868 -0.022261404897216161 0 -0.37314351985125138 -0.034079856634633088 0 -0.36607524130911723 -0.026466771779731779 0 -0.35600156421276968 -0.02940427513685975 0 -0.36714619297318518 -0.0089019998620189309 0 -0.38422659370699358 -0.0074984435739372853 0 -0.3725445469515854 0.0085658185073836553 0 -0.36607524130911723 -0.026466771779731779 0 -0.36714619297318518 -0.0089019998620189309 0 -0.38422659370699358 -0.0074984435739372853 0 -0.36714619297318518 -0.0089019998620189309 0 -0.35693852131067599 -0.0020998210807934288 0 -0.3725445469515854 0.0085658185073836553 0 -0.36714619297318518 -0.0089019998620189309 0 -0.35693852131067599 -0.0020998210807934288 0 -0.35594606158755349 -0.01701078138301582 0 -0.35693852131067599 -0.0020998210807934288 0 -0.34428124783555708 -0.0096680492570138908 0 -0.35594606158755349 -0.01701078138301582 0 -0.36607524130911723 -0.026466771779731779 0 -0.35600156421276968 -0.02940427513685975 0 -0.35594606158755349 -0.01701078138301582 0 -0.35600156421276968 -0.02940427513685975 0 -0.35594606158755349 -0.01701078138301582 0 -0.34089668694222502 -0.023029499122290749 0 -0.34428124783555708 -0.0096680492570138908 0 -0.35594606158755349 -0.01701078138301582 0 -0.34089668694222502 -0.023029499122290749 0 -0.34089668694222502 -0.023029499122290749 0 -0.32454528901661828 -0.02568089236808082 0 -0.34006851108501862 -0.035897031738604479 0 -0.34089668694222502 -0.023029499122290749 0 -0.33125007850564409 -0.001781861080926926 0 -0.32454528901661828 -0.02568089236808082 0 -0.34428124783555708 -0.0096680492570138908 0 -0.34089668694222502 -0.023029499122290749 0 -0.33125007850564409 -0.001781861080926926 0 -0.34089668694222502 -0.023029499122290749 0 -0.33125007850564409 -0.001781861080926926 0 -0.31054202565351829 -0.0025006363205047209 0 -0.33125007850564409 -0.001781861080926926 0 -0.32454528901661828 -0.02568089236808082 0 -0.31054202565351829 -0.0025006363205047209 0 -0.32454528901661828 -0.02568089236808082 0 -0.30415140992251077 -0.02583026600631215 0 -0.31054202565351829 -0.0025006363205047209 0 -0.32454528901661828 -0.02568089236808082 0 -0.32454528901661828 -0.02568089236808082 0 -0.32053519161554062 -0.048841781818561372 0 -0.33854855237971931 -0.048861148415656162 0 -0.30415140992251077 -0.02583026600631215 0 -0.32454528901661828 -0.02568089236808082 0 -0.32053519161554062 -0.048841781818561372 0 -0.31802602045045131 -0.058949016856174277 0 -0.32346499797721651 -0.052956783268267041 0 -0.33854855237971931 -0.048861148415656162 0 -0.32494473047471939 -0.068914209598069417 0 -0.31802602045045131 -0.058949016856174277 0 -0.33854855237971931 -0.048861148415656162 0 -0.32053519161554062 -0.048841781818561372 0 -0.32346499797721651 -0.052956783268267041 0 -0.33854855237971931 -0.048861148415656162 0 -0.31802602045045131 -0.058949016856174277 0 -0.32053519161554062 -0.048841781818561372 0 -0.32346499797721651 -0.052956783268267041 0 -0.32053519161554062 -0.048841781818561372 0 -0.32346499797721651 -0.052956783268267041 0 -0.32053519161554062 -0.048841781818561372 0 -0.33854855237971931 -0.048861148415656162 0 -0.31802602045045131 -0.058949016856174277 0 -0.33854855237971931 -0.048861148415656162 0 -0.32494473047471939 -0.068914209598069417 0 -0.34632143965605461 -0.061727971856907683 0 -0.33854855237971931 -0.048861148415656162 0 -0.34632143965605461 -0.061727971856907683 0 -0.33854855237971931 -0.048861148415656162 0 -0.34650002645825528 -0.053840795444478888 0 -0.33854855237971931 -0.048861148415656162 0 -0.3403793924814783 -0.048863116795851758 0 -0.33854855237971931 -0.048861148415656162 0 -0.3403793924814783 -0.048863116795851758 0 -0.33854855237971931 -0.048861148415656162 0 -0.3403793924814783 -0.048863116795851758 0 -0.34032938925822409 -0.045460245329311012 0 -0.33854855237971931 -0.048861148415656162 0 -0.34032938925822409 -0.045460245329311012 0 -0.33750322124470561 -0.040044073160791872 0 -0.32454528901661828 -0.02568089236808082 0 -0.33854855237971931 -0.048861148415656162 0 -0.33750322124470561 -0.040044073160791872 0 -0.32454528901661828 -0.02568089236808082 0 -0.33854855237971931 -0.048861148415656162 0 -0.34329372305079597 -0.04347860105346437 0 -0.34032938925822409 -0.045460245329311012 0 -0.33750322124470561 -0.040044073160791872 0 -0.3403793924814783 -0.048863116795851758 0 -0.34329372305079597 -0.04347860105346437 0 -0.34032938925822409 -0.045460245329311012 0 -0.34329372305079597 -0.04347860105346437 0 -0.33750322124470561 -0.040044073160791872 0 -0.34006851108501862 -0.035897031738604479 0 -0.32454528901661828 -0.02568089236808082 0 -0.33750322124470561 -0.040044073160791872 0 -0.34006851108501862 -0.035897031738604479 0 -0.30485749959899128 -0.25066017201951307 0 -0.31744077245666408 -0.2254242400853734 0 -0.30485749959899128 -0.25066017201951307 0 -0.30390792380789899 -0.23443155480241279 0 -0.31744077245666408 -0.2254242400853734 0 -0.28952676573165831 -0.22685184482456011 0 -0.30273972229772877 -0.21158966872851409 0 -0.31744077245666408 -0.2254242400853734 0 -0.30390792380789899 -0.23443155480241279 0 -0.28952676573165831 -0.22685184482456011 0 -0.31744077245666408 -0.2254242400853734 0 -0.28952676573165831 -0.22685184482456011 0 -0.31744077245666408 -0.2254242400853734 0 -0.30390792380789899 -0.23443155480241279 0 -0.28952676573165831 -0.22685184482456011 0 -0.28167448013983393 -0.24283303262047859 0 -0.30485749959899128 -0.25066017201951307 0 -0.30390792380789899 -0.23443155480241279 0 -0.28167448013983393 -0.24283303262047859 0 -0.25629565504287088 -0.25225484723897162 0 -0.28167448013983393 -0.24283303262047859 0 -0.26161275900665248 -0.22827944956374771 0 -0.25629565504287088 -0.25225484723897162 0 -0.2364859768612623 -0.24275999707851101 0 -0.26161275900665248 -0.22827944956374771 0 -0.23643786163579519 -0.21889296493550611 0 -0.26161275900665248 -0.22827944956374771 0 -0.26366411232843379 -0.2102590821007225 0 -0.28952676573165831 -0.22685184482456011 0 -0.26161275900665248 -0.22827944956374771 0 -0.26366411232843379 -0.2102590821007225 0 -0.28952676573165831 -0.22685184482456011 0 -0.28167448013983393 -0.24283303262047859 0 -0.26161275900665248 -0.22827944956374771 0 -0.28952676573165831 -0.22685184482456011 0 -0.26161275900665248 -0.22827944956374771 0 -0.28952676573165831 -0.22685184482456011 0 -0.26366411232843379 -0.2102590821007225 0 -0.28054653838414939 -0.2008218667710138 0 -0.24499582568668921 -0.199876813227855 0 -0.26366411232843379 -0.2102590821007225 0 -0.26155600950974428 -0.19138309751721569 0 -0.24499582568668921 -0.199876813227855 0 -0.24437869601346679 -0.1832135136856004 0 -0.26155600950974428 -0.19138309751721569 0 -0.26366411232843379 -0.2102590821007225 0 -0.26155600950974428 -0.19138309751721569 0 -0.28054653838414939 -0.2008218667710138 0 -0.26155600950974428 -0.19138309751721569 0 -0.28054653838414939 -0.2008218667710138 0 -0.27498302528162061 -0.18081633086833221 0 -0.28054653838414939 -0.2008218667710138 0 -0.30273972229772877 -0.21158966872851409 0 -0.29194160411495468 -0.1854719664327561 0 -0.28054653838414939 -0.2008218667710138 0 -0.29194160411495468 -0.1854719664327561 0 -0.27498302528162061 -0.18081633086833221 0 -0.28952676573165831 -0.22685184482456011 0 -0.28054653838414939 -0.2008218667710138 0 -0.30273972229772877 -0.21158966872851409 0 -0.30273972229772877 -0.21158966872851409 0 -0.30963844738241092 -0.18850364184623369 0 -0.32263557632444517 -0.2150059873540405 0 -0.30273972229772877 -0.21158966872851409 0 -0.30963844738241092 -0.18850364184623369 0 -0.29194160411495468 -0.1854719664327561 0 -0.30963844738241092 -0.18850364184623369 0 -0.29664131844037889 -0.1620012963384258 0 -0.30963844738241092 -0.18850364184623369 0 -0.29664131844037889 -0.1620012963384258 0 -0.29194160411495468 -0.1854719664327561 0 -0.30963844738241092 -0.18850364184623369 0 -0.29664131844037889 -0.1620012963384258 0 -0.32107207787498793 -0.1694585228001966 0 -0.29664131844037889 -0.1620012963384258 0 -0.2871005729034401 -0.1690989940440169 0 -0.28190174693053371 -0.15591440517367661 0 -0.29664131844037889 -0.1620012963384258 0 -0.2871005729034401 -0.1690989940440169 0 -0.29194160411495468 -0.1854719664327561 0 -0.2871005729034401 -0.1690989940440169 0 -0.29194160411495468 -0.1854719664327561 0 -0.27498302528162061 -0.18081633086833221 0 -0.27498302528162061 -0.18081633086833221 0 -0.25954256646266921 -0.1732374696378661 0 -0.26993110053191438 -0.16533120705109389 0 -0.24437869601346679 -0.1832135136856004 0 -0.2470619943256305 -0.16721927933326469 0 -0.25954256646266921 -0.1732374696378661 0 -0.26155600950974428 -0.19138309751721569 0 -0.27498302528162061 -0.18081633086833221 0 -0.25954256646266921 -0.1732374696378661 0 -0.24437869601346679 -0.1832135136856004 0 -0.26155600950974428 -0.19138309751721569 0 -0.25954256646266921 -0.1732374696378661 0 -0.2470619943256305 -0.16721927933326469 0 -0.25954256646266921 -0.1732374696378661 0 -0.2573839745710631 -0.15777921827395641 0 -0.25954256646266921 -0.1732374696378661 0 -0.2573839745710631 -0.15777921827395641 0 -0.26993110053191438 -0.16533120705109389 0 -0.2871005729034401 -0.1690989940440169 0 -0.27043797926362612 -0.1475811461440035 0 -0.2573839745710631 -0.15777921827395641 0 -0.26993110053191438 -0.16533120705109389 0 -0.27043797926362612 -0.1475811461440035 0 -0.2871005729034401 -0.1690989940440169 0 -0.27498302528162061 -0.18081633086833221 0 -0.26993110053191438 -0.16533120705109389 0 -0.2871005729034401 -0.1690989940440169 0 -0.27043797926362612 -0.1475811461440035 0 -0.28190174693053371 -0.15591440517367661 0 -0.2871005729034401 -0.1690989940440169 0 -0.26993110053191438 -0.16533120705109389 0 -0.27043797926362612 -0.1475811461440035 0 -0.2774965820074658 -0.14854983632947319 0 -0.27043797926362612 -0.1475811461440035 0 -0.28190174693053371 -0.15591440517367661 0 -0.2774965820074658 -0.14854983632947319 0 -0.28364418949834569 -0.13549895083061839 0 -0.28190174693053371 -0.15591440517367661 0 -0.2774965820074658 -0.14854983632947319 0 -0.27583616364970881 -0.14310542884299959 0 -0.28364418949834569 -0.13549895083061839 0 -0.2774965820074658 -0.14854983632947319 0 -0.27583616364970881 -0.14310542884299959 0 -0.27043797926362612 -0.1475811461440035 0 -0.27583616364970881 -0.14310542884299959 0 -0.27043797926362612 -0.1475811461440035 0 -0.26831528258925408 -0.1374300316910394 0 -0.2573839745710631 -0.15777921827395641 0 -0.27043797926362612 -0.1475811461440035 0 -0.25620246644483469 -0.1449676359138975 0 -0.24259337340158871 -0.14930983110429691 0 -0.2573839745710631 -0.15777921827395641 0 -0.25620246644483469 -0.1449676359138975 0 -0.27043797926362612 -0.1475811461440035 0 -0.25377538562381252 -0.12606329824398979 0 -0.26831528258925408 -0.1374300316910394 0 -0.27043797926362612 -0.1475811461440035 0 -0.25377538562381252 -0.12606329824398979 0 -0.27043797926362612 -0.1475811461440035 0 -0.25620246644483469 -0.1449676359138975 0 -0.25377538562381252 -0.12606329824398979 0 -0.24259337340158871 -0.14930983110429691 0 -0.25620246644483469 -0.1449676359138975 0 -0.25377538562381252 -0.12606329824398979 0 -0.25377538562381252 -0.12606329824398979 0 -0.26162350383602712 -0.12586204547997529 0 -0.26831528258925408 -0.1374300316910394 0 -0.26162350383602712 -0.12586204547997529 0 -0.26781819495826048 -0.13068483140182879 0 -0.26831528258925408 -0.1374300316910394 0 -0.26162350383602712 -0.12586204547997529 0 -0.26781819495826048 -0.13068483140182879 0 -0.27000463643582362 -0.12559445905647759 0 -0.26781819495826048 -0.13068483140182879 0 -0.27281466769485291 -0.13089550274397069 0 -0.2712036558529109 -0.13363739027484331 0 -0.26781819495826048 -0.13068483140182879 0 -0.27281466769485291 -0.13089550274397069 0 -0.27000463643582362 -0.12559445905647759 0 -0.27281466769485291 -0.13089550274397069 0 -0.27000463643582362 -0.12559445905647759 0 -0.27579213018186122 -0.1272857721082411 0 -0.26781819495826048 -0.13068483140182879 0 -0.26831528258925408 -0.1374300316910394 0 -0.2712036558529109 -0.13363739027484331 0 -0.26831528258925408 -0.1374300316910394 0 -0.2712036558529109 -0.13363739027484331 0 -0.27586647816927612 -0.1355391952625343 0 -0.27281466769485291 -0.13089550274397069 0 -0.2712036558529109 -0.13363739027484331 0 -0.27586647816927612 -0.1355391952625343 0 -0.27583616364970881 -0.14310542884299959 0 -0.26831528258925408 -0.1374300316910394 0 -0.27586647816927612 -0.1355391952625343 0 -0.27586647816927612 -0.1355391952625343 0 -0.27773127802960301 -0.13101900131586541 0 -0.2824193212864316 -0.13300133149495569 0 -0.27586647816927612 -0.1355391952625343 0 -0.28364418949834569 -0.13549895083061839 0 -0.2824193212864316 -0.13300133149495569 0 -0.27583616364970881 -0.14310542884299959 0 -0.27586647816927612 -0.1355391952625343 0 -0.28364418949834569 -0.13549895083061839 0 -0.27583616364970881 -0.14310542884299959 0 -0.28364418949834569 -0.13549895083061839 0 -0.27281466769485291 -0.13089550274397069 0 -0.27579213018186122 -0.1272857721082411 0 -0.27773127802960301 -0.13101900131586541 0 -0.27281466769485291 -0.13089550274397069 0 -0.27586647816927612 -0.1355391952625343 0 -0.27773127802960301 -0.13101900131586541 0 -0.27773127802960301 -0.13101900131586541 0 -0.27981815069376043 -0.12713665778527411 0 -0.2824193212864316 -0.13300133149495569 0 -0.27579213018186122 -0.1272857721082411 0 -0.27773127802960301 -0.13101900131586541 0 -0.27981815069376043 -0.12713665778527411 0 -0.27673658998806949 -0.1210200100568338 0 -0.27579213018186122 -0.1272857721082411 0 -0.27981815069376043 -0.12713665778527411 0 -0.30026653662906139 -0.1193056747817124 0 -0.28364418949834569 -0.13549895083061839 0 -0.28641143398283642 -0.1233571739504746 0 -0.27981815069376043 -0.12713665778527411 0 -0.2824193212864316 -0.13300133149495569 0 -0.28641143398283642 -0.1233571739504746 0 -0.30026653662906139 -0.1193056747817124 0 -0.28364418949834569 -0.13549895083061839 0 -0.30026653662906139 -0.1193056747817124 0 -0.28364418949834569 -0.13549895083061839 0 -0.3007263629103073 -0.13858295318770611 0 -0.28641143398283642 -0.1233571739504746 0 -0.28364418949834569 -0.13549895083061839 0 -0.2824193212864316 -0.13300133149495569 0 -0.28364418949834569 -0.13549895083061839 0 -0.2824193212864316 -0.13300133149495569 0 -0.29664131844037889 -0.1620012963384258 0 -0.28364418949834569 -0.13549895083061839 0 -0.28190174693053371 -0.15591440517367661 0 -0.29664131844037889 -0.1620012963384258 0 -0.28364418949834569 -0.13549895083061839 0 -0.3007263629103073 -0.13858295318770611 0 -0.29664131844037889 -0.1620012963384258 0 -0.28364418949834569 -0.13549895083061839 0 -0.29664131844037889 -0.1620012963384258 0 -0.3007263629103073 -0.13858295318770611 0 -0.32037058119302442 -0.13897410467563501 0 -0.30026653662906139 -0.1193056747817124 0 -0.32037058119302442 -0.13897410467563501 0 -0.30026653662906139 -0.1193056747817124 0 -0.31380117029564097 -0.1221993035913318 0 -0.32037058119302442 -0.13897410467563501 0 -0.30026653662906139 -0.1193056747817124 0 -0.3007263629103073 -0.13858295318770611 0 -0.32037058119302442 -0.13897410467563501 0 -0.32393059900451499 -0.1213144969784314 0 -0.31380117029564097 -0.1221993035913318 0 -0.32037058119302442 -0.13897410467563501 0 -0.32393059900451499 -0.1213144969784314 0 -0.32037058119302442 -0.13897410467563501 0 -0.33722423365306808 -0.13342605602731281 0 -0.32037058119302442 -0.13897410467563501 0 -0.34047462575698589 -0.15864253456955901 0 -0.32107207787498793 -0.1694585228001966 0 -0.32037058119302442 -0.13897410467563501 0 -0.33722423365306808 -0.13342605602731281 0 -0.34047462575698589 -0.15864253456955901 0 -0.32037058119302442 -0.13897410467563501 0 -0.34047462575698589 -0.15864253456955901 0 -0.33722423365306808 -0.13342605602731281 0 -0.34047462575698589 -0.15864253456955901 0 -0.32393059900451499 -0.1213144969784314 0 -0.33722423365306808 -0.13342605602731281 0 -0.33722423365306808 -0.13342605602731281 0 -0.3521368177607278 -0.13684211040727359 0 -0.35692284726832912 -0.1513730606118269 0 -0.35609805216295731 -0.1239645566225392 0 -0.33722423365306808 -0.13342605602731281 0 -0.3521368177607278 -0.13684211040727359 0 -0.35609805216295731 -0.1239645566225392 0 -0.3521368177607278 -0.13684211040727359 0 -0.36379975487598898 -0.13978141460722759 0 -0.35609805216295731 -0.1239645566225392 0 -0.37354062536167182 -0.12582601144509939 0 -0.36379975487598898 -0.13978141460722759 0 -0.37354062536167182 -0.12582601144509939 0 -0.36379975487598898 -0.13978141460722759 0 -0.37564339508854738 -0.14168620570262269 0 -0.36379975487598898 -0.13978141460722759 0 -0.36917402868745608 -0.15570521490003891 0 -0.37564339508854738 -0.14168620570262269 0 -0.36379975487598898 -0.13978141460722759 0 -0.36917402868745608 -0.15570521490003891 0 -0.35692284726832912 -0.1513730606118269 0 -0.36917402868745608 -0.15570521490003891 0 -0.35692284726832912 -0.1513730606118269 0 -0.35876637053419153 -0.15878079534804621 0 -0.33722423365306808 -0.13342605602731281 0 -0.35692284726832912 -0.1513730606118269 0 -0.34047462575698589 -0.15864253456955901 0 -0.33722423365306808 -0.13342605602731281 0 -0.35692284726832912 -0.1513730606118269 0 -0.3521368177607278 -0.13684211040727359 0 -0.36379975487598898 -0.13978141460722759 0 -0.35692284726832912 -0.1513730606118269 0 -0.35692284726832912 -0.1513730606118269 0 -0.3506477035166693 -0.15882726953164891 0 -0.34047462575698589 -0.15864253456955901 0 -0.3506477035166693 -0.15882726953164891 0 -0.34737410563828552 -0.16539251644101921 0 -0.34047462575698589 -0.15864253456955901 0 -0.34737410563828552 -0.16539251644101921 0 -0.34047462575698589 -0.15864253456955901 0 -0.3506477035166693 -0.15882726953164891 0 -0.34737410563828552 -0.16539251644101921 0 -0.35497428506313011 -0.1623722193045366 0 -0.3506477035166693 -0.15882726953164891 0 -0.34737410563828552 -0.16539251644101921 0 -0.34737410563828552 -0.16539251644101921 0 -0.34258319315144697 -0.17500075928752359 0 -0.34737410563828552 -0.16539251644101921 0 -0.34991305601132161 -0.1728664694085236 0 -0.34258319315144697 -0.17500075928752359 0 -0.34737410563828552 -0.16539251644101921 0 -0.35720472413666671 -0.17501012498412971 0 -0.34991305601132161 -0.1728664694085236 0 -0.34737410563828552 -0.16539251644101921 0 -0.35720472413666671 -0.17501012498412971 0 -0.34737410563828552 -0.16539251644101921 0 -0.35616389180885888 -0.16818569082906221 0 -0.35720472413666671 -0.17501012498412971 0 -0.34737410563828552 -0.16539251644101921 0 -0.35616389180885888 -0.16818569082906221 0 -0.35497428506313011 -0.1623722193045366 0 -0.35920083425301791 -0.16478150984990711 0 -0.35616389180885888 -0.16818569082906221 0 -0.35963064177309068 -0.16885595705654319 0 -0.35920083425301791 -0.16478150984990711 0 -0.35616389180885888 -0.16818569082906221 0 -0.35497428506313011 -0.1623722193045366 0 -0.35616389180885888 -0.16818569082906221 0 -0.35915784557489377 -0.17178904081275259 0 -0.35720472413666671 -0.17501012498412971 0 -0.35616389180885888 -0.16818569082906221 0 -0.35915784557489377 -0.17178904081275259 0 -0.35963064177309068 -0.16885595705654319 0 -0.3506477035166693 -0.15882726953164891 0 -0.35497428506313011 -0.1623722193045366 0 -0.35876637053419153 -0.15878079534804621 0 -0.35692284726832912 -0.1513730606118269 0 -0.3506477035166693 -0.15882726953164891 0 -0.35876637053419153 -0.15878079534804621 0 -0.35920083425301791 -0.16478150984990711 0 -0.35497428506313011 -0.1623722193045366 0 -0.35876637053419153 -0.15878079534804621 0 -0.36917402868745608 -0.15570521490003891 0 -0.35876637053419153 -0.15878079534804621 0 -0.36434732274841303 -0.16199274706001091 0 -0.35920083425301791 -0.16478150984990711 0 -0.35876637053419153 -0.15878079534804621 0 -0.36434732274841303 -0.16199274706001091 0 -0.35920083425301791 -0.16478150984990711 0 -0.35963064177309068 -0.16885595705654319 0 -0.36337814344112401 -0.16718466201888041 0 -0.35920083425301791 -0.16478150984990711 0 -0.36434732274841303 -0.16199274706001091 0 -0.36337814344112401 -0.16718466201888041 0 -0.35915784557489377 -0.17178904081275259 0 -0.3631621154629826 -0.17169910824176501 0 -0.35963064177309068 -0.16885595705654319 0 -0.3631621154629826 -0.17169910824176501 0 -0.35963064177309068 -0.16885595705654319 0 -0.36337814344112401 -0.16718466201888041 0 -0.3631621154629826 -0.17169910824176501 0 -0.36337814344112401 -0.16718466201888041 0 -0.36881742540126861 -0.16797510210983471 0 -0.36434732274841303 -0.16199274706001091 0 -0.36337814344112401 -0.16718466201888041 0 -0.36881742540126861 -0.16797510210983471 0 -0.36881742540126861 -0.16797510210983471 0 -0.37189140179240981 -0.1772674124807388 0 -0.38051218818908927 -0.1687251741431734 0 -0.36917402868745608 -0.15570521490003891 0 -0.36881742540126861 -0.16797510210983471 0 -0.38051218818908927 -0.1687251741431734 0 -0.36917402868745608 -0.15570521490003891 0 -0.36434732274841303 -0.16199274706001091 0 -0.36881742540126861 -0.16797510210983471 0 -0.37189140179240981 -0.1772674124807388 0 -0.35962785469287029 -0.1751943229522627 0 -0.37872058771612821 -0.19825403678165909 0 -0.35962785469287029 -0.1751943229522627 0 -0.35679567012505731 -0.18198514569781471 0 -0.36352190248587901 -0.19257644906646701 0 -0.35962785469287029 -0.1751943229522627 0 -0.37872058771612821 -0.19825403678165909 0 -0.3631621154629826 -0.17169910824176501 0 -0.36881742540126861 -0.16797510210983471 0 -0.37189140179240981 -0.1772674124807388 0 -0.3631621154629826 -0.17169910824176501 0 -0.37189140179240981 -0.1772674124807388 0 -0.35962785469287029 -0.1751943229522627 0 -0.35915784557489377 -0.17178904081275259 0 -0.3631621154629826 -0.17169910824176501 0 -0.35962785469287029 -0.1751943229522627 0 -0.35679567012505731 -0.18198514569781471 0 -0.35018932769024957 -0.18232074850738311 0 -0.35458271937080998 -0.19033861726099779 0 -0.35679567012505731 -0.18198514569781471 0 -0.35136003583222608 -0.17722814993364119 0 -0.35018932769024957 -0.18232074850738311 0 -0.35915784557489377 -0.17178904081275259 0 -0.35962785469287029 -0.1751943229522627 0 -0.35720472413666671 -0.17501012498412971 0 -0.35962785469287029 -0.1751943229522627 0 -0.35679567012505731 -0.18198514569781471 0 -0.35720472413666671 -0.17501012498412971 0 -0.35679567012505731 -0.18198514569781471 0 -0.35720472413666671 -0.17501012498412971 0 -0.35136003583222608 -0.17722814993364119 0 -0.35720472413666671 -0.17501012498412971 0 -0.34991305601132161 -0.1728664694085236 0 -0.35136003583222608 -0.17722814993364119 0 -0.34991305601132161 -0.1728664694085236 0 -0.35136003583222608 -0.17722814993364119 0 -0.34258319315144697 -0.17500075928752359 0 -0.35136003583222608 -0.17722814993364119 0 -0.35018932769024957 -0.18232074850738311 0 -0.34258319315144697 -0.17500075928752359 0 -0.35018932769024957 -0.18232074850738311 0 -0.34258319315144697 -0.17500075928752359 0 -0.34431311059120873 -0.18842142504258899 0 -0.35018932769024957 -0.18232074850738311 0 -0.34431311059120873 -0.18842142504258899 0 -0.35458271937080998 -0.19033861726099779 0 -0.34258319315144697 -0.17500075928752359 0 -0.3326093847379461 -0.1950033733207821 0 -0.34431311059120873 -0.18842142504258899 0 -0.34258319315144697 -0.17500075928752359 0 -0.32107207787498793 -0.1694585228001966 0 -0.32647577578669768 -0.18199157431368379 0 -0.34258319315144697 -0.17500075928752359 0 -0.32647577578669768 -0.18199157431368379 0 -0.3326093847379461 -0.1950033733207821 0 -0.34258319315144697 -0.17500075928752359 0 -0.34431311059120873 -0.18842142504258899 0 -0.34258319315144697 -0.17500075928752359 0 -0.3326093847379461 -0.1950033733207821 0 -0.34258319315144697 -0.17500075928752359 0 -0.34047462575698589 -0.15864253456955901 0 -0.34737410563828552 -0.16539251644101921 0 -0.34258319315144697 -0.17500075928752359 0 -0.34047462575698589 -0.15864253456955901 0 -0.34258319315144697 -0.17500075928752359 0 -0.34047462575698589 -0.15864253456955901 0 -0.32107207787498793 -0.1694585228001966 0 -0.29664131844037889 -0.1620012963384258 0 -0.32037058119302442 -0.13897410467563501 0 -0.32107207787498793 -0.1694585228001966 0 -0.30963844738241092 -0.18850364184623369 0 -0.32107207787498793 -0.1694585228001966 0 -0.32647577578669768 -0.18199157431368379 0 -0.30963844738241092 -0.18850364184623369 0 -0.32647577578669768 -0.18199157431368379 0 -0.3326093847379461 -0.1950033733207821 0 -0.30963844738241092 -0.18850364184623369 0 -0.32263557632444517 -0.2150059873540405 0 -0.3326093847379461 -0.1950033733207821 0 -0.30963844738241092 -0.18850364184623369 0 -0.32263557632444517 -0.2150059873540405 0 -0.32263557632444517 -0.2150059873540405 0 -0.3326093847379461 -0.1950033733207821 0 -0.30273972229772877 -0.21158966872851409 0 -0.32263557632444517 -0.2150059873540405 0 -0.31744077245666408 -0.2254242400853734 0 -0.32263557632444517 -0.2150059873540405 0 -0.33563332524335449 -0.2088853633591547 0 -0.3326093847379461 -0.1950033733207821 0 -0.32263557632444517 -0.2150059873540405 0 -0.33563332524335449 -0.2088853633591547 0 -0.33500809962323203 -0.21744019834482661 0 -0.33563332524335449 -0.2088853633591547 0 -0.33500809962323203 -0.21744019834482661 0 -0.34592009294257819 -0.21430077075372331 0 -0.33500809962323203 -0.21744019834482661 0 -0.34592009294257819 -0.21430077075372331 0 -0.34335878255574848 -0.22409871650818489 0 -0.33563332524335449 -0.2088853633591547 0 -0.34516566720547981 -0.20363389795309719 0 -0.34592009294257819 -0.21430077075372331 0 -0.3326093847379461 -0.1950033733207821 0 -0.34431311059120873 -0.18842142504258899 0 -0.34516566720547981 -0.20363389795309719 0 -0.33563332524335449 -0.2088853633591547 0 -0.3326093847379461 -0.1950033733207821 0 -0.34516566720547981 -0.20363389795309719 0 -0.34431311059120873 -0.18842142504258899 0 -0.3500238409504246 -0.19573150356373839 0 -0.35458271937080998 -0.19033861726099779 0 -0.3500238409504246 -0.19573150356373839 0 -0.35625188142110431 -0.20093750185732989 0 -0.34516566720547981 -0.20363389795309719 0 -0.34431311059120873 -0.18842142504258899 0 -0.3500238409504246 -0.19573150356373839 0 -0.34516566720547981 -0.20363389795309719 0 -0.3500238409504246 -0.19573150356373839 0 -0.35625188142110431 -0.20093750185732989 0 -0.35458271937080998 -0.19033861726099779 0 -0.35625188142110431 -0.20093750185732989 0 -0.35458271937080998 -0.19033861726099779 0 -0.36352190248587901 -0.19257644906646701 0 -0.35679567012505731 -0.18198514569781471 0 -0.35458271937080998 -0.19033861726099779 0 -0.36352190248587901 -0.19257644906646701 0 -0.35962785469287029 -0.1751943229522627 0 -0.36352190248587901 -0.19257644906646701 0 -0.37872058771612821 -0.19825403678165909 0 -0.35625188142110431 -0.20093750185732989 0 -0.36352190248587901 -0.19257644906646701 0 -0.36552064423656733 -0.20456237256103321 0 -0.36352190248587901 -0.19257644906646701 0 -0.36552064423656733 -0.20456237256103321 0 -0.37872058771612821 -0.19825403678165909 0 -0.3685033668396866 -0.2155867186301629 0 -0.36552064423656733 -0.20456237256103321 0 -0.37872058771612821 -0.19825403678165909 0 -0.35625188142110431 -0.20093750185732989 0 -0.36552064423656733 -0.20456237256103321 0 -0.35659212548973168 -0.21371269926633629 0 -0.3685033668396866 -0.2155867186301629 0 -0.36552064423656733 -0.20456237256103321 0 -0.35659212548973168 -0.21371269926633629 0 -0.3685033668396866 -0.2155867186301629 0 -0.35659212548973168 -0.21371269926633629 0 -0.35922484406146449 -0.22328727926734379 0 -0.35659212548973168 -0.21371269926633629 0 -0.35922484406146449 -0.22328727926734379 0 -0.35659212548973168 -0.21371269926633629 0 -0.34592009294257819 -0.21430077075372331 0 -0.35922484406146449 -0.22328727926734379 0 -0.35625188142110431 -0.20093750185732989 0 -0.35659212548973168 -0.21371269926633629 0 -0.34516566720547981 -0.20363389795309719 0 -0.35659212548973168 -0.21371269926633629 0 -0.34516566720547981 -0.20363389795309719 0 -0.34592009294257819 -0.21430077075372331 0 -0.35007401171026492 -0.23406442602422231 0 -0.35922484406146449 -0.22328727926734379 0 -0.36496302320689761 -0.24415569105961221 0 -0.35007401171026492 -0.23406442602422231 0 -0.35922484406146449 -0.22328727926734379 0 -0.34335878255574848 -0.22409871650818489 0 -0.35922484406146449 -0.22328727926734379 0 -0.34335878255574848 -0.22409871650818489 0 -0.34592009294257819 -0.21430077075372331 0 -0.35922484406146449 -0.22328727926734379 0 -0.34335878255574848 -0.22409871650818489 0 -0.35007401171026492 -0.23406442602422231 0 -0.33954930049993082 -0.23439449345992841 0 -0.34335878255574848 -0.22409871650818489 0 -0.35922484406146449 -0.22328727926734379 0 -0.37761162294258821 -0.2368694278674652 0 -0.37851908240042448 -0.22230051493920139 0 -0.3685033668396866 -0.2155867186301629 0 -0.35922484406146449 -0.22328727926734379 0 -0.37851908240042448 -0.22230051493920139 0 -0.35922484406146449 -0.22328727926734379 0 -0.37851908240042448 -0.22230051493920139 0 -0.35922484406146449 -0.22328727926734379 0 -0.36496302320689761 -0.24415569105961221 0 -0.35922484406146449 -0.22328727926734379 0 -0.36496302320689761 -0.24415569105961221 0 -0.37761162294258821 -0.2368694278674652 0 -0.36763638843639129 -0.24752641633162839 0 -0.36496302320689761 -0.24415569105961221 0 -0.37761162294258821 -0.2368694278674652 0 -0.35007401171026492 -0.23406442602422231 0 -0.36496302320689761 -0.24415569105961221 0 -0.34429130654076961 -0.24610019828169499 0 -0.35570049099982137 -0.25761193033048579 0 -0.36496302320689761 -0.24415569105961221 0 -0.34429130654076961 -0.24610019828169499 0 -0.35007401171026492 -0.23406442602422231 0 -0.34429130654076961 -0.24610019828169499 0 -0.33954930049993082 -0.23439449345992841 0 -0.32668719958874182 -0.25289879824443262 0 -0.34429130654076961 -0.24610019828169499 0 -0.33057757724949111 -0.2388184537443378 0 -0.34429130654076961 -0.24610019828169499 0 -0.33057757724949111 -0.2388184537443378 0 -0.33954930049993082 -0.23439449345992841 0 -0.33500809962323203 -0.21744019834482661 0 -0.34335878255574848 -0.22409871650818489 0 -0.32749272105003269 -0.2249101537490292 0 -0.34335878255574848 -0.22409871650818489 0 -0.32749272105003269 -0.2249101537490292 0 -0.34335878255574848 -0.22409871650818489 0 -0.32944482444338008 -0.22889067274120209 0 -0.32749272105003269 -0.2249101537490292 0 -0.33954930049993082 -0.23439449345992841 0 -0.34335878255574848 -0.22409871650818489 0 -0.32944482444338008 -0.22889067274120209 0 -0.32263557632444517 -0.2150059873540405 0 -0.33500809962323203 -0.21744019834482661 0 -0.32749272105003269 -0.2249101537490292 0 -0.33057757724949111 -0.2388184537443378 0 -0.33954930049993082 -0.23439449345992841 0 -0.32944482444338008 -0.22889067274120209 0 -0.32944482444338008 -0.22889067274120209 0 -0.32749272105003269 -0.2249101537490292 0 -0.33057757724949111 -0.2388184537443378 0 -0.32944482444338008 -0.22889067274120209 0 -0.32390144848908431 -0.23084510026399971 0 -0.32390144848908431 -0.23084510026399971 0 -0.31744077245666408 -0.2254242400853734 0 -0.32045566393547281 -0.24008055234309139 0 -0.32390144848908431 -0.23084510026399971 0 -0.32749272105003269 -0.2249101537490292 0 -0.31744077245666408 -0.2254242400853734 0 -0.32944482444338008 -0.22889067274120209 0 -0.32390144848908431 -0.23084510026399971 0 -0.32749272105003269 -0.2249101537490292 0 -0.32263557632444517 -0.2150059873540405 0 -0.32749272105003269 -0.2249101537490292 0 -0.31744077245666408 -0.2254242400853734 0 -0.32749272105003269 -0.2249101537490292 0 -0.31744077245666408 -0.2254242400853734 0 -0.32263557632444517 -0.2150059873540405 0 -0.32749272105003269 -0.2249101537490292 0 -0.32263557632444517 -0.2150059873540405 0 -0.31744077245666408 -0.2254242400853734 0 -0.30485749959899128 -0.25066017201951307 0 -0.31744077245666408 -0.2254242400853734 0 -0.32045566393547281 -0.24008055234309139 0 -0.32668719958874182 -0.25289879824443262 0 -0.30485749959899128 -0.25066017201951307 0 -0.32045566393547281 -0.24008055234309139 0 -0.32668719958874182 -0.25289879824443262 0 -0.33057757724949111 -0.2388184537443378 0 -0.32045566393547281 -0.24008055234309139 0 -0.33057757724949111 -0.2388184537443378 0 -0.32390144848908431 -0.23084510026399971 0 -0.32045566393547281 -0.24008055234309139 0 -0.43362099483120448 -0.24901318902840261 0 -0.42972812165883711 -0.23314020580529199 0 -0.41525943347572508 -0.24238471864089689 0 -0.43362099483120448 -0.24901318902840261 0 -0.42972812165883711 -0.23314020580529199 0 -0.44650990765588522 -0.2479426543123702 0 -0.42972812165883711 -0.23314020580529199 0 -0.42101789910647958 -0.21320647894821301 0 -0.44051300379964048 -0.21978018063627619 0 -0.41433657815326569 -0.2246235201667432 0 -0.41525943347572508 -0.24238471864089689 0 -0.3978133207393843 -0.2213137506110569 0 -0.42972812165883711 -0.23314020580529199 0 -0.41433657815326569 -0.2246235201667432 0 -0.41525943347572508 -0.24238471864089689 0 -0.42972812165883711 -0.23314020580529199 0 -0.41433657815326569 -0.2246235201667432 0 -0.42101789910647958 -0.21320647894821301 0 -0.41525943347572508 -0.24238471864089689 0 -0.3978133207393843 -0.2213137506110569 0 -0.41433657815326569 -0.2246235201667432 0 -0.3978133207393843 -0.2213137506110569 0 -0.40790904921200999 -0.21274332031517079 0 -0.41554106319171502 -0.24934750950123091 0 -0.41525943347572508 -0.24238471864089689 0 -0.40547752864021508 -0.2462674664576564 0 -0.39494261594802571 -0.25672133694366089 0 -0.39774483165587821 -0.239128363561077 0 -0.40547752864021508 -0.2462674664576564 0 -0.41525943347572508 -0.24238471864089689 0 -0.39774483165587821 -0.239128363561077 0 -0.40547752864021508 -0.2462674664576564 0 -0.39774483165587821 -0.239128363561077 0 -0.37761162294258821 -0.2368694278674652 0 -0.38854899915039132 -0.2302379703056345 0 -0.39494261594802571 -0.25672133694366089 0 -0.39774483165587821 -0.239128363561077 0 -0.37761162294258821 -0.2368694278674652 0 -0.39494261594802571 -0.25672133694366089 0 -0.36763638843639129 -0.24752641633162839 0 -0.37761162294258821 -0.2368694278674652 0 -0.37851908240042448 -0.22230051493920139 0 -0.3978133207393843 -0.2213137506110569 0 -0.37851908240042448 -0.22230051493920139 0 -0.38854899915039132 -0.2302379703056345 0 -0.3978133207393843 -0.2213137506110569 0 -0.37761162294258821 -0.2368694278674652 0 -0.37851908240042448 -0.22230051493920139 0 -0.38854899915039132 -0.2302379703056345 0 -0.39774483165587821 -0.239128363561077 0 -0.38854899915039132 -0.2302379703056345 0 -0.3978133207393843 -0.2213137506110569 0 -0.41525943347572508 -0.24238471864089689 0 -0.39774483165587821 -0.239128363561077 0 -0.3978133207393843 -0.2213137506110569 0 -0.3978133207393843 -0.2213137506110569 0 -0.3973657881636013 -0.20628104677883871 0 -0.40790904921200999 -0.21274332031517079 0 -0.3973657881636013 -0.20628104677883871 0 -0.41166273095361477 -0.1965874447401933 0 -0.40790904921200999 -0.21274332031517079 0 -0.3978133207393843 -0.2213137506110569 0 -0.3973657881636013 -0.20628104677883871 0 -0.37872058771612821 -0.19825403678165909 0 -0.3685033668396866 -0.2155867186301629 0 -0.37851908240042448 -0.22230051493920139 0 -0.37872058771612821 -0.19825403678165909 0 -0.37851908240042448 -0.22230051493920139 0 -0.3978133207393843 -0.2213137506110569 0 -0.37872058771612821 -0.19825403678165909 0 -0.3978133207393843 -0.2213137506110569 0 -0.37872058771612821 -0.19825403678165909 0 -0.37872058771612821 -0.19825403678165909 0 -0.39492741033579332 -0.18296724613287699 0 -0.38050823929211958 -0.1817567306557378 0 -0.3973657881636013 -0.20628104677883871 0 -0.37872058771612821 -0.19825403678165909 0 -0.39492741033579332 -0.18296724613287699 0 -0.3973657881636013 -0.20628104677883871 0 -0.41166273095361477 -0.1965874447401933 0 -0.39492741033579332 -0.18296724613287699 0 -0.41166273095361477 -0.1965874447401933 0 -0.43451609994339602 -0.19161770696018229 0 -0.41787288675633849 -0.1746370308588395 0 -0.41166273095361477 -0.1965874447401933 0 -0.40790904921200999 -0.21274332031517079 0 -0.42101789910647958 -0.21320647894821301 0 -0.41433657815326569 -0.2246235201667432 0 -0.40790904921200999 -0.21274332031517079 0 -0.42101789910647958 -0.21320647894821301 0 -0.42101789910647958 -0.21320647894821301 0 -0.43451609994339602 -0.19161770696018229 0 -0.44051300379964048 -0.21978018063627619 0 -0.41166273095361477 -0.1965874447401933 0 -0.42101789910647958 -0.21320647894821301 0 -0.43451609994339602 -0.19161770696018229 0 -0.43451609994339602 -0.19161770696018229 0 -0.41787288675633849 -0.1746370308588395 0 -0.44316835140401872 -0.16875967816476689 0 -0.41787288675633849 -0.1746370308588395 0 -0.42322850282594421 -0.15119666984605751 0 -0.44316835140401872 -0.16875967816476689 0 -0.41787288675633849 -0.1746370308588395 0 -0.40078132162837771 -0.1578957617185501 0 -0.42322850282594421 -0.15119666984605751 0 -0.41166273095361477 -0.1965874447401933 0 -0.41787288675633849 -0.1746370308588395 0 -0.39492741033579332 -0.18296724613287699 0 -0.37189140179240981 -0.1772674124807388 0 -0.37872058771612821 -0.19825403678165909 0 -0.38050823929211958 -0.1817567306557378 0 -0.39492741033579332 -0.18296724613287699 0 -0.38050823929211958 -0.1817567306557378 0 -0.38051218818908927 -0.1687251741431734 0 -0.37189140179240981 -0.1772674124807388 0 -0.38050823929211958 -0.1817567306557378 0 -0.38051218818908927 -0.1687251741431734 0 -0.38051218818908927 -0.1687251741431734 0 -0.40078132162837771 -0.1578957617185501 0 -0.38472618883676712 -0.15410099785507961 0 -0.36917402868745608 -0.15570521490003891 0 -0.38051218818908927 -0.1687251741431734 0 -0.38472618883676712 -0.15410099785507961 0 -0.39492741033579332 -0.18296724613287699 0 -0.38051218818908927 -0.1687251741431734 0 -0.40078132162837771 -0.1578957617185501 0 -0.41787288675633849 -0.1746370308588395 0 -0.39492741033579332 -0.18296724613287699 0 -0.40078132162837771 -0.1578957617185501 0 -0.40078132162837771 -0.1578957617185501 0 -0.39555906979467009 -0.1305621274410492 0 -0.41207363688936632 -0.13908068204246099 0 -0.40078132162837771 -0.1578957617185501 0 -0.38472618883676712 -0.15410099785507961 0 -0.39555906979467009 -0.1305621274410492 0 -0.38472618883676712 -0.15410099785507961 0 -0.37564339508854738 -0.14168620570262269 0 -0.39555906979467009 -0.1305621274410492 0 -0.36917402868745608 -0.15570521490003891 0 -0.38472618883676712 -0.15410099785507961 0 -0.37564339508854738 -0.14168620570262269 0 -0.37354062536167182 -0.12582601144509939 0 -0.37564339508854738 -0.14168620570262269 0 -0.39555906979467009 -0.1305621274410492 0 -0.37564339508854738 -0.14168620570262269 0 -0.39555906979467009 -0.1305621274410492 0 -0.39555906979467009 -0.1305621274410492 0 -0.4154747445007928 -0.1194380491794757 0 -0.41207363688936632 -0.13908068204246099 0 -0.42795756811993491 -0.13636964833831181 0 -0.4154747445007928 -0.1194380491794757 0 -0.39555906979467009 -0.1305621274410492 0 -0.41207363688936632 -0.13908068204246099 0 -0.4154747445007928 -0.1194380491794757 0 -0.40078132162837771 -0.1578957617185501 0 -0.42322850282594421 -0.15119666984605751 0 -0.41207363688936632 -0.13908068204246099 0 -0.42322850282594421 -0.15119666984605751 0 -0.42795756811993491 -0.13636964833831181 0 -0.40078132162837771 -0.1578957617185501 0 -0.41207363688936632 -0.13908068204246099 0 -0.42322850282594421 -0.15119666984605751 0 -0.42322850282594421 -0.15119666984605751 0 -0.42795756811993491 -0.13636964833831181 0 -0.44567568402351071 -0.14449757797356491 0 -0.42322850282594421 -0.15119666984605751 0 -0.44567568402351071 -0.14449757797356491 0 -0.44316835140401872 -0.16875967816476689 0 -0.42322850282594421 -0.15119666984605751 0 -0.44567568402351071 -0.14449757797356491 0 -0.42795756811993491 -0.13636964833831181 0 -0.4154747445007928 -0.1194380491794757 0 -0.43082651658392551 -0.120262559016756 0 -0.42795756811993491 -0.13636964833831181 0 -0.44596817608995248 -0.1143543872204841 0 -0.42795756811993491 -0.13636964833831181 0 -0.44471110859854263 -0.12981233654008381 0 -0.44596817608995248 -0.1143543872204841 0 -0.42795756811993491 -0.13636964833831181 0 -0.44471110859854263 -0.12981233654008381 0 -0.44567568402351071 -0.14449757797356491 0 -0.44471110859854263 -0.12981233654008381 0 -0.44567568402351071 -0.14449757797356491 0 -0.45924300616077218 -0.1240277326279743 0 -0.44567568402351071 -0.14449757797356491 0 -0.46103689101053669 -0.15501227312561811 0 -0.44316835140401872 -0.16875967816476689 0 -0.44567568402351071 -0.14449757797356491 0 -0.46103689101053669 -0.15501227312561811 0 -0.46812286522107721 -0.13779848610107229 0 -0.44567568402351071 -0.14449757797356491 0 -0.46812286522107721 -0.13779848610107229 0 -0.44567568402351071 -0.14449757797356491 0 -0.46812286522107721 -0.13779848610107229 0 -0.45924300616077218 -0.1240277326279743 0 -0.46812286522107721 -0.13779848610107229 0 -0.47030478655345398 -0.1250216102093212 0 -0.45924300616077218 -0.1240277326279743 0 -0.46812286522107721 -0.13779848610107229 0 -0.47030478655345398 -0.1250216102093212 0 -0.48048953992481042 -0.12385806185598271 0 -0.46812286522107721 -0.13779848610107229 0 -0.49057004641864382 -0.13109939422857969 0 -0.48221897844921829 -0.14896064281958321 0 -0.46812286522107721 -0.13779848610107229 0 -0.49057004641864382 -0.13109939422857969 0 -0.46812286522107721 -0.13779848610107229 0 -0.49057004641864382 -0.13109939422857969 0 -0.48048953992481042 -0.12385806185598271 0 -0.49057004641864382 -0.13109939422857969 0 -0.5 -0.12903625829846721 0 -0.5 -0.1559454764422897 0 -0.49057004641864382 -0.13109939422857969 0 -0.5 -0.12903625829846721 0 -0.48818756783382161 -0.11721609527006931 0 -0.49057004641864382 -0.13109939422857969 0 -0.5 -0.1559454764422897 0 -0.48221897844921829 -0.14896064281958321 0 -0.46103689101053669 -0.15501227312561811 0 -0.46812286522107721 -0.13779848610107229 0 -0.48221897844921829 -0.14896064281958321 0 -0.46103689101053669 -0.15501227312561811 0 -0.48221897844921829 -0.14896064281958321 0 -0.48427356377734171 -0.16945794906569031 0 -0.46103689101053669 -0.15501227312561811 0 -0.48427356377734171 -0.16945794906569031 0 -0.46473579131437498 -0.17477137438710261 0 -0.5 -0.1559454764422897 0 -0.48221897844921829 -0.14896064281958321 0 -0.48427356377734171 -0.16945794906569031 0 -0.5 -0.1559454764422897 0 -0.48427356377734171 -0.16945794906569031 0 -0.5 -0.18285469458611209 0 -0.48427356377734171 -0.16945794906569031 0 -0.5 -0.18285469458611209 0 -0.47343279201965449 -0.20018978344090901 0 -0.48427356377734171 -0.16945794906569031 0 -0.46473579131437498 -0.17477137438710261 0 -0.47343279201965449 -0.20018978344090901 0 -0.46473579131437498 -0.17477137438710261 0 -0.44316835140401872 -0.16875967816476689 0 -0.45319860295003661 -0.19067936409657191 0 -0.46103689101053669 -0.15501227312561811 0 -0.46473579131437498 -0.17477137438710261 0 -0.44316835140401872 -0.16875967816476689 0 -0.43451609994339602 -0.19161770696018229 0 -0.44316835140401872 -0.16875967816476689 0 -0.45319860295003661 -0.19067936409657191 0 -0.45319860295003661 -0.19067936409657191 0 -0.47343279201965449 -0.20018978344090901 0 -0.44051300379964048 -0.21978018063627619 0 -0.47343279201965449 -0.20018978344090901 0 -0.47666552303699461 -0.2269786954621632 0 -0.44051300379964048 -0.21978018063627619 0 -0.43451609994339602 -0.19161770696018229 0 -0.45319860295003661 -0.19067936409657191 0 -0.44051300379964048 -0.21978018063627619 0 -0.43451609994339602 -0.19161770696018229 0 -0.44051300379964048 -0.21978018063627619 0 -0.46473579131437498 -0.17477137438710261 0 -0.45319860295003661 -0.19067936409657191 0 -0.47343279201965449 -0.20018978344090901 0 -0.5 -0.18285469458611209 0 -0.47343279201965449 -0.20018978344090901 0 -0.5 -0.20976391272993469 0 -0.47343279201965449 -0.20018978344090901 0 -0.5 -0.20976391272993469 0 -0.47666552303699461 -0.2269786954621632 0 -0.5 -0.20976391272993469 0 -0.47666552303699461 -0.2269786954621632 0 -0.5 -0.2366731308737571 0 -0.48247625842929442 -0.25079867930096522 0 -0.47666552303699461 -0.2269786954621632 0 -0.5 -0.2366731308737571 0 -0.48247625842929442 -0.25079867930096522 0 -0.47666552303699461 -0.2269786954621632 0 -0.46206409657296588 -0.24259648698203931 0 -0.47666552303699461 -0.2269786954621632 0 -0.46206409657296588 -0.24259648698203931 0 -0.44051300379964048 -0.21978018063627619 0 -0.45903045715523538 -0.25856322888969352 0 -0.46206409657296588 -0.24259648698203931 0 -0.44650990765588522 -0.2479426543123702 0 -0.44051300379964048 -0.21978018063627619 0 -0.44650990765588522 -0.2479426543123702 0 -0.42972812165883711 -0.23314020580529199 0 -0.44051300379964048 -0.21978018063627619 0 -0.44650990765588522 -0.2479426543123702 0 -0.46206409657296588 -0.24259648698203931 0 -0.44051300379964048 -0.21978018063627619 0 -0.44650990765588522 -0.2479426543123702 0 -0.4204176536208985 -0.035780809001970497 0 -0.41169403322369119 -0.051093619025935393 0 -0.40146514489030971 -0.043190236587160903 0 -0.4204176536208985 -0.035780809001970497 0 -0.40988304226362821 -0.029352168196559111 0 -0.40146514489030971 -0.043190236587160903 0 -0.4204176536208985 -0.035780809001970497 0 -0.41169403322369119 -0.051093619025935393 0 -0.42444269825484843 -0.04922568797952992 0 -0.41169403322369119 -0.051093619025935393 0 -0.42205842001570948 -0.060827537152743763 0 -0.40276577719152989 -0.063611654093512313 0 -0.41169403322369119 -0.051093619025935393 0 -0.42444269825484843 -0.04922568797952992 0 -0.42205842001570948 -0.060827537152743763 0 -0.42444269825484843 -0.04922568797952992 0 -0.42205842001570948 -0.060827537152743763 0 -0.43597543993366278 -0.053277947394247252 0 -0.42205842001570948 -0.060827537152743763 0 -0.43597543993366278 -0.053277947394247252 0 -0.43649296547056071 -0.062915150390988092 0 -0.42444269825484843 -0.04922568797952992 0 -0.43597543993366278 -0.053277947394247252 0 -0.43429401994851058 -0.042060364039345079 0 -0.4204176536208985 -0.035780809001970497 0 -0.42444269825484843 -0.04922568797952992 0 -0.43429401994851058 -0.042060364039345079 0 -0.4204176536208985 -0.035780809001970497 0 -0.43429401994851058 -0.042060364039345079 0 -0.43252492479210408 -0.03070804460720639 0 -0.43429401994851058 -0.042060364039345079 0 -0.43252492479210408 -0.03070804460720639 0 -0.44419183358422432 -0.036428839391223787 0 -0.43477170023706169 -0.018119260951195711 0 -0.42318825794196729 -0.02552911566670488 0 -0.41834396879614388 -0.013685295576592709 0 -0.43252492479210408 -0.03070804460720639 0 -0.43477170023706169 -0.018119260951195711 0 -0.42318825794196729 -0.02552911566670488 0 -0.4204176536208985 -0.035780809001970497 0 -0.43252492479210408 -0.03070804460720639 0 -0.42318825794196729 -0.02552911566670488 0 -0.41834396879614388 -0.013685295576592709 0 -0.44094419326859008 -0.0034880150475725328 0 -0.43477170023706169 -0.018119260951195711 0 -0.41834396879614388 -0.013685295576592709 0 -0.44094419326859008 -0.0034880150475725328 0 -0.41834396879614388 -0.013685295576592709 0 -0.44094419326859008 -0.0034880150475725328 0 -0.42691306777249383 0.00012799515346236659 0 -0.41834396879614388 -0.013685295576592709 0 -0.42691306777249383 0.00012799515346236659 0 -0.41233531551423752 0.00062229309105500219 0 -0.41834396879614388 -0.013685295576592709 0 -0.40635362227060878 -0.01018358022313152 0 -0.41233531551423752 0.00062229309105500219 0 -0.42318825794196729 -0.02552911566670488 0 -0.41834396879614388 -0.013685295576592709 0 -0.40988304226362821 -0.029352168196559111 0 -0.41834396879614388 -0.013685295576592709 0 -0.40988304226362821 -0.029352168196559111 0 -0.39574374432369758 -0.023882576105612899 0 -0.41834396879614388 -0.013685295576592709 0 -0.39574374432369758 -0.023882576105612899 0 -0.41834396879614388 -0.013685295576592709 0 -0.40635362227060878 -0.01018358022313152 0 -0.39574374432369758 -0.023882576105612899 0 -0.4204176536208985 -0.035780809001970497 0 -0.42318825794196729 -0.02552911566670488 0 -0.40988304226362821 -0.029352168196559111 0 -0.39574374432369758 -0.023882576105612899 0 -0.39899146044835648 -0.00378874230137547 0 -0.38422659370699358 -0.0074984435739372853 0 -0.40635362227060878 -0.01018358022313152 0 -0.39574374432369758 -0.023882576105612899 0 -0.39899146044835648 -0.00378874230137547 0 -0.40635362227060878 -0.01018358022313152 0 -0.39899146044835648 -0.00378874230137547 0 -0.41233531551423752 0.00062229309105500219 0 -0.39574374432369758 -0.023882576105612899 0 -0.38422659370699358 -0.0074984435739372853 0 -0.38070483690457868 -0.022261404897216161 0 -0.37314351985125138 -0.034079856634633088 0 -0.39574374432369758 -0.023882576105612899 0 -0.36607524130911723 -0.026466771779731779 0 -0.38422659370699358 -0.0074984435739372853 0 -0.38070483690457868 -0.022261404897216161 0 -0.36607524130911723 -0.026466771779731779 0 -0.38422659370699358 -0.0074984435739372853 0 -0.37314351985125138 -0.034079856634633088 0 -0.39574374432369758 -0.023882576105612899 0 -0.38070483690457868 -0.022261404897216161 0 -0.37314351985125138 -0.034079856634633088 0 -0.37650432259361988 -0.042256490320048197 0 -0.38741064755178672 -0.038304542426866317 0 -0.38741064755178672 -0.038304542426866317 0 -0.40146514489030971 -0.043190236587160903 0 -0.37916156541937229 -0.050688061589009722 0 -0.37314351985125138 -0.034079856634633088 0 -0.39574374432369758 -0.023882576105612899 0 -0.38741064755178672 -0.038304542426866317 0 -0.37650432259361988 -0.042256490320048197 0 -0.38741064755178672 -0.038304542426866317 0 -0.37916156541937229 -0.050688061589009722 0 -0.39574374432369758 -0.023882576105612899 0 -0.38741064755178672 -0.038304542426866317 0 -0.40146514489030971 -0.043190236587160903 0 -0.40988304226362821 -0.029352168196559111 0 -0.39574374432369758 -0.023882576105612899 0 -0.40146514489030971 -0.043190236587160903 0 -0.40146514489030971 -0.043190236587160903 0 -0.3970192703770164 -0.05414464213205035 0 -0.37916156541937229 -0.050688061589009722 0 -0.41169403322369119 -0.051093619025935393 0 -0.3970192703770164 -0.05414464213205035 0 -0.40276577719152989 -0.063611654093512313 0 -0.41169403322369119 -0.051093619025935393 0 -0.40146514489030971 -0.043190236587160903 0 -0.3970192703770164 -0.05414464213205035 0 -0.3970192703770164 -0.05414464213205035 0 -0.39000983116017901 -0.062139639364633438 0 -0.40276577719152989 -0.063611654093512313 0 -0.39000983116017901 -0.062139639364633438 0 -0.37916156541937229 -0.050688061589009722 0 -0.37983562140874522 -0.061256720421780771 0 -0.3970192703770164 -0.05414464213205035 0 -0.39000983116017901 -0.062139639364633438 0 -0.37916156541937229 -0.050688061589009722 0 -0.40146514489030971 -0.043190236587160903 0 -0.37916156541937229 -0.050688061589009722 0 -0.37066707183289921 -0.048895679807857258 0 -0.37650432259361988 -0.042256490320048197 0 -0.37916156541937229 -0.050688061589009722 0 -0.37055742933408498 -0.062434775947277178 0 -0.37916156541937229 -0.050688061589009722 0 -0.37983562140874522 -0.061256720421780771 0 -0.37429876585117111 -0.070669772669764125 0 -0.37983562140874522 -0.061256720421780771 0 -0.38394121749145987 -0.070845930611711419 0 -0.39000983116017901 -0.062139639364633438 0 -0.37983562140874522 -0.061256720421780771 0 -0.38394121749145987 -0.070845930611711419 0 -0.39000983116017901 -0.062139639364633438 0 -0.38394121749145987 -0.070845930611711419 0 -0.39520254522613568 -0.073237849185515166 0 -0.38394121749145987 -0.070845930611711419 0 -0.37799702667314838 -0.078401096956575211 0 -0.38702565541562872 -0.08206946485266306 0 -0.38394121749145987 -0.070845930611711419 0 -0.38702565541562872 -0.08206946485266306 0 -0.39520254522613568 -0.073237849185515166 0 -0.37429876585117111 -0.070669772669764125 0 -0.38394121749145987 -0.070845930611711419 0 -0.37799702667314838 -0.078401096956575211 0 -0.37799702667314838 -0.078401096956575211 0 -0.37605859450557888 -0.087850185844221468 0 -0.38702565541562872 -0.08206946485266306 0 -0.37605859450557888 -0.087850185844221468 0 -0.38702565541562872 -0.08206946485266306 0 -0.38972428756051891 -0.095358364297022324 0 -0.40165017453333179 -0.085263798658291118 0 -0.38972428756051891 -0.095358364297022324 0 -0.41224786108031619 -0.099659496831554742 0 -0.38702565541562872 -0.08206946485266306 0 -0.40165017453333179 -0.085263798658291118 0 -0.39520254522613568 -0.073237849185515166 0 -0.38702565541562872 -0.08206946485266306 0 -0.40165017453333179 -0.085263798658291118 0 -0.38972428756051891 -0.095358364297022324 0 -0.40276577719152989 -0.063611654093512313 0 -0.39520254522613568 -0.073237849185515166 0 -0.41300426340226848 -0.075060583599289465 0 -0.40165017453333179 -0.085263798658291118 0 -0.39520254522613568 -0.073237849185515166 0 -0.41300426340226848 -0.075060583599289465 0 -0.39000983116017901 -0.062139639364633438 0 -0.40276577719152989 -0.063611654093512313 0 -0.39520254522613568 -0.073237849185515166 0 -0.36789085540848759 -0.1123088477459004 0 -0.37354062536167182 -0.12582601144509939 0 -0.38381009394737042 -0.1097060382122864 0 -0.37354062536167182 -0.12582601144509939 0 -0.39555906979467009 -0.1305621274410492 0 -0.38381009394737042 -0.1097060382122864 0 -0.37441445482735508 -0.1006425317381917 0 -0.36789085540848759 -0.1123088477459004 0 -0.38381009394737042 -0.1097060382122864 0 -0.37441445482735508 -0.1006425317381917 0 -0.38381009394737042 -0.1097060382122864 0 -0.38972428756051891 -0.095358364297022324 0 -0.37441445482735508 -0.1006425317381917 0 -0.37605859450557888 -0.087850185844221468 0 -0.38972428756051891 -0.095358364297022324 0 -0.38972428756051891 -0.095358364297022324 0 -0.40051717831377059 -0.1117258754181413 0 -0.41224786108031619 -0.099659496831554742 0 -0.38381009394737042 -0.1097060382122864 0 -0.38972428756051891 -0.095358364297022324 0 -0.40051717831377059 -0.1117258754181413 0 -0.39555906979467009 -0.1305621274410492 0 -0.40051717831377059 -0.1117258754181413 0 -0.4154747445007928 -0.1194380491794757 0 -0.39555906979467009 -0.1305621274410492 0 -0.38381009394737042 -0.1097060382122864 0 -0.40051717831377059 -0.1117258754181413 0 -0.40051717831377059 -0.1117258754181413 0 -0.4154747445007928 -0.1194380491794757 0 -0.41224786108031619 -0.099659496831554742 0 -0.4154747445007928 -0.1194380491794757 0 -0.41224786108031619 -0.099659496831554742 0 -0.42578248278724168 -0.09730864281545179 0 -0.41224786108031619 -0.099659496831554742 0 -0.42578248278724168 -0.09730864281545179 0 -0.4139262309710332 -0.087342375342107856 0 -0.4154747445007928 -0.1194380491794757 0 -0.42578248278724168 -0.09730864281545179 0 -0.43539041920691551 -0.10831397091790219 0 -0.42578248278724168 -0.09730864281545179 0 -0.43539041920691551 -0.10831397091790219 0 -0.44163089952481432 -0.096096668156460119 0 -0.42795756811993491 -0.13636964833831181 0 -0.43082651658392551 -0.120262559016756 0 -0.44596817608995248 -0.1143543872204841 0 -0.4154747445007928 -0.1194380491794757 0 -0.43539041920691551 -0.10831397091790219 0 -0.43082651658392551 -0.120262559016756 0 -0.4154747445007928 -0.1194380491794757 0 -0.43539041920691551 -0.10831397091790219 0 -0.43539041920691551 -0.10831397091790219 0 -0.43082651658392551 -0.120262559016756 0 -0.44596817608995248 -0.1143543872204841 0 -0.42205842001570948 -0.060827537152743763 0 -0.40276577719152989 -0.063611654093512313 0 -0.41300426340226848 -0.075060583599289465 0 -0.40165017453333179 -0.085263798658291118 0 -0.41300426340226848 -0.075060583599289465 0 -0.4139262309710332 -0.087342375342107856 0 -0.40165017453333179 -0.085263798658291118 0 -0.41224786108031619 -0.099659496831554742 0 -0.4139262309710332 -0.087342375342107856 0 -0.42578248278724168 -0.09730864281545179 0 -0.4139262309710332 -0.087342375342107856 0 -0.425580282822418 -0.084495849297463815 0 -0.41300426340226848 -0.075060583599289465 0 -0.4139262309710332 -0.087342375342107856 0 -0.425580282822418 -0.084495849297463815 0 -0.42578248278724168 -0.09730864281545179 0 -0.43719847853750898 -0.086134695042826809 0 -0.44163089952481432 -0.096096668156460119 0 -0.42578248278724168 -0.09730864281545179 0 -0.425580282822418 -0.084495849297463815 0 -0.43719847853750898 -0.086134695042826809 0 -0.425580282822418 -0.084495849297463815 0 -0.43719847853750898 -0.086134695042826809 0 -0.43108215250514298 -0.072841261892864606 0 -0.43719847853750898 -0.086134695042826809 0 -0.43108215250514298 -0.072841261892864606 0 -0.44093830563052228 -0.077141721383000433 0 -0.41300426340226848 -0.075060583599289465 0 -0.425580282822418 -0.084495849297463815 0 -0.43108215250514298 -0.072841261892864606 0 -0.42205842001570948 -0.060827537152743763 0 -0.41300426340226848 -0.075060583599289465 0 -0.43108215250514298 -0.072841261892864606 0 -0.42205842001570948 -0.060827537152743763 0 -0.43108215250514298 -0.072841261892864606 0 -0.43649296547056071 -0.062915150390988092 0 -0.43108215250514298 -0.072841261892864606 0 -0.43649296547056071 -0.062915150390988092 0 -0.44492836469710367 -0.068457201926344996 0 -0.43649296547056071 -0.062915150390988092 0 -0.44492836469710367 -0.068457201926344996 0 -0.44697372006812808 -0.05881217155467619 0 -0.44492836469710367 -0.068457201926344996 0 -0.45493080590377361 -0.067140841656839936 0 -0.44697372006812808 -0.05881217155467619 0 -0.44492836469710367 -0.068457201926344996 0 -0.45160176325991952 -0.075591246469455198 0 -0.45493080590377361 -0.067140841656839936 0 -0.44492836469710367 -0.068457201926344996 0 -0.45160176325991952 -0.075591246469455198 0 -0.44093830563052228 -0.077141721383000433 0 -0.43108215250514298 -0.072841261892864606 0 -0.44492836469710367 -0.068457201926344996 0 -0.44093830563052228 -0.077141721383000433 0 -0.43719847853750898 -0.086134695042826809 0 -0.44093830563052228 -0.077141721383000433 0 -0.44703573889425741 -0.083132618731508234 0 -0.43719847853750898 -0.086134695042826809 0 -0.44788690954551391 -0.090270182433241419 0 -0.44163089952481432 -0.096096668156460119 0 -0.43719847853750898 -0.086134695042826809 0 -0.44788690954551391 -0.090270182433241419 0 -0.44703573889425741 -0.083132618731508234 0 -0.44788690954551391 -0.090270182433241419 0 -0.44703573889425741 -0.083132618731508234 0 -0.45635100595797762 -0.08542207461626794 0 -0.45160176325991952 -0.075591246469455198 0 -0.44703573889425741 -0.083132618731508234 0 -0.45635100595797762 -0.08542207461626794 0 -0.45160176325991952 -0.075591246469455198 0 -0.44093830563052228 -0.077141721383000433 0 -0.44703573889425741 -0.083132618731508234 0 -0.45160176325991952 -0.075591246469455198 0 -0.45635100595797762 -0.08542207461626794 0 -0.46090196961991042 -0.074972335523300779 0 -0.44788690954551391 -0.090270182433241419 0 -0.45635100595797762 -0.08542207461626794 0 -0.455306093913038 -0.097189892656328769 0 -0.45635100595797762 -0.08542207461626794 0 -0.46397878405997012 -0.092339126102656557 0 -0.455306093913038 -0.097189892656328769 0 -0.45635100595797762 -0.08542207461626794 0 -0.46397878405997012 -0.092339126102656557 0 -0.466789616963248 -0.082771638915976914 0 -0.45635100595797762 -0.08542207461626794 0 -0.466789616963248 -0.082771638915976914 0 -0.46090196961991042 -0.074972335523300779 0 -0.466789616963248 -0.082771638915976914 0 -0.46872840060513238 -0.072885904082056779 0 -0.46090196961991042 -0.074972335523300779 0 -0.46872840060513238 -0.072885904082056779 0 -0.46444852517855711 -0.067284918914446962 0 -0.46090196961991042 -0.074972335523300779 0 -0.46444852517855711 -0.067284918914446962 0 -0.47541480810676462 -0.066497215065748988 0 -0.46130317489834233 -0.054141032097744249 0 -0.46444852517855711 -0.067284918914446962 0 -0.45493080590377361 -0.067140841656839936 0 -0.46090196961991042 -0.074972335523300779 0 -0.46444852517855711 -0.067284918914446962 0 -0.45493080590377361 -0.067140841656839936 0 -0.46130317489834233 -0.054141032097744249 0 -0.45160176325991952 -0.075591246469455198 0 -0.45493080590377361 -0.067140841656839936 0 -0.46090196961991042 -0.074972335523300779 0 -0.44471110859854263 -0.12981233654008381 0 -0.44596817608995248 -0.1143543872204841 0 -0.45924300616077218 -0.1240277326279743 0 -0.43539041920691551 -0.10831397091790219 0 -0.44596817608995248 -0.1143543872204841 0 -0.455306093913038 -0.097189892656328769 0 -0.43539041920691551 -0.10831397091790219 0 -0.44163089952481432 -0.096096668156460119 0 -0.455306093913038 -0.097189892656328769 0 -0.43539041920691551 -0.10831397091790219 0 -0.455306093913038 -0.097189892656328769 0 -0.44788690954551391 -0.090270182433241419 0 -0.44163089952481432 -0.096096668156460119 0 -0.455306093913038 -0.097189892656328769 0 -0.46397878405997012 -0.092339126102656557 0 -0.44596817608995248 -0.1143543872204841 0 -0.455306093913038 -0.097189892656328769 0 -0.46397878405997012 -0.092339126102656557 0 -0.46276394458409847 -0.10943871067804981 0 -0.47161424079106679 -0.1024354365636479 0 -0.46397878405997012 -0.092339126102656557 0 -0.44596817608995248 -0.1143543872204841 0 -0.46397878405997012 -0.092339126102656557 0 -0.44596817608995248 -0.1143543872204841 0 -0.46276394458409847 -0.10943871067804981 0 -0.44596817608995248 -0.1143543872204841 0 -0.46276394458409847 -0.10943871067804981 0 -0.45924300616077218 -0.1240277326279743 0 -0.46276394458409847 -0.10943871067804981 0 -0.45924300616077218 -0.1240277326279743 0 -0.47336373490715611 -0.11440216025225559 0 -0.47030478655345398 -0.1250216102093212 0 -0.45924300616077218 -0.1240277326279743 0 -0.47336373490715611 -0.11440216025225559 0 -0.48048953992481042 -0.12385806185598271 0 -0.47336373490715611 -0.11440216025225559 0 -0.48818756783382161 -0.11721609527006931 0 -0.47030478655345398 -0.1250216102093212 0 -0.48048953992481042 -0.12385806185598271 0 -0.47336373490715611 -0.11440216025225559 0 -0.47336373490715611 -0.11440216025225559 0 -0.48387552740909712 -0.1032103072145806 0 -0.48818756783382161 -0.11721609527006931 0 -0.46276394458409847 -0.10943871067804981 0 -0.47336373490715611 -0.11440216025225559 0 -0.47161424079106679 -0.1024354365636479 0 -0.47336373490715611 -0.11440216025225559 0 -0.48387552740909712 -0.1032103072145806 0 -0.47161424079106679 -0.1024354365636479 0 -0.46397878405997012 -0.092339126102656557 0 -0.47161424079106679 -0.1024354365636479 0 -0.47566064492052063 -0.092221924594387328 0 -0.48387552740909712 -0.1032103072145806 0 -0.47161424079106679 -0.1024354365636479 0 -0.47566064492052063 -0.092221924594387328 0 -0.48387552740909712 -0.1032103072145806 0 -0.47566064492052063 -0.092221924594387328 0 -0.48438815355492082 -0.090089109019937358 0 -0.48387552740909712 -0.1032103072145806 0 -0.5 -0.1021270401546447 0 -0.48438815355492082 -0.090089109019937358 0 -0.48387552740909712 -0.1032103072145806 0 -0.5 -0.1021270401546447 0 -0.48818756783382161 -0.11721609527006931 0 -0.5 -0.12903625829846721 0 -0.5 -0.1021270401546447 0 -0.48818756783382161 -0.11721609527006931 0 -0.49057004641864382 -0.13109939422857969 0 -0.48048953992481042 -0.12385806185598271 0 -0.48818756783382161 -0.11721609527006931 0 -0.48198939202998758 -0.070323864984828899 0 -0.47541480810676462 -0.066497215065748988 0 -0.48372301666318412 -0.053466024046194938 0 -0.48198939202998758 -0.070323864984828899 0 -0.47541480810676462 -0.066497215065748988 0 -0.47323055442628309 -0.073119655762152902 0 -0.46872840060513238 -0.072885904082056779 0 -0.46444852517855711 -0.067284918914446962 0 -0.47541480810676462 -0.066497215065748988 0 -0.466789616963248 -0.082771638915976914 0 -0.46872840060513238 -0.072885904082056779 0 -0.47323055442628309 -0.073119655762152902 0 -0.466789616963248 -0.082771638915976914 0 -0.48198939202998758 -0.070323864984828899 0 -0.47323055442628309 -0.073119655762152902 0 -0.46872840060513238 -0.072885904082056779 0 -0.47541480810676462 -0.066497215065748988 0 -0.47323055442628309 -0.073119655762152902 0 -0.46397878405997012 -0.092339126102656557 0 -0.48198939202998758 -0.070323864984828899 0 -0.46397878405997012 -0.092339126102656557 0 -0.48198939202998758 -0.070323864984828899 0 -0.47566064492052063 -0.092221924594387328 0 -0.46397878405997012 -0.092339126102656557 0 -0.466789616963248 -0.082771638915976914 0 -0.48198939202998758 -0.070323864984828899 0 -0.48198939202998758 -0.070323864984828899 0 -0.47566064492052063 -0.092221924594387328 0 -0.48438815355492082 -0.090089109019937358 0 -0.48198939202998758 -0.070323864984828899 0 -0.48911198991871319 -0.079699527432474104 0 -0.48438815355492082 -0.090089109019937358 0 -0.5 -0.1021270401546447 0 -0.48911198991871319 -0.079699527432474104 0 -0.48438815355492082 -0.090089109019937358 0 -0.5 -0.1021270401546447 0 -0.48911198991871319 -0.079699527432474104 0 -0.5 -0.075217822010822055 0 -0.48198939202998758 -0.070323864984828899 0 -0.5 -0.075217822010822055 0 -0.50000000000000333 -0.048308603866999519 0 -0.48198939202998758 -0.070323864984828899 0 -0.48911198991871319 -0.079699527432474104 0 -0.5 -0.075217822010822055 0 -0.48198939202998758 -0.070323864984828899 0 -0.50000000000000333 -0.048308603866999519 0 -0.48198939202998758 -0.070323864984828899 0 -0.50000000000000333 -0.048308603866999519 0 -0.48372301666318412 -0.053466024046194938 0 -0.50000000000000333 -0.048308603866999519 0 -0.47642176183240281 -0.03739974418888211 0 -0.5 -0.019200833333051781 0 -0.50000000000000333 -0.048308603866999519 0 -0.47642176183240281 -0.03739974418888211 0 -0.48372301666318412 -0.053466024046194938 0 -0.47541480810676462 -0.066497215065748988 0 -0.47642176183240281 -0.03739974418888211 0 -0.47541480810676462 -0.066497215065748988 0 -0.47642176183240281 -0.03739974418888211 0 -0.46130317489834233 -0.054141032097744249 0 -0.47541480810676462 -0.066497215065748988 0 -0.47642176183240281 -0.03739974418888211 0 -0.48372301666318412 -0.053466024046194938 0 -0.45493080590377361 -0.067140841656839936 0 -0.46130317489834233 -0.054141032097744249 0 -0.44697372006812808 -0.05881217155467619 0 -0.47642176183240281 -0.03739974418888211 0 -0.46130317489834233 -0.054141032097744249 0 -0.45744625722877091 -0.03353315227427877 0 -0.46130317489834233 -0.054141032097744249 0 -0.45744625722877091 -0.03353315227427877 0 -0.44821156950532581 -0.046940855861892637 0 -0.45744625722877091 -0.03353315227427877 0 -0.44419183358422432 -0.036428839391223787 0 -0.44821156950532581 -0.046940855861892637 0 -0.45744625722877091 -0.03353315227427877 0 -0.44419183358422432 -0.036428839391223787 0 -0.4457206858199374 -0.02483604009643146 0 -0.43429401994851058 -0.042060364039345079 0 -0.44419183358422432 -0.036428839391223787 0 -0.44821156950532581 -0.046940855861892637 0 -0.43597543993366278 -0.053277947394247252 0 -0.43429401994851058 -0.042060364039345079 0 -0.44821156950532581 -0.046940855861892637 0 -0.43597543993366278 -0.053277947394247252 0 -0.44697372006812808 -0.05881217155467619 0 -0.44821156950532581 -0.046940855861892637 0 -0.43597543993366278 -0.053277947394247252 0 -0.43649296547056071 -0.062915150390988092 0 -0.44697372006812808 -0.05881217155467619 0 -0.46130317489834233 -0.054141032097744249 0 -0.44697372006812808 -0.05881217155467619 0 -0.44821156950532581 -0.046940855861892637 0 -0.44689159434596509 -0.0147260955600569 0 -0.44094419326859008 -0.0034880150475725328 0 -0.45712444090384291 -0.0081650167578910873 0 -0.43477170023706169 -0.018119260951195711 0 -0.44689159434596509 -0.0147260955600569 0 -0.44094419326859008 -0.0034880150475725328 0 -0.43477170023706169 -0.018119260951195711 0 -0.44689159434596509 -0.0147260955600569 0 -0.4457206858199374 -0.02483604009643146 0 -0.43252492479210408 -0.03070804460720639 0 -0.43477170023706169 -0.018119260951195711 0 -0.4457206858199374 -0.02483604009643146 0 -0.43252492479210408 -0.03070804460720639 0 -0.44419183358422432 -0.036428839391223787 0 -0.4457206858199374 -0.02483604009643146 0 -0.45744625722877091 -0.03353315227427877 0 -0.4457206858199374 -0.02483604009643146 0 -0.45589695150039372 -0.019022144947193679 0 -0.44689159434596509 -0.0147260955600569 0 -0.4457206858199374 -0.02483604009643146 0 -0.45589695150039372 -0.019022144947193679 0 -0.47642176183240281 -0.03739974418888211 0 -0.45744625722877091 -0.03353315227427877 0 -0.46526593864519078 -0.018288218596720651 0 -0.45744625722877091 -0.03353315227427877 0 -0.45589695150039372 -0.019022144947193679 0 -0.46526593864519078 -0.018288218596720651 0 -0.44094419326859008 -0.0034880150475725328 0 -0.45712444090384291 -0.0081650167578910873 0 -0.46354441774103627 0.0067092654814476446 0 -0.46526593864519078 -0.018288218596720651 0 -0.45712444090384291 -0.0081650167578910873 0 -0.46727750484769348 -0.0033069801000630548 0 -0.44689159434596509 -0.0147260955600569 0 -0.45589695150039372 -0.019022144947193679 0 -0.45712444090384291 -0.0081650167578910873 0 -0.45589695150039372 -0.019022144947193679 0 -0.46526593864519078 -0.018288218596720651 0 -0.45712444090384291 -0.0081650167578910873 0 -0.45712444090384291 -0.0081650167578910873 0 -0.46727750484769348 -0.0033069801000630548 0 -0.46354441774103627 0.0067092654814476446 0 -0.46727750484769348 -0.0033069801000630548 0 -0.47742871555804112 -0.008302273312015206 0 -0.46975228957861748 0.0090199640573427678 0 -0.46526593864519078 -0.018288218596720651 0 -0.46727750484769348 -0.0033069801000630548 0 -0.47742871555804112 -0.008302273312015206 0 -0.47642176183240281 -0.03739974418888211 0 -0.46526593864519078 -0.018288218596720651 0 -0.47742871555804112 -0.008302273312015206 0 -0.47642176183240281 -0.03739974418888211 0 -0.47742871555804112 -0.008302273312015206 0 -0.47642176183240281 -0.03739974418888211 0 -0.47742871555804112 -0.008302273312015206 0 -0.5 -0.019200833333051781 0 -0.47742871555804112 -0.008302273312015206 0 -0.5 -0.019200833333051781 0 -0.5 0.0099069372008959156 0 -0.47742871555804112 -0.008302273312015206 0 -0.5 0.0099069372008959156 0 -0.47843566928367942 0.020795197564851691 0 -0.5 0.0099069372008959156 0 -0.47843566928367942 0.020795197564851691 0 -0.48534203538729409 0.03341747971028302 0 -0.5 0.0099069372008959156 0 -0.5 0.039014707734843668 0 -0.48534203538729409 0.03341747971028302 0 -0.47843566928367942 0.020795197564851691 0 -0.48534203538729409 0.03341747971028302 0 -0.47082747814627518 0.033064828011963102 0 -0.47843566928367942 0.020795197564851691 0 -0.47013759393710691 0.021762237758912489 0 -0.47082747814627518 0.033064828011963102 0 -0.47843566928367942 0.020795197564851691 0 -0.47013759393710691 0.021762237758912489 0 -0.46975228957861748 0.0090199640573427678 0 -0.47742871555804112 -0.008302273312015206 0 -0.47843566928367942 0.020795197564851691 0 -0.47742871555804112 -0.008302273312015206 0 -0.47843566928367942 0.020795197564851691 0 -0.46975228957861748 0.0090199640573427678 0 -0.48814337240135602 0.059649550669604007 0 -0.5 0.039014707734843668 0 -0.4800574894982666 0.046776008244503023 0 -0.48814337240135602 0.059649550669604007 0 -0.5 0.039014707734843668 0 -0.5 0.06812247826879142 0 -0.5 0.039014707734843668 0 -0.48534203538729409 0.03341747971028302 0 -0.4800574894982666 0.046776008244503023 0 -0.47082747814627518 0.033064828011963102 0 -0.4800574894982666 0.046776008244503023 0 -0.46001098513610877 0.045657949777289528 0 -0.48534203538729409 0.03341747971028302 0 -0.47082747814627518 0.033064828011963102 0 -0.4800574894982666 0.046776008244503023 0 -0.48814337240135602 0.059649550669604007 0 -0.4800574894982666 0.046776008244503023 0 -0.47572078278171359 0.067268565517728585 0 -0.4800574894982666 0.046776008244503023 0 -0.46001098513610877 0.045657949777289528 0 -0.47572078278171359 0.067268565517728585 0 -0.46125079601486541 0.055732765578423028 0 -0.46001098513610877 0.045657949777289528 0 -0.47572078278171359 0.067268565517728585 0 -0.46001098513610877 0.045657949777289528 0 -0.47572078278171359 0.067268565517728585 0 -0.46125079601486541 0.055732765578423028 0 -0.45064608883123108 0.062745164646347482 0 -0.46422145196050257 0.065833350101212926 0 -0.46125079601486541 0.055732765578423028 0 -0.46001098513610877 0.045657949777289528 0 -0.44609495514785469 0.047745924972754879 0 -0.46001098513610877 0.045657949777289528 0 -0.45916864737818591 0.031734768306898857 0 -0.44430118749050401 0.024047334036850429 0 -0.47082747814627518 0.033064828011963102 0 -0.46001098513610877 0.045657949777289528 0 -0.45916864737818591 0.031734768306898857 0 -0.46001098513610877 0.045657949777289528 0 -0.44430118749050401 0.024047334036850429 0 -0.46001098513610877 0.045657949777289528 0 -0.44411127596175071 0.038627945323605653 0 -0.44609495514785469 0.047745924972754879 0 -0.44411127596175071 0.038627945323605653 0 -0.44430118749050401 0.024047334036850429 0 -0.43326398113369802 0.041968240583754542 0 -0.46001098513610877 0.045657949777289528 0 -0.44411127596175071 0.038627945323605653 0 -0.44430118749050401 0.024047334036850429 0 -0.43887356242289111 0.044061383877614747 0 -0.44609495514785469 0.047745924972754879 0 -0.43202403744826118 0.04790342463034318 0 -0.44411127596175071 0.038627945323605653 0 -0.43887356242289111 0.044061383877614747 0 -0.43326398113369802 0.041968240583754542 0 -0.44411127596175071 0.038627945323605653 0 -0.43887356242289111 0.044061383877614747 0 -0.44609495514785469 0.047745924972754879 0 -0.43202403744826118 0.04790342463034318 0 -0.45064608883123108 0.062745164646347482 0 -0.43610742070094582 0.061883459938517703 0 -0.43202403744826118 0.04790342463034318 0 -0.45064608883123108 0.062745164646347482 0 -0.46125079601486541 0.055732765578423028 0 -0.44609495514785469 0.047745924972754879 0 -0.43202403744826118 0.04790342463034318 0 -0.46125079601486541 0.055732765578423028 0 -0.43202403744826118 0.04790342463034318 0 -0.45064608883123108 0.062745164646347482 0 -0.46125079601486541 0.055732765578423028 0 -0.43202403744826118 0.04790342463034318 0 -0.46975228957861748 0.0090199640573427678 0 -0.46354441774103627 0.0067092654814476446 0 -0.44430118749050401 0.024047334036850429 0 -0.46727750484769348 -0.0033069801000630548 0 -0.46975228957861748 0.0090199640573427678 0 -0.46354441774103627 0.0067092654814476446 0 -0.47013759393710691 0.021762237758912489 0 -0.46975228957861748 0.0090199640573427678 0 -0.46153493873985568 0.024168961401492411 0 -0.46975228957861748 0.0090199640573427678 0 -0.44430118749050401 0.024047334036850429 0 -0.45916864737818591 0.031734768306898857 0 -0.46153493873985568 0.024168961401492411 0 -0.44430118749050401 0.024047334036850429 0 -0.46975228957861748 0.0090199640573427678 0 -0.46153493873985568 0.024168961401492411 0 -0.44430118749050401 0.024047334036850429 0 -0.47082747814627518 0.033064828011963102 0 -0.45916864737818591 0.031734768306898857 0 -0.46153493873985568 0.024168961401492411 0 -0.47013759393710691 0.021762237758912489 0 -0.47082747814627518 0.033064828011963102 0 -0.46153493873985568 0.024168961401492411 0 -0.44094419326859008 -0.0034880150475725328 0 -0.44743147772035868 0.0088417536527334046 0 -0.42691306777249383 0.00012799515346236659 0 -0.44094419326859008 -0.0034880150475725328 0 -0.46354441774103627 0.0067092654814476446 0 -0.44094419326859008 -0.0034880150475725328 0 -0.46354441774103627 0.0067092654814476446 0 -0.44743147772035868 0.0088417536527334046 0 -0.46354441774103627 0.0067092654814476446 0 -0.44430118749050401 0.024047334036850429 0 -0.44743147772035868 0.0088417536527334046 0 -0.44430118749050401 0.024047334036850429 0 -0.44743147772035868 0.0088417536527334046 0 -0.42691306777249383 0.00012799515346236659 0 -0.42691306777249383 0.00012799515346236659 0 -0.41892431365411048 0.011108215878146069 0 -0.430718639735652 0.020931988076862491 0 -0.44430118749050401 0.024047334036850429 0 -0.42691306777249383 0.00012799515346236659 0 -0.430718639735652 0.020931988076862491 0 -0.44430118749050401 0.024047334036850429 0 -0.42691306777249383 0.00012799515346236659 0 -0.41892431365411048 0.011108215878146069 0 -0.41813754949934467 0.018487075356129382 0 -0.40237794610486999 0.011469884631857269 0 -0.41892431365411048 0.011108215878146069 0 -0.41233531551423752 0.00062229309105500219 0 -0.40237794610486999 0.011469884631857269 0 -0.42691306777249383 0.00012799515346236659 0 -0.41892431365411048 0.011108215878146069 0 -0.41233531551423752 0.00062229309105500219 0 -0.42052929850274628 0.03043821283765169 0 -0.40237794610486999 0.011469884631857269 0 -0.41813754949934467 0.018487075356129382 0 -0.42052929850274628 0.03043821283765169 0 -0.40237794610486999 0.011469884631857269 0 -0.42052929850274628 0.03043821283765169 0 -0.40237794610486999 0.011469884631857269 0 -0.40487746196553431 0.02626765489941103 0 -0.44430118749050401 0.024047334036850429 0 -0.42005438663674921 0.038363635389436893 0 -0.44430118749050401 0.024047334036850429 0 -0.430718639735652 0.020931988076862491 0 -0.42005438663674921 0.038363635389436893 0 -0.42052929850274628 0.03043821283765169 0 -0.430718639735652 0.020931988076862491 0 -0.42005438663674921 0.038363635389436893 0 -0.41813754949934467 0.018487075356129382 0 -0.42052929850274628 0.03043821283765169 0 -0.430718639735652 0.020931988076862491 0 -0.41892431365411048 0.011108215878146069 0 -0.41813754949934467 0.018487075356129382 0 -0.430718639735652 0.020931988076862491 0 -0.44430118749050401 0.024047334036850429 0 -0.43326398113369802 0.041968240583754542 0 -0.42005438663674921 0.038363635389436893 0 -0.43887356242289111 0.044061383877614747 0 -0.43326398113369802 0.041968240583754542 0 -0.43202403744826118 0.04790342463034318 0 -0.43326398113369802 0.041968240583754542 0 -0.42602510339625971 0.043122285445302007 0 -0.43202403744826118 0.04790342463034318 0 -0.43326398113369802 0.041968240583754542 0 -0.42602510339625971 0.043122285445302007 0 -0.42005438663674921 0.038363635389436893 0 -0.42602510339625971 0.043122285445302007 0 -0.43202403744826118 0.04790342463034318 0 -0.41859686598558637 0.044306518626894248 0 -0.43326398113369802 0.041968240583754542 0 -0.42602510339625971 0.043122285445302007 0 -0.43202403744826118 0.04790342463034318 0 -0.41859686598558637 0.044306518626894248 0 -0.42602510339625971 0.043122285445302007 0 -0.43202403744826118 0.04790342463034318 0 -0.42602510339625971 0.043122285445302007 0 -0.41859686598558637 0.044306518626894248 0 -0.42602510339625971 0.043122285445302007 0 -0.42005438663674921 0.038363635389436893 0 -0.43610742070094582 0.061883459938517703 0 -0.42849596417922808 0.056546055336559813 0 -0.42598529941981761 0.063323108726379224 0 -0.43610742070094582 0.061883459938517703 0 -0.43202403744826118 0.04790342463034318 0 -0.42849596417922808 0.056546055336559813 0 -0.43202403744826118 0.04790342463034318 0 -0.42239035218729432 0.052580057211742623 0 -0.42849596417922808 0.056546055336559813 0 -0.43202403744826118 0.04790342463034318 0 -0.42239035218729432 0.052580057211742623 0 -0.41859686598558637 0.044306518626894248 0 -0.42239035218729432 0.052580057211742623 0 -0.42849596417922808 0.056546055336559813 0 -0.42330206683527333 0.058624874211133382 0 -0.42330206683527333 0.058624874211133382 0 -0.41965465559721649 0.063773166045940743 0 -0.42598529941981761 0.063323108726379224 0 -0.42849596417922808 0.056546055336559813 0 -0.42330206683527333 0.058624874211133382 0 -0.42598529941981761 0.063323108726379224 0 -0.4167848047875683 0.058571647924242548 0 -0.41126056383359799 0.059291896115437337 0 -0.41493132101587088 0.064591375183102123 0 -0.4167848047875683 0.058571647924242548 0 -0.41965465559721649 0.063773166045940743 0 -0.41493132101587088 0.064591375183102123 0 -0.42330206683527333 0.058624874211133382 0 -0.4167848047875683 0.058571647924242548 0 -0.41965465559721649 0.063773166045940743 0 -0.42239035218729432 0.052580057211742623 0 -0.42330206683527333 0.058624874211133382 0 -0.4167848047875683 0.058571647924242548 0 -0.4167848047875683 0.058571647924242548 0 -0.41415162798388921 0.052620907977982828 0 -0.41126056383359799 0.059291896115437337 0 -0.42239035218729432 0.052580057211742623 0 -0.4167848047875683 0.058571647924242548 0 -0.41415162798388921 0.052620907977982828 0 -0.41415162798388921 0.052620907977982828 0 -0.41141736754650282 0.049242303778103742 0 -0.41859686598558637 0.044306518626894248 0 -0.42239035218729432 0.052580057211742623 0 -0.41415162798388921 0.052620907977982828 0 -0.41859686598558637 0.044306518626894248 0 -0.41415162798388921 0.052620907977982828 0 -0.41141736754650282 0.049242303778103742 0 -0.40611551456433231 0.053855446781683552 0 -0.41141736754650282 0.049242303778103742 0 -0.40680546165220338 0.0461863417258545 0 -0.40611551456433231 0.053855446781683552 0 -0.41415162798388921 0.052620907977982828 0 -0.41126056383359799 0.059291896115437337 0 -0.40611551456433231 0.053855446781683552 0 -0.41126056383359799 0.059291896115437337 0 -0.40541957953656288 0.061509140075802889 0 -0.40611551456433231 0.053855446781683552 0 -0.41126056383359799 0.059291896115437337 0 -0.40541957953656288 0.061509140075802889 0 -0.41003896073168322 0.064905650343100238 0 -0.42005438663674921 0.038363635389436893 0 -0.41267566758910829 0.042720332428325243 0 -0.40487746196553431 0.02626765489941103 0 -0.42052929850274628 0.03043821283765169 0 -0.42005438663674921 0.038363635389436893 0 -0.40487746196553431 0.02626765489941103 0 -0.42602510339625971 0.043122285445302007 0 -0.42005438663674921 0.038363635389436893 0 -0.41859686598558637 0.044306518626894248 0 -0.41859686598558637 0.044306518626894248 0 -0.41267566758910829 0.042720332428325243 0 -0.42005438663674921 0.038363635389436893 0 -0.41859686598558637 0.044306518626894248 0 -0.41267566758910829 0.042720332428325243 0 -0.42005438663674921 0.038363635389436893 0 -0.41267566758910829 0.042720332428325243 0 -0.41859686598558637 0.044306518626894248 0 -0.41267566758910829 0.042720332428325243 0 -0.40680546165220338 0.0461863417258545 0 -0.41141736754650282 0.049242303778103742 0 -0.41859686598558637 0.044306518626894248 0 -0.40680546165220338 0.0461863417258545 0 -0.41859686598558637 0.044306518626894248 0 -0.40680546165220338 0.0461863417258545 0 -0.41267566758910829 0.042720332428325243 0 -0.40680546165220338 0.0461863417258545 0 -0.42005438663674921 0.038363635389436893 0 -0.40487746196553431 0.02626765489941103 0 -0.41267566758910829 0.042720332428325243 0 -0.40680546165220338 0.0461863417258545 0 -0.39012064066711932 0.036678232499148519 0 -0.40680546165220338 0.0461863417258545 0 -0.38072931320353531 0.050343484064443569 0 -0.39012064066711932 0.036678232499148519 0 -0.41267566758910829 0.042720332428325243 0 -0.39012064066711932 0.036678232499148519 0 -0.40487746196553431 0.02626765489941103 0 -0.41267566758910829 0.042720332428325243 0 -0.39012064066711932 0.036678232499148519 0 -0.40680546165220338 0.0461863417258545 0 -0.39309617934319069 0.054280861825527278 0 -0.38072931320353531 0.050343484064443569 0 -0.40680546165220338 0.0461863417258545 0 -0.38072931320353531 0.050343484064443569 0 -0.40068894722016068 0.058685249515624552 0 -0.40611551456433231 0.053855446781683552 0 -0.39309617934319069 0.054280861825527278 0 -0.40068894722016068 0.058685249515624552 0 -0.40541957953656288 0.061509140075802889 0 -0.3981245154365568 0.06509554937948453 0 -0.40068894722016068 0.058685249515624552 0 -0.40541957953656288 0.061509140075802889 0 -0.40611551456433231 0.053855446781683552 0 -0.40680546165220338 0.0461863417258545 0 -0.40611551456433231 0.053855446781683552 0 -0.39309617934319069 0.054280861825527278 0 -0.40680546165220338 0.0461863417258545 0 -0.39309617934319069 0.054280861825527278 0 -0.40068894722016068 0.058685249515624552 0 -0.39309617934319069 0.054280861825527278 0 -0.3981245154365568 0.06509554937948453 0 -0.39309617934319069 0.054280861825527278 0 -0.38872661370317918 0.065746481948820143 0 -0.3981245154365568 0.06509554937948453 0 -0.39309617934319069 0.054280861825527278 0 -0.38072931320353531 0.050343484064443569 0 -0.37938689703417799 0.062375381925200167 0 -0.39309617934319069 0.054280861825527278 0 -0.37938689703417799 0.062375381925200167 0 -0.39309617934319069 0.054280861825527278 0 -0.37938689703417799 0.062375381925200167 0 -0.38872661370317918 0.065746481948820143 0 -0.38072931320353531 0.050343484064443569 0 -0.37938689703417799 0.062375381925200167 0 -0.36633601685439848 0.065331400377337506 0 -0.39012064066711932 0.036678232499148519 0 -0.3675656137451303 0.030636132569971521 0 -0.38072931320353531 0.050343484064443569 0 -0.39012064066711932 0.036678232499148519 0 -0.3675656137451303 0.030636132569971521 0 -0.39012064066711932 0.036678232499148519 0 -0.38216117601941069 0.02379971766962764 0 -0.3675656137451303 0.030636132569971521 0 -0.39012064066711932 0.036678232499148519 0 -0.38216117601941069 0.02379971766962764 0 -0.39318916841507368 0.025363756079133989 0 -0.38216117601941069 0.02379971766962764 0 -0.38970053729431958 0.014171674409384849 0 -0.39318916841507368 0.025363756079133989 0 -0.38422659370699358 -0.0074984435739372853 0 -0.38970053729431958 0.014171674409384849 0 -0.3725445469515854 0.0085658185073836553 0 -0.38216117601941069 0.02379971766962764 0 -0.38970053729431958 0.014171674409384849 0 -0.3725445469515854 0.0085658185073836553 0 -0.38422659370699358 -0.0074984435739372853 0 -0.38970053729431958 0.014171674409384849 0 -0.40237794610486999 0.011469884631857269 0 -0.39899146044835648 -0.00378874230137547 0 -0.38422659370699358 -0.0074984435739372853 0 -0.40237794610486999 0.011469884631857269 0 -0.38422659370699358 -0.0074984435739372853 0 -0.40237794610486999 0.011469884631857269 0 -0.39899146044835648 -0.00378874230137547 0 -0.41233531551423752 0.00062229309105500219 0 -0.40237794610486999 0.011469884631857269 0 -0.38970053729431958 0.014171674409384849 0 -0.40237794610486999 0.011469884631857269 0 -0.40487746196553431 0.02626765489941103 0 -0.39012064066711932 0.036678232499148519 0 -0.40487746196553431 0.02626765489941103 0 -0.39318916841507368 0.025363756079133989 0 -0.38970053729431958 0.014171674409384849 0 -0.40487746196553431 0.02626765489941103 0 -0.39318916841507368 0.025363756079133989 0 -0.38970053729431958 0.014171674409384849 0 -0.40487746196553431 0.02626765489941103 0 -0.40161777065095228 0.094012347161357937 0 -0.39028896510095162 0.1112475696519427 0 -0.40161777065095228 0.094012347161357937 0 -0.39028896510095162 0.1112475696519427 0 -0.4122585496330175 0.1110583369523831 0 -0.40161777065095228 0.094012347161357937 0 -0.39028896510095162 0.1112475696519427 0 -0.38026114572524838 0.095907286100309755 0 -0.39028896510095162 0.1112475696519427 0 -0.4122585496330175 0.1110583369523831 0 -0.40172014694384123 0.13301163974449631 0 -0.39028896510095162 0.1112475696519427 0 -0.37896015955095103 0.1284827921425275 0 -0.37207286889115748 0.1105755304398411 0 -0.39028896510095162 0.1112475696519427 0 -0.37896015955095103 0.1284827921425275 0 -0.39028896510095162 0.1112475696519427 0 -0.40172014694384123 0.13301163974449631 0 -0.37896015955095103 0.1284827921425275 0 -0.39028896510095162 0.1112475696519427 0 -0.38026114572524838 0.095907286100309755 0 -0.37207286889115748 0.1105755304398411 0 -0.40161777065095228 0.094012347161357937 0 -0.38026114572524838 0.095907286100309755 0 -0.38524708088174592 0.082904932990690461 0 -0.38026114572524838 0.095907286100309755 0 -0.38524708088174592 0.082904932990690461 0 -0.37014909660451117 0.083461291629002385 0 -0.38524708088174592 0.082904932990690461 0 -0.37770145906766273 0.072394702852334847 0 -0.37014909660451117 0.083461291629002385 0 -0.37770145906766273 0.072394702852334847 0 -0.38872661370317918 0.065746481948820143 0 -0.3953240176343078 0.074585913761553921 0 -0.37770145906766273 0.072394702852334847 0 -0.3953240176343078 0.074585913761553921 0 -0.38524708088174592 0.082904932990690461 0 -0.37770145906766273 0.072394702852334847 0 -0.3953240176343078 0.074585913761553921 0 -0.37938689703417799 0.062375381925200167 0 -0.37770145906766273 0.072394702852334847 0 -0.38872661370317918 0.065746481948820143 0 -0.3953240176343078 0.074585913761553921 0 -0.40666097218499908 0.070099418904843058 0 -0.41294657620095299 0.076777124670773078 0 -0.3953240176343078 0.074585913761553921 0 -0.41294657620095299 0.076777124670773078 0 -0.38872661370317918 0.065746481948820143 0 -0.3981245154365568 0.06509554937948453 0 -0.3953240176343078 0.074585913761553921 0 -0.40541957953656288 0.061509140075802889 0 -0.3981245154365568 0.06509554937948453 0 -0.40666097218499908 0.070099418904843058 0 -0.3981245154365568 0.06509554937948453 0 -0.3953240176343078 0.074585913761553921 0 -0.40666097218499908 0.070099418904843058 0 -0.40161777065095228 0.094012347161357937 0 -0.3953240176343078 0.074585913761553921 0 -0.41294657620095299 0.076777124670773078 0 -0.40161777065095228 0.094012347161357937 0 -0.38524708088174592 0.082904932990690461 0 -0.3953240176343078 0.074585913761553921 0 -0.40161777065095228 0.094012347161357937 0 -0.41294657620095299 0.076777124670773078 0 -0.41240270610523461 0.094358640383482045 0 -0.41294657620095299 0.076777124670773078 0 -0.42278792793601561 0.095586752749414153 0 -0.41240270610523461 0.094358640383482045 0 -0.40161777065095228 0.094012347161357937 0 -0.41294657620095299 0.076777124670773078 0 -0.40541957953656288 0.061509140075802889 0 -0.41003896073168322 0.064905650343100238 0 -0.40666097218499908 0.070099418904843058 0 -0.41126056383359799 0.059291896115437337 0 -0.41003896073168322 0.064905650343100238 0 -0.41493132101587088 0.064591375183102123 0 -0.41003896073168322 0.064905650343100238 0 -0.41192236708738528 0.069036421436315831 0 -0.41493132101587088 0.064591375183102123 0 -0.41003896073168322 0.064905650343100238 0 -0.40666097218499908 0.070099418904843058 0 -0.41192236708738528 0.069036421436315831 0 -0.41170345789719848 0.072283536964866488 0 -0.41294657620095299 0.076777124670773078 0 -0.41528391611545662 0.073221182847534011 0 -0.41192236708738528 0.069036421436315831 0 -0.41170345789719848 0.072283536964866488 0 -0.41528391611545662 0.073221182847534011 0 -0.40666097218499908 0.070099418904843058 0 -0.41170345789719848 0.072283536964866488 0 -0.41294657620095299 0.076777124670773078 0 -0.40666097218499908 0.070099418904843058 0 -0.41192236708738528 0.069036421436315831 0 -0.41170345789719848 0.072283536964866488 0 -0.41528391611545662 0.073221182847534011 0 -0.42071098404676233 0.068496011285130692 0 -0.42750683490916402 0.070569870280954447 0 -0.41294657620095299 0.076777124670773078 0 -0.41528391611545662 0.073221182847534011 0 -0.42750683490916402 0.070569870280954447 0 -0.41294657620095299 0.076777124670773078 0 -0.41528391611545662 0.073221182847534011 0 -0.41192236708738528 0.069036421436315831 0 -0.41528391611545662 0.073221182847534011 0 -0.41628821572835328 0.06871743615461845 0 -0.41192236708738528 0.069036421436315831 0 -0.41628821572835328 0.06871743615461845 0 -0.41493132101587088 0.064591375183102123 0 -0.41528391611545662 0.073221182847534011 0 -0.41628821572835328 0.06871743615461845 0 -0.42071098404676233 0.068496011285130692 0 -0.41628821572835328 0.06871743615461845 0 -0.42071098404676233 0.068496011285130692 0 -0.41965465559721649 0.063773166045940743 0 -0.41628821572835328 0.06871743615461845 0 -0.41965465559721649 0.063773166045940743 0 -0.41493132101587088 0.064591375183102123 0 -0.41294657620095299 0.076777124670773078 0 -0.42750683490916402 0.070569870280954447 0 -0.43693601035488799 0.079760000830628036 0 -0.42071098404676233 0.068496011285130692 0 -0.41965465559721649 0.063773166045940743 0 -0.42598529941981761 0.063323108726379224 0 -0.42071098404676233 0.068496011285130692 0 -0.42598529941981761 0.063323108726379224 0 -0.42750683490916402 0.070569870280954447 0 -0.42750683490916402 0.070569870280954447 0 -0.43693601035488799 0.079760000830628036 0 -0.44101513436476431 0.069736496460777495 0 -0.43610742070094582 0.061883459938517703 0 -0.42750683490916402 0.070569870280954447 0 -0.44101513436476431 0.069736496460777495 0 -0.43610742070094582 0.061883459938517703 0 -0.42598529941981761 0.063323108726379224 0 -0.42750683490916402 0.070569870280954447 0 -0.43693601035488799 0.079760000830628036 0 -0.42278792793601561 0.095586752749414153 0 -0.4377586463445492 0.1012031472030613 0 -0.41294657620095299 0.076777124670773078 0 -0.43693601035488799 0.079760000830628036 0 -0.42278792793601561 0.095586752749414153 0 -0.41294657620095299 0.076777124670773078 0 -0.43693601035488799 0.079760000830628036 0 -0.42278792793601561 0.095586752749414153 0 -0.43379705968379928 0.11720741137571231 0 -0.4377586463445492 0.1012031472030613 0 -0.42278792793601561 0.095586752749414153 0 -0.4122585496330175 0.1110583369523831 0 -0.43379705968379928 0.11720741137571231 0 -0.42278792793601561 0.095586752749414153 0 -0.41240270610523461 0.094358640383482045 0 -0.4122585496330175 0.1110583369523831 0 -0.40161777065095228 0.094012347161357937 0 -0.41240270610523461 0.094358640383482045 0 -0.4122585496330175 0.1110583369523831 0 -0.4122585496330175 0.1110583369523831 0 -0.43379705968379928 0.11720741137571231 0 -0.42448013433673171 0.13754048734646451 0 -0.43379705968379928 0.11720741137571231 0 -0.45220474794483412 0.108057083654532 0 -0.45843608092645732 0.12633510381475199 0 -0.43379705968379928 0.11720741137571231 0 -0.4377586463445492 0.1012031472030613 0 -0.45220474794483412 0.108057083654532 0 -0.4377586463445492 0.1012031472030613 0 -0.45220474794483412 0.108057083654532 0 -0.44995500124220961 0.093342579547100568 0 -0.45220474794483412 0.108057083654532 0 -0.46195015705795328 0.094949789056798475 0 -0.47610237397241562 0.1026436662286353 0 -0.45220474794483412 0.108057083654532 0 -0.47610237397241562 0.1026436662286353 0 -0.45220474794483412 0.108057083654532 0 -0.46195015705795328 0.094949789056798475 0 -0.44995500124220961 0.093342579547100568 0 -0.45220474794483412 0.108057083654532 0 -0.47610237397241562 0.1026436662286353 0 -0.45843608092645732 0.12633510381475199 0 -0.43693601035488799 0.079760000830628036 0 -0.44101513436476431 0.069736496460777495 0 -0.4527970959190154 0.074127201970030573 0 -0.45064608883123108 0.062745164646347482 0 -0.44101513436476431 0.069736496460777495 0 -0.4527970959190154 0.074127201970030573 0 -0.43610742070094582 0.061883459938517703 0 -0.45064608883123108 0.062745164646347482 0 -0.44101513436476431 0.069736496460777495 0 -0.43693601035488799 0.079760000830628036 0 -0.44995500124220961 0.093342579547100568 0 -0.46092544450882322 0.082742876990483091 0 -0.43693601035488799 0.079760000830628036 0 -0.4527970959190154 0.074127201970030573 0 -0.46092544450882322 0.082742876990483091 0 -0.43693601035488799 0.079760000830628036 0 -0.4377586463445492 0.1012031472030613 0 -0.44995500124220961 0.093342579547100568 0 -0.43693601035488799 0.079760000830628036 0 -0.46092544450882322 0.082742876990483091 0 -0.4527970959190154 0.074127201970030573 0 -0.46092544450882322 0.082742876990483091 0 -0.46926814021420049 0.077586904662352602 0 -0.46195015705795328 0.094949789056798475 0 -0.44995500124220961 0.093342579547100568 0 -0.46092544450882322 0.082742876990483091 0 -0.46195015705795328 0.094949789056798475 0 -0.46092544450882322 0.082742876990483091 0 -0.47253930637962061 0.092399018622934911 0 -0.45064608883123108 0.062745164646347482 0 -0.4527970959190154 0.074127201970030573 0 -0.46926814021420049 0.077586904662352602 0 -0.45064608883123108 0.062745164646347482 0 -0.46422145196050257 0.065833350101212926 0 -0.46926814021420049 0.077586904662352602 0 -0.45064608883123108 0.062745164646347482 0 -0.46926814021420049 0.077586904662352602 0 -0.46125079601486541 0.055732765578423028 0 -0.46422145196050257 0.065833350101212926 0 -0.47572078278171359 0.067268565517728585 0 -0.47572078278171359 0.067268565517728585 0 -0.46926814021420049 0.077586904662352602 0 -0.48491487866275829 0.085725753150338146 0 -0.47572078278171359 0.067268565517728585 0 -0.49143058042731841 0.088879181258167655 0 -0.48814337240135602 0.059649550669604007 0 -0.47572078278171359 0.067268565517728585 0 -0.48882368390259712 0.070979943928572917 0 -0.46422145196050257 0.065833350101212926 0 -0.47572078278171359 0.067268565517728585 0 -0.46926814021420049 0.077586904662352602 0 -0.46092544450882322 0.082742876990483091 0 -0.48491487866275829 0.085725753150338146 0 -0.46092544450882322 0.082742876990483091 0 -0.47253930637962061 0.092399018622934911 0 -0.48491487866275829 0.085725753150338146 0 -0.46092544450882322 0.082742876990483091 0 -0.46926814021420049 0.077586904662352602 0 -0.48491487866275829 0.085725753150338146 0 -0.47572078278171359 0.067268565517728585 0 -0.49143058042731841 0.088879181258167655 0 -0.48491487866275829 0.085725753150338146 0 -0.47253930637962061 0.092399018622934911 0 -0.48499742788842259 0.093375573612563045 0 -0.48491487866275829 0.085725753150338146 0 -0.49143058042731841 0.088879181258167655 0 -0.5 0.06812247826879142 0 -0.49999999999999728 0.097230248802739214 0 -0.48499742788842259 0.093375573612563045 0 -0.49143058042731841 0.088879181258167655 0 -0.49999999999999728 0.097230248802739214 0 -0.48499742788842259 0.093375573612563045 0 -0.49143058042731841 0.088879181258167655 0 -0.48491487866275829 0.085725753150338146 0 -0.47572078278171359 0.067268565517728585 0 -0.49143058042731841 0.088879181258167655 0 -0.48882368390259712 0.070979943928572917 0 -0.49143058042731841 0.088879181258167655 0 -0.48882368390259712 0.070979943928572917 0 -0.5 0.06812247826879142 0 -0.48814337240135602 0.059649550669604007 0 -0.48882368390259712 0.070979943928572917 0 -0.5 0.06812247826879142 0 -0.47610237397241562 0.1026436662286353 0 -0.48974138692387142 0.10999969233449711 0 -0.48012970970485419 0.1251786662721954 0 -0.47610237397241562 0.1026436662286353 0 -0.48012970970485419 0.1251786662721954 0 -0.45843608092645732 0.12633510381475199 0 -0.46195015705795328 0.094949789056798475 0 -0.47253930637962061 0.092399018622934911 0 -0.47610237397241562 0.1026436662286353 0 -0.47253930637962061 0.092399018622934911 0 -0.48499742788842259 0.093375573612563045 0 -0.47610237397241562 0.1026436662286353 0 -0.47610237397241562 0.1026436662286353 0 -0.49999999999999728 0.097230248802739214 0 -0.48974138692387142 0.10999969233449711 0 -0.47610237397241562 0.1026436662286353 0 -0.49999999999999728 0.097230248802739214 0 -0.48499742788842259 0.093375573612563045 0 -0.47610237397241562 0.1026436662286353 0 -0.49999999999999728 0.097230248802739214 0 -0.5 0.1210260547985552 0 -0.48974138692387142 0.10999969233449711 0 -0.48012970970485419 0.1251786662721954 0 -0.49999999999999728 0.097230248802739214 0 -0.5 0.1210260547985552 0 -0.48974138692387142 0.10999969233449711 0 -0.5 0.1210260547985552 0 -0.48012970970485419 0.1251786662721954 0 -0.5 0.14482186079437109 0 -0.48012970970485419 0.1251786662721954 0 -0.47000010912251222 0.14659818255040069 0 -0.45843608092645732 0.12633510381475199 0 -0.48012970970485419 0.1251786662721954 0 -0.47000010912251222 0.14659818255040069 0 -0.5 0.14482186079437109 0 -0.47000010912251222 0.14659818255040069 0 -0.5 0.14482186079437109 0 -0.48658077037540992 0.1583772265863834 0 -0.49999999999999539 0.16861766679018711 0 -0.47632297237913218 0.17347119621057569 0 -0.48658077037540992 0.1583772265863834 0 -0.49999999999999539 0.16861766679018711 0 -0.47632297237913218 0.17347119621057569 0 -0.5 0.14482186079437109 0 -0.48658077037540992 0.1583772265863834 0 -0.49999999999999539 0.16861766679018711 0 -0.49999999999999539 0.16861766679018711 0 -0.48951353617944487 0.18017428598782179 0 -0.47632297237913218 0.17347119621057569 0 -0.49999999999999539 0.16861766679018711 0 -0.48951353617944487 0.18017428598782179 0 -0.499999999999998 0.1945780080454507 0 -0.48951353617944487 0.18017428598782179 0 -0.47632297237913351 0.1864513668382094 0 -0.499999999999998 0.1945780080454507 0 -0.48951353617944487 0.18017428598782179 0 -0.47632297237913218 0.17347119621057569 0 -0.47632297237913351 0.1864513668382094 0 -0.47000010912251222 0.14659818255040069 0 -0.48658077037540992 0.1583772265863834 0 -0.47632297237913218 0.17347119621057569 0 -0.47000010912251222 0.14659818255040069 0 -0.47632297237913218 0.17347119621057569 0 -0.45161568196236068 0.1599476317094993 0 -0.47632297237913218 0.17347119621057569 0 -0.45264594475826958 0.17832472563096641 0 -0.45161568196236068 0.1599476317094993 0 -0.47632297237913218 0.17347119621057569 0 -0.47632297237913351 0.1864513668382094 0 -0.45264594475826958 0.17832472563096641 0 -0.47632297237913218 0.17347119621057569 0 -0.45264594475826958 0.17832472563096641 0 -0.47632297237913351 0.1864513668382094 0 -0.45264594475826958 0.17832472563096641 0 -0.47632297237913351 0.1864513668382094 0 -0.45264594475826958 0.17832472563096641 0 -0.45692240362770498 0.19400540202767019 0 -0.45264594475826958 0.17832472563096641 0 -0.45692240362770498 0.19400540202767019 0 -0.44378297929592381 0.1892829068517414 0 -0.45264594475826958 0.17832472563096641 0 -0.42353635681615648 0.18429186997673469 0 -0.45264594475826958 0.17832472563096641 0 -0.44378297929592381 0.1892829068517414 0 -0.42353635681615648 0.18429186997673469 0 -0.45264594475826958 0.17832472563096641 0 -0.43951698921670579 0.1738184880735936 0 -0.42353635681615648 0.18429186997673469 0 -0.45264594475826958 0.17832472563096641 0 -0.43951698921670579 0.1738184880735936 0 -0.45264594475826958 0.17832472563096641 0 -0.43951698921670579 0.1738184880735936 0 -0.45161568196236068 0.1599476317094993 0 -0.43951698921670579 0.1738184880735936 0 -0.45161568196236068 0.1599476317094993 0 -0.43594471056287082 0.15849070963890929 0 -0.45161568196236068 0.1599476317094993 0 -0.44724012172962191 0.1420693349484326 0 -0.43594471056287082 0.15849070963890929 0 -0.43379705968379928 0.11720741137571231 0 -0.44724012172962191 0.1420693349484326 0 -0.45843608092645732 0.12633510381475199 0 -0.47000010912251222 0.14659818255040069 0 -0.44724012172962191 0.1420693349484326 0 -0.45843608092645732 0.12633510381475199 0 -0.47000010912251222 0.14659818255040069 0 -0.44724012172962191 0.1420693349484326 0 -0.47000010912251222 0.14659818255040069 0 -0.45161568196236068 0.1599476317094993 0 -0.44724012172962191 0.1420693349484326 0 -0.47447726860732281 0.2425408348387651 0 -0.49334191830805452 0.22920941358799379 0 -0.47447726860732281 0.2425408348387651 0 -0.47374788711224569 0.22555849317695961 0 -0.45851950381546092 0.2384094043769778 0 -0.47447726860732281 0.2425408348387651 0 -0.49064799907825551 0.24541031623696649 0 -0.49334191830805452 0.22920941358799379 0 -0.49064799907825551 0.24541031623696649 0 -0.49334191830805452 0.22920941358799379 0 -0.50000000000000044 0.23045000191331419 0 -0.49064799907825551 0.24541031623696649 0 -0.50000000000000044 0.23045000191331419 0 -0.5 0.25891092830523432 0 -0.49334191830805452 0.22920941358799379 0 -0.47374788711224569 0.22555849317695961 0 -0.48636138592829148 0.21226824177398601 0 -0.49334191830805452 0.22920941358799379 0 -0.4999999999999995 0.22450422726513641 0 -0.48636138592829148 0.21226824177398601 0 -0.49334191830805452 0.22920941358799379 0 -0.50000000000000044 0.23045000191331419 0 -0.49334191830805452 0.22920941358799379 0 -0.4999999999999995 0.22450422726513641 0 -0.49334191830805452 0.22920941358799379 0 -0.50000000000000044 0.23045000191331419 0 -0.4999999999999995 0.22450422726513641 0 -0.49334191830805452 0.22920941358799379 0 -0.47374788711224569 0.22555849317695961 0 -0.47447726860732281 0.2425408348387651 0 -0.49334191830805452 0.22920941358799379 0 -0.47374788711224569 0.22555849317695961 0 -0.47374788711224569 0.22555849317695961 0 -0.48636138592829148 0.21226824177398601 0 -0.46492261949089619 0.20678345105905721 0 -0.4999999999999995 0.22450422726513641 0 -0.48636138592829148 0.21226824177398601 0 -0.499999999999998 0.1945780080454507 0 -0.47632297237913351 0.1864513668382094 0 -0.48636138592829148 0.21226824177398601 0 -0.499999999999998 0.1945780080454507 0 -0.47632297237913351 0.1864513668382094 0 -0.499999999999998 0.1945780080454507 0 -0.47632297237913351 0.1864513668382094 0 -0.48636138592829148 0.21226824177398601 0 -0.46492261949089619 0.20678345105905721 0 -0.45692240362770498 0.19400540202767019 0 -0.44202721198156442 0.20050962977159351 0 -0.46492261949089619 0.20678345105905721 0 -0.47632297237913351 0.1864513668382094 0 -0.45692240362770498 0.19400540202767019 0 -0.46492261949089619 0.20678345105905721 0 -0.45692240362770498 0.19400540202767019 0 -0.44378297929592381 0.1892829068517414 0 -0.44202721198156442 0.20050962977159351 0 -0.44202721198156442 0.20050962977159351 0 -0.45415385591643709 0.2219075727659244 0 -0.43432884608895372 0.21419550452736991 0 -0.44202721198156442 0.20050962977159351 0 -0.46492261949089619 0.20678345105905721 0 -0.45415385591643709 0.2219075727659244 0 -0.47374788711224569 0.22555849317695961 0 -0.46492261949089619 0.20678345105905721 0 -0.45415385591643709 0.2219075727659244 0 -0.47374788711224569 0.22555849317695961 0 -0.45415385591643709 0.2219075727659244 0 -0.47374788711224569 0.22555849317695961 0 -0.45415385591643709 0.2219075727659244 0 -0.45851950381546092 0.2384094043769778 0 -0.45415385591643709 0.2219075727659244 0 -0.43500147261998812 0.22827381075590439 0 -0.43432884608895372 0.21419550452736991 0 -0.45415385591643709 0.2219075727659244 0 -0.44403847580073758 0.2413695972282863 0 -0.43500147261998812 0.22827381075590439 0 -0.45415385591643709 0.2219075727659244 0 -0.44403847580073758 0.2413695972282863 0 -0.45851950381546092 0.2384094043769778 0 -0.44403847580073758 0.2413695972282863 0 -0.45851950381546092 0.2384094043769778 0 -0.45561261890659149 0.25587225608953679 0 -0.47447726860732281 0.2425408348387651 0 -0.45851950381546092 0.2384094043769778 0 -0.45561261890659149 0.25587225608953679 0 -0.47447726860732281 0.2425408348387651 0 -0.45561261890659149 0.25587225608953679 0 -0.42439021277280509 0.24327012984636051 0 -0.40227725877715997 0.23457661140215261 0 -0.40247700742056552 0.25589640884073928 0 -0.44403847580073758 0.2413695972282863 0 -0.42439021277280509 0.24327012984636051 0 -0.43500147261998812 0.22827381075590439 0 -0.44403847580073758 0.2413695972282863 0 -0.42439021277280509 0.24327012984636051 0 -0.43882035718019102 0.25454715641466619 0 -0.43500147261998812 0.22827381075590439 0 -0.41641792130666572 0.21990131950279479 0 -0.43432884608895372 0.21419550452736991 0 -0.42439021277280509 0.24327012984636051 0 -0.43500147261998812 0.22827381075590439 0 -0.41641792130666572 0.21990131950279479 0 -0.42439021277280509 0.24327012984636051 0 -0.41641792130666572 0.21990131950279479 0 -0.40227725877715997 0.23457661140215261 0 -0.41641792130666572 0.21990131950279479 0 -0.42423488652785979 0.2021455884119937 0 -0.40673395535514151 0.20020877595641001 0 -0.44202721198156442 0.20050962977159351 0 -0.43432884608895372 0.21419550452736991 0 -0.42423488652785979 0.2021455884119937 0 -0.41641792130666572 0.21990131950279479 0 -0.43432884608895372 0.21419550452736991 0 -0.42423488652785979 0.2021455884119937 0 -0.44378297929592381 0.1892829068517414 0 -0.44202721198156442 0.20050962977159351 0 -0.42353635681615648 0.18429186997673469 0 -0.44202721198156442 0.20050962977159351 0 -0.42423488652785979 0.2021455884119937 0 -0.42353635681615648 0.18429186997673469 0 -0.40673395535514151 0.20020877595641001 0 -0.42353635681615648 0.18429186997673469 0 -0.40019706951786849 0.1828505171481403 0 -0.42423488652785979 0.2021455884119937 0 -0.40673395535514151 0.20020877595641001 0 -0.42353635681615648 0.18429186997673469 0 -0.40673395535514151 0.20020877595641001 0 -0.38769386842461367 0.1953352319019919 0 -0.40019706951786849 0.1828505171481403 0 -0.38769386842461367 0.1953352319019919 0 -0.38344385072308612 0.17575721794838711 0 -0.37207256931471377 0.19236091068885711 0 -0.38769386842461367 0.1953352319019919 0 -0.37217748153547597 0.2070202688423407 0 -0.37207256931471377 0.19236091068885711 0 -0.38769386842461367 0.1953352319019919 0 -0.39012121429713642 0.2171022448965077 0 -0.37217748153547597 0.2070202688423407 0 -0.40673395535514151 0.20020877595641001 0 -0.38769386842461367 0.1953352319019919 0 -0.39012121429713642 0.2171022448965077 0 -0.41641792130666572 0.21990131950279479 0 -0.40673395535514151 0.20020877595641001 0 -0.39012121429713642 0.2171022448965077 0 -0.39012121429713642 0.2171022448965077 0 -0.38187631374405367 0.24042569499881239 0 -0.40227725877715997 0.23457661140215261 0 -0.41641792130666572 0.21990131950279479 0 -0.39012121429713642 0.2171022448965077 0 -0.40227725877715997 0.23457661140215261 0 -0.39012121429713642 0.2171022448965077 0 -0.38187631374405367 0.24042569499881239 0 -0.36127562006754182 0.22495498115688539 0 -0.38187631374405367 0.24042569499881239 0 -0.40227725877715997 0.23457661140215261 0 -0.40247700742056552 0.25589640884073928 0 -0.38187631374405367 0.24042569499881239 0 -0.40247700742056552 0.25589640884073928 0 -0.40669649832468052 0.14986544644867009 0 -0.42448013433673171 0.13754048734646451 0 -0.41952522437656958 0.16111003384958111 0 -0.4122585496330175 0.1110583369523831 0 -0.42448013433673171 0.13754048734646451 0 -0.40172014694384123 0.13301163974449631 0 -0.40669649832468052 0.14986544644867009 0 -0.42448013433673171 0.13754048734646451 0 -0.40172014694384123 0.13301163974449631 0 -0.42448013433673171 0.13754048734646451 0 -0.40172014694384123 0.13301163974449631 0 -0.43379705968379928 0.11720741137571231 0 -0.44724012172962191 0.1420693349484326 0 -0.42448013433673171 0.13754048734646451 0 -0.44724012172962191 0.1420693349484326 0 -0.42448013433673171 0.13754048734646451 0 -0.44724012172962191 0.1420693349484326 0 -0.42448013433673171 0.13754048734646451 0 -0.43594471056287082 0.15849070963890929 0 -0.42448013433673171 0.13754048734646451 0 -0.43594471056287082 0.15849070963890929 0 -0.41952522437656958 0.16111003384958111 0 -0.43594471056287082 0.15849070963890929 0 -0.4268157154986093 0.17092511232184729 0 -0.41952522437656958 0.16111003384958111 0 -0.43951698921670579 0.1738184880735936 0 -0.43594471056287082 0.15849070963890929 0 -0.4268157154986093 0.17092511232184729 0 -0.43951698921670579 0.1738184880735936 0 -0.4268157154986093 0.17092511232184729 0 -0.42353635681615648 0.18429186997673469 0 -0.42353635681615648 0.18429186997673469 0 -0.41435424366800028 0.1731979899976975 0 -0.40019706951786849 0.1828505171481403 0 -0.4268157154986093 0.17092511232184729 0 -0.42353635681615648 0.18429186997673469 0 -0.41435424366800028 0.1731979899976975 0 -0.40669649832468052 0.14986544644867009 0 -0.41952522437656958 0.16111003384958111 0 -0.40109632570442622 0.1649541816558239 0 -0.41435424366800028 0.1731979899976975 0 -0.41952522437656958 0.16111003384958111 0 -0.40109632570442622 0.1649541816558239 0 -0.4268157154986093 0.17092511232184729 0 -0.41435424366800028 0.1731979899976975 0 -0.41952522437656958 0.16111003384958111 0 -0.41435424366800028 0.1731979899976975 0 -0.40109632570442622 0.1649541816558239 0 -0.40019706951786849 0.1828505171481403 0 -0.40109632570442622 0.1649541816558239 0 -0.40019706951786849 0.1828505171481403 0 -0.38344385072308612 0.17575721794838711 0 -0.38769386842461367 0.1953352319019919 0 -0.40019706951786849 0.1828505171481403 0 -0.38344385072308612 0.17575721794838711 0 -0.40109632570442622 0.1649541816558239 0 -0.38344385072308612 0.17575721794838711 0 -0.38666066026183382 0.15271088964698501 0 -0.38344385072308612 0.17575721794838711 0 -0.38666066026183382 0.15271088964698501 0 -0.36772813836090001 0.1693121064020548 0 -0.38666066026183382 0.15271088964698501 0 -0.37896015955095103 0.1284827921425275 0 -0.36412448949070408 0.1510532275831146 0 -0.40669649832468052 0.14986544644867009 0 -0.38666066026183382 0.15271088964698501 0 -0.40172014694384123 0.13301163974449631 0 -0.40669649832468052 0.14986544644867009 0 -0.40109632570442622 0.1649541816558239 0 -0.38666066026183382 0.15271088964698501 0 -0.40172014694384123 0.13301163974449631 0 -0.37896015955095103 0.1284827921425275 0 -0.38666066026183382 0.15271088964698501 0 -0.40172014694384123 0.13301163974449631 0 -0.37896015955095103 0.1284827921425275 0 -0.37896015955095103 0.1284827921425275 0 -0.36412448949070408 0.1510532275831146 0 -0.36020025229048142 0.1247498919636704 0 -0.37896015955095103 0.1284827921425275 0 -0.36412448949070408 0.1510532275831146 0 -0.37896015955095103 0.1284827921425275 0 -0.36020025229048142 0.1247498919636704 0 -0.34557193439162032 0.13066360682532371 0 -0.34877896208685061 0.1414053640817958 0 -0.36020025229048142 0.1247498919636704 0 -0.34557193439162032 0.13066360682532371 0 -0.36020025229048142 0.1247498919636704 0 -0.34144034503001203 0.12101699178481259 0 -0.34877896208685061 0.1414053640817958 0 -0.36412448949070408 0.1510532275831146 0 -0.36020025229048142 0.1247498919636704 0 -0.34877896208685061 0.1414053640817958 0 -0.34870502475856291 0.1566141305950017 0 -0.33591702633735482 0.15417787715551479 0 -0.34877896208685061 0.1414053640817958 0 -0.36412448949070408 0.1510532275831146 0 -0.34870502475856291 0.1566141305950017 0 -0.36412448949070408 0.1510532275831146 0 -0.36772813836090001 0.1693121064020548 0 -0.34928881943045742 0.1736236630237018 0 -0.38666066026183382 0.15271088964698501 0 -0.36412448949070408 0.1510532275831146 0 -0.36772813836090001 0.1693121064020548 0 -0.38344385072308612 0.17575721794838711 0 -0.3674684028152635 0.18096549487239691 0 -0.37207256931471377 0.19236091068885711 0 -0.38344385072308612 0.17575721794838711 0 -0.36772813836090001 0.1693121064020548 0 -0.3674684028152635 0.18096549487239691 0 -0.36772813836090001 0.1693121064020548 0 -0.3674684028152635 0.18096549487239691 0 -0.35662166058819661 0.18118577688018289 0 -0.3674684028152635 0.18096549487239691 0 -0.35662166058819661 0.18118577688018289 0 -0.36054602165626642 0.1907691609046259 0 -0.36772813836090001 0.1693121064020548 0 -0.35662166058819661 0.18118577688018289 0 -0.34928881943045742 0.1736236630237018 0 -0.34928881943045742 0.1736236630237018 0 -0.34670201154423969 0.18252152650651371 0 -0.33729337792135933 0.17816812864886061 0 -0.35662166058819661 0.18118577688018289 0 -0.34928881943045742 0.1736236630237018 0 -0.34670201154423969 0.18252152650651371 0 -0.35662166058819661 0.18118577688018289 0 -0.34670201154423969 0.18252152650651371 0 -0.35102386497128468 0.1907784564553863 0 -0.36412448949070408 0.1510532275831146 0 -0.34928881943045742 0.1736236630237018 0 -0.34870502475856291 0.1566141305950017 0 -0.36412448949070408 0.1510532275831146 0 -0.34928881943045742 0.1736236630237018 0 -0.34928881943045742 0.1736236630237018 0 -0.34870502475856291 0.1566141305950017 0 -0.34280106211193362 0.16564594985576969 0 -0.33729337792135933 0.17816812864886061 0 -0.32801314408152249 0.16763116332700459 0 -0.33591702633735482 0.15417787715551479 0 -0.34870502475856291 0.1566141305950017 0 -0.34280106211193362 0.16564594985576969 0 -0.33591702633735482 0.15417787715551479 0 -0.34280106211193362 0.16564594985576969 0 -0.33729337792135933 0.17816812864886061 0 -0.33591702633735482 0.15417787715551479 0 -0.33729337792135933 0.17816812864886061 0 -0.33591702633735482 0.15417787715551479 0 -0.32356241440041511 0.15942818661064109 0 -0.32801314408152249 0.16763116332700459 0 -0.33591702633735482 0.15417787715551479 0 -0.34670201154423969 0.18252152650651371 0 -0.33729337792135933 0.17816812864886061 0 -0.34508410136401979 0.19275274110389701 0 -0.34928881943045742 0.1736236630237018 0 -0.34280106211193362 0.16564594985576969 0 -0.33729337792135933 0.17816812864886061 0 -0.33729337792135933 0.17816812864886061 0 -0.32575094671805122 0.1769883509778738 0 -0.32801314408152249 0.16763116332700459 0 -0.33729337792135933 0.17816812864886061 0 -0.32575094671805122 0.1769883509778738 0 -0.32967779890463461 0.18889868651549999 0 -0.32268424341072421 0.1848199996112839 0 -0.32575094671805122 0.1769883509778738 0 -0.31361199271571372 0.17934928725575791 0 -0.32268424341072421 0.1848199996112839 0 -0.32575094671805122 0.1769883509778738 0 -0.32967779890463461 0.18889868651549999 0 -0.31361199271571372 0.17934928725575791 0 -0.31754195503043231 0.1693932732421328 0 -0.30716246533221692 0.1722660364950338 0 -0.32575094671805122 0.1769883509778738 0 -0.31361199271571372 0.17934928725575791 0 -0.31754195503043231 0.1693932732421328 0 -0.32268424341072421 0.1848199996112839 0 -0.31361199271571372 0.17934928725575791 0 -0.31627546856991129 0.1863618637032842 0 -0.32356241440041511 0.15942818661064109 0 -0.31754195503043231 0.1693932732421328 0 -0.30757746956494181 0.16068557759597371 0 -0.32356241440041511 0.15942818661064109 0 -0.32801314408152249 0.16763116332700459 0 -0.31754195503043231 0.1693932732421328 0 -0.32575094671805122 0.1769883509778738 0 -0.32801314408152249 0.16763116332700459 0 -0.31754195503043231 0.1693932732421328 0 -0.32356241440041511 0.15942818661064109 0 -0.30986644016612702 0.14401779921144919 0 -0.32356241440041511 0.15942818661064109 0 -0.30986644016612702 0.14401779921144919 0 -0.30757746956494181 0.16068557759597371 0 -0.32356241440041511 0.15942818661064109 0 -0.32102469143489593 0.14823111328987029 0 -0.30986644016612702 0.14401779921144919 0 -0.32356241440041511 0.15942818661064109 0 -0.32715757524371408 0.1512426006244996 0 -0.32102469143489593 0.14823111328987029 0 -0.32715757524371408 0.1512426006244996 0 -0.32102469143489593 0.14823111328987029 0 -0.32812616880219059 0.1431332254419721 0 -0.32102469143489593 0.14823111328987029 0 -0.32141508571432148 0.14154018608786831 0 -0.32812616880219059 0.1431332254419721 0 -0.32102469143489593 0.14823111328987029 0 -0.32141508571432148 0.14154018608786831 0 -0.31450679612129617 0.14177452565546761 0 -0.32102469143489593 0.14823111328987029 0 -0.31450679612129617 0.14177452565546761 0 -0.30986644016612702 0.14401779921144919 0 -0.31450679612129617 0.14177452565546761 0 -0.31259854715850532 0.13345721088612769 0 -0.31872843800157952 0.13700888038307901 0 -0.31259854715850532 0.13345721088612769 0 -0.31872843800157952 0.13700888038307901 0 -0.32193800295369512 0.12978799153469339 0 -0.32141508571432148 0.14154018608786831 0 -0.31450679612129617 0.14177452565546761 0 -0.31872843800157952 0.13700888038307901 0 -0.31259854715850532 0.13345721088612769 0 -0.32193800295369512 0.12978799153469339 0 -0.31587736471877748 0.1210314047646814 0 -0.32193800295369512 0.12978799153469339 0 -0.33454067475335009 0.13018762566216921 0 -0.32554922626672161 0.1196288395011136 0 -0.32193800295369512 0.12978799153469339 0 -0.32494967404502739 0.1363315818219564 0 -0.33454067475335009 0.13018762566216921 0 -0.32141508571432148 0.14154018608786831 0 -0.31872843800157952 0.13700888038307901 0 -0.32494967404502739 0.1363315818219564 0 -0.31872843800157952 0.13700888038307901 0 -0.32193800295369512 0.12978799153469339 0 -0.32494967404502739 0.1363315818219564 0 -0.32141508571432148 0.14154018608786831 0 -0.32494967404502739 0.1363315818219564 0 -0.32812616880219059 0.1431332254419721 0 -0.32494967404502739 0.1363315818219564 0 -0.33454067475335009 0.13018762566216921 0 -0.32812616880219059 0.1431332254419721 0 -0.34557193439162032 0.13066360682532371 0 -0.33454067475335009 0.13018762566216921 0 -0.34144034503001203 0.12101699178481259 0 -0.34557193439162032 0.13066360682532371 0 -0.34877896208685061 0.1414053640817958 0 -0.33454067475335009 0.13018762566216921 0 -0.34877896208685061 0.1414053640817958 0 -0.33454067475335009 0.13018762566216921 0 -0.33591702633735482 0.15417787715551479 0 -0.33454067475335009 0.13018762566216921 0 -0.33591702633735482 0.15417787715551479 0 -0.33454067475335009 0.13018762566216921 0 -0.33591702633735482 0.15417787715551479 0 -0.32812616880219059 0.1431332254419721 0 -0.32356241440041511 0.15942818661064109 0 -0.32715757524371408 0.1512426006244996 0 -0.33591702633735482 0.15417787715551479 0 -0.32715757524371408 0.1512426006244996 0 -0.33591702633735482 0.15417787715551479 0 -0.32812616880219059 0.1431332254419721 0 -0.38187631374405367 0.24042569499881239 0 -0.3554125885008616 0.24897555212601211 0 -0.36127562006754182 0.22495498115688539 0 -0.38187631374405367 0.24042569499881239 0 -0.3554125885008616 0.24897555212601211 0 -0.37919961842605698 0.26025373618631131 0 -0.38187631374405367 0.24042569499881239 0 -0.36127562006754182 0.22495498115688539 0 -0.36127562006754182 0.22495498115688539 0 -0.34067492639102998 0.20948426731495839 0 -0.33731750858119941 0.22799435842279289 0 -0.3554125885008616 0.24897555212601211 0 -0.36127562006754182 0.22495498115688539 0 -0.33731750858119941 0.22799435842279289 0 -0.36127562006754182 0.22495498115688539 0 -0.35578746387855947 0.2075469695216976 0 -0.34067492639102998 0.20948426731495839 0 -0.36127562006754182 0.22495498115688539 0 -0.34067492639102998 0.20948426731495839 0 -0.35578746387855947 0.2075469695216976 0 -0.34674668474342352 0.2022294151660986 0 -0.34067492639102998 0.20948426731495839 0 -0.36127562006754182 0.22495498115688539 0 -0.35578746387855947 0.2075469695216976 0 -0.37217748153547597 0.2070202688423407 0 -0.35578746387855947 0.2075469695216976 0 -0.37217748153547597 0.2070202688423407 0 -0.36257242966999598 0.20011960878319879 0 -0.39012121429713642 0.2171022448965077 0 -0.36127562006754182 0.22495498115688539 0 -0.37217748153547597 0.2070202688423407 0 -0.37217748153547597 0.2070202688423407 0 -0.36257242966999598 0.20011960878319879 0 -0.37207256931471377 0.19236091068885711 0 -0.3674684028152635 0.18096549487239691 0 -0.37207256931471377 0.19236091068885711 0 -0.36054602165626642 0.1907691609046259 0 -0.36257242966999598 0.20011960878319879 0 -0.37207256931471377 0.19236091068885711 0 -0.36054602165626642 0.1907691609046259 0 -0.35662166058819661 0.18118577688018289 0 -0.36054602165626642 0.1907691609046259 0 -0.35102386497128468 0.1907784564553863 0 -0.36054602165626642 0.1907691609046259 0 -0.35351720257814417 0.19920471774773379 0 -0.35102386497128468 0.1907784564553863 0 -0.35578746387855947 0.2075469695216976 0 -0.36257242966999598 0.20011960878319879 0 -0.35351720257814417 0.19920471774773379 0 -0.36257242966999598 0.20011960878319879 0 -0.36054602165626642 0.1907691609046259 0 -0.35351720257814417 0.19920471774773379 0 -0.35578746387855947 0.2075469695216976 0 -0.35351720257814417 0.19920471774773379 0 -0.34674668474342352 0.2022294151660986 0 -0.35351720257814417 0.19920471774773379 0 -0.34674668474342352 0.2022294151660986 0 -0.34508410136401979 0.19275274110389701 0 -0.35351720257814417 0.19920471774773379 0 -0.35102386497128468 0.1907784564553863 0 -0.34508410136401979 0.19275274110389701 0 -0.34670201154423969 0.18252152650651371 0 -0.35102386497128468 0.1907784564553863 0 -0.34508410136401979 0.19275274110389701 0 -0.33729337792135933 0.17816812864886061 0 -0.34508410136401979 0.19275274110389701 0 -0.33866972950536389 0.20215838014220641 0 -0.33729337792135933 0.17816812864886061 0 -0.33866972950536389 0.20215838014220641 0 -0.32967779890463461 0.18889868651549999 0 -0.33729337792135933 0.17816812864886061 0 -0.33866972950536389 0.20215838014220641 0 -0.34674668474342352 0.2022294151660986 0 -0.34508410136401979 0.19275274110389701 0 -0.33866972950536389 0.20215838014220641 0 -0.33866972950536389 0.20215838014220641 0 -0.32882910788335368 0.1996080194328313 0 -0.32967779890463461 0.18889868651549999 0 -0.32268424341072421 0.1848199996112839 0 -0.32430082827157047 0.1921361194756796 0 -0.31730619752693728 0.19348678527522051 0 -0.32882910788335368 0.1996080194328313 0 -0.32967779890463461 0.18889868651549999 0 -0.32430082827157047 0.1921361194756796 0 -0.32268424341072421 0.1848199996112839 0 -0.32967779890463461 0.18889868651549999 0 -0.32430082827157047 0.1921361194756796 0 -0.32268424341072421 0.1848199996112839 0 -0.31627546856991129 0.1863618637032842 0 -0.31730619752693728 0.19348678527522051 0 -0.31730619752693728 0.19348678527522051 0 -0.31049485411616079 0.19581755993819219 0 -0.31131754316377352 0.1908298876772542 0 -0.31627546856991129 0.1863618637032842 0 -0.31730619752693728 0.19348678527522051 0 -0.31131754316377352 0.1908298876772542 0 -0.31392620252807479 0.1995223487771372 0 -0.32005379918670368 0.2004020119884348 0 -0.31301796527733827 0.20597510045210751 0 -0.31730619752693728 0.19348678527522051 0 -0.31392620252807479 0.1995223487771372 0 -0.31049485411616079 0.19581755993819219 0 -0.31730619752693728 0.19348678527522051 0 -0.31392620252807479 0.1995223487771372 0 -0.32005379918670368 0.2004020119884348 0 -0.32882910788335368 0.1996080194328313 0 -0.32430082827157047 0.1921361194756796 0 -0.32005379918670368 0.2004020119884348 0 -0.32430082827157047 0.1921361194756796 0 -0.31730619752693728 0.19348678527522051 0 -0.32005379918670368 0.2004020119884348 0 -0.32882910788335368 0.1996080194328313 0 -0.32005379918670368 0.2004020119884348 0 -0.32166439818293707 0.21239119074078891 0 -0.32882910788335368 0.1996080194328313 0 -0.32166439818293707 0.21239119074078891 0 -0.33190441862893599 0.20853300970272129 0 -0.32005379918670368 0.2004020119884348 0 -0.31301796527733827 0.20597510045210751 0 -0.32166439818293707 0.21239119074078891 0 -0.31301796527733827 0.20597510045210751 0 -0.32166439818293707 0.21239119074078891 0 -0.3119794077241872 0.21480576757800801 0 -0.32166439818293707 0.21239119074078891 0 -0.3141070304565472 0.22239817562846889 0 -0.3119794077241872 0.21480576757800801 0 -0.32166439818293707 0.21239119074078891 0 -0.33075692377059418 0.2176978236147781 0 -0.33190441862893599 0.20853300970272129 0 -0.33075692377059418 0.2176978236147781 0 -0.33190441862893599 0.20853300970272129 0 -0.34067492639102998 0.20948426731495839 0 -0.33075692377059418 0.2176978236147781 0 -0.34067492639102998 0.20948426731495839 0 -0.33731750858119941 0.22799435842279289 0 -0.33866972950536389 0.20215838014220641 0 -0.32882910788335368 0.1996080194328313 0 -0.33190441862893599 0.20853300970272129 0 -0.34674668474342352 0.2022294151660986 0 -0.33866972950536389 0.20215838014220641 0 -0.34067492639102998 0.20948426731495839 0 -0.33866972950536389 0.20215838014220641 0 -0.33190441862893599 0.20853300970272129 0 -0.34067492639102998 0.20948426731495839 0 -0.33075692377059418 0.2176978236147781 0 -0.33731750858119941 0.22799435842279289 0 -0.32222336706886878 0.2300862918926288 0 -0.32166439818293707 0.21239119074078891 0 -0.3141070304565472 0.22239817562846889 0 -0.32222336706886878 0.2300862918926288 0 -0.32166439818293707 0.21239119074078891 0 -0.33075692377059418 0.2176978236147781 0 -0.32222336706886878 0.2300862918926288 0 -0.3141070304565472 0.22239817562846889 0 -0.32222336706886878 0.2300862918926288 0 -0.30862055088656049 0.23033769056104539 0 -0.32222336706886878 0.2300862918926288 0 -0.31286360140321379 0.24466892563627141 0 -0.3294926042732379 0.2526964133302923 0 -0.32222336706886878 0.2300862918926288 0 -0.31286360140321379 0.24466892563627141 0 -0.30862055088656049 0.23033769056104539 0 -0.33731750858119941 0.22799435842279289 0 -0.3294926042732379 0.2526964133302923 0 -0.33731750858119941 0.22799435842279289 0 -0.32222336706886878 0.2300862918926288 0 -0.3294926042732379 0.2526964133302923 0 -0.3554125885008616 0.24897555212601211 0 -0.33731750858119941 0.22799435842279289 0 -0.3294926042732379 0.2526964133302923 0 -0.28790514758079178 0.23940475410191789 0 -0.29821340231774618 0.23768143037533729 0 -0.29887917487103749 0.25839764686198657 0 -0.27609064977679698 0.23939682548618241 0 -0.29887917487103749 0.25839764686198657 0 -0.28790514758079178 0.23940475410191789 0 -0.27609064977679698 0.23939682548618241 0 -0.29887917487103749 0.25839764686198657 0 -0.28790514758079178 0.23940475410191789 0 -0.29821340231774618 0.23768143037533729 0 -0.28749080918584707 0.2304265809378428 0 -0.31286360140321379 0.24466892563627141 0 -0.29821340231774618 0.23768143037533729 0 -0.29887917487103749 0.25839764686198657 0 -0.31286360140321379 0.24466892563627141 0 -0.29821340231774618 0.23768143037533729 0 -0.30862055088656049 0.23033769056104539 0 -0.29821340231774618 0.23768143037533729 0 -0.30862055088656049 0.23033769056104539 0 -0.29630226475243648 0.2258422707024193 0 -0.3141070304565472 0.22239817562846889 0 -0.30862055088656049 0.23033769056104539 0 -0.3063136734387088 0.22090544811054491 0 -0.3141070304565472 0.22239817562846889 0 -0.3063136734387088 0.22090544811054491 0 -0.3119794077241872 0.21480576757800801 0 -0.30862055088656049 0.23033769056104539 0 -0.3063136734387088 0.22090544811054491 0 -0.29630226475243648 0.2258422707024193 0 -0.3063136734387088 0.22090544811054491 0 -0.29630226475243648 0.2258422707024193 0 -0.29931769170282202 0.21665246040815231 0 -0.29630226475243648 0.2258422707024193 0 -0.28802519718669611 0.2235374109044575 0 -0.29185148780124048 0.21841157776433659 0 -0.29630226475243648 0.2258422707024193 0 -0.29185148780124048 0.21841157776433659 0 -0.29931769170282202 0.21665246040815231 0 -0.29821340231774618 0.23768143037533729 0 -0.29630226475243648 0.2258422707024193 0 -0.28749080918584707 0.2304265809378428 0 -0.29630226475243648 0.2258422707024193 0 -0.28749080918584707 0.2304265809378428 0 -0.28802519718669611 0.2235374109044575 0 -0.28749080918584707 0.2304265809378428 0 -0.28206035359175019 0.225291994390486 0 -0.27885170175253099 0.23112128684824071 0 -0.28790514758079178 0.23940475410191789 0 -0.28749080918584707 0.2304265809378428 0 -0.27885170175253099 0.23112128684824071 0 -0.28206035359175019 0.225291994390486 0 -0.28802519718669611 0.2235374109044575 0 -0.28307662979690118 0.2174640183891762 0 -0.28802519718669611 0.2235374109044575 0 -0.28307662979690118 0.2174640183891762 0 -0.29185148780124048 0.21841157776433659 0 -0.28749080918584707 0.2304265809378428 0 -0.28206035359175019 0.225291994390486 0 -0.28802519718669611 0.2235374109044575 0 -0.28307662979690118 0.2174640183891762 0 -0.29065368456838359 0.2128641908673008 0 -0.29185148780124048 0.21841157776433659 0 -0.28307662979690118 0.2174640183891762 0 -0.28601654842855823 0.2099267295313158 0 -0.29065368456838359 0.2128641908673008 0 -0.28307662979690118 0.2174640183891762 0 -0.28601654842855823 0.2099267295313158 0 -0.28088022533290607 0.2118221761929508 0 -0.28254793852776727 0.20731650568411439 0 -0.28601654842855823 0.2099267295313158 0 -0.28088022533290607 0.2118221761929508 0 -0.28254793852776727 0.20731650568411439 0 -0.28596407149079889 0.20421369249041499 0 -0.28601654842855823 0.2099267295313158 0 -0.28254793852776727 0.20731650568411439 0 -0.28596407149079889 0.20421369249041499 0 -0.28110787373432172 0.20370924500684581 0 -0.28596407149079889 0.20421369249041499 0 -0.28601654842855823 0.2099267295313158 0 -0.29108250162681748 0.2070012349041018 0 -0.29108250162681748 0.2070012349041018 0 -0.29065368456838359 0.2128641908673008 0 -0.29697895636737948 0.20997308912577359 0 -0.28601654842855823 0.2099267295313158 0 -0.29108250162681748 0.2070012349041018 0 -0.29065368456838359 0.2128641908673008 0 -0.29108250162681748 0.2070012349041018 0 -0.29626679776982667 0.20364512718879091 0 -0.29061870254325611 0.20186601647715921 0 -0.28596407149079889 0.20421369249041499 0 -0.29108250162681748 0.2070012349041018 0 -0.29061870254325611 0.20186601647715921 0 -0.29108250162681748 0.2070012349041018 0 -0.29626679776982667 0.20364512718879091 0 -0.29697895636737948 0.20997308912577359 0 -0.29485987960987298 0.21442589294127981 0 -0.29065368456838359 0.2128641908673008 0 -0.29697895636737948 0.20997308912577359 0 -0.29485987960987298 0.21442589294127981 0 -0.29065368456838359 0.2128641908673008 0 -0.29185148780124048 0.21841157776433659 0 -0.29485987960987298 0.21442589294127981 0 -0.29185148780124048 0.21841157776433659 0 -0.29931769170282202 0.21665246040815231 0 -0.29931769170282202 0.21665246040815231 0 -0.30492709377466748 0.21062667832846571 0 -0.29697895636737948 0.20997308912577359 0 -0.3063136734387088 0.22090544811054491 0 -0.29931769170282202 0.21665246040815231 0 -0.30492709377466748 0.21062667832846571 0 -0.29485987960987298 0.21442589294127981 0 -0.29931769170282202 0.21665246040815231 0 -0.29697895636737948 0.20997308912577359 0 -0.3063136734387088 0.22090544811054491 0 -0.3119794077241872 0.21480576757800801 0 -0.30492709377466748 0.21062667832846571 0 -0.31301796527733827 0.20597510045210751 0 -0.30492709377466748 0.21062667832846571 0 -0.30715326666647708 0.20141240791660339 0 -0.31301796527733827 0.20597510045210751 0 -0.3119794077241872 0.21480576757800801 0 -0.30492709377466748 0.21062667832846571 0 -0.30492709377466748 0.21062667832846571 0 -0.30135816899766821 0.20489967839059769 0 -0.30715326666647708 0.20141240791660339 0 -0.30492709377466748 0.21062667832846571 0 -0.30135816899766821 0.20489967839059769 0 -0.29697895636737948 0.20997308912577359 0 -0.29626679776982667 0.20364512718879091 0 -0.30135816899766821 0.20489967839059769 0 -0.29697895636737948 0.20997308912577359 0 -0.29626679776982667 0.20364512718879091 0 -0.30068502110287548 0.19944285839432579 0 -0.29430825583774728 0.19626184290571361 0 -0.29626679776982667 0.20364512718879091 0 -0.30135816899766821 0.20489967839059769 0 -0.30068502110287548 0.19944285839432579 0 -0.30068502110287548 0.19944285839432579 0 -0.29938003170303318 0.19471729002988489 0 -0.29430825583774728 0.19626184290571361 0 -0.30068502110287548 0.19944285839432579 0 -0.30715326666647708 0.20141240791660339 0 -0.3044712412816194 0.19364457647832001 0 -0.30068502110287548 0.19944285839432579 0 -0.3044712412816194 0.19364457647832001 0 -0.29938003170303318 0.19471729002988489 0 -0.30135816899766821 0.20489967839059769 0 -0.30068502110287548 0.19944285839432579 0 -0.30715326666647708 0.20141240791660339 0 -0.30715326666647708 0.20141240791660339 0 -0.31049485411616079 0.19581755993819219 0 -0.3044712412816194 0.19364457647832001 0 -0.31392620252807479 0.1995223487771372 0 -0.30715326666647708 0.20141240791660339 0 -0.31049485411616079 0.19581755993819219 0 -0.31392620252807479 0.1995223487771372 0 -0.31301796527733827 0.20597510045210751 0 -0.30715326666647708 0.20141240791660339 0 -0.31627546856991129 0.1863618637032842 0 -0.31131754316377352 0.1908298876772542 0 -0.30732786858037692 0.1864117024209728 0 -0.31049485411616079 0.19581755993819219 0 -0.31131754316377352 0.1908298876772542 0 -0.3044712412816194 0.19364457647832001 0 -0.31131754316377352 0.1908298876772542 0 -0.3044712412816194 0.19364457647832001 0 -0.30732786858037692 0.1864117024209728 0 -0.3044712412816194 0.19364457647832001 0 -0.29805560858989072 0.18951988234118039 0 -0.30732786858037692 0.1864117024209728 0 -0.3044712412816194 0.19364457647832001 0 -0.29938003170303318 0.19471729002988489 0 -0.29805560858989072 0.18951988234118039 0 -0.29938003170303318 0.19471729002988489 0 -0.29805560858989072 0.18951988234118039 0 -0.29430825583774728 0.19626184290571361 0 -0.29805560858989072 0.18951988234118039 0 -0.29108433995541749 0.19123584206429781 0 -0.29342082641572348 0.18372036568780711 0 -0.29108433995541749 0.19123584206429781 0 -0.28756638094611642 0.18815142719241579 0 -0.29342082641572348 0.18372036568780711 0 -0.29108433995541749 0.19123584206429781 0 -0.29430825583774728 0.19626184290571361 0 -0.28909351079267032 0.19658531399819359 0 -0.29805560858989072 0.18951988234118039 0 -0.29108433995541749 0.19123584206429781 0 -0.29430825583774728 0.19626184290571361 0 -0.29626679776982667 0.20364512718879091 0 -0.29430825583774728 0.19626184290571361 0 -0.29061870254325611 0.20186601647715921 0 -0.29430825583774728 0.19626184290571361 0 -0.29061870254325611 0.20186601647715921 0 -0.28909351079267032 0.19658531399819359 0 -0.28536382454088 0.1969685410649841 0 -0.28703132534266951 0.19993691424177329 0 -0.28308059057274398 0.1996907132368628 0 -0.28909351079267032 0.19658531399819359 0 -0.28536382454088 0.1969685410649841 0 -0.28703132534266951 0.19993691424177329 0 -0.28909351079267032 0.19658531399819359 0 -0.28536382454088 0.1969685410649841 0 -0.2856366531495525 0.19306258026460779 0 -0.29061870254325611 0.20186601647715921 0 -0.28909351079267032 0.19658531399819359 0 -0.28703132534266951 0.19993691424177329 0 -0.28596407149079889 0.20421369249041499 0 -0.28703132534266951 0.19993691424177329 0 -0.28308059057274398 0.1996907132368628 0 -0.28596407149079889 0.20421369249041499 0 -0.29061870254325611 0.20186601647715921 0 -0.28703132534266951 0.19993691424177329 0 -0.28596407149079889 0.20421369249041499 0 -0.28308059057274398 0.1996907132368628 0 -0.28110787373432172 0.20370924500684581 0 -0.28536382454088 0.1969685410649841 0 -0.28174521570485489 0.19650225039494981 0 -0.28350301281769452 0.19522909475782879 0 -0.28536382454088 0.1969685410649841 0 -0.28308059057274398 0.1996907132368628 0 -0.28174521570485489 0.19650225039494981 0 -0.28308059057274398 0.1996907132368628 0 -0.28174521570485489 0.19650225039494981 0 -0.2796684314304701 0.19752982525731921 0 -0.28174521570485489 0.19650225039494981 0 -0.28143383194605792 0.19381928534622481 0 -0.28350301281769452 0.19522909475782879 0 -0.28143383194605792 0.19381928534622481 0 -0.28218472119569299 0.1901108990859775 0 -0.2856366531495525 0.19306258026460779 0 -0.28143383194605792 0.19381928534622481 0 -0.28350301281769452 0.19522909475782879 0 -0.2856366531495525 0.19306258026460779 0 -0.28536382454088 0.1969685410649841 0 -0.28350301281769452 0.19522909475782879 0 -0.2856366531495525 0.19306258026460779 0 -0.28218472119569299 0.1901108990859775 0 -0.28756638094611642 0.18815142719241579 0 -0.2856366531495525 0.19306258026460779 0 -0.29108433995541749 0.19123584206429781 0 -0.28756638094611642 0.18815142719241579 0 -0.2856366531495525 0.19306258026460779 0 -0.29108433995541749 0.19123584206429781 0 -0.28909351079267032 0.19658531399819359 0 -0.2856366531495525 0.19306258026460779 0 -0.28218472119569299 0.1901108990859775 0 -0.27859310494505002 0.19279850877259849 0 -0.28143383194605792 0.19381928534622481 0 -0.28218472119569299 0.1901108990859775 0 -0.27859310494505002 0.19279850877259849 0 -0.28143383194605792 0.19381928534622481 0 -0.27859310494505002 0.19279850877259849 0 -0.27983261800377468 0.19579783785484869 0 -0.27859310494505002 0.19279850877259849 0 -0.27983261800377468 0.19579783785484869 0 -0.27773374816021068 0.19750679320007589 0 -0.28174521570485489 0.19650225039494981 0 -0.28143383194605792 0.19381928534622481 0 -0.27983261800377468 0.19579783785484869 0 -0.27859310494505002 0.19279850877259849 0 -0.27773374816021068 0.19750679320007589 0 -0.27331439992817919 0.20165047680541551 0 -0.28174521570485489 0.19650225039494981 0 -0.27983261800377468 0.19579783785484869 0 -0.2796684314304701 0.19752982525731921 0 -0.28308059057274398 0.1996907132368628 0 -0.2796684314304701 0.19752982525731921 0 -0.27923009611107502 0.20021916064252721 0 -0.2796684314304701 0.19752982525731921 0 -0.27773374816021068 0.19750679320007589 0 -0.27923009611107502 0.20021916064252721 0 -0.27983261800377468 0.19579783785484869 0 -0.2796684314304701 0.19752982525731921 0 -0.27773374816021068 0.19750679320007589 0 -0.28308059057274398 0.1996907132368628 0 -0.27923009611107502 0.20021916064252721 0 -0.28110787373432172 0.20370924500684581 0 -0.27773374816021068 0.19750679320007589 0 -0.27923009611107502 0.20021916064252721 0 -0.27700096905613131 0.20063264950887 0 -0.27923009611107502 0.20021916064252721 0 -0.27700096905613131 0.20063264950887 0 -0.27728141136402218 0.20332476441630701 0 -0.27923009611107502 0.20021916064252721 0 -0.27728141136402218 0.20332476441630701 0 -0.28110787373432172 0.20370924500684581 0 -0.27700096905613131 0.20063264950887 0 -0.27331439992817919 0.20165047680541551 0 -0.27728141136402218 0.20332476441630701 0 -0.27773374816021068 0.19750679320007589 0 -0.27700096905613131 0.20063264950887 0 -0.27331439992817919 0.20165047680541551 0 -0.27859310494505002 0.19279850877259849 0 -0.26590760061502422 0.2022910831284882 0 -0.27859310494505002 0.19279850877259849 0 -0.27331439992817919 0.20165047680541551 0 -0.26590760061502422 0.2022910831284882 0 -0.27859310494505002 0.19279850877259849 0 -0.26590760061502422 0.2022910831284882 0 -0.26438205859084801 0.19076759858767839 0 -0.27859310494505002 0.19279850877259849 0 -0.26438205859084801 0.19076759858767839 0 -0.27063719824802679 0.18097008858263139 0 -0.25638736647765958 0.1955896659121171 0 -0.25322209628499892 0.2117836574843783 0 -0.24272611922733481 0.1892125248862366 0 -0.26438205859084801 0.19076759858767839 0 -0.25638736647765958 0.1955896659121171 0 -0.25569895767009237 0.1838934654738045 0 -0.25638736647765958 0.1955896659121171 0 -0.25569895767009237 0.1838934654738045 0 -0.24272611922733481 0.1892125248862366 0 -0.26590760061502422 0.2022910831284882 0 -0.26438205859084801 0.19076759858767839 0 -0.25638736647765958 0.1955896659121171 0 -0.26590760061502422 0.2022910831284882 0 -0.25322209628499892 0.2117836574843783 0 -0.26590760061502422 0.2022910831284882 0 -0.25638736647765958 0.1955896659121171 0 -0.25322209628499892 0.2117836574843783 0 -0.26590760061502422 0.2022910831284882 0 -0.26517920897308128 0.2107906891497191 0 -0.25322209628499892 0.2117836574843783 0 -0.25401448475267108 0.2134876536988059 0 -0.24810469829609649 0.22223529411510129 0 -0.24948170124813751 0.21458259847119859 0 -0.26517920897308128 0.2107906891497191 0 -0.25322209628499892 0.2117836574843783 0 -0.25401448475267108 0.2134876536988059 0 -0.25322209628499892 0.2117836574843783 0 -0.24948170124813751 0.21458259847119859 0 -0.25322209628499892 0.2117836574843783 0 -0.25401448475267108 0.2134876536988059 0 -0.24948170124813751 0.21458259847119859 0 -0.25401448475267108 0.2134876536988059 0 -0.24948170124813751 0.21458259847119859 0 -0.25322209628499892 0.2117836574843783 0 -0.25401448475267108 0.2134876536988059 0 -0.26517920897308128 0.2107906891497191 0 -0.25401448475267108 0.2134876536988059 0 -0.26233268971306012 0.21905990935467801 0 -0.26517920897308128 0.2107906891497191 0 -0.26812498202365892 0.22127516074548559 0 -0.26233268971306012 0.21905990935467801 0 -0.26517920897308128 0.2107906891497191 0 -0.25401448475267108 0.2134876536988059 0 -0.26517920897308128 0.2107906891497191 0 -0.27445044909936728 0.21426245273387201 0 -0.26812498202365892 0.22127516074548559 0 -0.26590760061502422 0.2022910831284882 0 -0.26517920897308128 0.2107906891497191 0 -0.2723775046683613 0.20705846282064039 0 -0.26517920897308128 0.2107906891497191 0 -0.2723775046683613 0.20705846282064039 0 -0.27445044909936728 0.21426245273387201 0 -0.27331439992817919 0.20165047680541551 0 -0.26590760061502422 0.2022910831284882 0 -0.2723775046683613 0.20705846282064039 0 -0.2723775046683613 0.20705846282064039 0 -0.2780989136784846 0.20766123059969421 0 -0.27445044909936728 0.21426245273387201 0 -0.2723775046683613 0.20705846282064039 0 -0.27728141136402218 0.20332476441630701 0 -0.2780989136784846 0.20766123059969421 0 -0.27331439992817919 0.20165047680541551 0 -0.2723775046683613 0.20705846282064039 0 -0.27728141136402218 0.20332476441630701 0 -0.27728141136402218 0.20332476441630701 0 -0.28110787373432172 0.20370924500684581 0 -0.2780989136784846 0.20766123059969421 0 -0.28254793852776727 0.20731650568411439 0 -0.28110787373432172 0.20370924500684581 0 -0.2780989136784846 0.20766123059969421 0 -0.28254793852776727 0.20731650568411439 0 -0.2780989136784846 0.20766123059969421 0 -0.28088022533290607 0.2118221761929508 0 -0.2780989136784846 0.20766123059969421 0 -0.28088022533290607 0.2118221761929508 0 -0.27445044909936728 0.21426245273387201 0 -0.28307662979690118 0.2174640183891762 0 -0.27445044909936728 0.21426245273387201 0 -0.2760041141713111 0.22270773565018531 0 -0.28307662979690118 0.2174640183891762 0 -0.28088022533290607 0.2118221761929508 0 -0.27445044909936728 0.21426245273387201 0 -0.28206035359175019 0.225291994390486 0 -0.2760041141713111 0.22270773565018531 0 -0.27885170175253099 0.23112128684824071 0 -0.28206035359175019 0.225291994390486 0 -0.28307662979690118 0.2174640183891762 0 -0.2760041141713111 0.22270773565018531 0 -0.2760041141713111 0.22270773565018531 0 -0.27885170175253099 0.23112128684824071 0 -0.27052930073670017 0.2330165774997312 0 -0.27052930073670017 0.2330165774997312 0 -0.26812498202365892 0.22127516074548559 0 -0.26201208310282992 0.2306861338247008 0 -0.2760041141713111 0.22270773565018531 0 -0.27052930073670017 0.2330165774997312 0 -0.26812498202365892 0.22127516074548559 0 -0.27445044909936728 0.21426245273387201 0 -0.2760041141713111 0.22270773565018531 0 -0.26812498202365892 0.22127516074548559 0 -0.25401448475267108 0.2134876536988059 0 -0.25282627616155218 0.22824145924833431 0 -0.26201208310282992 0.2306861338247008 0 -0.25401448475267108 0.2134876536988059 0 -0.26233268971306012 0.21905990935467801 0 -0.26201208310282992 0.2306861338247008 0 -0.25401448475267108 0.2134876536988059 0 -0.26201208310282992 0.2306861338247008 0 -0.26812498202365892 0.22127516074548559 0 -0.26233268971306012 0.21905990935467801 0 -0.26201208310282992 0.2306861338247008 0 -0.25401448475267108 0.2134876536988059 0 -0.25282627616155218 0.22824145924833431 0 -0.24810469829609649 0.22223529411510129 0 -0.25282627616155218 0.22824145924833431 0 -0.25434645180312648 0.24093369552766791 0 -0.2446743450976778 0.2310682814558202 0 -0.25282627616155218 0.22824145924833431 0 -0.26201208310282992 0.2306861338247008 0 -0.25434645180312648 0.24093369552766791 0 -0.26201208310282992 0.2306861338247008 0 -0.25434645180312648 0.24093369552766791 0 -0.27000968145299009 0.24788461395059511 0 -0.25434645180312648 0.24093369552766791 0 -0.27000968145299009 0.24788461395059511 0 -0.25573330318227427 0.25379713005068871 0 -0.25434645180312648 0.24093369552766791 0 -0.25573330318227427 0.25379713005068871 0 -0.2403333629437539 0.25252643582608031 0 -0.27000968145299009 0.24788461395059511 0 -0.27609064977679698 0.23939682548618241 0 -0.28239359962148058 0.25535305618607052 0 -0.26201208310282992 0.2306861338247008 0 -0.27000968145299009 0.24788461395059511 0 -0.27000968145299009 0.24788461395059511 0 -0.27155449449399871 0.24141807410893121 0 -0.27609064977679698 0.23939682548618241 0 -0.26201208310282992 0.2306861338247008 0 -0.27000968145299009 0.24788461395059511 0 -0.27155449449399871 0.24141807410893121 0 -0.27000968145299009 0.24788461395059511 0 -0.27155449449399871 0.24141807410893121 0 -0.27052930073670017 0.2330165774997312 0 -0.26201208310282992 0.2306861338247008 0 -0.27155449449399871 0.24141807410893121 0 -0.27052930073670017 0.2330165774997312 0 -0.27155449449399871 0.24141807410893121 0 -0.27609064977679698 0.23939682548618241 0 -0.27885170175253099 0.23112128684824071 0 -0.27052930073670017 0.2330165774997312 0 -0.27609064977679698 0.23939682548618241 0 -0.28790514758079178 0.23940475410191789 0 -0.27885170175253099 0.23112128684824071 0 -0.27609064977679698 0.23939682548618241 0 -0.28796146073429929 0.14065385611155851 0 -0.27913524156594322 0.15265118078408241 0 -0.27942263140414902 0.13136884409927019 0 -0.2944585486860421 0.15146639062225931 0 -0.27905065720595612 0.15891498203306709 0 -0.2944585486860421 0.15146639062225931 0 -0.28284443943694992 0.15218378011131839 0 -0.27905065720595612 0.15891498203306709 0 -0.28284443943694992 0.15218378011131839 0 -0.28796146073429929 0.14065385611155851 0 -0.27913524156594322 0.15265118078408241 0 -0.2944585486860421 0.15146639062225931 0 -0.28284443943694992 0.15218378011131839 0 -0.28796146073429929 0.14065385611155851 0 -0.28796146073429929 0.14065385611155851 0 -0.29478823070424132 0.12705215331295319 0 -0.27942263140414902 0.13136884409927019 0 -0.29478823070424132 0.12705215331295319 0 -0.30986644016612702 0.14401779921144919 0 -0.31259854715850532 0.13345721088612769 0 -0.29478823070424132 0.12705215331295319 0 -0.31587736471877748 0.1210314047646814 0 -0.28796146073429929 0.14065385611155851 0 -0.29478823070424132 0.12705215331295319 0 -0.30986644016612702 0.14401779921144919 0 -0.31259854715850532 0.13345721088612769 0 -0.29478823070424132 0.12705215331295319 0 -0.30986644016612702 0.14401779921144919 0 -0.31450679612129617 0.14177452565546761 0 -0.31259854715850532 0.13345721088612769 0 -0.30986644016612702 0.14401779921144919 0 -0.2944585486860421 0.15146639062225931 0 -0.28796146073429929 0.14065385611155851 0 -0.30986644016612702 0.14401779921144919 0 -0.31450679612129617 0.14177452565546761 0 -0.30986644016612702 0.14401779921144919 0 -0.2944585486860421 0.15146639062225931 0 -0.30986644016612702 0.14401779921144919 0 -0.30757746956494181 0.16068557759597371 0 -0.2944585486860421 0.15146639062225931 0 -0.30986644016612702 0.14401779921144919 0 -0.2944585486860421 0.15146639062225931 0 -0.30757746956494181 0.16068557759597371 0 -0.2956381177346068 0.17152148248939919 0 -0.31754195503043231 0.1693932732421328 0 -0.30757746956494181 0.16068557759597371 0 -0.30716246533221692 0.1722660364950338 0 -0.30757746956494181 0.16068557759597371 0 -0.30716246533221692 0.1722660364950338 0 -0.2956381177346068 0.17152148248939919 0 -0.31361199271571372 0.17934928725575791 0 -0.31627546856991129 0.1863618637032842 0 -0.30732786858037692 0.1864117024209728 0 -0.31361199271571372 0.17934928725575791 0 -0.30732786858037692 0.1864117024209728 0 -0.30144279161539 0.18038056189190521 0 -0.31361199271571372 0.17934928725575791 0 -0.30716246533221692 0.1722660364950338 0 -0.30144279161539 0.18038056189190521 0 -0.30716246533221692 0.1722660364950338 0 -0.30144279161539 0.18038056189190521 0 -0.2956381177346068 0.17152148248939919 0 -0.29805560858989072 0.18951988234118039 0 -0.30144279161539 0.18038056189190521 0 -0.29342082641572348 0.18372036568780711 0 -0.29805560858989072 0.18951988234118039 0 -0.30732786858037692 0.1864117024209728 0 -0.30144279161539 0.18038056189190521 0 -0.28756638094611642 0.18815142719241579 0 -0.29342082641572348 0.18372036568780711 0 -0.28673771965291989 0.18151299814764429 0 -0.29342082641572348 0.18372036568780711 0 -0.28673771965291989 0.18151299814764429 0 -0.2956381177346068 0.17152148248939919 0 -0.30144279161539 0.18038056189190521 0 -0.29342082641572348 0.18372036568780711 0 -0.2956381177346068 0.17152148248939919 0 -0.28673771965291989 0.18151299814764429 0 -0.2956381177346068 0.17152148248939919 0 -0.28562830442541137 0.16747623081279511 0 -0.28673771965291989 0.18151299814764429 0 -0.28562830442541137 0.16747623081279511 0 -0.27882188107550337 0.17585674540283289 0 -0.28218472119569299 0.1901108990859775 0 -0.28673771965291989 0.18151299814764429 0 -0.27882188107550337 0.17585674540283289 0 -0.28218472119569299 0.1901108990859775 0 -0.28756638094611642 0.18815142719241579 0 -0.28673771965291989 0.18151299814764429 0 -0.2944585486860421 0.15146639062225931 0 -0.28562830442541137 0.16747623081279511 0 -0.27905065720595612 0.15891498203306709 0 -0.2944585486860421 0.15146639062225931 0 -0.2956381177346068 0.17152148248939919 0 -0.28562830442541137 0.16747623081279511 0 -0.28562830442541137 0.16747623081279511 0 -0.27905065720595612 0.15891498203306709 0 -0.27882188107550337 0.17585674540283289 0 -0.27905065720595612 0.15891498203306709 0 -0.27128577986439889 0.1709822837717104 0 -0.27882188107550337 0.17585674540283289 0 -0.27905065720595612 0.15891498203306709 0 -0.27128577986439889 0.1709822837717104 0 -0.260919808365077 0.16767992466790779 0 -0.27905065720595612 0.15891498203306709 0 -0.260919808365077 0.16767992466790779 0 -0.27905065720595612 0.15891498203306709 0 -0.260919808365077 0.16767992466790779 0 -0.27913524156594322 0.15265118078408241 0 -0.27905065720595612 0.15891498203306709 0 -0.27882188107550337 0.17585674540283289 0 -0.27859310494505002 0.19279850877259849 0 -0.27882188107550337 0.17585674540283289 0 -0.28218472119569299 0.1901108990859775 0 -0.27859310494505002 0.19279850877259849 0 -0.27882188107550337 0.17585674540283289 0 -0.27859310494505002 0.19279850877259849 0 -0.27882188107550337 0.17585674540283289 0 -0.27063719824802679 0.18097008858263139 0 -0.27128577986439889 0.1709822837717104 0 -0.27882188107550337 0.17585674540283289 0 -0.27063719824802679 0.18097008858263139 0 -0.27128577986439889 0.1709822837717104 0 -0.27063719824802679 0.18097008858263139 0 -0.260919808365077 0.16767992466790779 0 -0.27063719824802679 0.18097008858263139 0 -0.260919808365077 0.16767992466790779 0 -0.25569895767009237 0.1838934654738045 0 -0.260919808365077 0.16767992466790779 0 -0.24258596318123651 0.17654300122448491 0 -0.260919808365077 0.16767992466790779 0 -0.24258596318123651 0.17654300122448491 0 -0.27063719824802679 0.18097008858263139 0 -0.25569895767009237 0.1838934654738045 0 -0.260919808365077 0.16767992466790779 0 -0.26438205859084801 0.19076759858767839 0 -0.27063719824802679 0.18097008858263139 0 -0.25569895767009237 0.1838934654738045 0 -0.260919808365077 0.16767992466790779 0 -0.25239495696369851 0.15602075756257661 0 -0.27913524156594322 0.15265118078408241 0 -0.260919808365077 0.16767992466790779 0 -0.25239495696369851 0.15602075756257661 0 -0.24288140288130969 0.1652394195396886 0 -0.260919808365077 0.16767992466790779 0 -0.25239495696369851 0.15602075756257661 0 -0.25239495696369851 0.15602075756257661 0 -0.27913524156594322 0.15265118078408241 0 -0.26103941903352063 0.13613969229754919 0 -0.25239495696369851 0.15602075756257661 0 -0.26103941903352063 0.13613969229754919 0 -0.23955908688756991 0.138465547845286 0 -0.27913524156594322 0.15265118078408241 0 -0.27942263140414902 0.13136884409927019 0 -0.25239495696369851 0.15602075756257661 0 -0.27913524156594322 0.15265118078408241 0 -0.28284443943694992 0.15218378011131839 0 -0.27905065720595612 0.15891498203306709 0 -0.27913524156594322 0.15265118078408241 0 -0.27905065720595612 0.15891498203306709 0 -0.27913524156594322 0.15265118078408241 0 -0.28284443943694992 0.15218378011131839 0 -0.27913524156594322 0.15265118078408241 0 -0.27913524156594322 0.15265118078408241 0 -0.27942263140414902 0.13136884409927019 0 -0.26103941903352063 0.13613969229754919 0 -0.27942263140414902 0.13136884409927019 0 -0.26103941903352063 0.13613969229754919 0 -0.26867676677036062 0.1204791394271104 0 -0.26103941903352063 0.13613969229754919 0 -0.25431849269875151 0.11675481381501419 0 -0.23955908688756991 0.138465547845286 0 -0.26103941903352063 0.13613969229754919 0 -0.25431849269875151 0.11675481381501419 0 -0.26867676677036062 0.1204791394271104 0 -0.25431849269875151 0.11675481381501419 0 -0.26400673551299708 0.10698247634083879 0 -0.26867676677036062 0.1204791394271104 0 -0.25431849269875151 0.11675481381501419 0 -0.26400673551299708 0.10698247634083879 0 -0.24486040053385399 0.09728867292445828 0 -0.26400673551299708 0.10698247634083879 0 -0.26392155373780329 0.092321695906884077 0 -0.24486040053385399 0.09728867292445828 0 -0.27971002124235489 0.110086507414458 0 -0.26392155373780329 0.092321695906884077 0 -0.26400673551299708 0.10698247634083879 0 -0.27971002124235489 0.110086507414458 0 -0.26392155373780329 0.092321695906884077 0 -0.27597990650539039 0.097059178876001226 0 -0.27971002124235489 0.110086507414458 0 -0.26392155373780329 0.092321695906884077 0 -0.27597990650539039 0.097059178876001226 0 -0.27971002124235489 0.110086507414458 0 -0.28141497103919172 0.1035780071290755 0 -0.27597990650539039 0.097059178876001226 0 -0.28141497103919172 0.1035780071290755 0 -0.28461920267540708 0.10051906889072321 0 -0.26400673551299708 0.10698247634083879 0 -0.26867676677036062 0.1204791394271104 0 -0.27971002124235489 0.110086507414458 0 -0.27942263140414902 0.13136884409927019 0 -0.27971002124235489 0.110086507414458 0 -0.27942263140414902 0.13136884409927019 0 -0.26867676677036062 0.1204791394271104 0 -0.27971002124235489 0.110086507414458 0 -0.29478823070424132 0.12705215331295319 0 -0.27971002124235489 0.110086507414458 0 -0.29094762354751641 0.1101584975921094 0 -0.29478823070424132 0.12705215331295319 0 -0.27942263140414902 0.13136884409927019 0 -0.27971002124235489 0.110086507414458 0 -0.29478823070424132 0.12705215331295319 0 -0.27971002124235489 0.110086507414458 0 -0.29478823070424132 0.12705215331295319 0 -0.29094762354751641 0.1101584975921094 0 -0.30372581748550531 0.1081583841059455 0 -0.28534234294302308 0.1072701251320909 0 -0.28461920267540708 0.10051906889072321 0 -0.2924800227322551 0.1012771616891668 0 -0.27971002124235489 0.110086507414458 0 -0.28141497103919172 0.1035780071290755 0 -0.28534234294302308 0.1072701251320909 0 -0.27971002124235489 0.110086507414458 0 -0.29094762354751641 0.1101584975921094 0 -0.28534234294302308 0.1072701251320909 0 -0.28141497103919172 0.1035780071290755 0 -0.28534234294302308 0.1072701251320909 0 -0.28461920267540708 0.10051906889072321 0 -0.27597990650539039 0.097059178876001226 0 -0.28461920267540708 0.10051906889072321 0 -0.28779714179825677 0.093030992500081955 0 -0.28461920267540708 0.10051906889072321 0 -0.2924800227322551 0.1012771616891668 0 -0.28779714179825677 0.093030992500081955 0 -0.2924800227322551 0.1012771616891668 0 -0.30076549088807342 0.094341196637032582 0 -0.28779714179825677 0.093030992500081955 0 -0.29094762354751641 0.1101584975921094 0 -0.2924800227322551 0.1012771616891668 0 -0.30372581748550531 0.1081583841059455 0 -0.29094762354751641 0.1101584975921094 0 -0.28534234294302308 0.1072701251320909 0 -0.2924800227322551 0.1012771616891668 0 -0.30372581748550531 0.1081583841059455 0 -0.30076549088807342 0.094341196637032582 0 -0.31716018756774772 0.098126257791855895 0 -0.2924800227322551 0.1012771616891668 0 -0.30372581748550531 0.1081583841059455 0 -0.30076549088807342 0.094341196637032582 0 -0.29478823070424132 0.12705215331295319 0 -0.30372581748550531 0.1081583841059455 0 -0.31587736471877748 0.1210314047646814 0 -0.30682441824030832 0.0666806675255701 0 -0.3080898539910733 0.084264673128074827 0 -0.29504781809809011 0.08219931038536607 0 -0.30682441824030832 0.0666806675255701 0 -0.3080898539910733 0.084264673128074827 0 -0.32162319818707419 0.080363250333988417 0 -0.30076549088807342 0.094341196637032582 0 -0.3080898539910733 0.084264673128074827 0 -0.31716018756774772 0.098126257791855895 0 -0.30076549088807342 0.094341196637032582 0 -0.3080898539910733 0.084264673128074827 0 -0.29504781809809011 0.08219931038536607 0 -0.30076549088807342 0.094341196637032582 0 -0.29504781809809011 0.08219931038536607 0 -0.28779714179825677 0.093030992500081955 0 -0.29504781809809011 0.08219931038536607 0 -0.28779714179825677 0.093030992500081955 0 -0.27970267287952949 0.083766698539365192 0 -0.29504781809809011 0.08219931038536607 0 -0.2883319664065162 0.070484816522744964 0 -0.27970267287952949 0.083766698539365192 0 -0.30682441824030832 0.0666806675255701 0 -0.2883319664065162 0.070484816522744964 0 -0.29344682328946098 0.056331672874456597 0 -0.2883319664065162 0.070484816522744964 0 -0.26853223556421868 0.067040131822223514 0 -0.29344682328946098 0.056331672874456597 0 -0.30682441824030832 0.0666806675255701 0 -0.29504781809809011 0.08219931038536607 0 -0.2883319664065162 0.070484816522744964 0 -0.2883319664065162 0.070484816522744964 0 -0.26853223556421868 0.067040131822223514 0 -0.27970267287952949 0.083766698539365192 0 -0.27597990650539039 0.097059178876001226 0 -0.27970267287952949 0.083766698539365192 0 -0.26392155373780329 0.092321695906884077 0 -0.26853223556421868 0.067040131822223514 0 -0.27970267287952949 0.083766698539365192 0 -0.26392155373780329 0.092321695906884077 0 -0.27597990650539039 0.097059178876001226 0 -0.28779714179825677 0.093030992500081955 0 -0.27970267287952949 0.083766698539365192 0 -0.26392155373780329 0.092321695906884077 0 -0.2481330862332515 0.074556884399310214 0 -0.26392155373780329 0.092321695906884077 0 -0.2481330862332515 0.074556884399310214 0 -0.24486040053385399 0.09728867292445828 0 -0.26853223556421868 0.067040131822223514 0 -0.26392155373780329 0.092321695906884077 0 -0.2481330862332515 0.074556884399310214 0 -0.26853223556421868 0.067040131822223514 0 -0.25500006484341747 0.043204281430432701 0 -0.2481330862332515 0.074556884399310214 0 -0.25500006484341747 0.043204281430432701 0 -0.27138384653644859 0.020192765618184411 0 -0.25500006484341747 0.043204281430432701 0 -0.25527686628807778 0.02750997201479416 0 -0.24512472134507179 0.03030916136016305 0 -0.25500006484341747 0.043204281430432701 0 -0.27138384653644859 0.020192765618184411 0 -0.28253549892731861 0.043859875774647443 0 -0.26853223556421868 0.067040131822223514 0 -0.28253549892731861 0.043859875774647443 0 -0.26853223556421868 0.067040131822223514 0 -0.25500006484341747 0.043204281430432701 0 -0.28253549892731861 0.043859875774647443 0 -0.26735024964930421 0.0082973299709941245 0 -0.24903051032540471 0.017338248873513078 0 -0.25539389772470811 0.0077930027856914557 0 -0.26735024964930421 0.0082973299709941245 0 -0.24903051032540471 0.017338248873513078 0 -0.2606333473149049 0.018866034403126081 0 -0.26735024964930421 0.0082973299709941245 0 -0.24903051032540471 0.017338248873513078 0 -0.2576939527910227 -0.0063643693398820061 0 -0.25539389772470811 0.0077930027856914557 0 -0.2445256289884763 0.010348959722194431 0 -0.2576939527910227 -0.0063643693398820061 0 -0.25539389772470811 0.0077930027856914557 0 -0.26735024964930421 0.0082973299709941245 0 -0.2606333473149049 0.018866034403126081 0 -0.25527686628807778 0.02750997201479416 0 -0.27138384653644859 0.020192765618184411 0 -0.25500006484341747 0.043204281430432701 0 -0.25527686628807778 0.02750997201479416 0 -0.27138384653644859 0.020192765618184411 0 -0.2606333473149049 0.018866034403126081 0 -0.25527686628807778 0.02750997201479416 0 -0.24903051032540471 0.017338248873513078 0 -0.2606333473149049 0.018866034403126081 0 -0.27138384653644859 0.020192765618184411 0 -0.26735024964930421 0.0082973299709941245 0 -0.27446539300758138 -0.0029427578754109558 0 -0.28776762822947971 -0.0028187501940638991 0 -0.26735024964930421 0.0082973299709941245 0 -0.28776762822947971 -0.0028187501940638991 0 -0.27138384653644859 0.020192765618184411 0 -0.26735024964930421 0.0082973299709941245 0 -0.28776762822947971 -0.0028187501940638991 0 -0.27138384653644859 0.020192765618184411 0 -0.28776762822947971 -0.0028187501940638991 0 -0.27138384653644859 0.020192765618184411 0 -0.29653876229041848 0.020679619727071361 0 -0.27138384653644859 0.020192765618184411 0 -0.29653876229041848 0.020679619727071361 0 -0.28253549892731861 0.043859875774647443 0 -0.29653876229041848 0.020679619727071361 0 -0.30910184279276631 0.04330265110407408 0 -0.3216034700690632 0.01946577696043689 0 -0.28776762822947971 -0.0028187501940638991 0 -0.31054202565351829 -0.0025006363205047209 0 -0.29653876229041848 0.020679619727071361 0 -0.31054202565351829 -0.0025006363205047209 0 -0.29653876229041848 0.020679619727071361 0 -0.31054202565351829 -0.0025006363205047209 0 -0.29653876229041848 0.020679619727071361 0 -0.3216034700690632 0.01946577696043689 0 -0.29344682328946098 0.056331672874456597 0 -0.28253549892731861 0.043859875774647443 0 -0.30910184279276631 0.04330265110407408 0 -0.26853223556421868 0.067040131822223514 0 -0.29344682328946098 0.056331672874456597 0 -0.28253549892731861 0.043859875774647443 0 -0.29653876229041848 0.020679619727071361 0 -0.28253549892731861 0.043859875774647443 0 -0.30910184279276631 0.04330265110407408 0 -0.29653876229041848 0.020679619727071361 0 -0.28253549892731861 0.043859875774647443 0 -0.30682441824030832 0.0666806675255701 0 -0.29344682328946098 0.056331672874456597 0 -0.30910184279276631 0.04330265110407408 0 -0.30682441824030832 0.0666806675255701 0 -0.30910184279276631 0.04330265110407408 0 -0.32857701630619868 0.058657768741621368 0 -0.30910184279276631 0.04330265110407408 0 -0.33418691042659632 0.037443176124714837 0 -0.3216034700690632 0.01946577696043689 0 -0.30910184279276631 0.04330265110407408 0 -0.33418691042659632 0.037443176124714837 0 -0.32857701630619868 0.058657768741621368 0 -0.32857701630619868 0.058657768741621368 0 -0.35465316475486702 0.054500626403032472 0 -0.34522553418960888 0.067088068783413946 0 -0.32857701630619868 0.058657768741621368 0 -0.35465316475486702 0.054500626403032472 0 -0.33418691042659632 0.037443176124714837 0 -0.32857701630619868 0.058657768741621368 0 -0.35465316475486702 0.054500626403032472 0 -0.33125007850564409 -0.001781861080926926 0 -0.3216034700690632 0.01946577696043689 0 -0.31054202565351829 -0.0025006363205047209 0 -0.33125007850564409 -0.001781861080926926 0 -0.3216034700690632 0.01946577696043689 0 -0.33418691042659632 0.037443176124714837 0 -0.3459142956169608 0.017558737576792102 0 -0.35093134729385222 0.035201812009593193 0 -0.33418691042659632 0.037443176124714837 0 -0.3216034700690632 0.01946577696043689 0 -0.3459142956169608 0.017558737576792102 0 -0.34428124783555708 -0.0096680492570138908 0 -0.33125007850564409 -0.001781861080926926 0 -0.3459142956169608 0.017558737576792102 0 -0.33125007850564409 -0.001781861080926926 0 -0.3216034700690632 0.01946577696043689 0 -0.3459142956169608 0.017558737576792102 0 -0.35693852131067599 -0.0020998210807934288 0 -0.34428124783555708 -0.0096680492570138908 0 -0.3459142956169608 0.017558737576792102 0 -0.35693852131067599 -0.0020998210807934288 0 -0.3459142956169608 0.017558737576792102 0 -0.36005742579790501 0.012972271666682061 0 -0.3459142956169608 0.017558737576792102 0 -0.3675656137451303 0.030636132569971521 0 -0.35093134729385222 0.035201812009593193 0 -0.3459142956169608 0.017558737576792102 0 -0.3675656137451303 0.030636132569971521 0 -0.36005742579790501 0.012972271666682061 0 -0.38216117601941069 0.02379971766962764 0 -0.3675656137451303 0.030636132569971521 0 -0.3725445469515854 0.0085658185073836553 0 -0.3675656137451303 0.030636132569971521 0 -0.36005742579790501 0.012972271666682061 0 -0.3725445469515854 0.0085658185073836553 0 -0.35693852131067599 -0.0020998210807934288 0 -0.36005742579790501 0.012972271666682061 0 -0.3725445469515854 0.0085658185073836553 0 -0.35465316475486702 0.054500626403032472 0 -0.36633601685439848 0.065331400377337506 0 -0.34522553418960888 0.067088068783413946 0 -0.33418691042659632 0.037443176124714837 0 -0.35465316475486702 0.054500626403032472 0 -0.35093134729385222 0.035201812009593193 0 -0.3675656137451303 0.030636132569971521 0 -0.35465316475486702 0.054500626403032472 0 -0.35093134729385222 0.035201812009593193 0 -0.38072931320353531 0.050343484064443569 0 -0.3675656137451303 0.030636132569971521 0 -0.35465316475486702 0.054500626403032472 0 -0.38072931320353531 0.050343484064443569 0 -0.35465316475486702 0.054500626403032472 0 -0.36633601685439848 0.065331400377337506 0 -0.38072931320353531 0.050343484064443569 0 -0.35465316475486702 0.054500626403032472 0 -0.36633601685439848 0.065331400377337506 0 -0.35580020850264588 0.079694523694291253 0 -0.37014909660451117 0.083461291629002385 0 -0.37770145906766273 0.072394702852334847 0 -0.36633601685439848 0.065331400377337506 0 -0.37014909660451117 0.083461291629002385 0 -0.37938689703417799 0.062375381925200167 0 -0.37770145906766273 0.072394702852334847 0 -0.36633601685439848 0.065331400377337506 0 -0.36633601685439848 0.065331400377337506 0 -0.34522553418960888 0.067088068783413946 0 -0.35580020850264588 0.079694523694291253 0 -0.34522553418960888 0.067088068783413946 0 -0.35580020850264588 0.079694523694291253 0 -0.33921831207791048 0.0816220705122951 0 -0.35580020850264588 0.079694523694291253 0 -0.34569442123550631 0.09361253114951501 0 -0.36189079811759761 0.095650115066706565 0 -0.35580020850264588 0.079694523694291253 0 -0.34569442123550631 0.09361253114951501 0 -0.33921831207791048 0.0816220705122951 0 -0.38026114572524838 0.095907286100309755 0 -0.37014909660451117 0.083461291629002385 0 -0.36189079811759761 0.095650115066706565 0 -0.35580020850264588 0.079694523694291253 0 -0.37014909660451117 0.083461291629002385 0 -0.36189079811759761 0.095650115066706565 0 -0.38026114572524838 0.095907286100309755 0 -0.36189079811759761 0.095650115066706565 0 -0.37207286889115748 0.1105755304398411 0 -0.36189079811759761 0.095650115066706565 0 -0.37207286889115748 0.1105755304398411 0 -0.36081200415582731 0.1095007974209756 0 -0.37896015955095103 0.1284827921425275 0 -0.37207286889115748 0.1105755304398411 0 -0.36020025229048142 0.1247498919636704 0 -0.37207286889115748 0.1105755304398411 0 -0.36081200415582731 0.1095007974209756 0 -0.36020025229048142 0.1247498919636704 0 -0.36020025229048142 0.1247498919636704 0 -0.34908409732407247 0.1070276522136842 0 -0.34144034503001203 0.12101699178481259 0 -0.36020025229048142 0.1247498919636704 0 -0.34144034503001203 0.12101699178481259 0 -0.36081200415582731 0.1095007974209756 0 -0.36020025229048142 0.1247498919636704 0 -0.34908409732407247 0.1070276522136842 0 -0.34569442123550631 0.09361253114951501 0 -0.36189079811759761 0.095650115066706565 0 -0.34908409732407247 0.1070276522136842 0 -0.36189079811759761 0.095650115066706565 0 -0.36081200415582731 0.1095007974209756 0 -0.34908409732407247 0.1070276522136842 0 -0.34569442123550631 0.09361253114951501 0 -0.34908409732407247 0.1070276522136842 0 -0.33316432316934558 0.10619737416882361 0 -0.34569442123550631 0.09361253114951501 0 -0.33316432316934558 0.10619737416882361 0 -0.33041702758217728 0.092520568855089885 0 -0.33454067475335009 0.13018762566216921 0 -0.33316432316934558 0.10619737416882361 0 -0.32554922626672161 0.1196288395011136 0 -0.33454067475335009 0.13018762566216921 0 -0.33316432316934558 0.10619737416882361 0 -0.33454067475335009 0.13018762566216921 0 -0.33316432316934558 0.10619737416882361 0 -0.34144034503001203 0.12101699178481259 0 -0.34908409732407247 0.1070276522136842 0 -0.33316432316934558 0.10619737416882361 0 -0.34144034503001203 0.12101699178481259 0 -0.30372581748550531 0.1081583841059455 0 -0.32141090164618091 0.1108587545955472 0 -0.31587736471877748 0.1210314047646814 0 -0.32193800295369512 0.12978799153469339 0 -0.32554922626672161 0.1196288395011136 0 -0.31587736471877748 0.1210314047646814 0 -0.33316432316934558 0.10619737416882361 0 -0.32554922626672161 0.1196288395011136 0 -0.32141090164618091 0.1108587545955472 0 -0.32554922626672161 0.1196288395011136 0 -0.32141090164618091 0.1108587545955472 0 -0.31587736471877748 0.1210314047646814 0 -0.33316432316934558 0.10619737416882361 0 -0.31716018756774772 0.098126257791855895 0 -0.33041702758217728 0.092520568855089885 0 -0.33316432316934558 0.10619737416882361 0 -0.32141090164618091 0.1108587545955472 0 -0.31716018756774772 0.098126257791855895 0 -0.30372581748550531 0.1081583841059455 0 -0.32141090164618091 0.1108587545955472 0 -0.31716018756774772 0.098126257791855895 0 -0.31716018756774772 0.098126257791855895 0 -0.32162319818707419 0.080363250333988417 0 -0.33041702758217728 0.092520568855089885 0 -0.3080898539910733 0.084264673128074827 0 -0.31716018756774772 0.098126257791855895 0 -0.32162319818707419 0.080363250333988417 0 -0.30682441824030832 0.0666806675255701 0 -0.32857701630619868 0.058657768741621368 0 -0.32162319818707419 0.080363250333988417 0 -0.32857701630619868 0.058657768741621368 0 -0.34522553418960888 0.067088068783413946 0 -0.33921831207791048 0.0816220705122951 0 -0.32857701630619868 0.058657768741621368 0 -0.32162319818707419 0.080363250333988417 0 -0.33921831207791048 0.0816220705122951 0 -0.32162319818707419 0.080363250333988417 0 -0.33921831207791048 0.0816220705122951 0 -0.33041702758217728 0.092520568855089885 0 -0.34569442123550631 0.09361253114951501 0 -0.33921831207791048 0.0816220705122951 0 -0.33041702758217728 0.092520568855089885 0 -0.39986225129717312 0.48576954243715842 0 -0.37700576899879262 0.47431545779746909 0 -0.39590281076842571 0.46710179467653062 0 -0.39986225129717312 0.48576954243715842 0 -0.39590281076842571 0.46710179467653062 0 -0.41141381197783239 0.47167029959991352 0 -0.40621034501350428 0.5 0 -0.39986225129717312 0.48576954243715842 0 -0.39049454544833462 0.500000000000001 0 -0.39049454544833462 0.500000000000001 0 -0.37700576899879262 0.47431545779746909 0 -0.3624884132034969 0.5 0 -0.39049454544833462 0.500000000000001 0 -0.37700576899879262 0.47431545779746909 0 -0.39986225129717312 0.48576954243715842 0 -0.39049454544833462 0.500000000000001 0 -0.37700576899879262 0.47431545779746909 0 -0.37700576899879262 0.47431545779746909 0 -0.38609806864343449 0.4507128333392123 0 -0.36351699254925102 0.44863091559493679 0 -0.37700576899879262 0.47431545779746909 0 -0.38609806864343449 0.4507128333392123 0 -0.39590281076842571 0.46710179467653062 0 -0.38609806864343449 0.4507128333392123 0 -0.37892990180826769 0.42544599407624589 0 -0.36351699254925102 0.44863091559493679 0 -0.38609806864343449 0.4507128333392123 0 -0.39816303579491458 0.43735830067989961 0 -0.37892990180826769 0.42544599407624589 0 -0.38609806864343449 0.4507128333392123 0 -0.40543409260332341 0.45276851139877888 0 -0.39816303579491458 0.43735830067989961 0 -0.40543409260332341 0.45276851139877888 0 -0.39590281076842571 0.46710179467653062 0 -0.41141381197783239 0.47167029959991352 0 -0.38609806864343449 0.4507128333392123 0 -0.40543409260332341 0.45276851139877888 0 -0.39590281076842571 0.46710179467653062 0 -0.40543409260332341 0.45276851139877888 0 -0.4232734971306702 0.45440655462361551 0 -0.41141381197783239 0.47167029959991352 0 -0.40543409260332341 0.45276851139877888 0 -0.4232734971306702 0.45440655462361551 0 -0.41566079041882709 0.43723267332949889 0 -0.40543409260332341 0.45276851139877888 0 -0.41566079041882709 0.43723267332949889 0 -0.39816303579491458 0.43735830067989961 0 -0.43280462097501821 0.43904952989927443 0 -0.4232734971306702 0.45440655462361551 0 -0.44314596993334759 0.45272402614653562 0 -0.43280462097501821 0.43904952989927443 0 -0.4232734971306702 0.45440655462361551 0 -0.41566079041882709 0.43723267332949889 0 -0.4232734971306702 0.45440655462361551 0 -0.43148163655410082 0.47272195855757099 0 -0.41141381197783239 0.47167029959991352 0 -0.4232734971306702 0.45440655462361551 0 -0.43148163655410082 0.47272195855757099 0 -0.44314596993334759 0.45272402614653562 0 -0.43148163655410082 0.47272195855757099 0 -0.41141381197783239 0.47167029959991352 0 -0.42192614457867389 0.50000000000000089 0 -0.40621034501350428 0.5 0 -0.39986225129717312 0.48576954243715842 0 -0.42192614457867389 0.50000000000000089 0 -0.39986225129717312 0.48576954243715842 0 -0.41141381197783239 0.47167029959991352 0 -0.42192614457867389 0.50000000000000089 0 -0.42192614457867389 0.50000000000000089 0 -0.44385535903519963 0.48774851094220489 0 -0.43148163655410082 0.47272195855757099 0 -0.42192614457867389 0.50000000000000089 0 -0.44385535903519963 0.48774851094220489 0 -0.5 0.5 0 -0.48771378794825021 0.46324553282661141 0 -0.5 0.41253493308047751 0 -0.42192614457867389 0.50000000000000089 0 -0.44385535903519963 0.48774851094220489 0 -0.5 0.5 0 -0.44385535903519963 0.48774851094220489 0 -0.44829448339793632 0.46924559594573362 0 -0.46578457349172492 0.47549702188440818 0 -0.43148163655410082 0.47272195855757099 0 -0.44385535903519963 0.48774851094220489 0 -0.44829448339793632 0.46924559594573362 0 -0.44385535903519963 0.48774851094220489 0 -0.46578457349172492 0.47549702188440818 0 -0.44385535903519963 0.48774851094220489 0 -0.46578457349172492 0.47549702188440818 0 -0.5 0.5 0 -0.46578457349172492 0.47549702188440818 0 -0.5 0.5 0 -0.48771378794825021 0.46324553282661141 0 -0.46578457349172492 0.47549702188440818 0 -0.48771378794825021 0.46324553282661141 0 -0.48771378794825021 0.46324553282661141 0 -0.47642495662598361 0.43840225553923451 0 -0.5 0.41253493308047751 0 -0.48771378794825021 0.46324553282661141 0 -0.47902189955327268 0.46203858022015187 0 -0.47642495662598361 0.43840225553923451 0 -0.46578457349172492 0.47549702188440818 0 -0.48771378794825021 0.46324553282661141 0 -0.47902189955327268 0.46203858022015187 0 -0.47902189955327268 0.46203858022015187 0 -0.47642495662598361 0.43840225553923451 0 -0.47902189955327268 0.46203858022015187 0 -0.47642495662598361 0.43840225553923451 0 -0.46114894142181528 0.45504553155486188 0 -0.47642495662598361 0.43840225553923451 0 -0.46114894142181528 0.45504553155486188 0 -0.45346348054929858 0.43262136478644592 0 -0.44829448339793632 0.46924559594573362 0 -0.46578457349172492 0.47549702188440818 0 -0.46114894142181528 0.45504553155486188 0 -0.46578457349172492 0.47549702188440818 0 -0.47902189955327268 0.46203858022015187 0 -0.46114894142181528 0.45504553155486188 0 -0.43148163655410082 0.47272195855757099 0 -0.44829448339793632 0.46924559594573362 0 -0.44314596993334759 0.45272402614653562 0 -0.44829448339793632 0.46924559594573362 0 -0.46114894142181528 0.45504553155486188 0 -0.44314596993334759 0.45272402614653562 0 -0.46114894142181528 0.45504553155486188 0 -0.44314596993334759 0.45272402614653562 0 -0.45346348054929858 0.43262136478644592 0 -0.43280462097501821 0.43904952989927443 0 -0.44314596993334759 0.45272402614653562 0 -0.45346348054929858 0.43262136478644592 0 -0.5 0.41253493308047751 0 -0.5 0.34647533553945659 0 -0.49460588049149218 0.37173703850713757 0 -0.43280462097501821 0.43904952989927443 0 -0.45346348054929858 0.43262136478644592 0 -0.43418421720301958 0.42186498427879893 0 -0.45270764398721208 0.40649729522809902 0 -0.43484382418718981 0.39829219981717973 0 -0.43418421720301958 0.42186498427879893 0 -0.45270764398721208 0.40649729522809902 0 -0.43418421720301958 0.42186498427879893 0 -0.45270764398721208 0.40649729522809902 0 -0.45346348054929858 0.43262136478644592 0 -0.43418421720301958 0.42186498427879893 0 -0.45270764398721208 0.40649729522809902 0 -0.45346348054929858 0.43262136478644592 0 -0.47382801369869448 0.41476593085831709 0 -0.47642495662598361 0.43840225553923451 0 -0.45346348054929858 0.43262136478644592 0 -0.47382801369869448 0.41476593085831709 0 -0.47642495662598361 0.43840225553923451 0 -0.47382801369869448 0.41476593085831709 0 -0.47642495662598361 0.43840225553923451 0 -0.47382801369869448 0.41476593085831709 0 -0.5 0.41253493308047751 0 -0.5 0.41253493308047751 0 -0.48291847563144841 0.38143332234226829 0 -0.49460588049149218 0.37173703850713757 0 -0.48291847563144841 0.38143332234226829 0 -0.49460588049149218 0.37173703850713757 0 -0.5 0.41253493308047751 0 -0.47123107077140503 0.39112960617739961 0 -0.48291847563144841 0.38143332234226829 0 -0.47382801369869448 0.41476593085831709 0 -0.5 0.41253493308047751 0 -0.47123107077140503 0.39112960617739961 0 -0.47382801369869448 0.41476593085831709 0 -0.47123107077140503 0.39112960617739961 0 -0.47123107077140503 0.39112960617739961 0 -0.48291847563144841 0.38143332234226829 0 -0.46876800730609541 0.36871179823714328 0 -0.47123107077140503 0.39112960617739961 0 -0.46876800730609541 0.36871179823714328 0 -0.47123107077140503 0.39112960617739961 0 -0.48291847563144841 0.38143332234226829 0 -0.47123107077140503 0.39112960617739961 0 -0.4603240821661328 0.38164332624746938 0 -0.46876800730609541 0.36871179823714328 0 -0.45270764398721208 0.40649729522809902 0 -0.47123107077140503 0.39112960617739961 0 -0.4603240821661328 0.38164332624746938 0 -0.45270764398721208 0.40649729522809902 0 -0.47382801369869448 0.41476593085831709 0 -0.47123107077140503 0.39112960617739961 0 -0.45270764398721208 0.40649729522809902 0 -0.47123107077140503 0.39112960617739961 0 -0.45270764398721208 0.40649729522809902 0 -0.4603240821661328 0.38164332624746938 0 -0.44627140549657568 0.38395449874633708 0 -0.45270764398721208 0.40649729522809902 0 -0.44627140549657568 0.38395449874633708 0 -0.43484382418718981 0.39829219981717973 0 -0.4603240821661328 0.38164332624746938 0 -0.44627140549657568 0.38395449874633708 0 -0.4477734850670807 0.36530856058659888 0 -0.44627140549657568 0.38395449874633708 0 -0.42967503693699349 0.37658101136888827 0 -0.4477734850670807 0.36530856058659888 0 -0.44627140549657568 0.38395449874633708 0 -0.42967503693699349 0.37658101136888827 0 -0.43484382418718981 0.39829219981717973 0 -0.42967503693699349 0.37658101136888827 0 -0.41957532106282891 0.39246608430450902 0 -0.43484382418718981 0.39829219981717973 0 -0.42967503693699349 0.37658101136888827 0 -0.41957532106282891 0.39246608430450902 0 -0.40018901500024129 0.37724982128280032 0 -0.41957532106282891 0.39246608430450902 0 -0.41943057780883097 0.41216651363971402 0 -0.40558138319727699 0.40223691688363872 0 -0.41957532106282891 0.39246608430450902 0 -0.40018901500024129 0.37724982128280032 0 -0.40558138319727699 0.40223691688363872 0 -0.41957532106282891 0.39246608430450902 0 -0.43484382418718981 0.39829219981717973 0 -0.41943057780883097 0.41216651363971402 0 -0.43484382418718981 0.39829219981717973 0 -0.43418421720301958 0.42186498427879893 0 -0.41943057780883097 0.41216651363971402 0 -0.43418421720301958 0.42186498427879893 0 -0.41566079041882709 0.43723267332949889 0 -0.43280462097501821 0.43904952989927443 0 -0.43418421720301958 0.42186498427879893 0 -0.41566079041882709 0.43723267332949889 0 -0.43418421720301958 0.42186498427879893 0 -0.41566079041882709 0.43723267332949889 0 -0.41943057780883097 0.41216651363971402 0 -0.41566079041882709 0.43723267332949889 0 -0.41943057780883097 0.41216651363971402 0 -0.40469232550072048 0.42063149125576138 0 -0.41943057780883097 0.41216651363971402 0 -0.40469232550072048 0.42063149125576138 0 -0.40558138319727699 0.40223691688363872 0 -0.40469232550072048 0.42063149125576138 0 -0.38863825651012679 0.3997975831581646 0 -0.40558138319727699 0.40223691688363872 0 -0.40469232550072048 0.42063149125576138 0 -0.37892990180826769 0.42544599407624589 0 -0.38863825651012679 0.3997975831581646 0 -0.40469232550072048 0.42063149125576138 0 -0.38863825651012679 0.3997975831581646 0 -0.41566079041882709 0.43723267332949889 0 -0.40469232550072048 0.42063149125576138 0 -0.39816303579491458 0.43735830067989961 0 -0.40469232550072048 0.42063149125576138 0 -0.39816303579491458 0.43735830067989961 0 -0.37892990180826769 0.42544599407624589 0 -0.37892990180826769 0.42544599407624589 0 -0.38863825651012679 0.3997975831581646 0 -0.36132073023686623 0.40027523519142449 0 -0.38863825651012679 0.3997975831581646 0 -0.37258418751953309 0.37896367506056777 0 -0.38863825651012679 0.3997975831581646 0 -0.40018901500024129 0.37724982128280032 0 -0.37258418751953309 0.37896367506056777 0 -0.38863825651012679 0.3997975831581646 0 -0.40018901500024129 0.37724982128280032 0 -0.40558138319727699 0.40223691688363872 0 -0.40468364324091549 0.34726412667598899 0 -0.38360711287914778 0.3558371797702411 0 -0.3955103916708923 0.33243917719524041 0 -0.40018901500024129 0.37724982128280032 0 -0.40468364324091549 0.34726412667598899 0 -0.38360711287914778 0.3558371797702411 0 -0.40018901500024129 0.37724982128280032 0 -0.38360711287914778 0.3558371797702411 0 -0.37258418751953309 0.37896367506056777 0 -0.38648696609771971 0.31752256020615388 0 -0.3955103916708923 0.33243917719524041 0 -0.37374151024937458 0.33881329102359292 0 -0.38360711287914778 0.3558371797702411 0 -0.3955103916708923 0.33243917719524041 0 -0.37374151024937458 0.33881329102359292 0 -0.38648696609771971 0.31752256020615388 0 -0.3955103916708923 0.33243917719524041 0 -0.40306168134321979 0.30656036055952152 0 -0.3955103916708923 0.33243917719524041 0 -0.41246717224181739 0.32836957736888051 0 -0.40306168134321979 0.30656036055952152 0 -0.40468364324091549 0.34726412667598899 0 -0.3955103916708923 0.33243917719524041 0 -0.41246717224181739 0.32836957736888051 0 -0.40468364324091549 0.34726412667598899 0 -0.42165679234549608 0.3411750553318969 0 -0.41246717224181739 0.32836957736888051 0 -0.42165679234549608 0.3411750553318969 0 -0.41246717224181739 0.32836957736888051 0 -0.43024226198933879 0.32801586013881762 0 -0.41246717224181739 0.32836957736888051 0 -0.42213728548393248 0.31233905218371683 0 -0.40306168134321979 0.30656036055952152 0 -0.41246717224181739 0.32836957736888051 0 -0.43024226198933879 0.32801586013881762 0 -0.42213728548393248 0.31233905218371683 0 -0.43024226198933879 0.32801586013881762 0 -0.43623524091661259 0.31474163070600841 0 -0.42213728548393248 0.31233905218371683 0 -0.42165679234549608 0.3411750553318969 0 -0.43024226198933879 0.32801586013881762 0 -0.43947085616549558 0.34375080925719598 0 -0.42142002808991319 0.35847490321860159 0 -0.4477734850670807 0.36530856058659888 0 -0.43947085616549558 0.34375080925719598 0 -0.42165679234549608 0.3411750553318969 0 -0.42142002808991319 0.35847490321860159 0 -0.43947085616549558 0.34375080925719598 0 -0.40468364324091549 0.34726412667598899 0 -0.42165679234549608 0.3411750553318969 0 -0.42142002808991319 0.35847490321860159 0 -0.40018901500024129 0.37724982128280032 0 -0.40468364324091549 0.34726412667598899 0 -0.42142002808991319 0.35847490321860159 0 -0.42967503693699349 0.37658101136888827 0 -0.40018901500024129 0.37724982128280032 0 -0.42142002808991319 0.35847490321860159 0 -0.42967503693699349 0.37658101136888827 0 -0.42142002808991319 0.35847490321860159 0 -0.4477734850670807 0.36530856058659888 0 -0.4477734850670807 0.36530856058659888 0 -0.43947085616549558 0.34375080925719598 0 -0.46630494384078541 0.34629399029688679 0 -0.46630494384078541 0.34629399029688679 0 -0.46876800730609541 0.36871179823714328 0 -0.4603240821661328 0.38164332624746938 0 -0.4477734850670807 0.36530856058659888 0 -0.46876800730609541 0.36871179823714328 0 -0.4477734850670807 0.36530856058659888 0 -0.46630494384078541 0.34629399029688679 0 -0.46876800730609541 0.36871179823714328 0 -0.48291847563144841 0.38143332234226829 0 -0.46876800730609541 0.36871179823714328 0 -0.48254861298954738 0.35713127289142571 0 -0.46630494384078541 0.34629399029688679 0 -0.48254861298954738 0.35713127289142571 0 -0.4826943706674634 0.32813615242566158 0 -0.46630494384078541 0.34629399029688679 0 -0.46876800730609541 0.36871179823714328 0 -0.48254861298954738 0.35713127289142571 0 -0.48254861298954738 0.35713127289142571 0 -0.5 0.34647533553945659 0 -0.49460588049149218 0.37173703850713757 0 -0.48254861298954738 0.35713127289142571 0 -0.5 0.34647533553945659 0 -0.4826943706674634 0.32813615242566158 0 -0.48291847563144841 0.38143332234226829 0 -0.48254861298954738 0.35713127289142571 0 -0.49460588049149218 0.37173703850713757 0 -0.5 0.34647533553945659 0 -0.4826943706674634 0.32813615242566158 0 -0.5 0.29658807596794778 0 -0.46630494384078541 0.34629399029688679 0 -0.4826943706674634 0.32813615242566158 0 -0.46590983616854842 0.31766956206742741 0 -0.4826943706674634 0.32813615242566158 0 -0.46590983616854842 0.31766956206742741 0 -0.47978250273268541 0.30667224430713308 0 -0.46590983616854842 0.31766956206742741 0 -0.44792802344400251 0.32611581280982199 0 -0.45056286988985772 0.30625658190913219 0 -0.46630494384078541 0.34629399029688679 0 -0.46590983616854842 0.31766956206742741 0 -0.44792802344400251 0.32611581280982199 0 -0.43024226198933879 0.32801586013881762 0 -0.43947085616549558 0.34375080925719598 0 -0.44792802344400251 0.32611581280982199 0 -0.43947085616549558 0.34375080925719598 0 -0.46630494384078541 0.34629399029688679 0 -0.44792802344400251 0.32611581280982199 0 -0.43623524091661259 0.31474163070600841 0 -0.44792802344400251 0.32611581280982199 0 -0.45056286988985772 0.30625658190913219 0 -0.43024226198933879 0.32801586013881762 0 -0.43623524091661259 0.31474163070600841 0 -0.44792802344400251 0.32611581280982199 0 -0.45056286988985772 0.30625658190913219 0 -0.44550596706133039 0.29129670748864012 0 -0.43431187281599543 0.30072636462513341 0 -0.43623524091661259 0.31474163070600841 0 -0.45056286988985772 0.30625658190913219 0 -0.43431187281599543 0.30072636462513341 0 -0.44550596706133039 0.29129670748864012 0 -0.4518913548515669 0.27609154757306081 0 -0.43172219513170229 0.28401750811964982 0 -0.44550596706133039 0.29129670748864012 0 -0.46472825936352319 0.29131671248278868 0 -0.4518913548515669 0.27609154757306081 0 -0.45056286988985772 0.30625658190913219 0 -0.44550596706133039 0.29129670748864012 0 -0.46472825936352319 0.29131671248278868 0 -0.46590983616854842 0.31766956206742741 0 -0.45056286988985772 0.30625658190913219 0 -0.46472825936352319 0.29131671248278868 0 -0.46472825936352319 0.29131671248278868 0 -0.5 0.29658807596794778 0 -0.47697639328088309 0.26679583958107211 0 -0.46472825936352319 0.29131671248278868 0 -0.5 0.29658807596794778 0 -0.47978250273268541 0.30667224430713308 0 -0.4826943706674634 0.32813615242566158 0 -0.5 0.29658807596794778 0 -0.47978250273268541 0.30667224430713308 0 -0.46590983616854842 0.31766956206742741 0 -0.46472825936352319 0.29131671248278868 0 -0.47978250273268541 0.30667224430713308 0 -0.5 0.29658807596794778 0 -0.5 0.25891092830523432 0 -0.47697639328088309 0.26679583958107211 0 -0.49064799907825551 0.24541031623696649 0 -0.5 0.25891092830523432 0 -0.47697639328088309 0.26679583958107211 0 -0.47447726860732281 0.2425408348387651 0 -0.49064799907825551 0.24541031623696649 0 -0.47697639328088309 0.26679583958107211 0 -0.47447726860732281 0.2425408348387651 0 -0.47697639328088309 0.26679583958107211 0 -0.45561261890659149 0.25587225608953679 0 -0.47697639328088309 0.26679583958107211 0 -0.45561261890659149 0.25587225608953679 0 -0.4518913548515669 0.27609154757306081 0 -0.46472825936352319 0.29131671248278868 0 -0.47697639328088309 0.26679583958107211 0 -0.4518913548515669 0.27609154757306081 0 -0.45561261890659149 0.25587225608953679 0 -0.4518913548515669 0.27609154757306081 0 -0.43674796920586018 0.26920367734030859 0 -0.4518913548515669 0.27609154757306081 0 -0.43674796920586018 0.26920367734030859 0 -0.43172219513170229 0.28401750811964982 0 -0.45561261890659149 0.25587225608953679 0 -0.43882035718019102 0.25454715641466619 0 -0.43674796920586018 0.26920367734030859 0 -0.44403847580073758 0.2413695972282863 0 -0.45561261890659149 0.25587225608953679 0 -0.43882035718019102 0.25454715641466619 0 -0.45561261890659149 0.25587225608953679 0 -0.43674796920586018 0.26920367734030859 0 -0.42439021277280509 0.24327012984636051 0 -0.43882035718019102 0.25454715641466619 0 -0.42813857918343329 0.25907432187525581 0 -0.43882035718019102 0.25454715641466619 0 -0.42813857918343329 0.25907432187525581 0 -0.43674796920586018 0.26920367734030859 0 -0.42439021277280509 0.24327012984636051 0 -0.42813857918343329 0.25907432187525581 0 -0.40247700742056552 0.25589640884073928 0 -0.42307770109707737 0.27136712268266627 0 -0.40247700742056552 0.25589640884073928 0 -0.42813857918343329 0.25907432187525581 0 -0.42307770109707737 0.27136712268266627 0 -0.40247700742056552 0.25589640884073928 0 -0.42307770109707737 0.27136712268266627 0 -0.40247700742056552 0.25589640884073928 0 -0.39854717586770161 0.2727852934416885 0 -0.42307770109707737 0.27136712268266627 0 -0.41285714898685139 0.28378305990726399 0 -0.39854717586770161 0.2727852934416885 0 -0.42307770109707737 0.27136712268266627 0 -0.43172219513170229 0.28401750811964982 0 -0.41285714898685139 0.28378305990726399 0 -0.42813857918343329 0.25907432187525581 0 -0.42307770109707737 0.27136712268266627 0 -0.43674796920586018 0.26920367734030859 0 -0.42307770109707737 0.27136712268266627 0 -0.43674796920586018 0.26920367734030859 0 -0.43172219513170229 0.28401750811964982 0 -0.43172219513170229 0.28401750811964982 0 -0.43431187281599543 0.30072636462513341 0 -0.41970767841253698 0.29570670734365351 0 -0.44550596706133039 0.29129670748864012 0 -0.43172219513170229 0.28401750811964982 0 -0.43431187281599543 0.30072636462513341 0 -0.43431187281599543 0.30072636462513341 0 -0.42213728548393248 0.31233905218371683 0 -0.41970767841253698 0.29570670734365351 0 -0.43623524091661259 0.31474163070600841 0 -0.43431187281599543 0.30072636462513341 0 -0.42213728548393248 0.31233905218371683 0 -0.42213728548393248 0.31233905218371683 0 -0.41970767841253698 0.29570670734365351 0 -0.40306168134321979 0.30656036055952152 0 -0.41970767841253698 0.29570670734365351 0 -0.40731750099884079 0.29399118181060852 0 -0.40306168134321979 0.30656036055952152 0 -0.43172219513170229 0.28401750811964982 0 -0.41970767841253698 0.29570670734365351 0 -0.41285714898685139 0.28378305990726399 0 -0.41970767841253698 0.29570670734365351 0 -0.40731750099884079 0.29399118181060852 0 -0.41285714898685139 0.28378305990726399 0 -0.41285714898685139 0.28378305990726399 0 -0.39643381492854479 0.28782637023841667 0 -0.39854717586770161 0.2727852934416885 0 -0.40731750099884079 0.29399118181060852 0 -0.41285714898685139 0.28378305990726399 0 -0.39643381492854479 0.28782637023841667 0 -0.40731750099884079 0.29399118181060852 0 -0.39643381492854479 0.28782637023841667 0 -0.40306168134321979 0.30656036055952152 0 -0.39643381492854479 0.28782637023841667 0 -0.40306168134321979 0.30656036055952152 0 -0.38345800972284871 0.30062535711326249 0 -0.38648696609771971 0.31752256020615388 0 -0.40306168134321979 0.30656036055952152 0 -0.38345800972284871 0.30062535711326249 0 -0.38648696609771971 0.31752256020615388 0 -0.38345800972284871 0.30062535711326249 0 -0.36832586449511368 0.31311035821159922 0 -0.38345800972284871 0.30062535711326249 0 -0.37656072116664902 0.2800868432654563 0 -0.36729111057937441 0.29929398914907462 0 -0.39643381492854479 0.28782637023841667 0 -0.38345800972284871 0.30062535711326249 0 -0.37656072116664902 0.2800868432654563 0 -0.39643381492854479 0.28782637023841667 0 -0.37656072116664902 0.2800868432654563 0 -0.39854717586770161 0.2727852934416885 0 -0.37656072116664902 0.2800868432654563 0 -0.37919961842605698 0.26025373618631131 0 -0.39854717586770161 0.2727852934416885 0 -0.38187631374405367 0.24042569499881239 0 -0.37919961842605698 0.26025373618631131 0 -0.40247700742056552 0.25589640884073928 0 -0.37919961842605698 0.26025373618631131 0 -0.40247700742056552 0.25589640884073928 0 -0.39854717586770161 0.2727852934416885 0 -0.35957588015737579 0.26715751849817032 0 -0.3543161846847383 0.28374804685891819 0 -0.34101840772367342 0.26937263559406682 0 -0.3554125885008616 0.24897555212601211 0 -0.35957588015737579 0.26715751849817032 0 -0.34101840772367342 0.26937263559406682 0 -0.3554125885008616 0.24897555212601211 0 -0.37919961842605698 0.26025373618631131 0 -0.35957588015737579 0.26715751849817032 0 -0.37656072116664902 0.2800868432654563 0 -0.37919961842605698 0.26025373618631131 0 -0.35957588015737579 0.26715751849817032 0 -0.37656072116664902 0.2800868432654563 0 -0.35957588015737579 0.26715751849817032 0 -0.3543161846847383 0.28374804685891819 0 -0.37656072116664902 0.2800868432654563 0 -0.36729111057937441 0.29929398914907462 0 -0.3543161846847383 0.28374804685891819 0 -0.36729111057937441 0.29929398914907462 0 -0.35302558344886498 0.31718147279861347 0 -0.36832586449511368 0.31311035821159922 0 -0.38345800972284871 0.30062535711326249 0 -0.36729111057937441 0.29929398914907462 0 -0.36832586449511368 0.31311035821159922 0 -0.36729111057937441 0.29929398914907462 0 -0.35302558344886498 0.31718147279861347 0 -0.34707809233247883 0.29858537368523053 0 -0.3392925116459472 0.30995868804727261 0 -0.35302558344886498 0.31718147279861347 0 -0.36729111057937441 0.29929398914907462 0 -0.34707809233247883 0.29858537368523053 0 -0.35302558344886498 0.31718147279861347 0 -0.34707809233247883 0.29858537368523053 0 -0.3543161846847383 0.28374804685891819 0 -0.33437289614887838 0.28799192096151072 0 -0.36729111057937441 0.29929398914907462 0 -0.34707809233247883 0.29858537368523053 0 -0.3543161846847383 0.28374804685891819 0 -0.33437289614887838 0.28799192096151072 0 -0.3294778218018799 0.30014675293751059 0 -0.321667699965277 0.27739846823779191 0 -0.34707809233247883 0.29858537368523053 0 -0.33437289614887838 0.28799192096151072 0 -0.3294778218018799 0.30014675293751059 0 -0.34707809233247883 0.29858537368523053 0 -0.33437289614887838 0.28799192096151072 0 -0.34707809233247883 0.29858537368523053 0 -0.3392925116459472 0.30995868804727261 0 -0.3294778218018799 0.30014675293751059 0 -0.3392925116459472 0.30995868804727261 0 -0.3294778218018799 0.30014675293751059 0 -0.32774872684265621 0.31533403047280212 0 -0.31412630060372138 0.30120554034715608 0 -0.31717066349146178 0.318188784998719 0 -0.32774872684265621 0.31533403047280212 0 -0.3294778218018799 0.30014675293751059 0 -0.31412630060372138 0.30120554034715608 0 -0.32774872684265621 0.31533403047280212 0 -0.31412630060372138 0.30120554034715608 0 -0.321667699965277 0.27739846823779191 0 -0.3294778218018799 0.30014675293751059 0 -0.31412630060372138 0.30120554034715608 0 -0.321667699965277 0.27739846823779191 0 -0.33437289614887838 0.28799192096151072 0 -0.321667699965277 0.27739846823779191 0 -0.3543161846847383 0.28374804685891819 0 -0.33437289614887838 0.28799192096151072 0 -0.34101840772367342 0.26937263559406682 0 -0.321667699965277 0.27739846823779191 0 -0.34101840772367342 0.26937263559406682 0 -0.3294926042732379 0.2526964133302923 0 -0.33437289614887838 0.28799192096151072 0 -0.321667699965277 0.27739846823779191 0 -0.34101840772367342 0.26937263559406682 0 -0.3554125885008616 0.24897555212601211 0 -0.34101840772367342 0.26937263559406682 0 -0.3294926042732379 0.2526964133302923 0 -0.321667699965277 0.27739846823779191 0 -0.3294926042732379 0.2526964133302923 0 -0.31572577012819159 0.25829036351658552 0 -0.321667699965277 0.27739846823779191 0 -0.3294926042732379 0.2526964133302923 0 -0.31286360140321379 0.24466892563627141 0 -0.3294926042732379 0.2526964133302923 0 -0.31572577012819159 0.25829036351658552 0 -0.321667699965277 0.27739846823779191 0 -0.31572577012819159 0.25829036351658552 0 -0.29887917487103749 0.25839764686198657 0 -0.31286360140321379 0.24466892563627141 0 -0.31572577012819159 0.25829036351658552 0 -0.29887917487103749 0.25839764686198657 0 -0.321667699965277 0.27739846823779191 0 -0.29887917487103749 0.25839764686198657 0 -0.321667699965277 0.27739846823779191 0 -0.29887917487103749 0.25839764686198657 0 -0.3016508423544858 0.28020032952661311 0 -0.29887917487103749 0.25839764686198657 0 -0.3016508423544858 0.28020032952661311 0 -0.28119486609396421 0.27193785685300093 0 -0.29887917487103749 0.25839764686198657 0 -0.28239359962148058 0.25535305618607052 0 -0.28119486609396421 0.27193785685300093 0 -0.27609064977679698 0.23939682548618241 0 -0.29887917487103749 0.25839764686198657 0 -0.28239359962148058 0.25535305618607052 0 -0.27000968145299009 0.24788461395059511 0 -0.28119486609396421 0.27193785685300093 0 -0.26350606783489822 0.27510854038038429 0 -0.27000968145299009 0.24788461395059511 0 -0.28239359962148058 0.25535305618607052 0 -0.28119486609396421 0.27193785685300093 0 -0.27000968145299009 0.24788461395059511 0 -0.26350606783489822 0.27510854038038429 0 -0.27000968145299009 0.24788461395059511 0 -0.28119486609396421 0.27193785685300093 0 -0.28119486609396421 0.27193785685300093 0 -0.26350606783489822 0.27510854038038429 0 -0.27406704300615492 0.29232482737183052 0 -0.26350606783489822 0.27510854038038429 0 -0.25780141364737752 0.29433219609280692 0 -0.24841076489466299 0.27185783892691301 0 -0.26242461716055682 0.26772548747022978 0 -0.26350606783489822 0.27510854038038429 0 -0.24841076489466299 0.27185783892691301 0 -0.26242461716055682 0.26772548747022978 0 -0.25172551204531202 0.2614767230684778 0 -0.24841076489466299 0.27185783892691301 0 -0.26242461716055682 0.26772548747022978 0 -0.24841076489466299 0.27185783892691301 0 -0.26242461716055682 0.26772548747022978 0 -0.25172551204531202 0.2614767230684778 0 -0.25573330318227427 0.25379713005068871 0 -0.27000968145299009 0.24788461395059511 0 -0.26242461716055682 0.26772548747022978 0 -0.25573330318227427 0.25379713005068871 0 -0.27000968145299009 0.24788461395059511 0 -0.26242461716055682 0.26772548747022978 0 -0.26350606783489822 0.27510854038038429 0 -0.25700245421680629 0.30233246681017367 0 -0.27625177615016772 0.31625417306018722 0 -0.25361347215596752 0.31651864140693531 0 -0.25700245421680629 0.30233246681017367 0 -0.25361347215596752 0.31651864140693531 0 -0.25700245421680629 0.30233246681017367 0 -0.25361347215596752 0.31651864140693531 0 -0.2481588855257878 0.30219792245771437 0 -0.25525068610555401 0.30106553381650991 0 -0.25700245421680629 0.30233246681017367 0 -0.25780141364737752 0.29433219609280692 0 -0.25525068610555401 0.30106553381650991 0 -0.25700245421680629 0.30233246681017367 0 -0.2481588855257878 0.30219792245771437 0 -0.25525068610555401 0.30106553381650991 0 -0.25700245421680629 0.30233246681017367 0 -0.25525068610555401 0.30106553381650991 0 -0.25179876235570497 0.29721277107041422 0 -0.25780141364737752 0.29433219609280692 0 -0.25525068610555401 0.30106553381650991 0 -0.25179876235570497 0.29721277107041422 0 -0.2481588855257878 0.30219792245771437 0 -0.26350606783489822 0.27510854038038429 0 -0.25700245421680629 0.30233246681017367 0 -0.27406704300615492 0.29232482737183052 0 -0.26350606783489822 0.27510854038038429 0 -0.25700245421680629 0.30233246681017367 0 -0.25780141364737752 0.29433219609280692 0 -0.25780141364737752 0.29433219609280692 0 -0.2462735301734813 0.2911967489769221 0 -0.24841076489466299 0.27185783892691301 0 -0.25780141364737752 0.29433219609280692 0 -0.24841076489466299 0.27185783892691301 0 -0.25179876235570497 0.29721277107041422 0 -0.25780141364737752 0.29433219609280692 0 -0.2462735301734813 0.2911967489769221 0 -0.26350606783489822 0.27510854038038429 0 -0.25700245421680629 0.30233246681017367 0 -0.25700245421680629 0.30233246681017367 0 -0.27406704300615492 0.29232482737183052 0 -0.27625177615016772 0.31625417306018722 0 -0.27406704300615492 0.29232482737183052 0 -0.29238005073493878 0.29599109975540638 0 -0.27625177615016772 0.31625417306018722 0 -0.25700245421680629 0.30233246681017367 0 -0.27625177615016772 0.31625417306018722 0 -0.29238005073493878 0.29599109975540638 0 -0.30356523537591351 0.3200443426578119 0 -0.27625177615016772 0.31625417306018722 0 -0.28119486609396421 0.27193785685300093 0 -0.29238005073493878 0.29599109975540638 0 -0.28119486609396421 0.27193785685300093 0 -0.27406704300615492 0.29232482737183052 0 -0.29238005073493878 0.29599109975540638 0 -0.3016508423544858 0.28020032952661311 0 -0.28119486609396421 0.27193785685300093 0 -0.29238005073493878 0.29599109975540638 0 -0.31412630060372138 0.30120554034715608 0 -0.3016508423544858 0.28020032952661311 0 -0.29238005073493878 0.29599109975540638 0 -0.31412630060372138 0.30120554034715608 0 -0.321667699965277 0.27739846823779191 0 -0.3016508423544858 0.28020032952661311 0 -0.29238005073493878 0.29599109975540638 0 -0.30356523537591351 0.3200443426578119 0 -0.31412630060372138 0.30120554034715608 0 -0.29238005073493878 0.29599109975540638 0 -0.30356523537591351 0.3200443426578119 0 -0.31412630060372138 0.30120554034715608 0 -0.30600168460580662 0.32528381853837163 0 -0.31717066349146178 0.318188784998719 0 -0.31412630060372138 0.30120554034715608 0 -0.30600168460580662 0.32528381853837163 0 -0.31412630060372138 0.30120554034715608 0 -0.30600168460580662 0.32528381853837163 0 -0.30356523537591351 0.3200443426578119 0 -0.30600168460580662 0.32528381853837163 0 -0.30356523537591351 0.3200443426578119 0 -0.30600168460580662 0.32528381853837163 0 -0.30356523537591351 0.3200443426578119 0 -0.29550109808352831 0.33017587931020198 0 -0.30600168460580662 0.32528381853837163 0 -0.31475042001688858 0.34409758556021708 0 -0.30600168460580662 0.32528381853837163 0 -0.29550109808352831 0.33017587931020198 0 -0.31475042001688858 0.34409758556021708 0 -0.29550109808352831 0.33017587931020198 0 -0.30007200280789098 0.34412448085728198 0 -0.31475042001688858 0.34409758556021708 0 -0.29550109808352831 0.33017587931020198 0 -0.31475042001688858 0.34409758556021708 0 -0.29550109808352831 0.33017587931020198 0 -0.27371084510256333 0.33491472465231759 0 -0.30007200280789098 0.34412448085728198 0 -0.29550109808352831 0.33017587931020198 0 -0.27625177615016772 0.31625417306018722 0 -0.29550109808352831 0.33017587931020198 0 -0.27625177615016772 0.31625417306018722 0 -0.27371084510256333 0.33491472465231759 0 -0.30356523537591351 0.3200443426578119 0 -0.29550109808352831 0.33017587931020198 0 -0.27625177615016772 0.31625417306018722 0 -0.27625177615016772 0.31625417306018722 0 -0.27371084510256333 0.33491472465231759 0 -0.2581845081493222 0.33170091255816753 0 -0.27371084510256333 0.33491472465231759 0 -0.2581845081493222 0.33170091255816753 0 -0.25975043902048162 0.34777742534142331 0 -0.2581845081493222 0.33170091255816753 0 -0.25975043902048162 0.34777742534142331 0 -0.24362753599067871 0.33951637142846258 0 -0.27625177615016772 0.31625417306018722 0 -0.2581845081493222 0.33170091255816753 0 -0.25361347215596752 0.31651864140693531 0 -0.26759892638311988 0.36861497244384789 0 -0.2414425777850196 0.37985572423364172 0 -0.25975043902048162 0.34777742534142331 0 -0.26759892638311988 0.36861497244384789 0 -0.2390905002472514 0.3591306733916288 0 -0.27371084510256333 0.33491472465231759 0 -0.25975043902048162 0.34777742534142331 0 -0.27629031824995381 0.35278689757411508 0 -0.25975043902048162 0.34777742534142331 0 -0.27629031824995381 0.35278689757411508 0 -0.26759892638311988 0.36861497244384789 0 -0.26759892638311988 0.36861497244384789 0 -0.29375527498122062 0.35737422065405461 0 -0.28034497728223218 0.37886264593324881 0 -0.27629031824995381 0.35278689757411508 0 -0.26759892638311988 0.36861497244384789 0 -0.29375527498122062 0.35737422065405461 0 -0.26759892638311988 0.36861497244384789 0 -0.29375527498122062 0.35737422065405461 0 -0.29375527498122062 0.35737422065405461 0 -0.29457359752962209 0.37688274898118901 0 -0.28034497728223218 0.37886264593324881 0 -0.27371084510256333 0.33491472465231759 0 -0.29375527498122062 0.35737422065405461 0 -0.27371084510256333 0.33491472465231759 0 -0.29375527498122062 0.35737422065405461 0 -0.30007200280789098 0.34412448085728198 0 -0.27371084510256333 0.33491472465231759 0 -0.27629031824995381 0.35278689757411508 0 -0.29375527498122062 0.35737422065405461 0 -0.29375527498122062 0.35737422065405461 0 -0.30007200280789098 0.34412448085728198 0 -0.31639909434373281 0.34764298649220998 0 -0.30007200280789098 0.34412448085728198 0 -0.31639909434373281 0.34764298649220998 0 -0.31475042001688858 0.34409758556021708 0 -0.29375527498122062 0.35737422065405461 0 -0.31496079181462872 0.36491075274399443 0 -0.31639909434373281 0.34764298649220998 0 -0.29375527498122062 0.35737422065405461 0 -0.31639909434373281 0.34764298649220998 0 -0.29375527498122062 0.35737422065405461 0 -0.30984339124435262 0.37540072403054381 0 -0.29457359752962209 0.37688274898118901 0 -0.29375527498122062 0.35737422065405461 0 -0.30984339124435262 0.37540072403054381 0 -0.29375527498122062 0.35737422065405461 0 -0.31496079181462872 0.36491075274399443 0 -0.30984339124435262 0.37540072403054381 0 -0.31903807460307998 0.37238623269861321 0 -0.31496079181462872 0.36491075274399443 0 -0.30984339124435262 0.37540072403054381 0 -0.31903807460307998 0.37238623269861321 0 -0.31496079181462872 0.36491075274399443 0 -0.32514638483776148 0.36645364628408722 0 -0.31496079181462872 0.36491075274399443 0 -0.32094159989974153 0.35741144298454669 0 -0.31496079181462872 0.36491075274399443 0 -0.32514638483776148 0.36645364628408722 0 -0.32094159989974153 0.35741144298454669 0 -0.32514638483776148 0.36645364628408722 0 -0.32094159989974153 0.35741144298454669 0 -0.32514638483776148 0.36645364628408722 0 -0.32702198295276158 0.35885521034130041 0 -0.32094159989974153 0.35741144298454669 0 -0.31903807460307998 0.37238623269861321 0 -0.32514638483776148 0.36645364628408722 0 -0.33133308282499019 0.37450277143548522 0 -0.33133308282499019 0.37450277143548522 0 -0.34198409512969702 0.36396411543962109 0 -0.34679182427294791 0.38041858761085923 0 -0.32514638483776148 0.36645364628408722 0 -0.33133308282499019 0.37450277143548522 0 -0.3323099876917151 0.36253587873233373 0 -0.33133308282499019 0.37450277143548522 0 -0.3323099876917151 0.36253587873233373 0 -0.34198409512969702 0.36396411543962109 0 -0.32514638483776148 0.36645364628408722 0 -0.3323099876917151 0.36253587873233373 0 -0.32702198295276158 0.35885521034130041 0 -0.3323099876917151 0.36253587873233373 0 -0.34198409512969702 0.36396411543962109 0 -0.33676251015526942 0.35637430735951492 0 -0.33846413866439368 0.34404472869385933 0 -0.33539922278553053 0.34923535893636781 0 -0.33516316470316992 0.33957908350951138 0 -0.33846413866439368 0.34404472869385933 0 -0.34281811763052428 0.35006861346418588 0 -0.34047604953834942 0.33729585886537089 0 -0.33846413866439368 0.34404472869385933 0 -0.34281811763052428 0.35006861346418588 0 -0.33539922278553053 0.34923535893636781 0 -0.34198409512969702 0.36396411543962109 0 -0.34281811763052428 0.35006861346418588 0 -0.33676251015526942 0.35637430735951492 0 -0.34281811763052428 0.35006861346418588 0 -0.33676251015526942 0.35637430735951492 0 -0.33539922278553053 0.34923535893636781 0 -0.33676251015526942 0.35637430735951492 0 -0.33130112753887991 0.35606757022506569 0 -0.33539922278553053 0.34923535893636781 0 -0.33130112753887991 0.35606757022506569 0 -0.33539922278553053 0.34923535893636781 0 -0.32541081479570949 0.35180751348046813 0 -0.3323099876917151 0.36253587873233373 0 -0.33676251015526942 0.35637430735951492 0 -0.33130112753887991 0.35606757022506569 0 -0.3323099876917151 0.36253587873233373 0 -0.33130112753887991 0.35606757022506569 0 -0.32702198295276158 0.35885521034130041 0 -0.33130112753887991 0.35606757022506569 0 -0.32541081479570949 0.35180751348046813 0 -0.33539922278553053 0.34923535893636781 0 -0.32541081479570949 0.35180751348046813 0 -0.33516316470316992 0.33957908350951138 0 -0.32541081479570949 0.35180751348046813 0 -0.33516316470316992 0.33957908350951138 0 -0.32541081479570949 0.35180751348046813 0 -0.31843991185193421 0.34676594041018483 0 -0.33516316470316992 0.33957908350951138 0 -0.31496079181462872 0.36491075274399443 0 -0.32094159989974153 0.35741144298454669 0 -0.31639909434373281 0.34764298649220998 0 -0.32541081479570949 0.35180751348046813 0 -0.31843991185193421 0.34676594041018483 0 -0.32541081479570949 0.35180751348046813 0 -0.32094159989974153 0.35741144298454669 0 -0.31843991185193421 0.34676594041018483 0 -0.33130112753887991 0.35606757022506569 0 -0.32702198295276158 0.35885521034130041 0 -0.32541081479570949 0.35180751348046813 0 -0.32702198295276158 0.35885521034130041 0 -0.32541081479570949 0.35180751348046813 0 -0.32094159989974153 0.35741144298454669 0 -0.32541081479570949 0.35180751348046813 0 -0.32094159989974153 0.35741144298454669 0 -0.32094159989974153 0.35741144298454669 0 -0.31639909434373281 0.34764298649220998 0 -0.32094159989974153 0.35741144298454669 0 -0.31843991185193421 0.34676594041018483 0 -0.31639909434373281 0.34764298649220998 0 -0.31843991185193421 0.34676594041018483 0 -0.31639909434373281 0.34764298649220998 0 -0.31475042001688858 0.34409758556021708 0 -0.31843991185193421 0.34676594041018483 0 -0.31639909434373281 0.34764298649220998 0 -0.31843991185193421 0.34676594041018483 0 -0.31475042001688858 0.34409758556021708 0 -0.31639909434373281 0.34764298649220998 0 -0.31475042001688858 0.34409758556021708 0 -0.31475042001688858 0.34409758556021708 0 -0.31747237831051872 0.32983697692429442 0 -0.32120861752838992 0.33819242005077521 0 -0.30600168460580662 0.32528381853837163 0 -0.31475042001688858 0.34409758556021708 0 -0.31747237831051872 0.32983697692429442 0 -0.31843991185193421 0.34676594041018483 0 -0.32120861752838992 0.33819242005077521 0 -0.33516316470316992 0.33957908350951138 0 -0.31843991185193421 0.34676594041018483 0 -0.31475042001688858 0.34409758556021708 0 -0.32120861752838992 0.33819242005077521 0 -0.31843991185193421 0.34676594041018483 0 -0.33516316470316992 0.33957908350951138 0 -0.31747237831051872 0.32983697692429442 0 -0.32391691641602383 0.3298695008439535 0 -0.32120861752838992 0.33819242005077521 0 -0.32391691641602383 0.3298695008439535 0 -0.32120861752838992 0.33819242005077521 0 -0.32826300037894618 0.33485208033073222 0 -0.32391691641602383 0.3298695008439535 0 -0.32762832821089583 0.32488475684651108 0 -0.33047499332022973 0.33041260166767111 0 -0.32391691641602383 0.3298695008439535 0 -0.32826300037894618 0.33485208033073222 0 -0.33047499332022973 0.33041260166767111 0 -0.31747237831051872 0.32983697692429442 0 -0.31717066349146178 0.318188784998719 0 -0.32183350417746931 0.3234173535201913 0 -0.30600168460580662 0.32528381853837163 0 -0.31747237831051872 0.32983697692429442 0 -0.31717066349146178 0.318188784998719 0 -0.32762832821089583 0.32488475684651108 0 -0.32183350417746931 0.3234173535201913 0 -0.32774872684265621 0.31533403047280212 0 -0.31747237831051872 0.32983697692429442 0 -0.32391691641602383 0.3298695008439535 0 -0.32183350417746931 0.3234173535201913 0 -0.32391691641602383 0.3298695008439535 0 -0.32762832821089583 0.32488475684651108 0 -0.32183350417746931 0.3234173535201913 0 -0.31717066349146178 0.318188784998719 0 -0.32183350417746931 0.3234173535201913 0 -0.32774872684265621 0.31533403047280212 0 -0.33815769898327203 0.32197457762799803 0 -0.33876005631835537 0.33506895644815238 0 -0.35302558344886498 0.31718147279861347 0 -0.3392925116459472 0.30995868804727261 0 -0.32774872684265621 0.31533403047280212 0 -0.33815769898327203 0.32197457762799803 0 -0.32762832821089583 0.32488475684651108 0 -0.32774872684265621 0.31533403047280212 0 -0.33298468729878761 0.32493396800704732 0 -0.32774872684265621 0.31533403047280212 0 -0.33298468729878761 0.32493396800704732 0 -0.33815769898327203 0.32197457762799803 0 -0.33298468729878761 0.32493396800704732 0 -0.33815769898327203 0.32197457762799803 0 -0.33554603764799917 0.33089801575757888 0 -0.32762832821089583 0.32488475684651108 0 -0.33298468729878761 0.32493396800704732 0 -0.33047499332022973 0.33041260166767111 0 -0.3392925116459472 0.30995868804727261 0 -0.33815769898327203 0.32197457762799803 0 -0.35302558344886498 0.31718147279861347 0 -0.32120861752838992 0.33819242005077521 0 -0.33516316470316992 0.33957908350951138 0 -0.32826300037894618 0.33485208033073222 0 -0.33516316470316992 0.33957908350951138 0 -0.33365775841625678 0.33421606991102443 0 -0.33876005631835537 0.33506895644815238 0 -0.33516316470316992 0.33957908350951138 0 -0.32826300037894618 0.33485208033073222 0 -0.33365775841625678 0.33421606991102443 0 -0.32826300037894618 0.33485208033073222 0 -0.33047499332022973 0.33041260166767111 0 -0.33365775841625678 0.33421606991102443 0 -0.33298468729878761 0.32493396800704732 0 -0.33047499332022973 0.33041260166767111 0 -0.33554603764799917 0.33089801575757888 0 -0.33047499332022973 0.33041260166767111 0 -0.33554603764799917 0.33089801575757888 0 -0.33365775841625678 0.33421606991102443 0 -0.33554603764799917 0.33089801575757888 0 -0.33876005631835537 0.33506895644815238 0 -0.33815769898327203 0.32197457762799803 0 -0.33554603764799917 0.33089801575757888 0 -0.33876005631835537 0.33506895644815238 0 -0.33554603764799917 0.33089801575757888 0 -0.33365775841625678 0.33421606991102443 0 -0.33876005631835537 0.33506895644815238 0 -0.33876005631835537 0.33506895644815238 0 -0.34047604953834942 0.33729585886537089 0 -0.34893579928090102 0.32923887441197441 0 -0.33516316470316992 0.33957908350951138 0 -0.33876005631835537 0.33506895644815238 0 -0.33516316470316992 0.33957908350951138 0 -0.33876005631835537 0.33506895644815238 0 -0.34047604953834942 0.33729585886537089 0 -0.33516316470316992 0.33957908350951138 0 -0.34047604953834942 0.33729585886537089 0 -0.33876005631835537 0.33506895644815238 0 -0.34047604953834942 0.33729585886537089 0 -0.33846413866439368 0.34404472869385933 0 -0.33516316470316992 0.33957908350951138 0 -0.34047604953834942 0.33729585886537089 0 -0.34047604953834942 0.33729585886537089 0 -0.34893579928090102 0.32923887441197441 0 -0.3634815078180344 0.32740920953576191 0 -0.34047604953834942 0.33729585886537089 0 -0.3634815078180344 0.32740920953576191 0 -0.34047604953834942 0.33729585886537089 0 -0.35683296450151419 0.3415418524711894 0 -0.3634815078180344 0.32740920953576191 0 -0.33876005631835537 0.33506895644815238 0 -0.35302558344886498 0.31718147279861347 0 -0.33876005631835537 0.33506895644815238 0 -0.34893579928090102 0.32923887441197441 0 -0.35302558344886498 0.31718147279861347 0 -0.34893579928090102 0.32923887441197441 0 -0.35302558344886498 0.31718147279861347 0 -0.3634815078180344 0.32740920953576191 0 -0.38648696609771971 0.31752256020615388 0 -0.3634815078180344 0.32740920953576191 0 -0.38648696609771971 0.31752256020615388 0 -0.3634815078180344 0.32740920953576191 0 -0.37374151024937458 0.33881329102359292 0 -0.38648696609771971 0.31752256020615388 0 -0.3634815078180344 0.32740920953576191 0 -0.36832586449511368 0.31311035821159922 0 -0.35302558344886498 0.31718147279861347 0 -0.3634815078180344 0.32740920953576191 0 -0.36832586449511368 0.31311035821159922 0 -0.35683296450151419 0.3415418524711894 0 -0.3634815078180344 0.32740920953576191 0 -0.37374151024937458 0.33881329102359292 0 -0.35683296450151419 0.3415418524711894 0 -0.37374151024937458 0.33881329102359292 0 -0.35653011852893929 0.35812976696297077 0 -0.38360711287914778 0.3558371797702411 0 -0.37374151024937458 0.33881329102359292 0 -0.35653011852893929 0.35812976696297077 0 -0.38360711287914778 0.3558371797702411 0 -0.35653011852893929 0.35812976696297077 0 -0.37258418751953309 0.37896367506056777 0 -0.35653011852893929 0.35812976696297077 0 -0.37258418751953309 0.37896367506056777 0 -0.35653011852893929 0.35812976696297077 0 -0.34679182427294791 0.38041858761085923 0 -0.37258418751953309 0.37896367506056777 0 -0.34198409512969702 0.36396411543962109 0 -0.35653011852893929 0.35812976696297077 0 -0.34679182427294791 0.38041858761085923 0 -0.34047604953834942 0.33729585886537089 0 -0.35653011852893929 0.35812976696297077 0 -0.34047604953834942 0.33729585886537089 0 -0.35683296450151419 0.3415418524711894 0 -0.35653011852893929 0.35812976696297077 0 -0.34198409512969702 0.36396411543962109 0 -0.34281811763052428 0.35006861346418588 0 -0.35653011852893929 0.35812976696297077 0 -0.34281811763052428 0.35006861346418588 0 -0.34047604953834942 0.33729585886537089 0 -0.35653011852893929 0.35812976696297077 0 -0.34679182427294791 0.38041858761085923 0 -0.36132073023686623 0.40027523519142449 0 -0.34295077373793481 0.39824347057812548 0 -0.34679182427294791 0.38041858761085923 0 -0.37258418751953309 0.37896367506056777 0 -0.36132073023686623 0.40027523519142449 0 -0.38863825651012679 0.3997975831581646 0 -0.37258418751953309 0.37896367506056777 0 -0.36132073023686623 0.40027523519142449 0 -0.37892990180826769 0.42544599407624589 0 -0.36132073023686623 0.40027523519142449 0 -0.35002821609970919 0.42294637339240471 0 -0.37892990180826769 0.42544599407624589 0 -0.35002821609970919 0.42294637339240471 0 -0.36351699254925102 0.44863091559493679 0 -0.35002821609970919 0.42294637339240471 0 -0.36351699254925102 0.44863091559493679 0 -0.36132073023686623 0.40027523519142449 0 -0.35002821609970919 0.42294637339240471 0 -0.34295077373793481 0.39824347057812548 0 -0.35002821609970919 0.42294637339240471 0 -0.33280457925220031 0.4124114238215893 0 -0.34295077373793481 0.39824347057812548 0 -0.35002821609970919 0.42294637339240471 0 -0.33280457925220031 0.4124114238215893 0 -0.32262759183473821 0.43004666970669247 0 -0.35002821609970919 0.42294637339240471 0 -0.32262759183473821 0.43004666970669247 0 -0.34285669552112857 0.44337281073624918 0 -0.33280457925220031 0.4124114238215893 0 -0.32262759183473821 0.43004666970669247 0 -0.30920651261488957 0.40550976251038878 0 -0.33280457925220031 0.4124114238215893 0 -0.32593150750748628 0.39342722740703151 0 -0.30920651261488957 0.40550976251038878 0 -0.32593150750748628 0.39342722740703151 0 -0.30920651261488957 0.40550976251038878 0 -0.30379995971367713 0.39094975349461492 0 -0.34679182427294791 0.38041858761085923 0 -0.32593150750748628 0.39342722740703151 0 -0.34295077373793481 0.39824347057812548 0 -0.33280457925220031 0.4124114238215893 0 -0.32593150750748628 0.39342722740703151 0 -0.34295077373793481 0.39824347057812548 0 -0.33133308282499019 0.37450277143548522 0 -0.34679182427294791 0.38041858761085923 0 -0.32593150750748628 0.39342722740703151 0 -0.32593150750748628 0.39342722740703151 0 -0.30984339124435262 0.37540072403054381 0 -0.30379995971367713 0.39094975349461492 0 -0.32593150750748628 0.39342722740703151 0 -0.32281101654899969 0.38001983896050862 0 -0.30984339124435262 0.37540072403054381 0 -0.33133308282499019 0.37450277143548522 0 -0.32593150750748628 0.39342722740703151 0 -0.32281101654899969 0.38001983896050862 0 -0.32593150750748628 0.39342722740703151 0 -0.30984339124435262 0.37540072403054381 0 -0.31903807460307998 0.37238623269861321 0 -0.33133308282499019 0.37450277143548522 0 -0.32281101654899969 0.38001983896050862 0 -0.31903807460307998 0.37238623269861321 0 -0.32281101654899969 0.38001983896050862 0 -0.30984339124435262 0.37540072403054381 0 -0.30984339124435262 0.37540072403054381 0 -0.30379995971367713 0.39094975349461492 0 -0.29457359752962209 0.37688274898118901 0 -0.30920651261488957 0.40550976251038878 0 -0.30379995971367713 0.39094975349461492 0 -0.29344886859898262 0.40586267886024602 0 -0.29344886859898262 0.40586267886024602 0 -0.28826592355217562 0.39006047511237191 0 -0.27887393445132558 0.40320331906300549 0 -0.30379995971367713 0.39094975349461492 0 -0.29344886859898262 0.40586267886024602 0 -0.28826592355217562 0.39006047511237191 0 -0.30379995971367713 0.39094975349461492 0 -0.29457359752962209 0.37688274898118901 0 -0.28826592355217562 0.39006047511237191 0 -0.29457359752962209 0.37688274898118901 0 -0.28826592355217562 0.39006047511237191 0 -0.28034497728223218 0.37886264593324881 0 -0.26759892638311988 0.36861497244384789 0 -0.28034497728223218 0.37886264593324881 0 -0.262772096707934 0.38836519852751389 0 -0.28034497728223218 0.37886264593324881 0 -0.27510404453932152 0.39187825988051628 0 -0.262772096707934 0.38836519852751389 0 -0.28826592355217562 0.39006047511237191 0 -0.28034497728223218 0.37886264593324881 0 -0.27510404453932152 0.39187825988051628 0 -0.28826592355217562 0.39006047511237191 0 -0.27510404453932152 0.39187825988051628 0 -0.27887393445132558 0.40320331906300549 0 -0.27510404453932152 0.39187825988051628 0 -0.27887393445132558 0.40320331906300549 0 -0.26637540478736049 0.40081870031601052 0 -0.27887393445132558 0.40320331906300549 0 -0.26637540478736049 0.40081870031601052 0 -0.27079888777839273 0.40680856125337778 0 -0.27510404453932152 0.39187825988051628 0 -0.26637540478736049 0.40081870031601052 0 -0.262772096707934 0.38836519852751389 0 -0.26637540478736049 0.40081870031601052 0 -0.25086616901715519 0.40299614508962778 0 -0.262772096707934 0.38836519852751389 0 -0.26637540478736049 0.40081870031601052 0 -0.25086616901715519 0.40299614508962778 0 -0.25688939613224832 0.40959280918290553 0 -0.25086616901715519 0.40299614508962778 0 -0.262772096707934 0.38836519852751389 0 -0.26759892638311988 0.36861497244384789 0 -0.262772096707934 0.38836519852751389 0 -0.2414425777850196 0.37985572423364172 0 -0.25086616901715519 0.40299614508962778 0 -0.262772096707934 0.38836519852751389 0 -0.2414425777850196 0.37985572423364172 0 -0.25887399274348261 0.43363961934678202 0 -0.26001197579418789 0.41796208264565698 0 -0.24216252644355979 0.43637131804754847 0 -0.25887399274348261 0.43363961934678202 0 -0.26001197579418789 0.41796208264565698 0 -0.27181424001518001 0.43300698031465701 0 -0.26001197579418789 0.41796208264565698 0 -0.24216252644355979 0.43637131804754847 0 -0.25688939613224832 0.40959280918290553 0 -0.26001197579418789 0.41796208264565698 0 -0.238960241326376 0.41762709165174111 0 -0.26637540478736049 0.40081870031601052 0 -0.25688939613224832 0.40959280918290553 0 -0.2653510748776991 0.41245554124307582 0 -0.25688939613224832 0.40959280918290553 0 -0.2653510748776991 0.41245554124307582 0 -0.26001197579418789 0.41796208264565698 0 -0.2653510748776991 0.41245554124307582 0 -0.26001197579418789 0.41796208264565698 0 -0.26001197579418789 0.41796208264565698 0 -0.28450004518715138 0.41835175517918238 0 -0.2653510748776991 0.41245554124307582 0 -0.26001197579418789 0.41796208264565698 0 -0.27298530334338889 0.41209775626611228 0 -0.26001197579418789 0.41796208264565698 0 -0.27298530334338889 0.41209775626611228 0 -0.28450004518715138 0.41835175517918238 0 -0.26637540478736049 0.40081870031601052 0 -0.2653510748776991 0.41245554124307582 0 -0.27079888777839273 0.40680856125337778 0 -0.2653510748776991 0.41245554124307582 0 -0.27298530334338889 0.41209775626611228 0 -0.27079888777839273 0.40680856125337778 0 -0.27887393445132558 0.40320331906300549 0 -0.27298530334338889 0.41209775626611228 0 -0.28450004518715138 0.41835175517918238 0 -0.27887393445132558 0.40320331906300549 0 -0.27298530334338889 0.41209775626611228 0 -0.27079888777839273 0.40680856125337778 0 -0.26001197579418789 0.41796208264565698 0 -0.27181424001518001 0.43300698031465701 0 -0.28450004518715138 0.41835175517918238 0 -0.27181424001518001 0.43300698031465701 0 -0.28333395856706928 0.43223959157669711 0 -0.28450004518715138 0.41835175517918238 0 -0.28333395856706928 0.43223959157669711 0 -0.29540935389361178 0.42770313110777919 0 -0.28161219517233399 0.44989649970516971 0 -0.28333395856706928 0.43223959157669711 0 -0.29540935389361178 0.42770313110777919 0 -0.28450004518715138 0.41835175517918238 0 -0.29344886859898262 0.40586267886024602 0 -0.29540935389361178 0.42770313110777919 0 -0.28450004518715138 0.41835175517918238 0 -0.29344886859898262 0.40586267886024602 0 -0.27887393445132558 0.40320331906300549 0 -0.28450004518715138 0.41835175517918238 0 -0.30920651261488957 0.40550976251038878 0 -0.29540935389361178 0.42770313110777919 0 -0.30920651261488957 0.40550976251038878 0 -0.29344886859898262 0.40586267886024602 0 -0.29540935389361178 0.42770313110777919 0 -0.32262759183473821 0.43004666970669247 0 -0.30920651261488957 0.40550976251038878 0 -0.29540935389361178 0.42770313110777919 0 -0.32262759183473821 0.43004666970669247 0 -0.29540935389361178 0.42770313110777919 0 -0.30455162722472912 0.44551186482646132 0 -0.30455162722472912 0.44551186482646132 0 -0.30267898296492091 0.46304029431085753 0 -0.32369082262148891 0.45139811410308339 0 -0.30267898296492091 0.46304029431085753 0 -0.28161219517233399 0.44989649970516971 0 -0.28720098048375198 0.47036779497361619 0 -0.30455162722472912 0.44551186482646132 0 -0.30267898296492091 0.46304029431085753 0 -0.28161219517233399 0.44989649970516971 0 -0.29540935389361178 0.42770313110777919 0 -0.28161219517233399 0.44989649970516971 0 -0.29540935389361178 0.42770313110777919 0 -0.30455162722472912 0.44551186482646132 0 -0.28161219517233399 0.44989649970516971 0 -0.27181424001518001 0.43300698031465701 0 -0.28161219517233399 0.44989649970516971 0 -0.26150722872100263 0.44721809637926302 0 -0.27181424001518001 0.43300698031465701 0 -0.28333395856706928 0.43223959157669711 0 -0.28161219517233399 0.44989649970516971 0 -0.28161219517233399 0.44989649970516971 0 -0.26781503645105642 0.47208986830256011 0 -0.28720098048375198 0.47036779497361619 0 -0.28161219517233399 0.44989649970516971 0 -0.26150722872100263 0.44721809637926302 0 -0.26781503645105642 0.47208986830256011 0 -0.28161219517233399 0.44989649970516971 0 -0.26781503645105642 0.47208986830256011 0 -0.26150722872100263 0.44721809637926302 0 -0.26781503645105642 0.47208986830256011 0 -0.248763297407223 0.45916441183142648 0 -0.26150722872100263 0.44721809637926302 0 -0.248763297407223 0.45916441183142648 0 -0.24216252644355979 0.43637131804754847 0 -0.25887399274348261 0.43363961934678202 0 -0.26150722872100263 0.44721809637926302 0 -0.24216252644355979 0.43637131804754847 0 -0.25887399274348261 0.43363961934678202 0 -0.27181424001518001 0.43300698031465701 0 -0.26150722872100263 0.44721809637926302 0 -0.2540178777297763 0.49428323689994891 0 -0.25046388422414517 0.49999999999999728 0 -0.27847001646898312 0.5 0 -0.2540178777297763 0.49428323689994891 0 -0.25046388422414517 0.49999999999999728 0 -0.2540178777297763 0.49428323689994891 0 -0.25175612093582289 0.47859773284650442 0 -0.26781503645105642 0.47208986830256011 0 -0.25175612093582289 0.47859773284650442 0 -0.26781503645105642 0.47208986830256011 0 -0.248763297407223 0.45916441183142648 0 -0.2540178777297763 0.49428323689994891 0 -0.26781503645105642 0.47208986830256011 0 -0.26781503645105642 0.47208986830256011 0 -0.27946685082920392 0.48680502501708223 0 -0.28720098048375198 0.47036779497361619 0 -0.2540178777297763 0.49428323689994891 0 -0.26781503645105642 0.47208986830256011 0 -0.27946685082920392 0.48680502501708223 0 -0.2540178777297763 0.49428323689994891 0 -0.27946685082920392 0.48680502501708223 0 -0.2540178777297763 0.49428323689994891 0 -0.27946685082920392 0.48680502501708223 0 -0.27847001646898312 0.5 0 -0.27847001646898312 0.5 0 -0.29438096894496307 0.49051741626438711 0 -0.30647614871382101 0.5 0 -0.27946685082920392 0.48680502501708223 0 -0.27847001646898312 0.5 0 -0.29438096894496307 0.49051741626438711 0 -0.27946685082920392 0.48680502501708223 0 -0.29438096894496307 0.49051741626438711 0 -0.30491582392863209 0.47932681313421782 0 -0.27946685082920392 0.48680502501708223 0 -0.30491582392863209 0.47932681313421782 0 -0.27946685082920392 0.48680502501708223 0 -0.28720098048375198 0.47036779497361619 0 -0.30491582392863209 0.47932681313421782 0 -0.30267898296492091 0.46304029431085753 0 -0.28720098048375198 0.47036779497361619 0 -0.30491582392863209 0.47932681313421782 0 -0.30267898296492091 0.46304029431085753 0 -0.30491582392863209 0.47932681313421782 0 -0.32235423187576528 0.47013886282314671 0 -0.29438096894496307 0.49051741626438711 0 -0.30491582392863209 0.47932681313421782 0 -0.30647614871382101 0.5 0 -0.30491582392863209 0.47932681313421782 0 -0.30647614871382101 0.5 0 -0.32117119654531678 0.48698972912909688 0 -0.30647614871382101 0.5 0 -0.32117119654531678 0.48698972912909688 0 -0.33448228095865901 0.5 0 -0.32117119654531678 0.48698972912909688 0 -0.33448228095865901 0.5 0 -0.34366157775285572 0.47189806582010169 0 -0.32117119654531678 0.48698972912909688 0 -0.34366157775285572 0.47189806582010169 0 -0.32235423187576528 0.47013886282314671 0 -0.30491582392863209 0.47932681313421782 0 -0.32117119654531678 0.48698972912909688 0 -0.32235423187576528 0.47013886282314671 0 -0.30267898296492091 0.46304029431085753 0 -0.32235423187576528 0.47013886282314671 0 -0.32369082262148891 0.45139811410308339 0 -0.32262759183473821 0.43004666970669247 0 -0.30455162722472912 0.44551186482646132 0 -0.32369082262148891 0.45139811410308339 0 -0.32262759183473821 0.43004666970669247 0 -0.32369082262148891 0.45139811410308339 0 -0.34285669552112857 0.44337281073624918 0 -0.34366157775285572 0.47189806582010169 0 -0.32235423187576528 0.47013886282314671 0 -0.32369082262148891 0.45139811410308339 0 -0.34366157775285572 0.47189806582010169 0 -0.32369082262148891 0.45139811410308339 0 -0.34285669552112857 0.44337281073624918 0 -0.37700576899879262 0.47431545779746909 0 -0.34366157775285572 0.47189806582010169 0 -0.36351699254925102 0.44863091559493679 0 -0.34366157775285572 0.47189806582010169 0 -0.34285669552112857 0.44337281073624918 0 -0.36351699254925102 0.44863091559493679 0 -0.35002821609970919 0.42294637339240471 0 -0.34285669552112857 0.44337281073624918 0 -0.36351699254925102 0.44863091559493679 0 -0.37700576899879262 0.47431545779746909 0 -0.36351699254925102 0.44863091559493679 0 -0.37700576899879262 0.47431545779746909 0 -0.34366157775285572 0.47189806582010169 0 -0.3624884132034969 0.5 0 -0.33448228095865901 0.5 0 -0.34366157775285572 0.47189806582010169 0 -0.3624884132034969 0.5 0 -0.15123031531958139 0.47442639856313518 0 -0.1555576752068612 0.48705029535012279 0 -0.13945553411035921 0.48070679195507321 0 -0.1555576752068612 0.48705029535012279 0 -0.1321850715963751 0.48270392842734722 0 -0.13945553411035921 0.48070679195507321 0 -0.15123031531958139 0.47442639856313518 0 -0.13945553411035921 0.48070679195507321 0 -0.1346486896464528 0.45427794486733403 0 -0.1555576752068612 0.48705029535012279 0 -0.1321850715963751 0.48270392842734722 0 -0.1555576752068612 0.48705029535012279 0 -0.14416474544406371 0.5 0 -0.1321850715963751 0.48270392842734722 0 -0.14416474544406371 0.5 0 -0.1321850715963751 0.48270392842734722 0 -0.1164001751624876 0.5 0 -0.1321850715963751 0.48270392842734722 0 -0.13945553411035921 0.48070679195507321 0 -0.13057508605664311 0.4705244682394521 0 -0.13057508605664311 0.4705244682394521 0 -0.1240097872368011 0.4688797775240553 0 -0.1223480986564575 0.47455371778622341 0 -0.1321850715963751 0.48270392842734722 0 -0.13057508605664311 0.4705244682394521 0 -0.1223480986564575 0.47455371778622341 0 -0.13057508605664311 0.4705244682394521 0 -0.12659378762135101 0.46181640951874547 0 -0.1346486896464528 0.45427794486733403 0 -0.13945553411035921 0.48070679195507321 0 -0.1346486896464528 0.45427794486733403 0 -0.13945553411035921 0.48070679195507321 0 -0.13057508605664311 0.4705244682394521 0 -0.1346486896464528 0.45427794486733403 0 -0.13057508605664311 0.4705244682394521 0 -0.12659378762135101 0.46181640951874547 0 -0.1240097872368011 0.4688797775240553 0 -0.12659378762135101 0.46181640951874547 0 -0.1346486896464528 0.45427794486733403 0 -0.1220512350051325 0.45679028777007707 0 -0.1346486896464528 0.45427794486733403 0 -0.1321213831254659 0.44038238446620981 0 -0.15228222793358881 0.45178606045400088 0 -0.1321213831254659 0.44038238446620981 0 -0.1204628113787696 0.4337878902401433 0 -0.1234107568135611 0.44249855919424669 0 -0.1346486896464528 0.45427794486733403 0 -0.1321213831254659 0.44038238446620981 0 -0.1234107568135611 0.44249855919424669 0 -0.1346486896464528 0.45427794486733403 0 -0.1321213831254659 0.44038238446620981 0 -0.1321213831254659 0.44038238446620981 0 -0.15228222793358881 0.45178606045400088 0 -0.14936796534065211 0.43857236019682461 0 -0.1321213831254659 0.44038238446620981 0 -0.15228222793358881 0.45178606045400088 0 -0.15228222793358881 0.45178606045400088 0 -0.14936796534065211 0.43857236019682461 0 -0.16014899833009849 0.44168490778754022 0 -0.15123031531958139 0.47442639856313518 0 -0.1346486896464528 0.45427794486733403 0 -0.16195684892010409 0.4664872367308377 0 -0.1346486896464528 0.45427794486733403 0 -0.15228222793358881 0.45178606045400088 0 -0.16195684892010409 0.4664872367308377 0 -0.1346486896464528 0.45427794486733403 0 -0.16195684892010409 0.4664872367308377 0 -0.15228222793358881 0.45178606045400088 0 -0.172443072741711 0.46318973644179318 0 -0.15228222793358881 0.45178606045400088 0 -0.16195684892010409 0.4664872367308377 0 -0.172443072741711 0.46318973644179318 0 -0.15228222793358881 0.45178606045400088 0 -0.17203305321685841 0.45051393482234492 0 -0.172443072741711 0.46318973644179318 0 -0.15228222793358881 0.45178606045400088 0 -0.16014899833009849 0.44168490778754022 0 -0.17203305321685841 0.45051393482234492 0 -0.1742173591103223 0.43957623572947851 0 -0.17203305321685841 0.45051393482234492 0 -0.16491341705397189 0.43342472242831542 0 -0.16014899833009849 0.44168490778754022 0 -0.17203305321685841 0.45051393482234492 0 -0.16491341705397189 0.43342472242831542 0 -0.17203305321685841 0.45051393482234492 0 -0.16491341705397189 0.43342472242831542 0 -0.14936796534065211 0.43857236019682461 0 -0.16014899833009849 0.44168490778754022 0 -0.1621483281054216 0.43412746103621502 0 -0.1742173591103223 0.43957623572947851 0 -0.17203305321685841 0.45051393482234492 0 -0.1820044526073292 0.44458152435694359 0 -0.17203305321685841 0.45051393482234492 0 -0.1820044526073292 0.44458152435694359 0 -0.18639631012770869 0.45609591179770342 0 -0.1742173591103223 0.43957623572947851 0 -0.1820044526073292 0.44458152435694359 0 -0.18318948751040709 0.43357891116649833 0 -0.1820044526073292 0.44458152435694359 0 -0.19418605307134959 0.44314262826869311 0 -0.18318948751040709 0.43357891116649833 0 -0.172443072741711 0.46318973644179318 0 -0.18639631012770869 0.45609591179770342 0 -0.1926039175498335 0.47459341242958508 0 -0.17203305321685841 0.45051393482234492 0 -0.172443072741711 0.46318973644179318 0 -0.18639631012770869 0.45609591179770342 0 -0.16896909273769939 0.47994666285166998 0 -0.1789302788173473 0.49139666227289919 0 -0.1892650081937548 0.4786965285943427 0 -0.16195684892010409 0.4664872367308377 0 -0.16896909273769939 0.47994666285166998 0 -0.1892650081937548 0.4786965285943427 0 -0.172443072741711 0.46318973644179318 0 -0.1926039175498335 0.47459341242958508 0 -0.1892650081937548 0.4786965285943427 0 -0.16195684892010409 0.4664872367308377 0 -0.172443072741711 0.46318973644179318 0 -0.1892650081937548 0.4786965285943427 0 -0.16195684892010409 0.4664872367308377 0 -0.1892650081937548 0.4786965285943427 0 -0.172443072741711 0.46318973644179318 0 -0.1926039175498335 0.47459341242958508 0 -0.15123031531958139 0.47442639856313518 0 -0.1555576752068612 0.48705029535012279 0 -0.16896909273769939 0.47994666285166998 0 -0.15123031531958139 0.47442639856313518 0 -0.16195684892010409 0.4664872367308377 0 -0.16896909273769939 0.47994666285166998 0 -0.1555576752068612 0.48705029535012279 0 -0.14416474544406371 0.5 0 -0.17192931572563969 0.49999999999999578 0 -0.1555576752068612 0.48705029535012279 0 -0.16896909273769939 0.47994666285166998 0 -0.1789302788173473 0.49139666227289919 0 -0.1555576752068612 0.48705029535012279 0 -0.17192931572563969 0.49999999999999578 0 -0.1789302788173473 0.49139666227289919 0 -0.1555576752068612 0.48705029535012279 0 -0.1789302788173473 0.49139666227289919 0 -0.17192931572563969 0.49999999999999578 0 -0.1789302788173473 0.49139666227289919 0 -0.1877558196305191 0.5 0 -0.17192931572563969 0.49999999999999578 0 -0.1789302788173473 0.49139666227289919 0 -0.1789302788173473 0.49139666227289919 0 -0.1892650081937548 0.4786965285943427 0 -0.1789302788173473 0.49139666227289919 0 -0.1877558196305191 0.5 0 -0.20400578900205041 0.49605970152410223 0 -0.1789302788173473 0.49139666227289919 0 -0.20400578900205041 0.49605970152410223 0 -0.1877558196305191 0.5 0 -0.20358232353539851 0.50000000000000044 0 -0.20400578900205041 0.49605970152410223 0 -0.1789302788173473 0.49139666227289919 0 -0.1975380075100604 0.48239533019525588 0 -0.20400578900205041 0.49605970152410223 0 -0.1975380075100604 0.48239533019525588 0 -0.20400578900205041 0.49605970152410223 0 -0.2051104538691865 0.48578091934438172 0 -0.1789302788173473 0.49139666227289919 0 -0.1892650081937548 0.4786965285943427 0 -0.1975380075100604 0.48239533019525588 0 -0.1926039175498335 0.47459341242958508 0 -0.1892650081937548 0.4786965285943427 0 -0.1975380075100604 0.48239533019525588 0 -0.1892650081937548 0.4786965285943427 0 -0.1975380075100604 0.48239533019525588 0 -0.1926039175498335 0.47459341242958508 0 -0.1892650081937548 0.4786965285943427 0 -0.1926039175498335 0.47459341242958508 0 -0.2006757883896845 0.47915914370468993 0 -0.1926039175498335 0.47459341242958508 0 -0.1975380075100604 0.48239533019525588 0 -0.2006757883896845 0.47915914370468993 0 -0.1975380075100604 0.48239533019525588 0 -0.20552718707815901 0.48190326376798648 0 -0.2051104538691865 0.48578091934438172 0 -0.1975380075100604 0.48239533019525588 0 -0.2006757883896845 0.47915914370468993 0 -0.20552718707815901 0.48190326376798648 0 -0.1975380075100604 0.48239533019525588 0 -0.2006757883896845 0.47915914370468993 0 -0.1975380075100604 0.48239533019525588 0 -0.2051104538691865 0.48578091934438172 0 -0.2006757883896845 0.47915914370468993 0 -0.20552718707815901 0.48190326376798648 0 -0.1926039175498335 0.47459341242958508 0 -0.2006757883896845 0.47915914370468993 0 -0.20646362774231081 0.47318978885133839 0 -0.20646362774231081 0.47318978885133839 0 -0.21485085747634419 0.47971021543306402 0 -0.2231708942715889 0.47268206551558228 0 -0.2006757883896845 0.47915914370468993 0 -0.20646362774231081 0.47318978885133839 0 -0.20646362774231081 0.47318978885133839 0 -0.20552718707815901 0.48190326376798648 0 -0.21485085747634419 0.47971021543306402 0 -0.20646362774231081 0.47318978885133839 0 -0.20552718707815901 0.48190326376798648 0 -0.2006757883896845 0.47915914370468993 0 -0.20646362774231081 0.47318978885133839 0 -0.20552718707815901 0.48190326376798648 0 -0.20552718707815901 0.48190326376798648 0 -0.2051104538691865 0.48578091934438172 0 -0.21485085747634419 0.47971021543306402 0 -0.21470606053141339 0.4870951542760511 0 -0.224386517758248 0.48368080475436148 0 -0.20552718707815901 0.48190326376798648 0 -0.21485085747634419 0.47971021543306402 0 -0.21470606053141339 0.4870951542760511 0 -0.2051104538691865 0.48578091934438172 0 -0.2232250315861676 0.49387982356250709 0 -0.2051104538691865 0.48578091934438172 0 -0.21470606053141339 0.4870951542760511 0 -0.2232250315861676 0.49387982356250709 0 -0.20400578900205041 0.49605970152410223 0 -0.2051104538691865 0.48578091934438172 0 -0.2232250315861676 0.49387982356250709 0 -0.20358232353539851 0.50000000000000044 0 -0.20400578900205041 0.49605970152410223 0 -0.22519475809290221 0.50000000000000067 0 -0.20400578900205041 0.49605970152410223 0 -0.2232250315861676 0.49387982356250709 0 -0.22519475809290221 0.50000000000000067 0 -0.20400578900205041 0.49605970152410223 0 -0.22519475809290221 0.50000000000000067 0 -0.20358232353539851 0.50000000000000044 0 -0.20400578900205041 0.49605970152410223 0 -0.20552718707815901 0.48190326376798648 0 -0.21470606053141339 0.4870951542760511 0 -0.20552718707815901 0.48190326376798648 0 -0.2051104538691865 0.48578091934438172 0 -0.21470606053141339 0.4870951542760511 0 -0.20400578900205041 0.49605970152410223 0 -0.2051104538691865 0.48578091934438172 0 -0.2232250315861676 0.49387982356250709 0 -0.22519475809290221 0.50000000000000067 0 -0.22987900925601651 0.49511535573292842 0 -0.22519475809290221 0.50000000000000067 0 -0.22987900925601651 0.49511535573292842 0 -0.23456326041913281 0.49999999999999939 0 -0.2232250315861676 0.49387982356250709 0 -0.22987900925601651 0.49511535573292842 0 -0.23309386605137011 0.48908189392912838 0 -0.22987900925601651 0.49511535573292842 0 -0.23309386605137011 0.48908189392912838 0 -0.23456326041913281 0.49999999999999939 0 -0.2232250315861676 0.49387982356250709 0 -0.23309386605137011 0.48908189392912838 0 -0.224386517758248 0.48368080475436148 0 -0.21470606053141339 0.4870951542760511 0 -0.2232250315861676 0.49387982356250709 0 -0.224386517758248 0.48368080475436148 0 -0.224386517758248 0.48368080475436148 0 -0.2231708942715889 0.47268206551558228 0 -0.238825036680303 0.47854195999531979 0 -0.2231708942715889 0.47268206551558228 0 -0.238825036680303 0.47854195999531979 0 -0.23376807636301231 0.46629224769794292 0 -0.21485085747634419 0.47971021543306402 0 -0.224386517758248 0.48368080475436148 0 -0.2231708942715889 0.47268206551558228 0 -0.23309386605137011 0.48908189392912838 0 -0.224386517758248 0.48368080475436148 0 -0.238825036680303 0.47854195999531979 0 -0.25175612093582289 0.47859773284650442 0 -0.238825036680303 0.47854195999531979 0 -0.248763297407223 0.45916441183142648 0 -0.25175612093582289 0.47859773284650442 0 -0.238825036680303 0.47854195999531979 0 -0.24245123236328089 0.48810096473417969 0 -0.2540178777297763 0.49428323689994891 0 -0.25175612093582289 0.47859773284650442 0 -0.24245123236328089 0.48810096473417969 0 -0.2540178777297763 0.49428323689994891 0 -0.24245123236328089 0.48810096473417969 0 -0.23456326041913281 0.49999999999999939 0 -0.2540178777297763 0.49428323689994891 0 -0.23456326041913281 0.49999999999999939 0 -0.2540178777297763 0.49428323689994891 0 -0.25046388422414517 0.49999999999999728 0 -0.23456326041913281 0.49999999999999939 0 -0.23309386605137011 0.48908189392912838 0 -0.24245123236328089 0.48810096473417969 0 -0.23456326041913281 0.49999999999999939 0 -0.23309386605137011 0.48908189392912838 0 -0.238825036680303 0.47854195999531979 0 -0.24245123236328089 0.48810096473417969 0 -0.248763297407223 0.45916441183142648 0 -0.22431307709293449 0.45478055344944268 0 -0.24216252644355979 0.43637131804754847 0 -0.248763297407223 0.45916441183142648 0 -0.22431307709293449 0.45478055344944268 0 -0.23376807636301231 0.46629224769794292 0 -0.238825036680303 0.47854195999531979 0 -0.248763297407223 0.45916441183142648 0 -0.23376807636301231 0.46629224769794292 0 -0.2231708942715889 0.47268206551558228 0 -0.22431307709293449 0.45478055344944268 0 -0.23376807636301231 0.46629224769794292 0 -0.22431307709293449 0.45478055344944268 0 -0.24216252644355979 0.43637131804754847 0 -0.22431307709293449 0.45478055344944268 0 -0.20839877753500199 0.45518343796971489 0 -0.22367950943068821 0.43640526481072728 0 -0.22431307709293449 0.45478055344944268 0 -0.22367950943068821 0.43640526481072728 0 -0.24216252644355979 0.43637131804754847 0 -0.20839877753500199 0.45518343796971489 0 -0.22367950943068821 0.43640526481072728 0 -0.20839877753500199 0.45518343796971489 0 -0.21043951774690531 0.43619458012912099 0 -0.20839877753500199 0.45518343796971489 0 -0.19418605307134959 0.44314262826869311 0 -0.21043951774690531 0.43619458012912099 0 -0.20839877753500199 0.45518343796971489 0 -0.21043951774690531 0.43619458012912099 0 -0.22367950943068821 0.43640526481072728 0 -0.20646362774231081 0.47318978885133839 0 -0.22431307709293449 0.45478055344944268 0 -0.20839877753500199 0.45518343796971489 0 -0.20646362774231081 0.47318978885133839 0 -0.20839877753500199 0.45518343796971489 0 -0.20646362774231081 0.47318978885133839 0 -0.22431307709293449 0.45478055344944268 0 -0.20646362774231081 0.47318978885133839 0 -0.2231708942715889 0.47268206551558228 0 -0.22431307709293449 0.45478055344944268 0 -0.1926039175498335 0.47459341242958508 0 -0.20839877753500199 0.45518343796971489 0 -0.1926039175498335 0.47459341242958508 0 -0.20646362774231081 0.47318978885133839 0 -0.20839877753500199 0.45518343796971489 0 -0.18639631012770869 0.45609591179770342 0 -0.1926039175498335 0.47459341242958508 0 -0.20839877753500199 0.45518343796971489 0 -0.18639631012770869 0.45609591179770342 0 -0.20839877753500199 0.45518343796971489 0 -0.19418605307134959 0.44314262826869311 0 -0.1820044526073292 0.44458152435694359 0 -0.18639631012770869 0.45609591179770342 0 -0.19418605307134959 0.44314262826869311 0 -0.19418605307134959 0.44314262826869311 0 -0.19527418278369471 0.42966981056018932 0 -0.18318948751040709 0.43357891116649833 0 -0.19418605307134959 0.44314262826869311 0 -0.19527418278369471 0.42966981056018932 0 -0.21043951774690531 0.43619458012912099 0 -0.19527418278369471 0.42966981056018932 0 -0.19229154344439239 0.41688446431562542 0 -0.18347765438241909 0.42340384642363432 0 -0.19229154344439239 0.41688446431562542 0 -0.2124802579587943 0.41720572228852548 0 -0.19527418278369471 0.42966981056018932 0 -0.19229154344439239 0.41688446431562542 0 -0.2124802579587943 0.41720572228852548 0 -0.19229154344439239 0.41688446431562542 0 -0.2124802579587943 0.41720572228852548 0 -0.20260440082226211 0.39654652132900359 0 -0.19527418278369471 0.42966981056018932 0 -0.2124802579587943 0.41720572228852548 0 -0.21043951774690531 0.43619458012912099 0 -0.2124802579587943 0.41720572228852548 0 -0.21043951774690531 0.43619458012912099 0 -0.2124802579587943 0.41720572228852548 0 -0.21043951774690531 0.43619458012912099 0 -0.22367950943068821 0.43640526481072728 0 -0.22367950943068821 0.43640526481072728 0 -0.238960241326376 0.41762709165174111 0 -0.2124802579587943 0.41720572228852548 0 -0.22367950943068821 0.43640526481072728 0 -0.238960241326376 0.41762709165174111 0 -0.2124802579587943 0.41720572228852548 0 -0.238960241326376 0.41762709165174111 0 -0.2124802579587943 0.41720572228852548 0 -0.238960241326376 0.41762709165174111 0 -0.2321211010450944 0.39990204807401858 0 -0.26001197579418789 0.41796208264565698 0 -0.238960241326376 0.41762709165174111 0 -0.25086616901715519 0.40299614508962778 0 -0.238960241326376 0.41762709165174111 0 -0.2321211010450944 0.39990204807401858 0 -0.25086616901715519 0.40299614508962778 0 -0.25688939613224832 0.40959280918290553 0 -0.238960241326376 0.41762709165174111 0 -0.25086616901715519 0.40299614508962778 0 -0.238960241326376 0.41762709165174111 0 -0.26001197579418789 0.41796208264565698 0 -0.238960241326376 0.41762709165174111 0 -0.24216252644355979 0.43637131804754847 0 -0.22367950943068821 0.43640526481072728 0 -0.238960241326376 0.41762709165174111 0 -0.24216252644355979 0.43637131804754847 0 -0.25086616901715519 0.40299614508962778 0 -0.2414425777850196 0.37985572423364172 0 -0.2321211010450944 0.39990204807401858 0 -0.2124802579587943 0.41720572228852548 0 -0.2321211010450944 0.39990204807401858 0 -0.21528622918692009 0.39109647602343761 0 -0.2414425777850196 0.37985572423364172 0 -0.21528622918692009 0.39109647602343761 0 -0.21832371154352409 0.36283304478096162 0 -0.2414425777850196 0.37985572423364172 0 -0.21528622918692009 0.39109647602343761 0 -0.2414425777850196 0.37985572423364172 0 -0.2321211010450944 0.39990204807401858 0 -0.21528622918692009 0.39109647602343761 0 -0.21528622918692009 0.39109647602343761 0 -0.21832371154352409 0.36283304478096162 0 -0.21528622918692009 0.39109647602343761 0 -0.2025804695076272 0.38117308516752763 0 -0.21832371154352409 0.36283304478096162 0 -0.21528622918692009 0.39109647602343761 0 -0.20260440082226211 0.39654652132900359 0 -0.2025804695076272 0.38117308516752763 0 -0.2124802579587943 0.41720572228852548 0 -0.21528622918692009 0.39109647602343761 0 -0.20260440082226211 0.39654652132900359 0 -0.2124802579587943 0.41720572228852548 0 -0.21528622918692009 0.39109647602343761 0 -0.21528622918692009 0.39109647602343761 0 -0.20260440082226211 0.39654652132900359 0 -0.19229154344439239 0.41688446431562542 0 -0.20260440082226211 0.39654652132900359 0 -0.18326682381006759 0.40246062450325498 0 -0.20260440082226211 0.39654652132900359 0 -0.18825561462840951 0.38814564162594289 0 -0.18326682381006759 0.40246062450325498 0 -0.2025804695076272 0.38117308516752763 0 -0.18825561462840951 0.38814564162594289 0 -0.18847680610527459 0.37063869649948677 0 -0.20260440082226211 0.39654652132900359 0 -0.2025804695076272 0.38117308516752763 0 -0.18825561462840951 0.38814564162594289 0 -0.18825561462840951 0.38814564162594289 0 -0.16521005754721921 0.38878980476924802 0 -0.18847680610527459 0.37063869649948677 0 -0.16521005754721921 0.38878980476924802 0 -0.1569208599259391 0.37726240275924022 0 -0.15831728616446269 0.36101640319576223 0 -0.16521005754721921 0.38878980476924802 0 -0.1569208599259391 0.37726240275924022 0 -0.1470454664987263 0.39053640691630259 0 -0.16521005754721921 0.38878980476924802 0 -0.15775891607970219 0.40021295722701228 0 -0.16285952788634581 0.40731074881639362 0 -0.16521005754721921 0.38878980476924802 0 -0.17210282892999049 0.41656320634273009 0 -0.16285952788634581 0.40731074881639362 0 -0.16521005754721921 0.38878980476924802 0 -0.15775891607970219 0.40021295722701228 0 -0.1470454664987263 0.39053640691630259 0 -0.16521005754721921 0.38878980476924802 0 -0.17210282892999049 0.41656320634273009 0 -0.18825561462840951 0.38814564162594289 0 -0.16521005754721921 0.38878980476924802 0 -0.18326682381006759 0.40246062450325498 0 -0.16521005754721921 0.38878980476924802 0 -0.18326682381006759 0.40246062450325498 0 -0.17210282892999049 0.41656320634273009 0 -0.19229154344439239 0.41688446431562542 0 -0.17210282892999049 0.41656320634273009 0 -0.18347765438241909 0.42340384642363432 0 -0.19229154344439239 0.41688446431562542 0 -0.17210282892999049 0.41656320634273009 0 -0.19229154344439239 0.41688446431562542 0 -0.18326682381006759 0.40246062450325498 0 -0.17210282892999049 0.41656320634273009 0 -0.1731300208322431 0.42070212400160889 0 -0.17210282892999049 0.41656320634273009 0 -0.18347765438241909 0.42340384642363432 0 -0.1731300208322431 0.42070212400160889 0 -0.17210282892999049 0.41656320634273009 0 -0.18318948751040709 0.43357891116649833 0 -0.18347765438241909 0.42340384642363432 0 -0.17878016531021221 0.42588028687792018 0 -0.19527418278369471 0.42966981056018932 0 -0.18318948751040709 0.43357891116649833 0 -0.18347765438241909 0.42340384642363432 0 -0.1731300208322431 0.42070212400160889 0 -0.18347765438241909 0.42340384642363432 0 -0.17878016531021221 0.42588028687792018 0 -0.18318948751040709 0.43357891116649833 0 -0.1750538661543283 0.42845397383507727 0 -0.17878016531021221 0.42588028687792018 0 -0.1731300208322431 0.42070212400160889 0 -0.1750538661543283 0.42845397383507727 0 -0.17078023417087301 0.42562177768172199 0 -0.1731300208322431 0.42070212400160889 0 -0.1750538661543283 0.42845397383507727 0 -0.17878016531021221 0.42588028687792018 0 -0.1731300208322431 0.42070212400160889 0 -0.1750538661543283 0.42845397383507727 0 -0.1742173591103223 0.43957623572947851 0 -0.1750538661543283 0.42845397383507727 0 -0.17086504931304411 0.4326410162877089 0 -0.1742173591103223 0.43957623572947851 0 -0.18318948751040709 0.43357891116649833 0 -0.1750538661543283 0.42845397383507727 0 -0.16491341705397189 0.43342472242831542 0 -0.1584109230770202 0.42723530713147162 0 -0.15779378089108551 0.41633551003428593 0 -0.16491341705397189 0.43342472242831542 0 -0.16566149476336661 0.42422187973223768 0 -0.15779378089108551 0.41633551003428593 0 -0.16491341705397189 0.43342472242831542 0 -0.15779378089108551 0.41633551003428593 0 -0.1742173591103223 0.43957623572947851 0 -0.17086504931304411 0.4326410162877089 0 -0.16491341705397189 0.43342472242831542 0 -0.1750538661543283 0.42845397383507727 0 -0.17086504931304411 0.4326410162877089 0 -0.1692755549335539 0.42910913315796451 0 -0.17086504931304411 0.4326410162877089 0 -0.16491341705397189 0.43342472242831542 0 -0.1692755549335539 0.42910913315796451 0 -0.16491341705397189 0.43342472242831542 0 -0.1692755549335539 0.42910913315796451 0 -0.16566149476336661 0.42422187973223768 0 -0.1750538661543283 0.42845397383507727 0 -0.1692755549335539 0.42910913315796451 0 -0.17078023417087301 0.42562177768172199 0 -0.1692755549335539 0.42910913315796451 0 -0.17078023417087301 0.42562177768172199 0 -0.16566149476336661 0.42422187973223768 0 -0.1731300208322431 0.42070212400160889 0 -0.17078023417087301 0.42562177768172199 0 -0.16566149476336661 0.42422187973223768 0 -0.1584109230770202 0.42723530713147162 0 -0.1621483281054216 0.43412746103621502 0 -0.14878816625760191 0.42505353502707061 0 -0.16014899833009849 0.44168490778754022 0 -0.16491341705397189 0.43342472242831542 0 -0.1621483281054216 0.43412746103621502 0 -0.16491341705397189 0.43342472242831542 0 -0.1584109230770202 0.42723530713147162 0 -0.1621483281054216 0.43412746103621502 0 -0.17210282892999049 0.41656320634273009 0 -0.16240842688411039 0.41640894174368509 0 -0.16285952788634581 0.40731074881639362 0 -0.1731300208322431 0.42070212400160889 0 -0.17210282892999049 0.41656320634273009 0 -0.16240842688411039 0.41640894174368509 0 -0.17210282892999049 0.41656320634273009 0 -0.16240842688411039 0.41640894174368509 0 -0.1731300208322431 0.42070212400160889 0 -0.16566149476336661 0.42422187973223768 0 -0.16240842688411039 0.41640894174368509 0 -0.1731300208322431 0.42070212400160889 0 -0.16240842688411039 0.41640894174368509 0 -0.16566149476336661 0.42422187973223768 0 -0.16240842688411039 0.41640894174368509 0 -0.15779378089108551 0.41633551003428593 0 -0.16240842688411039 0.41640894174368509 0 -0.15779378089108551 0.41633551003428593 0 -0.16240842688411039 0.41640894174368509 0 -0.15779378089108551 0.41633551003428593 0 -0.15690653142702601 0.41420585141256733 0 -0.16240842688411039 0.41640894174368509 0 -0.15690653142702601 0.41420585141256733 0 -0.15779378089108551 0.41633551003428593 0 -0.15690653142702601 0.41420585141256733 0 -0.16240842688411039 0.41640894174368509 0 -0.15690653142702601 0.41420585141256733 0 -0.16285952788634581 0.40731074881639362 0 -0.15775891607970219 0.40021295722701228 0 -0.15690653142702601 0.41420585141256733 0 -0.16285952788634581 0.40731074881639362 0 -0.15779378089108551 0.41633551003428593 0 -0.14878816625760191 0.42505353502707061 0 -0.1354280044097825 0.41597960901792541 0 -0.15690653142702601 0.41420585141256733 0 -0.1357413620417379 0.4057308121478429 0 -0.1395766889899063 0.40057555972889608 0 -0.15690653142702601 0.41420585141256733 0 -0.1354280044097825 0.41597960901792541 0 -0.1357413620417379 0.4057308121478429 0 -0.15779378089108551 0.41633551003428593 0 -0.15690653142702601 0.41420585141256733 0 -0.1354280044097825 0.41597960901792541 0 -0.15690653142702601 0.41420585141256733 0 -0.1357413620417379 0.4057308121478429 0 -0.15779378089108551 0.41633551003428593 0 -0.1354280044097825 0.41597960901792541 0 -0.14878816625760191 0.42505353502707061 0 -0.1354280044097825 0.41597960901792541 0 -0.1321213831254659 0.44038238446620981 0 -0.14936796534065211 0.43857236019682461 0 -0.14878816625760191 0.42505353502707061 0 -0.14936796534065211 0.43857236019682461 0 -0.1621483281054216 0.43412746103621502 0 -0.14878816625760191 0.42505353502707061 0 -0.1621483281054216 0.43412746103621502 0 -0.14878816625760191 0.42505353502707061 0 -0.1584109230770202 0.42723530713147162 0 -0.15779378089108551 0.41633551003428593 0 -0.14878816625760191 0.42505353502707061 0 -0.1321213831254659 0.44038238446620981 0 -0.12820216006912069 0.41586462596124252 0 -0.1321213831254659 0.44038238446620981 0 -0.1354280044097825 0.41597960901792541 0 -0.12820216006912069 0.41586462596124252 0 -0.1321213831254659 0.44038238446620981 0 -0.12820216006912069 0.41586462596124252 0 -0.1204628113787696 0.4337878902401433 0 -0.1321213831254659 0.44038238446620981 0 -0.14878816625760191 0.42505353502707061 0 -0.1354280044097825 0.41597960901792541 0 -0.1321213831254659 0.44038238446620981 0 -0.1204628113787696 0.4337878902401433 0 -0.1354280044097825 0.41597960901792541 0 -0.13057085765319459 0.41268074252312942 0 -0.1357413620417379 0.4057308121478429 0 -0.13057085765319459 0.41268074252312942 0 -0.1357413620417379 0.4057308121478429 0 -0.1354280044097825 0.41597960901792541 0 -0.13057085765319459 0.41268074252312942 0 -0.1354280044097825 0.41597960901792541 0 -0.12820216006912069 0.41586462596124252 0 -0.1354280044097825 0.41597960901792541 0 -0.12820216006912069 0.41586462596124252 0 -0.13057085765319459 0.41268074252312942 0 -0.12820216006912069 0.41586462596124252 0 -0.13057085765319459 0.41268074252312942 0 -0.12820216006912069 0.41586462596124252 0 -0.12659147985121649 0.40997803726036081 0 -0.13057085765319459 0.41268074252312942 0 -0.12659147985121649 0.40997803726036081 0 -0.12820216006912069 0.41586462596124252 0 -0.13057085765319459 0.41268074252312942 0 -0.12659147985121649 0.40997803726036081 0 -0.13057085765319459 0.41268074252312942 0 -0.12659147985121649 0.40997803726036081 0 -0.1357413620417379 0.4057308121478429 0 -0.12659147985121649 0.40997803726036081 0 -0.12530789812288429 0.40292068695969291 0 -0.1357413620417379 0.4057308121478429 0 -0.11697638725260109 0.3982168681181748 0 -0.12530789812288429 0.40292068695969291 0 -0.1357413620417379 0.4057308121478429 0 -0.11697638725260109 0.3982168681181748 0 -0.12659147985121649 0.40997803726036081 0 -0.12530789812288429 0.40292068695969291 0 -0.1357413620417379 0.4057308121478429 0 -0.1395766889899063 0.40057555972889608 0 -0.13595475082731021 0.39115203121311132 0 -0.14362484304792189 0.38232590860804549 0 -0.1357413620417379 0.4057308121478429 0 -0.1304354930519899 0.39680035994635549 0 -0.11697638725260109 0.3982168681181748 0 -0.1357413620417379 0.4057308121478429 0 -0.1395766889899063 0.40057555972889608 0 -0.1304354930519899 0.39680035994635549 0 -0.1357413620417379 0.4057308121478429 0 -0.1395766889899063 0.40057555972889608 0 -0.1395766889899063 0.40057555972889608 0 -0.13595475082731021 0.39115203121311132 0 -0.1304354930519899 0.39680035994635549 0 -0.13595475082731021 0.39115203121311132 0 -0.13126342404213551 0.39079023180414257 0 -0.1304354930519899 0.39680035994635549 0 -0.13126342404213551 0.39079023180414257 0 -0.1304354930519899 0.39680035994635549 0 -0.1249074766838542 0.38939967696241667 0 -0.13126342404213551 0.39079023180414257 0 -0.13001214901877789 0.38544116409026752 0 -0.1249074766838542 0.38939967696241667 0 -0.13001214901877789 0.38544116409026752 0 -0.1257688035067224 0.38080724158951462 0 -0.1249074766838542 0.38939967696241667 0 -0.13001214901877789 0.38544116409026752 0 -0.13293024471329321 0.38070437184445549 0 -0.13519079614788429 0.38550429825080801 0 -0.13126342404213551 0.39079023180414257 0 -0.13001214901877789 0.38544116409026752 0 -0.13519079614788429 0.38550429825080801 0 -0.1257688035067224 0.38080724158951462 0 -0.1325829101430043 0.37365951766043021 0 -0.1211389501876302 0.37216177000073281 0 -0.13001214901877789 0.38544116409026752 0 -0.1257688035067224 0.38080724158951462 0 -0.13293024471329321 0.38070437184445549 0 -0.1257688035067224 0.38080724158951462 0 -0.13293024471329321 0.38070437184445549 0 -0.1325829101430043 0.37365951766043021 0 -0.1385928048548907 0.37830748058160851 0 -0.1410524101602377 0.3761513161174676 0 -0.1325829101430043 0.37365951766043021 0 -0.1385928048548907 0.37830748058160851 0 -0.13519079614788429 0.38550429825080801 0 -0.14362484304792189 0.38232590860804549 0 -0.13293024471329321 0.38070437184445549 0 -0.1385928048548907 0.37830748058160851 0 -0.1325829101430043 0.37365951766043021 0 -0.13293024471329321 0.38070437184445549 0 -0.1385928048548907 0.37830748058160851 0 -0.13519079614788429 0.38550429825080801 0 -0.1385928048548907 0.37830748058160851 0 -0.1410524101602377 0.3761513161174676 0 -0.13595475082731021 0.39115203121311132 0 -0.13519079614788429 0.38550429825080801 0 -0.14362484304792189 0.38232590860804549 0 -0.13595475082731021 0.39115203121311132 0 -0.13126342404213551 0.39079023180414257 0 -0.13519079614788429 0.38550429825080801 0 -0.1470454664987263 0.39053640691630259 0 -0.14362484304792189 0.38232590860804549 0 -0.1410524101602377 0.3761513161174676 0 -0.14362484304792189 0.38232590860804549 0 -0.14621894353411249 0.37162217656838459 0 -0.14362484304792189 0.38232590860804549 0 -0.14621894353411249 0.37162217656838459 0 -0.1410524101602377 0.3761513161174676 0 -0.14362484304792189 0.38232590860804549 0 -0.1385928048548907 0.37830748058160851 0 -0.1410524101602377 0.3761513161174676 0 -0.14362484304792189 0.38232590860804549 0 -0.1569208599259391 0.37726240275924022 0 -0.14362484304792189 0.38232590860804549 0 -0.14621894353411249 0.37162217656838459 0 -0.1569208599259391 0.37726240275924022 0 -0.1470454664987263 0.39053640691630259 0 -0.1569208599259391 0.37726240275924022 0 -0.1470454664987263 0.39053640691630259 0 -0.14362484304792189 0.38232590860804549 0 -0.15690653142702601 0.41420585141256733 0 -0.1395766889899063 0.40057555972889608 0 -0.1470454664987263 0.39053640691630259 0 -0.15690653142702601 0.41420585141256733 0 -0.1470454664987263 0.39053640691630259 0 -0.1395766889899063 0.40057555972889608 0 -0.1470454664987263 0.39053640691630259 0 -0.14362484304792189 0.38232590860804549 0 -0.1395766889899063 0.40057555972889608 0 -0.14362484304792189 0.38232590860804549 0 -0.15775891607970219 0.40021295722701228 0 -0.15690653142702601 0.41420585141256733 0 -0.1470454664987263 0.39053640691630259 0 -0.1395766889899063 0.40057555972889608 0 -0.1470454664987263 0.39053640691630259 0 -0.15349673188877611 0.34159269359176958 0 -0.15831728616446269 0.36101640319576223 0 -0.14181556223129441 0.34982353942942002 0 -0.1498578377114434 0.35660743508007692 0 -0.14621894353411249 0.37162217656838459 0 -0.1498578377114434 0.35660743508007692 0 -0.15349673188877611 0.34159269359176958 0 -0.15831728616446269 0.36101640319576223 0 -0.14181556223129441 0.34982353942942002 0 -0.1498578377114434 0.35660743508007692 0 -0.15349673188877611 0.34159269359176958 0 -0.1498578377114434 0.35660743508007692 0 -0.15349673188877611 0.34159269359176958 0 -0.1569208599259391 0.37726240275924022 0 -0.14621894353411249 0.37162217656838459 0 -0.15831728616446269 0.36101640319576223 0 -0.1498578377114434 0.35660743508007692 0 -0.14621894353411249 0.37162217656838459 0 -0.15831728616446269 0.36101640319576223 0 -0.14621894353411249 0.37162217656838459 0 -0.15831728616446269 0.36101640319576223 0 -0.1410524101602377 0.3761513161174676 0 -0.14621894353411249 0.37162217656838459 0 -0.1498578377114434 0.35660743508007692 0 -0.14621894353411249 0.37162217656838459 0 -0.1410524101602377 0.3761513161174676 0 -0.14621894353411249 0.37162217656838459 0 -0.13053410816412711 0.35090431012956352 0 -0.1410524101602377 0.3761513161174676 0 -0.12994666483719139 0.36596359678786239 0 -0.13053410816412711 0.35090431012956352 0 -0.1410524101602377 0.3761513161174676 0 -0.13053410816412711 0.35090431012956352 0 -0.1410524101602377 0.3761513161174676 0 -0.1325829101430043 0.37365951766043021 0 -0.12994666483719139 0.36596359678786239 0 -0.1325829101430043 0.37365951766043021 0 -0.12994666483719139 0.36596359678786239 0 -0.1211389501876302 0.37216177000073281 0 -0.12994666483719139 0.36596359678786239 0 -0.13053410816412711 0.35090431012956352 0 -0.1210940127621489 0.3608746761031778 0 -0.14181556223129441 0.34982353942942002 0 -0.14621894353411249 0.37162217656838459 0 -0.13053410816412711 0.35090431012956352 0 -0.14181556223129441 0.34982353942942002 0 -0.13053410816412711 0.35090431012956352 0 -0.13332905700747399 0.33765847330916748 0 -0.13053410816412711 0.35090431012956352 0 -0.13332905700747399 0.33765847330916748 0 -0.1200158061680156 0.32565730414165972 0 -0.13053410816412711 0.35090431012956352 0 -0.1200158061680156 0.32565730414165972 0 -0.13332905700747399 0.33765847330916748 0 -0.13264364514190391 0.32688024768995622 0 -0.1200158061680156 0.32565730414165972 0 -0.13332905700747399 0.33765847330916748 0 -0.13264364514190391 0.32688024768995622 0 -0.14294387454526419 0.33039595831227192 0 -0.13332905700747399 0.33765847330916748 0 -0.14549656465375821 0.33983168356629262 0 -0.14294387454526419 0.33039595831227192 0 -0.14181556223129441 0.34982353942942002 0 -0.13332905700747399 0.33765847330916748 0 -0.14549656465375821 0.33983168356629262 0 -0.12889264244332299 0.31799548808391431 0 -0.13264364514190391 0.32688024768995622 0 -0.1200158061680156 0.32565730414165972 0 -0.12889264244332299 0.31799548808391431 0 -0.13264364514190391 0.32688024768995622 0 -0.1380368455454426 0.32269401460276798 0 -0.13264364514190391 0.32688024768995622 0 -0.1380368455454426 0.32269401460276798 0 -0.14294387454526419 0.33039595831227192 0 -0.1380368455454426 0.32269401460276798 0 -0.1373664582744055 0.31327811591879362 0 -0.14511898636105719 0.30783580860296461 0 -0.12889264244332299 0.31799548808391431 0 -0.1380368455454426 0.32269401460276798 0 -0.1373664582744055 0.31327811591879362 0 -0.14294387454526419 0.33039595831227192 0 -0.1518601818918876 0.3349984577271693 0 -0.14511898636105719 0.30783580860296461 0 -0.1518601818918876 0.3349984577271693 0 -0.15582461164924549 0.33198743685276838 0 -0.14511898636105719 0.30783580860296461 0 -0.1518601818918876 0.3349984577271693 0 -0.14511898636105719 0.30783580860296461 0 -0.15582461164924549 0.33198743685276838 0 -0.16010880906920341 0.31431005641497822 0 -0.14511898636105719 0.30783580860296461 0 -0.1380368455454426 0.32269401460276798 0 -0.14294387454526419 0.33039595831227192 0 -0.14511898636105719 0.30783580860296461 0 -0.14181556223129441 0.34982353942942002 0 -0.14549656465375821 0.33983168356629262 0 -0.15349673188877611 0.34159269359176958 0 -0.14549656465375821 0.33983168356629262 0 -0.14294387454526419 0.33039595831227192 0 -0.1518601818918876 0.3349984577271693 0 -0.1518601818918876 0.3349984577271693 0 -0.15582461164924549 0.33198743685276838 0 -0.1518601818918876 0.3349984577271693 0 -0.15349673188877611 0.34159269359176958 0 -0.14549656465375821 0.33983168356629262 0 -0.1518601818918876 0.3349984577271693 0 -0.15349673188877611 0.34159269359176958 0 -0.1518601818918876 0.3349984577271693 0 -0.15582461164924549 0.33198743685276838 0 -0.15349673188877611 0.34159269359176958 0 -0.15582461164924549 0.33198743685276838 0 -0.15349673188877611 0.34159269359176958 0 -0.14549656465375821 0.33983168356629262 0 -0.1518601818918876 0.3349984577271693 0 -0.15582461164924549 0.33198743685276838 0 -0.16576214017512719 0.33937938955155678 0 -0.1752320363994912 0.31724731920210508 0 -0.15582461164924549 0.33198743685276838 0 -0.15349673188877611 0.34159269359176958 0 -0.16576214017512719 0.33937938955155678 0 -0.15582461164924549 0.33198743685276838 0 -0.1752320363994912 0.31724731920210508 0 -0.15582461164924549 0.33198743685276838 0 -0.16010880906920341 0.31431005641497822 0 -0.1752320363994912 0.31724731920210508 0 -0.15582461164924549 0.33198743685276838 0 -0.16010880906920341 0.31431005641497822 0 -0.16010880906920341 0.31431005641497822 0 -0.1752320363994912 0.31724731920210508 0 -0.16931685635958399 0.30730161517213761 0 -0.1752320363994912 0.31724731920210508 0 -0.1793542169534697 0.34257479286774389 0 -0.1892252767570933 0.31552502340736882 0 -0.16576214017512719 0.33937938955155678 0 -0.1752320363994912 0.31724731920210508 0 -0.1793542169534697 0.34257479286774389 0 -0.1793542169534697 0.34257479286774389 0 -0.17546221432450571 0.35935461463036311 0 -0.1972282150948958 0.34901732414279429 0 -0.1793542169534697 0.34257479286774389 0 -0.17546221432450571 0.35935461463036311 0 -0.15831728616446269 0.36101640319576223 0 -0.15349673188877611 0.34159269359176958 0 -0.16576214017512719 0.33937938955155678 0 -0.15831728616446269 0.36101640319576223 0 -0.1793542169534697 0.34257479286774389 0 -0.15831728616446269 0.36101640319576223 0 -0.16576214017512719 0.33937938955155678 0 -0.1793542169534697 0.34257479286774389 0 -0.15831728616446269 0.36101640319576223 0 -0.16521005754721921 0.38878980476924802 0 -0.15831728616446269 0.36101640319576223 0 -0.16521005754721921 0.38878980476924802 0 -0.17546221432450571 0.35935461463036311 0 -0.15831728616446269 0.36101640319576223 0 -0.16521005754721921 0.38878980476924802 0 -0.17546221432450571 0.35935461463036311 0 -0.18847680610527459 0.37063869649948677 0 -0.17546221432450571 0.35935461463036311 0 -0.18847680610527459 0.37063869649948677 0 -0.1972282150948958 0.34901732414279429 0 -0.18847680610527459 0.37063869649948677 0 -0.1972282150948958 0.34901732414279429 0 -0.21832371154352409 0.36283304478096162 0 -0.1972282150948958 0.34901732414279429 0 -0.21832371154352409 0.36283304478096162 0 -0.22136119390012379 0.33456961353848519 0 -0.2025804695076272 0.38117308516752763 0 -0.18847680610527459 0.37063869649948677 0 -0.21832371154352409 0.36283304478096162 0 -0.2414425777850196 0.37985572423364172 0 -0.21832371154352409 0.36283304478096162 0 -0.2390905002472514 0.3591306733916288 0 -0.21832371154352409 0.36283304478096162 0 -0.22136119390012379 0.33456961353848519 0 -0.21832371154352409 0.36283304478096162 0 -0.2390905002472514 0.3591306733916288 0 -0.22136119390012379 0.33456961353848519 0 -0.25975043902048162 0.34777742534142331 0 -0.2390905002472514 0.3591306733916288 0 -0.24362753599067871 0.33951637142846258 0 -0.2390905002472514 0.3591306733916288 0 -0.24362753599067871 0.33951637142846258 0 -0.22136119390012379 0.33456961353848519 0 -0.26759892638311988 0.36861497244384789 0 -0.2414425777850196 0.37985572423364172 0 -0.2390905002472514 0.3591306733916288 0 -0.2581845081493222 0.33170091255816753 0 -0.25361347215596752 0.31651864140693531 0 -0.2380482947010257 0.32467809890165472 0 -0.25361347215596752 0.31651864140693531 0 -0.2380482947010257 0.32467809890165472 0 -0.23939702718280101 0.30956648633560557 0 -0.2581845081493222 0.33170091255816753 0 -0.2380482947010257 0.32467809890165472 0 -0.24362753599067871 0.33951637142846258 0 -0.2380482947010257 0.32467809890165472 0 -0.24362753599067871 0.33951637142846258 0 -0.22136119390012379 0.33456961353848519 0 -0.22136119390012379 0.33456961353848519 0 -0.21364385439265179 0.3169016266431392 0 -0.22439867625672341 0.30630618229600892 0 -0.22136119390012379 0.33456961353848519 0 -0.22439867625672341 0.30630618229600892 0 -0.2380482947010257 0.32467809890165472 0 -0.22136119390012379 0.33456961353848519 0 -0.22439867625672341 0.30630618229600892 0 -0.2380482947010257 0.32467809890165472 0 -0.22439867625672341 0.30630618229600892 0 -0.23939702718280101 0.30956648633560557 0 -0.22136119390012379 0.33456961353848519 0 -0.21364385439265179 0.3169016266431392 0 -0.20039114774247679 0.32413318253972562 0 -0.21364385439265179 0.3169016266431392 0 -0.20039114774247679 0.32413318253972562 0 -0.20969276475162729 0.30366341763053778 0 -0.1972282150948958 0.34901732414279429 0 -0.22136119390012379 0.33456961353848519 0 -0.20039114774247679 0.32413318253972562 0 -0.1793542169534697 0.34257479286774389 0 -0.20039114774247679 0.32413318253972562 0 -0.1793542169534697 0.34257479286774389 0 -0.1972282150948958 0.34901732414279429 0 -0.20039114774247679 0.32413318253972562 0 -0.1793542169534697 0.34257479286774389 0 -0.1892252767570933 0.31552502340736882 0 -0.20039114774247679 0.32413318253972562 0 -0.1892252767570933 0.31552502340736882 0 -0.20039114774247679 0.32413318253972562 0 -0.19463946114973649 0.30250720155144151 0 -0.20039114774247679 0.32413318253972562 0 -0.19463946114973649 0.30250720155144151 0 -0.20969276475162729 0.30366341763053778 0 -0.20642177457193769 0.28423939269475368 0 -0.1945102388778033 0.27184786795611132 0 -0.1854073905305503 0.29043603433597182 0 -0.20642177457193769 0.28423939269475368 0 -0.1854073905305503 0.29043603433597182 0 -0.19463946114973649 0.30250720155144151 0 -0.20642177457193769 0.28423939269475368 0 -0.1854073905305503 0.29043603433597182 0 -0.19463946114973649 0.30250720155144151 0 -0.21404688589998189 0.28776708390077788 0 -0.20642177457193769 0.28423939269475368 0 -0.19463946114973649 0.30250720155144151 0 -0.21404688589998189 0.28776708390077788 0 -0.21404688589998189 0.28776708390077788 0 -0.20642177457193769 0.28423939269475368 0 -0.22743615861332431 0.27804275105353249 0 -0.19463946114973649 0.30250720155144151 0 -0.21404688589998189 0.28776708390077788 0 -0.20969276475162729 0.30366341763053778 0 -0.21404688589998189 0.28776708390077788 0 -0.20969276475162729 0.30366341763053778 0 -0.22439867625672341 0.30630618229600892 0 -0.21364385439265179 0.3169016266431392 0 -0.20969276475162729 0.30366341763053778 0 -0.22439867625672341 0.30630618229600892 0 -0.22439867625672341 0.30630618229600892 0 -0.23555690771836019 0.29644407863100541 0 -0.23939702718280101 0.30956648633560557 0 -0.21404688589998189 0.28776708390077788 0 -0.22439867625672341 0.30630618229600892 0 -0.22743615861332431 0.27804275105353249 0 -0.23555690771836019 0.29644407863100541 0 -0.23793366203224639 0.28531369496518288 0 -0.22743615861332431 0.27804275105353249 0 -0.22439867625672341 0.30630618229600892 0 -0.23555690771836019 0.29644407863100541 0 -0.22743615861332431 0.27804275105353249 0 -0.22439867625672341 0.30630618229600892 0 -0.22743615861332431 0.27804275105353249 0 -0.23793366203224639 0.28531369496518288 0 -0.2462735301734813 0.2911967489769221 0 -0.24841076489466299 0.27185783892691301 0 -0.23555690771836019 0.29644407863100541 0 -0.23793366203224639 0.28531369496518288 0 -0.2462735301734813 0.2911967489769221 0 -0.23555690771836019 0.29644407863100541 0 -0.2462735301734813 0.2911967489769221 0 -0.2481588855257878 0.30219792245771437 0 -0.25179876235570497 0.29721277107041422 0 -0.2462735301734813 0.2911967489769221 0 -0.2481588855257878 0.30219792245771437 0 -0.25361347215596752 0.31651864140693531 0 -0.2481588855257878 0.30219792245771437 0 -0.23939702718280101 0.30956648633560557 0 -0.23555690771836019 0.29644407863100541 0 -0.2481588855257878 0.30219792245771437 0 -0.23939702718280101 0.30956648633560557 0 -0.2403333629437539 0.25252643582608031 0 -0.24841076489466299 0.27185783892691301 0 -0.25172551204531202 0.2614767230684778 0 -0.2403333629437539 0.25252643582608031 0 -0.24841076489466299 0.27185783892691301 0 -0.23555842704039859 0.26558930246276219 0 -0.2403333629437539 0.25252643582608031 0 -0.24841076489466299 0.27185783892691301 0 -0.23555842704039859 0.26558930246276219 0 -0.2403333629437539 0.25252643582608031 0 -0.23010005325441499 0.2532555114298633 0 -0.25172551204531202 0.2614767230684778 0 -0.25573330318227427 0.25379713005068871 0 -0.2403333629437539 0.25252643582608031 0 -0.23793366203224639 0.28531369496518288 0 -0.24841076489466299 0.27185783892691301 0 -0.2310038085931759 0.27699073599647478 0 -0.24841076489466299 0.27185783892691301 0 -0.2310038085931759 0.27699073599647478 0 -0.23555842704039859 0.26558930246276219 0 -0.24841076489466299 0.27185783892691301 0 -0.2310038085931759 0.27699073599647478 0 -0.23793366203224639 0.28531369496518288 0 -0.2310038085931759 0.27699073599647478 0 -0.23555842704039859 0.26558930246276219 0 -0.22794414551598829 0.27331599013447999 0 -0.2310038085931759 0.27699073599647478 0 -0.23793366203224639 0.28531369496518288 0 -0.2310038085931759 0.27699073599647478 0 -0.22743615861332431 0.27804275105353249 0 -0.22794414551598829 0.27331599013447999 0 -0.2310038085931759 0.27699073599647478 0 -0.22743615861332431 0.27804275105353249 0 -0.22794414551598829 0.27331599013447999 0 -0.22743615861332431 0.27804275105353249 0 -0.22794414551598829 0.27331599013447999 0 -0.2310038085931759 0.27699073599647478 0 -0.2310038085931759 0.27699073599647478 0 -0.22743615861332431 0.27804275105353249 0 -0.22794414551598829 0.27331599013447999 0 -0.22743615861332431 0.27804275105353249 0 -0.2149135442648655 0.27430626339990449 0 -0.22794414551598829 0.27331599013447999 0 -0.23010005325441499 0.2532555114298633 0 -0.2093904597989113 0.25103246476135638 0 -0.22794414551598829 0.27331599013447999 0 -0.23010005325441499 0.2532555114298633 0 -0.23555842704039859 0.26558930246276219 0 -0.22794414551598829 0.27331599013447999 0 -0.23010005325441499 0.2532555114298633 0 -0.22794414551598829 0.27331599013447999 0 -0.2093904597989113 0.25103246476135638 0 -0.22794414551598829 0.27331599013447999 0 -0.2093904597989113 0.25103246476135638 0 -0.2149135442648655 0.27430626339990449 0 -0.2093904597989113 0.25103246476135638 0 -0.2149135442648655 0.27430626339990449 0 -0.1945102388778033 0.27184786795611132 0 -0.20642177457193769 0.28423939269475368 0 -0.2149135442648655 0.27430626339990449 0 -0.1945102388778033 0.27184786795611132 0 -0.20642177457193769 0.28423939269475368 0 -0.22743615861332431 0.27804275105353249 0 -0.2149135442648655 0.27430626339990449 0 -0.20642177457193769 0.28423939269475368 0 -0.22743615861332431 0.27804275105353249 0 -0.2093904597989113 0.25103246476135638 0 -0.1945102388778033 0.27184786795611132 0 -0.18107078859261619 0.25698777302626541 0 -0.2093904597989113 0.25103246476135638 0 -0.18107078859261619 0.25698777302626541 0 -0.18446325021697979 0.24235414717463771 0 -0.18107078859261619 0.25698777302626541 0 -0.16638383550498251 0.25957977151469103 0 -0.16985747550793909 0.27408527951841638 0 -0.18107078859261619 0.25698777302626541 0 -0.16638383550498251 0.25957977151469103 0 -0.16927361340338171 0.247141089791893 0 -0.16638383550498251 0.25957977151469103 0 -0.1567069747180628 0.25251712941841459 0 -0.16927361340338171 0.247141089791893 0 -0.16638383550498251 0.25957977151469103 0 -0.1567069747180628 0.25251712941841459 0 -0.155010325302913 0.26716758581846528 0 -0.16985747550793909 0.27408527951841638 0 -0.155010325302913 0.26716758581846528 0 -0.15558959027237029 0.28088179813795089 0 -0.16638383550498251 0.25957977151469103 0 -0.16985747550793909 0.27408527951841638 0 -0.155010325302913 0.26716758581846528 0 -0.1945102388778033 0.27184786795611132 0 -0.18107078859261619 0.25698777302626541 0 -0.16985747550793909 0.27408527951841638 0 -0.1945102388778033 0.27184786795611132 0 -0.16985747550793909 0.27408527951841638 0 -0.1854073905305503 0.29043603433597182 0 -0.1854073905305503 0.29043603433597182 0 -0.16439300648916241 0.29663267597718829 0 -0.16985747550793909 0.27408527951841638 0 -0.1854073905305503 0.29043603433597182 0 -0.16439300648916241 0.29663267597718829 0 -0.1854073905305503 0.29043603433597182 0 -0.17779775018570479 0.30282496924776892 0 -0.16439300648916241 0.29663267597718829 0 -0.1752320363994912 0.31724731920210508 0 -0.19463946114973649 0.30250720155144151 0 -0.17779775018570479 0.30282496924776892 0 -0.1752320363994912 0.31724731920210508 0 -0.1892252767570933 0.31552502340736882 0 -0.19463946114973649 0.30250720155144151 0 -0.1752320363994912 0.31724731920210508 0 -0.19463946114973649 0.30250720155144151 0 -0.19463946114973649 0.30250720155144151 0 -0.1854073905305503 0.29043603433597182 0 -0.17779775018570479 0.30282496924776892 0 -0.1752320363994912 0.31724731920210508 0 -0.17779775018570479 0.30282496924776892 0 -0.16931685635958399 0.30730161517213761 0 -0.16010880906920341 0.31431005641497822 0 -0.16439300648916241 0.29663267597718829 0 -0.14511898636105719 0.30783580860296461 0 -0.16010880906920341 0.31431005641497822 0 -0.16931685635958399 0.30730161517213761 0 -0.16439300648916241 0.29663267597718829 0 -0.16010880906920341 0.31431005641497822 0 -0.16439300648916241 0.29663267597718829 0 -0.17779775018570479 0.30282496924776892 0 -0.16931685635958399 0.30730161517213761 0 -0.16439300648916241 0.29663267597718829 0 -0.16985747550793909 0.27408527951841638 0 -0.16439300648916241 0.29663267597718829 0 -0.16985747550793909 0.27408527951841638 0 -0.16439300648916241 0.29663267597718829 0 -0.15558959027237029 0.28088179813795089 0 -0.16439300648916241 0.29663267597718829 0 -0.14665311302603051 0.29019576049764079 0 -0.15558959027237029 0.28088179813795089 0 -0.14665311302603051 0.29019576049764079 0 -0.15558959027237029 0.28088179813795089 0 -0.142034031035807 0.27632768887804399 0 -0.16439300648916241 0.29663267597718829 0 -0.1374173587477992 0.30458715238552753 0 -0.16439300648916241 0.29663267597718829 0 -0.14511898636105719 0.30783580860296461 0 -0.1374173587477992 0.30458715238552753 0 -0.16439300648916241 0.29663267597718829 0 -0.14665311302603051 0.29019576049764079 0 -0.1374173587477992 0.30458715238552753 0 -0.12889264244332299 0.31799548808391431 0 -0.1374173587477992 0.30458715238552753 0 -0.11044171100643541 0.31254162879386532 0 -0.1373664582744055 0.31327811591879362 0 -0.14511898636105719 0.30783580860296461 0 -0.1374173587477992 0.30458715238552753 0 -0.12889264244332299 0.31799548808391431 0 -0.1373664582744055 0.31327811591879362 0 -0.1374173587477992 0.30458715238552753 0 -0.14665311302603051 0.29019576049764079 0 -0.1305371324536285 0.28768673971485031 0 -0.142034031035807 0.27632768887804399 0 -0.14665311302603051 0.29019576049764079 0 -0.1374173587477992 0.30458715238552753 0 -0.1305371324536285 0.28768673971485031 0 -0.1374173587477992 0.30458715238552753 0 -0.1305371324536285 0.28768673971485031 0 -0.1196726798547111 0.29763533733947639 0 -0.1305371324536285 0.28768673971485031 0 -0.12642762793174719 0.26944557588761719 0 -0.142034031035807 0.27632768887804399 0 -0.12642762793174719 0.26944557588761719 0 -0.141828962649382 0.25809668212619652 0 -0.142034031035807 0.27632768887804399 0 -0.12642762793174719 0.26944557588761719 0 -0.141828962649382 0.25809668212619652 0 -0.12591495098227851 0.2444315350264871 0 -0.1567069747180628 0.25251712941841459 0 -0.141828962649382 0.25809668212619652 0 -0.155010325302913 0.26716758581846528 0 -0.141828962649382 0.25809668212619652 0 -0.155010325302913 0.26716758581846528 0 -0.142034031035807 0.27632768887804399 0 -0.155010325302913 0.26716758581846528 0 -0.15558959027237029 0.28088179813795089 0 -0.142034031035807 0.27632768887804399 0 -0.11022408155611579 0.26410001189542942 0 -0.1114810778717143 0.2840868470646381 0 -0.090039907219778559 0.27118187875873828 0 -0.1114810778717143 0.2840868470646381 0 -0.090039907219778559 0.27118187875873828 0 -0.097256843775060275 0.25135422273966612 0 -0.11022408155611579 0.26410001189542942 0 -0.090039907219778559 0.27118187875873828 0 -0.12642762793174719 0.26944557588761719 0 -0.11022408155611579 0.26410001189542942 0 -0.12591495098227851 0.2444315350264871 0 -0.097256843775060275 0.25135422273966612 0 -0.11022408155611579 0.26410001189542942 0 -0.12591495098227851 0.2444315350264871 0 -0.12642762793174719 0.26944557588761719 0 -0.11022408155611579 0.26410001189542942 0 -0.1114810778717143 0.2840868470646381 0 -0.1305371324536285 0.28768673971485031 0 -0.12642762793174719 0.26944557588761719 0 -0.1114810778717143 0.2840868470646381 0 -0.1305371324536285 0.28768673971485031 0 -0.1114810778717143 0.2840868470646381 0 -0.1196726798547111 0.29763533733947639 0 -0.1114810778717143 0.2840868470646381 0 -0.1196726798547111 0.29763533733947639 0 -0.1084861191939782 0.2992743187385008 0 -0.1374173587477992 0.30458715238552753 0 -0.11044171100643541 0.31254162879386532 0 -0.1374173587477992 0.30458715238552753 0 -0.1196726798547111 0.29763533733947639 0 -0.11044171100643541 0.31254162879386532 0 -0.1196726798547111 0.29763533733947639 0 -0.1084861191939782 0.2992743187385008 0 -0.11044171100643541 0.31254162879386532 0 -0.095163839919893398 0.29773720118105512 0 -0.1084861191939782 0.2992743187385008 0 -0.094718403761768669 0.31539960571968773 0 -0.1084861191939782 0.2992743187385008 0 -0.094718403761768669 0.31539960571968773 0 -0.11044171100643541 0.31254162879386532 0 -0.1114810778717143 0.2840868470646381 0 -0.095163839919893398 0.29773720118105512 0 -0.090039907219778559 0.27118187875873828 0 -0.1114810778717143 0.2840868470646381 0 -0.095163839919893398 0.29773720118105512 0 -0.1084861191939782 0.2992743187385008 0 -0.095163839919893398 0.29773720118105512 0 -0.080362730114104775 0.2906332856580584 0 -0.090039907219778559 0.27118187875873828 0 -0.095163839919893398 0.29773720118105512 0 -0.078631469140982832 0.311126194358608 0 -0.094718403761768669 0.31539960571968773 0 -0.095163839919893398 0.29773720118105512 0 -0.080362730114104775 0.2906332856580584 0 -0.078631469140982832 0.311126194358608 0 -0.080362730114104775 0.2906332856580584 0 -0.078631469140982832 0.311126194358608 0 -0.066324406367425523 0.2956561313518824 0 -0.078631469140982832 0.311126194358608 0 -0.064115448466588468 0.30797137715550721 0 -0.066324406367425523 0.2956561313518824 0 -0.080362730114104775 0.2906332856580584 0 -0.066324406367425523 0.2956561313518824 0 -0.071654027922443547 0.27746502264000822 0 -0.066324406367425523 0.2956561313518824 0 -0.071654027922443547 0.27746502264000822 0 -0.051148359716277909 0.27589998556690931 0 -0.071654027922443547 0.27746502264000822 0 -0.068598736567841129 0.25827691045284101 0 -0.062247499000626358 0.26405289905815321 0 -0.071654027922443547 0.27746502264000822 0 -0.090039907219778559 0.27118187875873828 0 -0.068598736567841129 0.25827691045284101 0 -0.080362730114104775 0.2906332856580584 0 -0.071654027922443547 0.27746502264000822 0 -0.090039907219778559 0.27118187875873828 0 -0.090039907219778559 0.27118187875873828 0 -0.068598736567841129 0.25827691045284101 0 -0.097256843775060275 0.25135422273966612 0 -0.068598736567841129 0.25827691045284101 0 -0.097256843775060275 0.25135422273966612 0 -0.068598736567841129 0.25827691045284101 0 -0.077907903660119127 0.24548654409250509 0 -0.097256843775060275 0.25135422273966612 0 -0.090039907219778559 0.27118187875873828 0 -0.068598736567841129 0.25827691045284101 0 -0.068598736567841129 0.25827691045284101 0 -0.066655656541049935 0.2484036836883256 0 -0.077907903660119127 0.24548654409250509 0 -0.068598736567841129 0.25827691045284101 0 -0.065613315952345583 0.2589980723378269 0 -0.068598736567841129 0.25827691045284101 0 -0.065613315952345583 0.2589980723378269 0 -0.062247499000626358 0.26405289905815321 0 -0.068598736567841129 0.25827691045284101 0 -0.066655656541049935 0.2484036836883256 0 -0.054223054844222747 0.24962450429318209 0 -0.068598736567841129 0.25827691045284101 0 -0.065613315952345583 0.2589980723378269 0 -0.054223054844222747 0.24962450429318209 0 -0.068598736567841129 0.25827691045284101 0 -0.054223054844222747 0.24962450429318209 0 -0.051148359716277909 0.27589998556690931 0 -0.054223054844222747 0.24962450429318209 0 -0.062247499000626358 0.26405289905815321 0 -0.051148359716277909 0.27589998556690931 0 -0.054223054844222747 0.24962450429318209 0 -0.051148359716277909 0.27589998556690931 0 -0.043790278277067142 0.26172132271316523 0 -0.054223054844222747 0.24962450429318209 0 -0.065613315952345583 0.2589980723378269 0 -0.062247499000626358 0.26405289905815321 0 -0.054223054844222747 0.24962450429318209 0 -0.071654027922443547 0.27746502264000822 0 -0.062247499000626358 0.26405289905815321 0 -0.051148359716277909 0.27589998556690931 0 -0.051148359716277909 0.27589998556690931 0 -0.034735290418622472 0.27849557211101161 0 -0.043790278277067142 0.26172132271316523 0 -0.034735290418622472 0.27849557211101161 0 -0.043790278277067142 0.26172132271316523 0 -0.02789927615228302 0.26334978648503748 0 -0.043790278277067142 0.26172132271316523 0 -0.02789927615228302 0.26334978648503748 0 -0.034540175446752752 0.23777781276142859 0 -0.02789927615228302 0.26334978648503748 0 -0.016889468353333749 0.25391797572469321 0 -0.01014519946594673 0.26823181323412409 0 -0.02789927615228302 0.26334978648503748 0 -0.016889468353333749 0.25391797572469321 0 -0.034540175446752752 0.23777781276142859 0 -0.02789927615228302 0.26334978648503748 0 -0.01014519946594673 0.26823181323412409 0 -0.016520405146616859 0.28306253817773269 0 -0.034735290418622472 0.27849557211101161 0 -0.02789927615228302 0.26334978648503748 0 -0.016520405146616859 0.28306253817773269 0 -0.01014519946594673 0.26823181323412409 0 -0.0018174004218267539 0.28107513133150891 0 0.01076359965838513 0.26801542043569021 0 -0.01014519946594673 0.26823181323412409 0 -0.0018174004218267539 0.28107513133150891 0 -0.016520405146616859 0.28306253817773269 0 -0.01014519946594673 0.26823181323412409 0 -0.0025019221426154608 0.25448127945916882 0 0.01076359965838513 0.26801542043569021 0 -0.016889468353333749 0.25391797572469321 0 -0.01014519946594673 0.26823181323412409 0 -0.0025019221426154608 0.25448127945916882 0 -0.013513552491399331 0.30027724296792591 0 -0.01938043080385354 0.3139450093474655 0 -0.0035724396684860449 0.31425574905281939 0 -0.013513552491399331 0.30027724296792591 0 -0.00035778642331400859 0.29671542626749992 0 -0.0035724396684860449 0.31425574905281939 0 -0.0018174004218267539 0.28107513133150891 0 -0.00035778642331400859 0.29671542626749992 0 -0.016520405146616859 0.28306253817773269 0 -0.013513552491399331 0.30027724296792591 0 -0.00035778642331400859 0.29671542626749992 0 -0.016520405146616859 0.28306253817773269 0 -0.034735290418622472 0.27849557211101161 0 -0.02717433065292572 0.29329279484702098 0 -0.016520405146616859 0.28306253817773269 0 -0.013513552491399331 0.30027724296792591 0 -0.02717433065292572 0.29329279484702098 0 -0.016520405146616859 0.28306253817773269 0 -0.02717433065292572 0.29329279484702098 0 -0.033790879875926577 0.32179466913545701 0 -0.01938043080385354 0.3139450093474655 0 -0.02717433065292572 0.29329279484702098 0 -0.033790879875926577 0.32179466913545701 0 -0.013513552491399331 0.30027724296792591 0 -0.02717433065292572 0.29329279484702098 0 -0.01938043080385354 0.3139450093474655 0 -0.02717433065292572 0.29329279484702098 0 -0.048073664588329991 0.30217546684063618 0 -0.033790879875926577 0.32179466913545701 0 -0.051148359716277909 0.27589998556690931 0 -0.034735290418622472 0.27849557211101161 0 -0.048073664588329991 0.30217546684063618 0 -0.034735290418622472 0.27849557211101161 0 -0.02717433065292572 0.29329279484702098 0 -0.048073664588329991 0.30217546684063618 0 -0.066324406367425523 0.2956561313518824 0 -0.051148359716277909 0.27589998556690931 0 -0.048073664588329991 0.30217546684063618 0 -0.051148359716277909 0.27589998556690931 0 -0.048073664588329991 0.30217546684063618 0 -0.064115448466588468 0.30797137715550721 0 -0.066324406367425523 0.2956561313518824 0 -0.048073664588329991 0.30217546684063618 0 -0.064115448466588468 0.30797137715550721 0 -0.048073664588329991 0.30217546684063618 0 -0.06343225376961549 0.32292771607090198 0 -0.048073664588329991 0.30217546684063618 0 -0.044998969460382079 0.32845094811436309 0 -0.06343225376961549 0.32292771607090198 0 -0.061419672845956563 0.33426606986444418 0 -0.053200386464822919 0.34066975561077772 0 -0.044998969460382079 0.32845094811436309 0 -0.061419672845956563 0.33426606986444418 0 -0.044998969460382079 0.32845094811436309 0 -0.06343225376961549 0.32292771607090198 0 -0.053200386464822919 0.34066975561077772 0 -0.044998969460382079 0.32845094811436309 0 -0.046318736332527047 0.34688120265260008 0 -0.061419672845956563 0.33426606986444418 0 -0.053200386464822919 0.34066975561077772 0 -0.061356198314961863 0.34493169998111739 0 -0.033790879875926577 0.32179466913545701 0 -0.03101083349606772 0.34052717848520903 0 -0.04040742909892743 0.35029654342389288 0 -0.033790879875926577 0.32179466913545701 0 -0.04040742909892743 0.35029654342389288 0 -0.044998969460382079 0.32845094811436309 0 -0.041460780277641718 0.35483402691648641 0 -0.044998969460382079 0.32845094811436309 0 -0.033790879875926577 0.32179466913545701 0 -0.04040742909892743 0.35029654342389288 0 -0.044998969460382079 0.32845094811436309 0 -0.041460780277641718 0.35483402691648641 0 -0.046318736332527047 0.34688120265260008 0 -0.048073664588329991 0.30217546684063618 0 -0.044998969460382079 0.32845094811436309 0 -0.048073664588329991 0.30217546684063618 0 -0.044998969460382079 0.32845094811436309 0 -0.033790879875926577 0.32179466913545701 0 -0.01938043080385354 0.3139450093474655 0 -0.025027364628969241 0.32852174759678948 0 -0.01411794091497906 0.32312914627400979 0 -0.033790879875926577 0.32179466913545701 0 -0.01938043080385354 0.3139450093474655 0 -0.025027364628969241 0.32852174759678948 0 -0.033790879875926577 0.32179466913545701 0 -0.025027364628969241 0.32852174759678948 0 -0.03101083349606772 0.34052717848520903 0 -0.025027364628969241 0.32852174759678948 0 -0.03101083349606772 0.34052717848520903 0 -0.024536549265707641 0.34083862868254611 0 -0.024536549265707641 0.34083862868254611 0 -0.016014661172397918 0.33546966933020139 0 -0.01842938079264551 0.34551757620953588 0 -0.025027364628969241 0.32852174759678948 0 -0.024536549265707641 0.34083862868254611 0 -0.016014661172397918 0.33546966933020139 0 -0.025027364628969241 0.32852174759678948 0 -0.016014661172397918 0.33546966933020139 0 -0.01411794091497906 0.32312914627400979 0 -0.016014661172397918 0.33546966933020139 0 -0.0044207533956469149 0.32995505142702303 0 -0.01411794091497906 0.32312914627400979 0 -0.016014661172397918 0.33546966933020139 0 -0.0073813149625234654 0.34481589177368749 0 -0.01842938079264551 0.34551757620953588 0 -0.016014661172397918 0.33546966933020139 0 -0.0044207533956469149 0.32995505142702303 0 -0.0073813149625234654 0.34481589177368749 0 -0.0044207533956469149 0.32995505142702303 0 -0.0073813149625234654 0.34481589177368749 0 0.0024282822111710472 0.33910479587071968 0 -0.01938043080385354 0.3139450093474655 0 -0.0035724396684860449 0.31425574905281939 0 -0.01411794091497906 0.32312914627400979 0 -0.0044207533956469149 0.32995505142702303 0 -0.0035724396684860449 0.31425574905281939 0 0.0063722427405907469 0.32702457597325663 0 -0.0044207533956469149 0.32995505142702303 0 -0.0035724396684860449 0.31425574905281939 0 -0.01411794091497906 0.32312914627400979 0 -0.0076815573519539151 0.36147560345665158 0 -0.004152701965286696 0.37973315498134158 0 0.0068333652345219861 0.36530837290641099 0 -0.0076815573519539151 0.36147560345665158 0 -0.018537812765026331 0.37194632130986899 0 -0.004152701965286696 0.37973315498134158 0 -0.0076815573519539151 0.36147560345665158 0 -0.0073813149625234654 0.34481589177368749 0 0.0070059418201399108 0.35030268606549758 0 -0.0076815573519539151 0.36147560345665158 0 -0.0073813149625234654 0.34481589177368749 0 -0.01672196735759179 0.35473115535930683 0 -0.0073813149625234654 0.34481589177368749 0 -0.01672196735759179 0.35473115535930683 0 -0.01842938079264551 0.34551757620953588 0 -0.01672196735759179 0.35473115535930683 0 -0.027492411205006759 0.35173253590193831 0 -0.02320692645902454 0.36298479563250352 0 -0.01672196735759179 0.35473115535930683 0 -0.01842938079264551 0.34551757620953588 0 -0.027492411205006759 0.35173253590193831 0 -0.024536549265707641 0.34083862868254611 0 -0.01842938079264551 0.34551757620953588 0 -0.027492411205006759 0.35173253590193831 0 -0.03101083349606772 0.34052717848520903 0 -0.027492411205006759 0.35173253590193831 0 -0.033348131810805912 0.34976382109228221 0 -0.03101083349606772 0.34052717848520903 0 -0.024536549265707641 0.34083862868254611 0 -0.027492411205006759 0.35173253590193831 0 -0.027492411205006759 0.35173253590193831 0 -0.030827772381240709 0.36142761221626762 0 -0.034481853443221723 0.35649902655808863 0 -0.027492411205006759 0.35173253590193831 0 -0.030827772381240709 0.36142761221626762 0 -0.02320692645902454 0.36298479563250352 0 -0.030827772381240709 0.36142761221626762 0 -0.02320692645902454 0.36298479563250352 0 -0.030950750173193549 0.3714959805658079 0 -0.0076815573519539151 0.36147560345665158 0 -0.01672196735759179 0.35473115535930683 0 -0.02320692645902454 0.36298479563250352 0 -0.0076815573519539151 0.36147560345665158 0 -0.02320692645902454 0.36298479563250352 0 -0.018537812765026331 0.37194632130986899 0 -0.02320692645902454 0.36298479563250352 0 -0.018537812765026331 0.37194632130986899 0 -0.030950750173193549 0.3714959805658079 0 -0.041460780277641718 0.35483402691648641 0 -0.049662600441370011 0.36951111661696961 0 -0.04702397832192666 0.37879841771232919 0 -0.030950750173193549 0.3714959805658079 0 -0.038736298919671792 0.37321908420458638 0 -0.038006920625756987 0.36442572242299992 0 -0.030950750173193549 0.3714959805658079 0 -0.038736298919671792 0.37321908420458638 0 -0.03896354655780998 0.37815621611720868 0 -0.038006920625756987 0.36442572242299992 0 -0.041460780277641718 0.35483402691648641 0 -0.04702397832192666 0.37879841771232919 0 -0.041460780277641718 0.35483402691648641 0 -0.04702397832192666 0.37879841771232919 0 -0.030827772381240709 0.36142761221626762 0 -0.038006920625756987 0.36442572242299992 0 -0.034481853443221723 0.35649902655808863 0 -0.030827772381240709 0.36142761221626762 0 -0.030950750173193549 0.3714959805658079 0 -0.038006920625756987 0.36442572242299992 0 -0.038736298919671792 0.37321908420458638 0 -0.038006920625756987 0.36442572242299992 0 -0.04702397832192666 0.37879841771232919 0 -0.044998969460382079 0.32845094811436309 0 -0.041460780277641718 0.35483402691648641 0 -0.04040742909892743 0.35029654342389288 0 -0.03101083349606772 0.34052717848520903 0 -0.033348131810805912 0.34976382109228221 0 -0.04040742909892743 0.35029654342389288 0 -0.038006920625756987 0.36442572242299992 0 -0.034481853443221723 0.35649902655808863 0 -0.04040742909892743 0.35029654342389288 0 -0.033348131810805912 0.34976382109228221 0 -0.034481853443221723 0.35649902655808863 0 -0.04040742909892743 0.35029654342389288 0 -0.027492411205006759 0.35173253590193831 0 -0.033348131810805912 0.34976382109228221 0 -0.034481853443221723 0.35649902655808863 0 -0.038006920625756987 0.36442572242299992 0 -0.041460780277641718 0.35483402691648641 0 -0.04040742909892743 0.35029654342389288 0 -0.04517128435392409 0.35467924387687261 0 -0.041460780277641718 0.35483402691648641 0 -0.051937071527954147 0.36521365139294087 0 -0.04517128435392409 0.35467924387687261 0 -0.045616471222711293 0.35188841243230717 0 -0.041460780277641718 0.35483402691648641 0 -0.04517128435392409 0.35467924387687261 0 -0.045616471222711293 0.35188841243230717 0 -0.049051589871959837 0.35126677381166638 0 -0.041460780277641718 0.35483402691648641 0 -0.04040742909892743 0.35029654342389288 0 -0.045616471222711293 0.35188841243230717 0 -0.041460780277641718 0.35483402691648641 0 -0.046318736332527047 0.34688120265260008 0 -0.053200386464822919 0.34066975561077772 0 -0.046318736332527047 0.34688120265260008 0 -0.053824636190428099 0.3492869375303071 0 -0.046318736332527047 0.34688120265260008 0 -0.049051589871959837 0.35126677381166638 0 -0.053824636190428099 0.3492869375303071 0 -0.045616471222711293 0.35188841243230717 0 -0.046318736332527047 0.34688120265260008 0 -0.049051589871959837 0.35126677381166638 0 -0.04517128435392409 0.35467924387687261 0 -0.049051589871959837 0.35126677381166638 0 -0.054971941540271463 0.3556353142070956 0 -0.049051589871959837 0.35126677381166638 0 -0.053824636190428099 0.3492869375303071 0 -0.054971941540271463 0.3556353142070956 0 -0.053824636190428099 0.3492869375303071 0 -0.0616480993298495 0.35468569576809561 0 -0.054971941540271463 0.3556353142070956 0 -0.053200386464822919 0.34066975561077772 0 -0.053824636190428099 0.3492869375303071 0 -0.061356198314961863 0.34493169998111739 0 -0.053824636190428099 0.3492869375303071 0 -0.0616480993298495 0.35468569576809561 0 -0.061356198314961863 0.34493169998111739 0 -0.04517128435392409 0.35467924387687261 0 -0.054971941540271463 0.3556353142070956 0 -0.065164097955195788 0.36825792004853602 0 -0.04517128435392409 0.35467924387687261 0 -0.065164097955195788 0.36825792004853602 0 -0.04517128435392409 0.35467924387687261 0 -0.051937071527954147 0.36521365139294087 0 -0.065164097955195788 0.36825792004853602 0 -0.049662600441370011 0.36951111661696961 0 -0.051937071527954147 0.36521365139294087 0 -0.056360975813311259 0.37377560420728451 0 -0.049662600441370011 0.36951111661696961 0 -0.056360975813311259 0.37377560420728451 0 -0.04702397832192666 0.37879841771232919 0 -0.041460780277641718 0.35483402691648641 0 -0.049662600441370011 0.36951111661696961 0 -0.051937071527954147 0.36521365139294087 0 -0.0616480993298495 0.35468569576809561 0 -0.054971941540271463 0.3556353142070956 0 -0.065164097955195788 0.36825792004853602 0 -0.051937071527954147 0.36521365139294087 0 -0.056360975813311259 0.37377560420728451 0 -0.065164097955195788 0.36825792004853602 0 -0.056360975813311259 0.37377560420728451 0 -0.065164097955195788 0.36825792004853602 0 -0.06609044493919744 0.38031750696626332 0 -0.065164097955195788 0.36825792004853602 0 -0.078273746621201096 0.36764585519610699 0 -0.085156911556468096 0.38183659622019828 0 -0.0616480993298495 0.35468569576809561 0 -0.065164097955195788 0.36825792004853602 0 -0.069620753227379914 0.35937701951253909 0 -0.069620753227379914 0.35937701951253909 0 -0.078273746621201096 0.36764585519610699 0 -0.077541685562740409 0.35620710839909442 0 -0.065164097955195788 0.36825792004853602 0 -0.069620753227379914 0.35937701951253909 0 -0.078273746621201096 0.36764585519610699 0 -0.078273746621201096 0.36764585519610699 0 -0.087813937814823786 0.37151743390453951 0 -0.085156911556468096 0.38183659622019828 0 -0.078273746621201096 0.36764585519610699 0 -0.088220566550734236 0.36229125339128698 0 -0.087813937814823786 0.37151743390453951 0 -0.078273746621201096 0.36764585519610699 0 -0.088220566550734236 0.36229125339128698 0 -0.077541685562740409 0.35620710839909442 0 -0.088220566550734236 0.36229125339128698 0 -0.087813937814823786 0.37151743390453951 0 -0.093828752028363785 0.3697326067430442 0 -0.087813937814823786 0.37151743390453951 0 -0.093828752028363785 0.3697326067430442 0 -0.093589712317351761 0.37608085797206092 0 -0.085800621208250868 0.3525690030441348 0 -0.095408984782156619 0.34253334736225838 0 -0.095067444967629811 0.35429860819899472 0 -0.085800621208250868 0.3525690030441348 0 -0.080484789707027465 0.34318274747185262 0 -0.095408984782156619 0.34253334736225838 0 -0.088220566550734236 0.36229125339128698 0 -0.085800621208250868 0.3525690030441348 0 -0.095067444967629811 0.35429860819899472 0 -0.088220566550734236 0.36229125339128698 0 -0.085800621208250868 0.3525690030441348 0 -0.077541685562740409 0.35620710839909442 0 -0.085800621208250868 0.3525690030441348 0 -0.077541685562740409 0.35620710839909442 0 -0.080484789707027465 0.34318274747185262 0 -0.077541685562740409 0.35620710839909442 0 -0.069035622736041358 0.35013425893317468 0 -0.080484789707027465 0.34318274747185262 0 -0.069035622736041358 0.35013425893317468 0 -0.069584275497692125 0.34034948975741602 0 -0.080484789707027465 0.34318274747185262 0 -0.069620753227379914 0.35937701951253909 0 -0.077541685562740409 0.35620710839909442 0 -0.069035622736041358 0.35013425893317468 0 -0.0616480993298495 0.35468569576809561 0 -0.069620753227379914 0.35937701951253909 0 -0.069035622736041358 0.35013425893317468 0 -0.0616480993298495 0.35468569576809561 0 -0.061356198314961863 0.34493169998111739 0 -0.069035622736041358 0.35013425893317468 0 -0.061356198314961863 0.34493169998111739 0 -0.069035622736041358 0.35013425893317468 0 -0.069584275497692125 0.34034948975741602 0 -0.061419672845956563 0.33426606986444418 0 -0.061356198314961863 0.34493169998111739 0 -0.069584275497692125 0.34034948975741602 0 -0.061419672845956563 0.33426606986444418 0 -0.076835972457577034 0.32829556535751048 0 -0.06343225376961549 0.32292771607090198 0 -0.061419672845956563 0.33426606986444418 0 -0.069584275497692125 0.34034948975741602 0 -0.076835972457577034 0.32829556535751048 0 -0.069584275497692125 0.34034948975741602 0 -0.076835972457577034 0.32829556535751048 0 -0.080484789707027465 0.34318274747185262 0 -0.078631469140982832 0.311126194358608 0 -0.076835972457577034 0.32829556535751048 0 -0.06343225376961549 0.32292771607090198 0 -0.078631469140982832 0.311126194358608 0 -0.064115448466588468 0.30797137715550721 0 -0.06343225376961549 0.32292771607090198 0 -0.076835972457577034 0.32829556535751048 0 -0.090607204410825148 0.33125645864318498 0 -0.094718403761768669 0.31539960571968773 0 -0.078631469140982832 0.311126194358608 0 -0.076835972457577034 0.32829556535751048 0 -0.094718403761768669 0.31539960571968773 0 -0.076835972457577034 0.32829556535751048 0 -0.080484789707027465 0.34318274747185262 0 -0.090607204410825148 0.33125645864318498 0 -0.080484789707027465 0.34318274747185262 0 -0.090607204410825148 0.33125645864318498 0 -0.095408984782156619 0.34253334736225838 0 -0.095408984782156619 0.34253334736225838 0 -0.10712876022437511 0.33961832472006798 0 -0.1038503476554174 0.32670669285539589 0 -0.090607204410825148 0.33125645864318498 0 -0.095408984782156619 0.34253334736225838 0 -0.1038503476554174 0.32670669285539589 0 -0.1038503476554174 0.32670669285539589 0 -0.094718403761768669 0.31539960571968773 0 -0.11044171100643541 0.31254162879386532 0 -0.090607204410825148 0.33125645864318498 0 -0.1038503476554174 0.32670669285539589 0 -0.094718403761768669 0.31539960571968773 0 -0.12889264244332299 0.31799548808391431 0 -0.11044171100643541 0.31254162879386532 0 -0.1200158061680156 0.32565730414165972 0 -0.1038503476554174 0.32670669285539589 0 -0.11044171100643541 0.31254162879386532 0 -0.1200158061680156 0.32565730414165972 0 -0.10712876022437511 0.33961832472006798 0 -0.1038503476554174 0.32670669285539589 0 -0.1200158061680156 0.32565730414165972 0 -0.10712876022437511 0.33961832472006798 0 -0.1200158061680156 0.32565730414165972 0 -0.11552544684646469 0.35097714858863799 0 -0.13053410816412711 0.35090431012956352 0 -0.1200158061680156 0.32565730414165972 0 -0.11552544684646469 0.35097714858863799 0 -0.11552544684646469 0.35097714858863799 0 -0.1210940127621489 0.3608746761031778 0 -0.1109256444566339 0.36372770942223381 0 -0.11552544684646469 0.35097714858863799 0 -0.1109256444566339 0.36372770942223381 0 -0.1044663815021435 0.35119090214093512 0 -0.13053410816412711 0.35090431012956352 0 -0.11552544684646469 0.35097714858863799 0 -0.1210940127621489 0.3608746761031778 0 -0.1210940127621489 0.3608746761031778 0 -0.1211389501876302 0.37216177000073281 0 -0.1109256444566339 0.36372770942223381 0 -0.12994666483719139 0.36596359678786239 0 -0.1210940127621489 0.3608746761031778 0 -0.1211389501876302 0.37216177000073281 0 -0.1211389501876302 0.37216177000073281 0 -0.1109256444566339 0.36372770942223381 0 -0.110588512522952 0.37534402846140491 0 -0.1109256444566339 0.36372770942223381 0 -0.10208139297570371 0.37254126402173682 0 -0.10010770745090131 0.36226467445665711 0 -0.1109256444566339 0.36372770942223381 0 -0.10208139297570371 0.37254126402173682 0 -0.110588512522952 0.37534402846140491 0 -0.10208139297570371 0.37254126402173682 0 -0.093828752028363785 0.3697326067430442 0 -0.10010770745090131 0.36226467445665711 0 -0.10208139297570371 0.37254126402173682 0 -0.093828752028363785 0.3697326067430442 0 -0.093589712317351761 0.37608085797206092 0 -0.088220566550734236 0.36229125339128698 0 -0.093828752028363785 0.3697326067430442 0 -0.10010770745090131 0.36226467445665711 0 -0.088220566550734236 0.36229125339128698 0 -0.10010770745090131 0.36226467445665711 0 -0.095067444967629811 0.35429860819899472 0 -0.10010770745090131 0.36226467445665711 0 -0.095067444967629811 0.35429860819899472 0 -0.1044663815021435 0.35119090214093512 0 -0.095408984782156619 0.34253334736225838 0 -0.095067444967629811 0.35429860819899472 0 -0.1044663815021435 0.35119090214093512 0 -0.10712876022437511 0.33961832472006798 0 -0.11552544684646469 0.35097714858863799 0 -0.1044663815021435 0.35119090214093512 0 -0.095408984782156619 0.34253334736225838 0 -0.10712876022437511 0.33961832472006798 0 -0.1044663815021435 0.35119090214093512 0 -0.1109256444566339 0.36372770942223381 0 -0.10010770745090131 0.36226467445665711 0 -0.1044663815021435 0.35119090214093512 0 -0.098211412463464709 0.3907029240885061 0 -0.11697638725260109 0.3982168681181748 0 -0.11240144615734141 0.40034048067443229 0 -0.098211412463464709 0.3907029240885061 0 -0.11697638725260109 0.3982168681181748 0 -0.1007200062954204 0.40132720817827933 0 -0.098211412463464709 0.3907029240885061 0 -0.11240144615734141 0.40034048067443229 0 -0.098211412463464709 0.3907029240885061 0 -0.11240144615734141 0.40034048067443229 0 -0.1007200062954204 0.40132720817827933 0 -0.11240144615734141 0.40034048067443229 0 -0.10026601249800721 0.41542008502066291 0 -0.1007200062954204 0.40132720817827933 0 -0.10026601249800721 0.41542008502066291 0 -0.089998179280507157 0.40027862211621179 0 -0.098211412463464709 0.3907029240885061 0 -0.094267911889371253 0.38912385228437862 0 -0.089998179280507157 0.40027862211621179 0 -0.1007200062954204 0.40132720817827933 0 -0.098211412463464709 0.3907029240885061 0 -0.089998179280507157 0.40027862211621179 0 -0.098211412463464709 0.3907029240885061 0 -0.094267911889371253 0.38912385228437862 0 -0.098211412463464709 0.3907029240885061 0 -0.1004925427311924 0.38305843731888828 0 -0.1158281739059166 0.38428027841757989 0 -0.098211412463464709 0.3907029240885061 0 -0.1004925427311924 0.38305843731888828 0 -0.085156911556468096 0.38183659622019828 0 -0.10208139297570371 0.37254126402173682 0 -0.1004925427311924 0.38305843731888828 0 -0.093589712317351761 0.37608085797206092 0 -0.10208139297570371 0.37254126402173682 0 -0.1004925427311924 0.38305843731888828 0 -0.110588512522952 0.37534402846140491 0 -0.1004925427311924 0.38305843731888828 0 -0.1158281739059166 0.38428027841757989 0 -0.110588512522952 0.37534402846140491 0 -0.1004925427311924 0.38305843731888828 0 -0.1158281739059166 0.38428027841757989 0 -0.1211389501876302 0.37216177000073281 0 -0.1158281739059166 0.38428027841757989 0 -0.110588512522952 0.37534402846140491 0 -0.1257688035067224 0.38080724158951462 0 -0.1211389501876302 0.37216177000073281 0 -0.1158281739059166 0.38428027841757989 0 -0.1257688035067224 0.38080724158951462 0 -0.1158281739059166 0.38428027841757989 0 -0.1249074766838542 0.38939967696241667 0 -0.098211412463464709 0.3907029240885061 0 -0.1158281739059166 0.38428027841757989 0 -0.11697638725260109 0.3982168681181748 0 -0.1304354930519899 0.39680035994635549 0 -0.1249074766838542 0.38939967696241667 0 -0.11697638725260109 0.3982168681181748 0 -0.1158281739059166 0.38428027841757989 0 -0.1249074766838542 0.38939967696241667 0 -0.11697638725260109 0.3982168681181748 0 -0.12659147985121649 0.40997803726036081 0 -0.12530789812288429 0.40292068695969291 0 -0.11240144615734141 0.40034048067443229 0 -0.12659147985121649 0.40997803726036081 0 -0.11240144615734141 0.40034048067443229 0 -0.12530789812288429 0.40292068695969291 0 -0.11697638725260109 0.3982168681181748 0 -0.11240144615734141 0.40034048067443229 0 -0.12820216006912069 0.41586462596124252 0 -0.11747374668757669 0.43028521637872369 0 -0.10026601249800721 0.41542008502066291 0 -0.12659147985121649 0.40997803726036081 0 -0.11240144615734141 0.40034048067443229 0 -0.10026601249800721 0.41542008502066291 0 -0.12820216006912069 0.41586462596124252 0 -0.12659147985121649 0.40997803726036081 0 -0.10026601249800721 0.41542008502066291 0 -0.12820216006912069 0.41586462596124252 0 -0.10026601249800721 0.41542008502066291 0 -0.12820216006912069 0.41586462596124252 0 -0.11747374668757669 0.43028521637872369 0 -0.1204628113787696 0.4337878902401433 0 -0.11747374668757669 0.43028521637872369 0 -0.1204628113787696 0.4337878902401433 0 -0.1165126193338941 0.4391960178237545 0 -0.12820216006912069 0.41586462596124252 0 -0.11747374668757669 0.43028521637872369 0 -0.11747374668757669 0.43028521637872369 0 -0.1085273974466938 0.43477271521883992 0 -0.10717928041507729 0.44412251704963718 0 -0.11747374668757669 0.43028521637872369 0 -0.10717928041507729 0.44412251704963718 0 -0.11747374668757669 0.43028521637872369 0 -0.1085273974466938 0.43477271521883992 0 -0.1029002223598849 0.4301910367516833 0 -0.1029002223598849 0.4301910367516833 0 -0.10026601249800721 0.41542008502066291 0 -0.088682676588909021 0.43339382825007899 0 -0.11747374668757669 0.43028521637872369 0 -0.1029002223598849 0.4301910367516833 0 -0.10026601249800721 0.41542008502066291 0 -0.1039284617317712 0.43749810982804632 0 -0.1085273974466938 0.43477271521883992 0 -0.1029002223598849 0.4301910367516833 0 -0.1039284617317712 0.43749810982804632 0 -0.1029002223598849 0.4301910367516833 0 -0.09707516988529992 0.44023361417209239 0 -0.1029002223598849 0.4301910367516833 0 -0.088682676588909021 0.43339382825007899 0 -0.09707516988529992 0.44023361417209239 0 -0.10026601249800721 0.41542008502066291 0 -0.072871467520285435 0.41498416246691339 0 -0.089998179280507157 0.40027862211621179 0 -0.10026601249800721 0.41542008502066291 0 -0.088682676588909021 0.43339382825007899 0 -0.072871467520285435 0.41498416246691339 0 -0.10026601249800721 0.41542008502066291 0 -0.072871467520285435 0.41498416246691339 0 -0.088682676588909021 0.43339382825007899 0 -0.067853077695928299 0.43066925679024681 0 -0.07592643197595933 0.44714964329552681 0 -0.088682676588909021 0.43339382825007899 0 -0.067853077695928299 0.43066925679024681 0 -0.072871467520285435 0.41498416246691339 0 -0.072871467520285435 0.41498416246691339 0 -0.066129632860144769 0.40179553946872432 0 -0.053525084101831107 0.40680300037763811 0 -0.066129632860144769 0.40179553946872432 0 -0.073137897068721258 0.39091059800088962 0 -0.059051807998491718 0.39022602308372373 0 -0.073137897068721258 0.39091059800088962 0 -0.077261036177974973 0.40008790766818958 0 -0.083964387194608539 0.39244751525797361 0 -0.066129632860144769 0.40179553946872432 0 -0.073137897068721258 0.39091059800088962 0 -0.077261036177974973 0.40008790766818958 0 -0.072871467520285435 0.41498416246691339 0 -0.066129632860144769 0.40179553946872432 0 -0.077261036177974973 0.40008790766818958 0 -0.072871467520285435 0.41498416246691339 0 -0.077261036177974973 0.40008790766818958 0 -0.089998179280507157 0.40027862211621179 0 -0.077261036177974973 0.40008790766818958 0 -0.083964387194608539 0.39244751525797361 0 -0.089998179280507157 0.40027862211621179 0 -0.094267911889371253 0.38912385228437862 0 -0.083964387194608539 0.39244751525797361 0 -0.089998179280507157 0.40027862211621179 0 -0.1004925427311924 0.38305843731888828 0 -0.093589712317351761 0.37608085797206092 0 -0.085156911556468096 0.38183659622019828 0 -0.087813937814823786 0.37151743390453951 0 -0.093589712317351761 0.37608085797206092 0 -0.085156911556468096 0.38183659622019828 0 -0.1004925427311924 0.38305843731888828 0 -0.085156911556468096 0.38183659622019828 0 -0.094267911889371253 0.38912385228437862 0 -0.083964387194608539 0.39244751525797361 0 -0.085156911556468096 0.38183659622019828 0 -0.098211412463464709 0.3907029240885061 0 -0.085156911556468096 0.38183659622019828 0 -0.098211412463464709 0.3907029240885061 0 -0.094267911889371253 0.38912385228437862 0 -0.085156911556468096 0.38183659622019828 0 -0.073137897068721258 0.39091059800088962 0 -0.083964387194608539 0.39244751525797361 0 -0.085156911556468096 0.38183659622019828 0 -0.085156911556468096 0.38183659622019828 0 -0.06609044493919744 0.38031750696626332 0 -0.065164097955195788 0.36825792004853602 0 -0.085156911556468096 0.38183659622019828 0 -0.065164097955195788 0.36825792004853602 0 -0.085156911556468096 0.38183659622019828 0 -0.06609044493919744 0.38031750696626332 0 -0.073137897068721258 0.39091059800088962 0 -0.085156911556468096 0.38183659622019828 0 -0.06609044493919744 0.38031750696626332 0 -0.073137897068721258 0.39091059800088962 0 -0.06609044493919744 0.38031750696626332 0 -0.059051807998491718 0.39022602308372373 0 -0.06609044493919744 0.38031750696626332 0 -0.04702397832192666 0.37879841771232919 0 -0.056360975813311259 0.37377560420728451 0 -0.06609044493919744 0.38031750696626332 0 -0.04702397832192666 0.37879841771232919 0 -0.06609044493919744 0.38031750696626332 0 -0.059051807998491718 0.39022602308372373 0 -0.04702397832192666 0.37879841771232919 0 -0.049241553786059357 0.38835098884473801 0 -0.04702397832192666 0.37879841771232919 0 -0.059051807998491718 0.39022602308372373 0 -0.049241553786059357 0.38835098884473801 0 -0.059051807998491718 0.39022602308372373 0 -0.049241553786059357 0.38835098884473801 0 -0.04702397832192666 0.37879841771232919 0 -0.049241553786059357 0.38835098884473801 0 -0.056987019686631731 0.39679388794370601 0 -0.053525084101831107 0.40680300037763811 0 -0.049241553786059357 0.38835098884473801 0 -0.053525084101831107 0.40680300037763811 0 -0.049241553786059357 0.38835098884473801 0 -0.04620343473126938 0.39877947549071879 0 -0.053525084101831107 0.40680300037763811 0 -0.066129632860144769 0.40179553946872432 0 -0.056987019686631731 0.39679388794370601 0 -0.053525084101831107 0.40680300037763811 0 -0.059051807998491718 0.39022602308372373 0 -0.049241553786059357 0.38835098884473801 0 -0.056987019686631731 0.39679388794370601 0 -0.066129632860144769 0.40179553946872432 0 -0.059051807998491718 0.39022602308372373 0 -0.056987019686631731 0.39679388794370601 0 -0.049241553786059357 0.38835098884473801 0 -0.035382959008780149 0.39972858362759572 0 -0.026697127875672931 0.38404207191304052 0 -0.04620343473126938 0.39877947549071879 0 -0.035382959008780149 0.39972858362759572 0 -0.045476922542563677 0.41454823991316397 0 -0.049241553786059357 0.38835098884473801 0 -0.04620343473126938 0.39877947549071879 0 -0.035382959008780149 0.39972858362759572 0 -0.049241553786059357 0.38835098884473801 0 -0.026697127875672931 0.38404207191304052 0 -0.049241553786059357 0.38835098884473801 0 -0.03896354655780998 0.37815621611720868 0 -0.026697127875672931 0.38404207191304052 0 -0.038736298919671792 0.37321908420458638 0 -0.04702397832192666 0.37879841771232919 0 -0.03896354655780998 0.37815621611720868 0 -0.049241553786059357 0.38835098884473801 0 -0.04702397832192666 0.37879841771232919 0 -0.03896354655780998 0.37815621611720868 0 -0.04702397832192666 0.37879841771232919 0 -0.03896354655780998 0.37815621611720868 0 -0.030950750173193549 0.3714959805658079 0 -0.03896354655780998 0.37815621611720868 0 -0.026697127875672931 0.38404207191304052 0 -0.018537812765026331 0.37194632130986899 0 -0.026697127875672931 0.38404207191304052 0 -0.004152701965286696 0.37973315498134158 0 -0.018537812765026331 0.37194632130986899 0 -0.030950750173193549 0.3714959805658079 0 -0.026697127875672931 0.38404207191304052 0 -0.035382959008780149 0.39972858362759572 0 -0.0110089977707257 0.39640720728543771 0 -0.018082377564841962 0.41411231735941462 0 -0.035382959008780149 0.39972858362759572 0 -0.026697127875672931 0.38404207191304052 0 -0.0110089977707257 0.39640720728543771 0 -0.026697127875672931 0.38404207191304052 0 -0.0110089977707257 0.39640720728543771 0 -0.004152701965286696 0.37973315498134158 0 -0.0110089977707257 0.39640720728543771 0 -0.004152701965286696 0.37973315498134158 0 0.0074171616858030561 0.39178750004817647 0 -0.026697127875672931 0.38404207191304052 0 -0.004152701965286696 0.37973315498134158 0 -0.018082377564841962 0.41411231735941462 0 -0.0067121436888493927 0.43981598621558782 0 0.0093121674128798237 0.41367639480566509 0 -0.018082377564841962 0.41411231735941462 0 0.0093121674128798237 0.41367639480566509 0 -0.0110089977707257 0.39640720728543771 0 -0.018082377564841962 0.41411231735941462 0 0.0093121674128798237 0.41367639480566509 0 -0.018082377564841962 0.41411231735941462 0 -0.03479894374950987 0.43614495529818897 0 -0.0067121436888493927 0.43981598621558782 0 -0.03479894374950987 0.43614495529818897 0 -0.045476922542563677 0.41454823991316397 0 -0.056307889851924052 0.44327041002555112 0 -0.018082377564841962 0.41411231735941462 0 -0.045476922542563677 0.41454823991316397 0 -0.035382959008780149 0.39972858362759572 0 -0.018082377564841962 0.41411231735941462 0 -0.045476922542563677 0.41454823991316397 0 -0.018082377564841962 0.41411231735941462 0 -0.03479894374950987 0.43614495529818897 0 -0.045476922542563677 0.41454823991316397 0 -0.067853077695928299 0.43066925679024681 0 -0.072871467520285435 0.41498416246691339 0 -0.045476922542563677 0.41454823991316397 0 -0.04620343473126938 0.39877947549071879 0 -0.045476922542563677 0.41454823991316397 0 -0.053525084101831107 0.40680300037763811 0 -0.072871467520285435 0.41498416246691339 0 -0.045476922542563677 0.41454823991316397 0 -0.072871467520285435 0.41498416246691339 0 -0.045476922542563677 0.41454823991316397 0 -0.053525084101831107 0.40680300037763811 0 -0.067853077695928299 0.43066925679024681 0 -0.045476922542563677 0.41454823991316397 0 -0.056307889851924052 0.44327041002555112 0 -0.046626722442895278 0.45775995880842912 0 -0.056222440931917153 0.47287448646243979 0 -0.064444178698981058 0.45920334685881398 0 -0.056307889851924052 0.44327041002555112 0 -0.046626722442895278 0.45775995880842912 0 -0.064444178698981058 0.45920334685881398 0 -0.046626722442895278 0.45775995880842912 0 -0.038222477135760317 0.47000371369802818 0 -0.056222440931917153 0.47287448646243979 0 -0.046626722442895278 0.45775995880842912 0 -0.029115185194406559 0.45579169513414253 0 -0.038222477135760317 0.47000371369802818 0 -0.03479894374950987 0.43614495529818897 0 -0.046626722442895278 0.45775995880842912 0 -0.029115185194406559 0.45579169513414253 0 -0.03479894374950987 0.43614495529818897 0 -0.056307889851924052 0.44327041002555112 0 -0.046626722442895278 0.45775995880842912 0 -0.03479894374950987 0.43614495529818897 0 -0.029115185194406559 0.45579169513414253 0 -0.0067121436888493927 0.43981598621558782 0 -0.029115185194406559 0.45579169513414253 0 -0.010889999887927271 0.46084111877735717 0 -0.023648799972857518 0.4716269443587362 0 -0.029115185194406559 0.45579169513414253 0 -0.023648799972857518 0.4716269443587362 0 -0.038222477135760317 0.47000371369802818 0 -0.010889999887927271 0.46084111877735717 0 -0.0067121436888493927 0.43981598621558782 0 0.0077042760624918723 0.46054059155872101 0 -0.010889999887927271 0.46084111877735717 0 -0.009244350279267571 0.47709912333590121 0 0.0077042760624918723 0.46054059155872101 0 -0.029115185194406559 0.45579169513414253 0 -0.010889999887927271 0.46084111877735717 0 -0.0067121436888493927 0.43981598621558782 0 -0.0053418940361835698 0.5 0 -0.010507758024251201 0.48901056679155419 0 -0.021510390366039061 0.49830254023129672 0 -0.0053418940361835698 0.5 0 -0.010507758024251201 0.48901056679155419 0 0.0055732685078482046 0.48392703948537602 0 -0.010507758024251201 0.48901056679155419 0 -0.009244350279267571 0.47709912333590121 0 0.0055732685078482046 0.48392703948537602 0 -0.010889999887927271 0.46084111877735717 0 -0.009244350279267571 0.47709912333590121 0 -0.023648799972857518 0.4716269443587362 0 -0.010507758024251201 0.48901056679155419 0 -0.009244350279267571 0.47709912333590121 0 -0.022015423947614011 0.48572413090519712 0 -0.009244350279267571 0.47709912333590121 0 -0.023648799972857518 0.4716269443587362 0 -0.022015423947614011 0.48572413090519712 0 -0.023648799972857518 0.4716269443587362 0 -0.022015423947614011 0.48572413090519712 0 -0.032405363392169401 0.48030188430179099 0 -0.022015423947614011 0.48572413090519712 0 -0.021510390366039061 0.49830254023129672 0 -0.033185062072036378 0.4887722658985868 0 -0.0053418940361835698 0.5 0 -0.021510390366039061 0.49830254023129672 0 -0.033106464317759432 0.5 0 -0.022015423947614011 0.48572413090519712 0 -0.033185062072036378 0.4887722658985868 0 -0.032405363392169401 0.48030188430179099 0 -0.010507758024251201 0.48901056679155419 0 -0.022015423947614011 0.48572413090519712 0 -0.021510390366039061 0.49830254023129672 0 -0.021510390366039061 0.49830254023129672 0 -0.045582942812808259 0.49614364090355911 0 -0.021510390366039061 0.49830254023129672 0 -0.033106464317759432 0.5 0 -0.045582942812808259 0.49614364090355911 0 -0.021510390366039061 0.49830254023129672 0 -0.033185062072036378 0.4887722658985868 0 -0.045582942812808259 0.49614364090355911 0 -0.033106464317759432 0.5 0 -0.045582942812808259 0.49614364090355911 0 -0.060871034599335412 0.5 0 -0.033185062072036378 0.4887722658985868 0 -0.045582942812808259 0.49614364090355911 0 -0.044270236698531321 0.48293414328610917 0 -0.038222477135760317 0.47000371369802818 0 -0.044270236698531321 0.48293414328610917 0 -0.056222440931917153 0.47287448646243979 0 -0.023648799972857518 0.4716269443587362 0 -0.038222477135760317 0.47000371369802818 0 -0.032405363392169401 0.48030188430179099 0 -0.038222477135760317 0.47000371369802818 0 -0.032405363392169401 0.48030188430179099 0 -0.044270236698531321 0.48293414328610917 0 -0.033185062072036378 0.4887722658985868 0 -0.032405363392169401 0.48030188430179099 0 -0.044270236698531321 0.48293414328610917 0 -0.044270236698531321 0.48293414328610917 0 -0.056222440931917153 0.47287448646243979 0 -0.056775684175783353 0.48550271534680911 0 -0.056222440931917153 0.47287448646243979 0 -0.056775684175783353 0.48550271534680911 0 -0.068147305176082529 0.48157656450611541 0 -0.045582942812808259 0.49614364090355911 0 -0.069655495259577468 0.49398474157582162 0 -0.045582942812808259 0.49614364090355911 0 -0.056775684175783353 0.48550271534680911 0 -0.069655495259577468 0.49398474157582162 0 -0.045582942812808259 0.49614364090355911 0 -0.060871034599335412 0.5 0 -0.069655495259577468 0.49398474157582162 0 -0.045582942812808259 0.49614364090355911 0 -0.044270236698531321 0.48293414328610917 0 -0.056775684175783353 0.48550271534680911 0 -0.060871034599335412 0.5 0 -0.069655495259577468 0.49398474157582162 0 -0.088635604880911378 0.5 0 -0.056775684175783353 0.48550271534680911 0 -0.069655495259577468 0.49398474157582162 0 -0.068147305176082529 0.48157656450611541 0 -0.069655495259577468 0.49398474157582162 0 -0.075423096736494152 0.48569637743698529 0 -0.068147305176082529 0.48157656450611541 0 -0.069655495259577468 0.49398474157582162 0 -0.075423096736494152 0.48569637743698529 0 -0.083378634482648067 0.48748549988649348 0 -0.069655495259577468 0.49398474157582162 0 -0.088635604880911378 0.5 0 -0.093728047706346684 0.49182584224808412 0 -0.069655495259577468 0.49398474157582162 0 -0.083378634482648067 0.48748549988649348 0 -0.093728047706346684 0.49182584224808412 0 -0.069655495259577468 0.49398474157582162 0 -0.093728047706346684 0.49182584224808412 0 -0.083378634482648067 0.48748549988649348 0 -0.093728047706346684 0.49182584224808412 0 -0.089759835430273993 0.48093033064469298 0 -0.089759835430273993 0.48093033064469298 0 -0.084304918531597953 0.4705439262475038 0 -0.094251245728461414 0.47063715172149329 0 -0.083378634482648067 0.48748549988649348 0 -0.089759835430273993 0.48093033064469298 0 -0.080510952027668559 0.47973870377951111 0 -0.075423096736494152 0.48569637743698529 0 -0.083378634482648067 0.48748549988649348 0 -0.080510952027668559 0.47973870377951111 0 -0.089759835430273993 0.48093033064469298 0 -0.080510952027668559 0.47973870377951111 0 -0.084304918531597953 0.4705439262475038 0 -0.080510952027668559 0.47973870377951111 0 -0.084304918531597953 0.4705439262475038 0 -0.072090148204053101 0.47097278361950418 0 -0.056222440931917153 0.47287448646243979 0 -0.072090148204053101 0.47097278361950418 0 -0.068147305176082529 0.48157656450611541 0 -0.080510952027668559 0.47973870377951111 0 -0.072090148204053101 0.47097278361950418 0 -0.068147305176082529 0.48157656450611541 0 -0.075423096736494152 0.48569637743698529 0 -0.080510952027668559 0.47973870377951111 0 -0.068147305176082529 0.48157656450611541 0 -0.056222440931917153 0.47287448646243979 0 -0.072090148204053101 0.47097278361950418 0 -0.064444178698981058 0.45920334685881398 0 -0.064444178698981058 0.45920334685881398 0 -0.07592643197595933 0.44714964329552681 0 -0.078911093858071407 0.46189967386264108 0 -0.072090148204053101 0.47097278361950418 0 -0.064444178698981058 0.45920334685881398 0 -0.078911093858071407 0.46189967386264108 0 -0.067853077695928299 0.43066925679024681 0 -0.056307889851924052 0.44327041002555112 0 -0.07592643197595933 0.44714964329552681 0 -0.056307889851924052 0.44327041002555112 0 -0.064444178698981058 0.45920334685881398 0 -0.07592643197595933 0.44714964329552681 0 -0.088682676588909021 0.43339382825007899 0 -0.07592643197595933 0.44714964329552681 0 -0.089834580884807863 0.44598263508618052 0 -0.07592643197595933 0.44714964329552681 0 -0.089834580884807863 0.44598263508618052 0 -0.085563204885497804 0.45438994041362007 0 -0.089834580884807863 0.44598263508618052 0 -0.085563204885497804 0.45438994041362007 0 -0.094051888841435255 0.45449614525451681 0 -0.088682676588909021 0.43339382825007899 0 -0.089834580884807863 0.44598263508618052 0 -0.09707516988529992 0.44023361417209239 0 -0.084304918531597953 0.4705439262475038 0 -0.072090148204053101 0.47097278361950418 0 -0.078911093858071407 0.46189967386264108 0 -0.084304918531597953 0.4705439262475038 0 -0.078911093858071407 0.46189967386264108 0 -0.089315013753982833 0.46258498801100317 0 -0.07592643197595933 0.44714964329552681 0 -0.078911093858071407 0.46189967386264108 0 -0.085563204885497804 0.45438994041362007 0 -0.078911093858071407 0.46189967386264108 0 -0.085563204885497804 0.45438994041362007 0 -0.089315013753982833 0.46258498801100317 0 -0.085563204885497804 0.45438994041362007 0 -0.089315013753982833 0.46258498801100317 0 -0.094051888841435255 0.45449614525451681 0 -0.084304918531597953 0.4705439262475038 0 -0.089315013753982833 0.46258498801100317 0 -0.094251245728461414 0.47063715172149329 0 -0.089315013753982833 0.46258498801100317 0 -0.099453372121030795 0.46263410817532391 0 -0.094251245728461414 0.47063715172149329 0 -0.099453372121030795 0.46263410817532391 0 -0.094251245728461414 0.47063715172149329 0 -0.10464247210629619 0.47086605053098318 0 -0.094051888841435255 0.45449614525451681 0 -0.10303451368882111 0.4564395340077278 0 -0.1015099162571796 0.44901826146001927 0 -0.099453372121030795 0.46263410817532391 0 -0.094051888841435255 0.45449614525451681 0 -0.10303451368882111 0.4564395340077278 0 -0.089315013753982833 0.46258498801100317 0 -0.099453372121030795 0.46263410817532391 0 -0.094051888841435255 0.45449614525451681 0 -0.099453372121030795 0.46263410817532391 0 -0.10303451368882111 0.4564395340077278 0 -0.1093690483819858 0.46185089667522677 0 -0.10303451368882111 0.4564395340077278 0 -0.109079867256087 0.45393784321507358 0 -0.1093690483819858 0.46185089667522677 0 -0.10303451368882111 0.4564395340077278 0 -0.109079867256087 0.45393784321507358 0 -0.1015099162571796 0.44901826146001927 0 -0.099453372121030795 0.46263410817532391 0 -0.1093690483819858 0.46185089667522677 0 -0.10464247210629619 0.47086605053098318 0 -0.089834580884807863 0.44598263508618052 0 -0.09707516988529992 0.44023361417209239 0 -0.1015099162571796 0.44901826146001927 0 -0.089834580884807863 0.44598263508618052 0 -0.094051888841435255 0.45449614525451681 0 -0.1015099162571796 0.44901826146001927 0 -0.109079867256087 0.45393784321507358 0 -0.1015099162571796 0.44901826146001927 0 -0.1094860859746392 0.44876744392406481 0 -0.1015099162571796 0.44901826146001927 0 -0.10717928041507729 0.44412251704963718 0 -0.1094860859746392 0.44876744392406481 0 -0.09707516988529992 0.44023361417209239 0 -0.1015099162571796 0.44901826146001927 0 -0.10717928041507729 0.44412251704963718 0 -0.1039284617317712 0.43749810982804632 0 -0.09707516988529992 0.44023361417209239 0 -0.10717928041507729 0.44412251704963718 0 -0.1039284617317712 0.43749810982804632 0 -0.1085273974466938 0.43477271521883992 0 -0.10717928041507729 0.44412251704963718 0 -0.1346486896464528 0.45427794486733403 0 -0.1125800597919667 0.44441121089156121 0 -0.1234107568135611 0.44249855919424669 0 -0.1346486896464528 0.45427794486733403 0 -0.1125800597919667 0.44441121089156121 0 -0.11708130615288551 0.45234738700403271 0 -0.1346486896464528 0.45427794486733403 0 -0.1125800597919667 0.44441121089156121 0 -0.10717928041507729 0.44412251704963718 0 -0.1165126193338941 0.4391960178237545 0 -0.1125800597919667 0.44441121089156121 0 -0.11747374668757669 0.43028521637872369 0 -0.10717928041507729 0.44412251704963718 0 -0.1165126193338941 0.4391960178237545 0 -0.1125800597919667 0.44441121089156121 0 -0.1094860859746392 0.44876744392406481 0 -0.11708130615288551 0.45234738700403271 0 -0.109079867256087 0.45393784321507358 0 -0.1094860859746392 0.44876744392406481 0 -0.11708130615288551 0.45234738700403271 0 -0.10717928041507729 0.44412251704963718 0 -0.1125800597919667 0.44441121089156121 0 -0.1094860859746392 0.44876744392406481 0 -0.1204628113787696 0.4337878902401433 0 -0.1165126193338941 0.4391960178237545 0 -0.1234107568135611 0.44249855919424669 0 -0.1165126193338941 0.4391960178237545 0 -0.1125800597919667 0.44441121089156121 0 -0.1234107568135611 0.44249855919424669 0 -0.1346486896464528 0.45427794486733403 0 -0.11708130615288551 0.45234738700403271 0 -0.1220512350051325 0.45679028777007707 0 -0.1093690483819858 0.46185089667522677 0 -0.1189952513889361 0.46271743497737128 0 -0.1147535536078816 0.46934964464292672 0 -0.1093690483819858 0.46185089667522677 0 -0.1147535536078816 0.46934964464292672 0 -0.10464247210629619 0.47086605053098318 0 -0.1093690483819858 0.46185089667522677 0 -0.11531534163700539 0.45752876992835628 0 -0.1189952513889361 0.46271743497737128 0 -0.109079867256087 0.45393784321507358 0 -0.11708130615288551 0.45234738700403271 0 -0.11531534163700539 0.45752876992835628 0 -0.109079867256087 0.45393784321507358 0 -0.1093690483819858 0.46185089667522677 0 -0.11531534163700539 0.45752876992835628 0 -0.11531534163700539 0.45752876992835628 0 -0.1220512350051325 0.45679028777007707 0 -0.1189952513889361 0.46271743497737128 0 -0.11708130615288551 0.45234738700403271 0 -0.11531534163700539 0.45752876992835628 0 -0.1220512350051325 0.45679028777007707 0 -0.12659378762135101 0.46181640951874547 0 -0.1220512350051325 0.45679028777007707 0 -0.1189952513889361 0.46271743497737128 0 -0.12659378762135101 0.46181640951874547 0 -0.1189952513889361 0.46271743497737128 0 -0.1240097872368011 0.4688797775240553 0 -0.1189952513889361 0.46271743497737128 0 -0.1240097872368011 0.4688797775240553 0 -0.1147535536078816 0.46934964464292672 0 -0.1321850715963751 0.48270392842734722 0 -0.1223480986564575 0.47455371778622341 0 -0.10881246798588901 0.47835756150457148 0 -0.1321850715963751 0.48270392842734722 0 -0.10881246798588901 0.47835756150457148 0 -0.1240097872368011 0.4688797775240553 0 -0.1223480986564575 0.47455371778622341 0 -0.1147535536078816 0.46934964464292672 0 -0.1321850715963751 0.48270392842734722 0 -0.1178006001531159 0.48966694292034652 0 -0.10881246798588901 0.47835756150457148 0 -0.1223480986564575 0.47455371778622341 0 -0.1147535536078816 0.46934964464292672 0 -0.10881246798588901 0.47835756150457148 0 -0.1147535536078816 0.46934964464292672 0 -0.10464247210629619 0.47086605053098318 0 -0.10881246798588901 0.47835756150457148 0 -0.1321850715963751 0.48270392842734722 0 -0.1178006001531159 0.48966694292034652 0 -0.1164001751624876 0.5 0 -0.093728047706346684 0.49182584224808412 0 -0.1178006001531159 0.48966694292034652 0 -0.093728047706346684 0.49182584224808412 0 -0.1178006001531159 0.48966694292034652 0 -0.1012151448125284 0.48236694046635731 0 -0.088635604880911378 0.5 0 -0.093728047706346684 0.49182584224808412 0 -0.1164001751624876 0.5 0 -0.093728047706346684 0.49182584224808412 0 -0.1178006001531159 0.48966694292034652 0 -0.1164001751624876 0.5 0 -0.093728047706346684 0.49182584224808412 0 -0.089759835430273993 0.48093033064469298 0 -0.1012151448125284 0.48236694046635731 0 -0.089759835430273993 0.48093033064469298 0 -0.1012151448125284 0.48236694046635731 0 -0.094251245728461414 0.47063715172149329 0 -0.1178006001531159 0.48966694292034652 0 -0.1012151448125284 0.48236694046635731 0 -0.10881246798588901 0.47835756150457148 0 -0.1012151448125284 0.48236694046635731 0 -0.094251245728461414 0.47063715172149329 0 -0.10464247210629619 0.47086605053098318 0 -0.1012151448125284 0.48236694046635731 0 -0.10464247210629619 0.47086605053098318 0 -0.10881246798588901 0.47835756150457148 0 -0.15976651445281759 0.085881889376560827 0 -0.1790709838068926 0.08577929905530525 0 -0.1671755588527967 0.099361590855713972 0 -0.15976651445281759 0.085881889376560827 0 -0.16599508504454449 0.071013263150929332 0 -0.1790709838068926 0.08577929905530525 0 -0.15976651445281759 0.085881889376560827 0 -0.16599508504454449 0.071013263150929332 0 -0.14859143511051431 0.073435434607190181 0 -0.18078995451053201 0.067973206659777727 0 -0.1790709838068926 0.08577929905530525 0 -0.1936992021890096 0.075645978640817901 0 -0.16599508504454449 0.071013263150929332 0 -0.18078995451053201 0.067973206659777727 0 -0.1790709838068926 0.08577929905530525 0 -0.18078995451053201 0.067973206659777727 0 -0.1790709838068926 0.08577929905530525 0 -0.16599508504454449 0.071013263150929332 0 -0.18078995451053201 0.067973206659777727 0 -0.1713101664719611 0.055693779671824831 0 -0.1790709838068926 0.08577929905530525 0 -0.18205863263646879 0.10821927938767489 0 -0.1931388516775161 0.095336989517555967 0 -0.1790709838068926 0.08577929905530525 0 -0.18205863263646879 0.10821927938767489 0 -0.1671755588527967 0.099361590855713972 0 -0.18205863263646879 0.10821927938767489 0 -0.19149280433277799 0.1207406895885598 0 -0.17894679230691349 0.12998251413924131 0 -0.18205863263646879 0.10821927938767489 0 -0.16121563861803809 0.1166900199948996 0 -0.17894679230691349 0.12998251413924131 0 -0.18205863263646879 0.10821927938767489 0 -0.16121563861803809 0.1166900199948996 0 -0.1671755588527967 0.099361590855713972 0 -0.16121563861803809 0.1166900199948996 0 -0.1671755588527967 0.099361590855713972 0 -0.15120673707776661 0.1014905990538561 0 -0.15976651445281759 0.085881889376560827 0 -0.1671755588527967 0.099361590855713972 0 -0.15120673707776661 0.1014905990538561 0 -0.15120673707776661 0.1014905990538561 0 -0.13368462409406709 0.10439277238480831 0 -0.14156004630451 0.088365881131356197 0 -0.15120673707776661 0.1014905990538561 0 -0.14186701807518029 0.1178977593512698 0 -0.13368462409406709 0.10439277238480831 0 -0.16121563861803809 0.1166900199948996 0 -0.15120673707776661 0.1014905990538561 0 -0.14186701807518029 0.1178977593512698 0 -0.16121563861803809 0.1166900199948996 0 -0.14186701807518029 0.1178977593512698 0 -0.14728465427452231 0.13820002546012569 0 -0.14186701807518029 0.1178977593512698 0 -0.12873287106809519 0.13171820984723381 0 -0.12429981908482179 0.1174512197072704 0 -0.14186701807518029 0.1178977593512698 0 -0.13368462409406709 0.10439277238480831 0 -0.12429981908482179 0.1174512197072704 0 -0.13368462409406709 0.10439277238480831 0 -0.1257424217415215 0.091860626022193526 0 -0.14156004630451 0.088365881131356197 0 -0.13368462409406709 0.10439277238480831 0 -0.1181955928242234 0.1042344765897769 0 -0.12429981908482179 0.1174512197072704 0 -0.13368462409406709 0.10439277238480831 0 -0.1257424217415215 0.091860626022193526 0 -0.1181955928242234 0.1042344765897769 0 -0.1257424217415215 0.091860626022193526 0 -0.14156004630451 0.088365881131356197 0 -0.13311186509337841 0.075887277454667557 0 -0.1257424217415215 0.091860626022193526 0 -0.13311186509337841 0.075887277454667557 0 -0.1207958594767826 0.079250843644594948 0 -0.15976651445281759 0.085881889376560827 0 -0.15120673707776661 0.1014905990538561 0 -0.14156004630451 0.088365881131356197 0 -0.15976651445281759 0.085881889376560827 0 -0.14156004630451 0.088365881131356197 0 -0.14859143511051431 0.073435434607190181 0 -0.14156004630451 0.088365881131356197 0 -0.14859143511051431 0.073435434607190181 0 -0.13311186509337841 0.075887277454667557 0 -0.16599508504454449 0.071013263150929332 0 -0.14859143511051431 0.073435434607190181 0 -0.15388216824254961 0.058569102124644133 0 -0.14859143511051431 0.073435434607190181 0 -0.15388216824254961 0.058569102124644133 0 -0.14149287426026311 0.061562522224902709 0 -0.14859143511051431 0.073435434607190181 0 -0.13311186509337841 0.075887277454667557 0 -0.14149287426026311 0.061562522224902709 0 -0.13311186509337841 0.075887277454667557 0 -0.12572298522339581 0.059268412189289799 0 -0.14149287426026311 0.061562522224902709 0 -0.13311186509337841 0.075887277454667557 0 -0.12572298522339581 0.059268412189289799 0 -0.1207958594767826 0.079250843644594948 0 -0.12572298522339581 0.059268412189289799 0 -0.14615591763147751 0.040652384748721883 0 -0.12572298522339581 0.059268412189289799 0 -0.14615591763147751 0.040652384748721883 0 -0.14149287426026311 0.061562522224902709 0 -0.12572298522339581 0.059268412189289799 0 -0.12733846300996149 0.040519962503919933 0 -0.14615591763147751 0.040652384748721883 0 -0.12733846300996149 0.040519962503919933 0 -0.14615591763147751 0.040652384748721883 0 -0.1347331426304843 0.024221817457561769 0 -0.14615591763147751 0.040652384748721883 0 -0.15388216824254961 0.058569102124644133 0 -0.16061387409254491 0.048042001359594473 0 -0.14615591763147751 0.040652384748721883 0 -0.15388216824254961 0.058569102124644133 0 -0.14149287426026311 0.061562522224902709 0 -0.1366996570809571 -0.0074265268786072348 0 -0.12556787346907991 0.0072178933967609119 0 -0.141509807554759 0.0094260698565711599 0 -0.12556787346907991 0.0072178933967609119 0 -0.1347331426304843 0.024221817457561769 0 -0.141509807554759 0.0094260698565711599 0 -0.1347331426304843 0.024221817457561769 0 -0.15551572779307629 0.023894942190358499 0 -0.141509807554759 0.0094260698565711599 0 -0.14615591763147751 0.040652384748721883 0 -0.15551572779307629 0.023894942190358499 0 -0.1665888500395592 0.022036357308153971 0 -0.14615591763147751 0.040652384748721883 0 -0.1347331426304843 0.024221817457561769 0 -0.15551572779307629 0.023894942190358499 0 -0.15503263680019749 -0.0007777768832181349 0 -0.15551572779307629 0.023894942190358499 0 -0.15503263680019749 -0.0007777768832181349 0 -0.15551572779307629 0.023894942190358499 0 -0.141509807554759 0.0094260698565711599 0 -0.15503263680019749 -0.0007777768832181349 0 -0.1366996570809571 -0.0074265268786072348 0 -0.141509807554759 0.0094260698565711599 0 -0.15503263680019749 -0.0007777768832181349 0 -0.16830554702749151 -0.0032033071549828502 0 -0.17153781234355059 0.0060450729046612759 0 -0.15503263680019749 -0.0007777768832181349 0 -0.15551572779307629 0.023894942190358499 0 -0.1665888500395592 0.022036357308153971 0 -0.15503263680019749 -0.0007777768832181349 0 -0.17153781234355059 0.0060450729046612759 0 -0.1665888500395592 0.022036357308153971 0 -0.1665888500395592 0.022036357308153971 0 -0.18476535383091261 0.026793722065920889 0 -0.1870217824476452 0.0034203298675906692 0 -0.1665888500395592 0.022036357308153971 0 -0.18476535383091261 0.026793722065920889 0 -0.16641494859074321 0.036891891611815109 0 -0.17153781234355059 0.0060450729046612759 0 -0.1665888500395592 0.022036357308153971 0 -0.1870217824476452 0.0034203298675906692 0 -0.1665888500395592 0.022036357308153971 0 -0.1870217824476452 0.0034203298675906692 0 -0.18476535383091261 0.026793722065920889 0 -0.1870217824476452 0.0034203298675906692 0 -0.17713841027271601 -0.0080154288794663884 0 -0.17153781234355059 0.0060450729046612759 0 -0.1870217824476452 0.0034203298675906692 0 -0.16599508504454449 0.071013263150929332 0 -0.15388216824254961 0.058569102124644133 0 -0.1713101664719611 0.055693779671824831 0 -0.15388216824254961 0.058569102124644133 0 -0.1713101664719611 0.055693779671824831 0 -0.16061387409254491 0.048042001359594473 0 -0.1713101664719611 0.055693779671824831 0 -0.16061387409254491 0.048042001359594473 0 -0.17335925184553941 0.044494070589539102 0 -0.14615591763147751 0.040652384748721883 0 -0.1665888500395592 0.022036357308153971 0 -0.14615591763147751 0.040652384748721883 0 -0.1665888500395592 0.022036357308153971 0 -0.16641494859074321 0.036891891611815109 0 -0.14615591763147751 0.040652384748721883 0 -0.16061387409254491 0.048042001359594473 0 -0.16641494859074321 0.036891891611815109 0 -0.16061387409254491 0.048042001359594473 0 -0.16641494859074321 0.036891891611815109 0 -0.17335925184553941 0.044494070589539102 0 -0.18476535383091261 0.026793722065920889 0 -0.18250892521417059 0.050167114264250148 0 -0.18476535383091261 0.026793722065920889 0 -0.17335925184553941 0.044494070589539102 0 -0.18250892521417059 0.050167114264250148 0 -0.18476535383091261 0.026793722065920889 0 -0.16641494859074321 0.036891891611815109 0 -0.17335925184553941 0.044494070589539102 0 -0.18078995451053201 0.067973206659777727 0 -0.18250892521417059 0.050167114264250148 0 -0.18078995451053201 0.067973206659777727 0 -0.1713101664719611 0.055693779671824831 0 -0.18250892521417059 0.050167114264250148 0 -0.18078995451053201 0.067973206659777727 0 -0.18250892521417059 0.050167114264250148 0 -0.1929060473413981 0.059408721196500577 0 -0.1713101664719611 0.055693779671824831 0 -0.17335925184553941 0.044494070589539102 0 -0.18250892521417059 0.050167114264250148 0 -0.1713101664719611 0.055693779671824831 0 -0.18250892521417059 0.050167114264250148 0 -0.1929060473413981 0.059408721196500577 0 -0.19744997844588799 0.042793600471400343 0 -0.2095601358251081 0.060265914031439549 0 -0.18250892521417059 0.050167114264250148 0 -0.1929060473413981 0.059408721196500577 0 -0.19744997844588799 0.042793600471400343 0 -0.18476535383091261 0.026793722065920889 0 -0.19744997844588799 0.042793600471400343 0 -0.20143754668192451 0.030520886072161559 0 -0.18250892521417059 0.050167114264250148 0 -0.19744997844588799 0.042793600471400343 0 -0.18476535383091261 0.026793722065920889 0 -0.18250892521417059 0.050167114264250148 0 -0.19744997844588799 0.042793600471400343 0 -0.19744997844588799 0.042793600471400343 0 -0.21239103167760559 0.035420086678550858 0 -0.2095601358251081 0.060265914031439549 0 -0.19744997844588799 0.042793600471400343 0 -0.21239103167760559 0.035420086678550858 0 -0.19744997844588799 0.042793600471400343 0 -0.21239103167760559 0.035420086678550858 0 -0.20143754668192451 0.030520886072161559 0 -0.21239103167760559 0.035420086678550858 0 -0.2095601358251081 0.060265914031439549 0 -0.21239103167760559 0.035420086678550858 0 -0.2095601358251081 0.060265914031439549 0 -0.22433363613224649 0.04753384093435449 0 -0.18476535383091261 0.026793722065920889 0 -0.1870217824476452 0.0034203298675906692 0 -0.1965736587168854 0.0098542301682966287 0 -0.19974405812964821 0.0019229094918305121 0 -0.1965736587168854 0.0098542301682966287 0 -0.20764859303365879 0.0072589936088984716 0 -0.1870217824476452 0.0034203298675906692 0 -0.19974405812964821 0.0019229094918305121 0 -0.1965736587168854 0.0098542301682966287 0 -0.1965736587168854 0.0098542301682966287 0 -0.2008728896839593 0.018938545138683888 0 -0.20764859303365879 0.0072589936088984716 0 -0.18476535383091261 0.026793722065920889 0 -0.1965736587168854 0.0098542301682966287 0 -0.2008728896839593 0.018938545138683888 0 -0.18476535383091261 0.026793722065920889 0 -0.2008728896839593 0.018938545138683888 0 -0.20143754668192451 0.030520886072161559 0 -0.21239103167760559 0.035420086678550858 0 -0.20143754668192451 0.030520886072161559 0 -0.21412260138988401 0.020222677673618981 0 -0.21239103167760559 0.035420086678550858 0 -0.21412260138988401 0.020222677673618981 0 -0.2008728896839593 0.018938545138683888 0 -0.20143754668192451 0.030520886072161559 0 -0.21412260138988401 0.020222677673618981 0 -0.2008728896839593 0.018938545138683888 0 -0.21412260138988401 0.020222677673618981 0 -0.20764859303365879 0.0072589936088984716 0 -0.21412260138988401 0.020222677673618981 0 -0.21585417110216501 0.0050252686686873514 0 -0.20764859303365879 0.0072589936088984716 0 -0.21412260138988401 0.020222677673618981 0 -0.21585417110216501 0.0050252686686873514 0 -0.21585417110216501 0.0050252686686873514 0 -0.20764859303365879 0.0072589936088984716 0 -0.20885505400841611 -0.003771341377249614 0 -0.21585417110216501 0.0050252686686873514 0 -0.20764859303365879 0.0072589936088984716 0 -0.20885505400841611 -0.003771341377249614 0 -0.19974405812964821 0.0019229094918305121 0 -0.20764859303365879 0.0072589936088984716 0 -0.21585417110216501 0.0050252686686873514 0 -0.23248444109947011 0.00049817154703871071 0 -0.21585417110216501 0.0050252686686873514 0 -0.23248444109947011 0.00049817154703871071 0 -0.231929350748735 0.013461404707985221 0 -0.21412260138988401 0.020222677673618981 0 -0.21585417110216501 0.0050252686686873514 0 -0.231929350748735 0.013461404707985221 0 -0.21239103167760559 0.035420086678550858 0 -0.23071077100150519 0.026379167776032029 0 -0.21412260138988401 0.020222677673618981 0 -0.231929350748735 0.013461404707985221 0 -0.23071077100150519 0.026379167776032029 0 -0.21239103167760559 0.035420086678550858 0 -0.21412260138988401 0.020222677673618981 0 -0.23071077100150519 0.026379167776032029 0 -0.231929350748735 0.013461404707985221 0 -0.23071077100150519 0.026379167776032029 0 -0.24903051032540471 0.017338248873513078 0 -0.23071077100150519 0.026379167776032029 0 -0.24512472134507179 0.03030916136016305 0 -0.24903051032540471 0.017338248873513078 0 -0.23071077100150519 0.026379167776032029 0 -0.24903051032540471 0.017338248873513078 0 -0.25527686628807778 0.02750997201479416 0 -0.24512472134507179 0.03030916136016305 0 -0.24903051032540471 0.017338248873513078 0 -0.231929350748735 0.013461404707985221 0 -0.24903051032540471 0.017338248873513078 0 -0.2445256289884763 0.010348959722194431 0 -0.2576939527910227 -0.0063643693398820061 0 -0.23248444109947011 0.00049817154703871071 0 -0.2445256289884763 0.010348959722194431 0 -0.23248444109947011 0.00049817154703871071 0 -0.231929350748735 0.013461404707985221 0 -0.2445256289884763 0.010348959722194431 0 -0.25539389772470811 0.0077930027856914557 0 -0.24903051032540471 0.017338248873513078 0 -0.2445256289884763 0.010348959722194431 0 -0.23248444109947011 0.00049817154703871071 0 -0.2445256289884763 0.010348959722194431 0 -0.25500006484341747 0.043204281430432701 0 -0.2481330862332515 0.074556884399310214 0 -0.23861628315038649 0.066215797242680868 0 -0.2095601358251081 0.060265914031439549 0 -0.22612517023749101 0.060292693878782888 0 -0.22433363613224649 0.04753384093435449 0 -0.22612517023749101 0.060292693878782888 0 -0.22433363613224649 0.04753384093435449 0 -0.23593610972609899 0.050872150038458852 0 -0.22612517023749101 0.060292693878782888 0 -0.23593610972609899 0.050872150038458852 0 -0.23861628315038649 0.066215797242680868 0 -0.21239103167760559 0.035420086678550858 0 -0.23071077100150519 0.026379167776032029 0 -0.22460881906854599 0.037001975634607283 0 -0.21239103167760559 0.035420086678550858 0 -0.22433363613224649 0.04753384093435449 0 -0.22460881906854599 0.037001975634607283 0 -0.23071077100150519 0.026379167776032029 0 -0.22460881906854599 0.037001975634607283 0 -0.2356909922945144 0.037887256918604138 0 -0.22433363613224649 0.04753384093435449 0 -0.22460881906854599 0.037001975634607283 0 -0.2356909922945144 0.037887256918604138 0 -0.22433363613224649 0.04753384093435449 0 -0.2356909922945144 0.037887256918604138 0 -0.23593610972609899 0.050872150038458852 0 -0.25500006484341747 0.043204281430432701 0 -0.24512472134507179 0.03030916136016305 0 -0.2356909922945144 0.037887256918604138 0 -0.25500006484341747 0.043204281430432701 0 -0.2356909922945144 0.037887256918604138 0 -0.23593610972609899 0.050872150038458852 0 -0.23071077100150519 0.026379167776032029 0 -0.24512472134507179 0.03030916136016305 0 -0.2356909922945144 0.037887256918604138 0 -0.25500006484341747 0.043204281430432701 0 -0.23593610972609899 0.050872150038458852 0 -0.23861628315038649 0.066215797242680868 0 -0.25500006484341747 0.043204281430432701 0 -0.23861628315038649 0.066215797242680868 0 -0.2481330862332515 0.074556884399310214 0 -0.23861628315038649 0.066215797242680868 0 -0.23846056784371181 0.081822166905344565 0 -0.23846056784371181 0.081822166905344565 0 -0.22223250145735551 0.089227313054928939 0 -0.24486040053385399 0.09728867292445828 0 -0.2481330862332515 0.074556884399310214 0 -0.23846056784371181 0.081822166905344565 0 -0.24486040053385399 0.09728867292445828 0 -0.23861628315038649 0.066215797242680868 0 -0.23846056784371181 0.081822166905344565 0 -0.22223250145735551 0.089227313054928939 0 -0.2095601358251081 0.060265914031439549 0 -0.22612517023749101 0.060292693878782888 0 -0.2208828177176046 0.072165221710402794 0 -0.22612517023749101 0.060292693878782888 0 -0.23861628315038649 0.066215797242680868 0 -0.2208828177176046 0.072165221710402794 0 -0.23861628315038649 0.066215797242680868 0 -0.22223250145735551 0.089227313054928939 0 -0.2208828177176046 0.072165221710402794 0 -0.23861628315038649 0.066215797242680868 0 -0.22223250145735551 0.089227313054928939 0 -0.2095601358251081 0.060265914031439549 0 -0.20672923997261081 0.085111741384328324 0 -0.1936992021890096 0.075645978640817901 0 -0.2095601358251081 0.060265914031439549 0 -0.2208828177176046 0.072165221710402794 0 -0.20672923997261081 0.085111741384328324 0 -0.2095601358251081 0.060265914031439549 0 -0.20672923997261081 0.085111741384328324 0 -0.22223250145735551 0.089227313054928939 0 -0.2208828177176046 0.072165221710402794 0 -0.20672923997261081 0.085111741384328324 0 -0.22223250145735551 0.089227313054928939 0 -0.20672923997261081 0.085111741384328324 0 -0.21388734673531121 0.1033551284107061 0 -0.20672923997261081 0.085111741384328324 0 -0.1936992021890096 0.075645978640817901 0 -0.1931388516775161 0.095336989517555967 0 -0.1790709838068926 0.08577929905530525 0 -0.1936992021890096 0.075645978640817901 0 -0.1931388516775161 0.095336989517555967 0 -0.18078995451053201 0.067973206659777727 0 -0.1929060473413981 0.059408721196500577 0 -0.1936992021890096 0.075645978640817901 0 -0.1929060473413981 0.059408721196500577 0 -0.2095601358251081 0.060265914031439549 0 -0.1936992021890096 0.075645978640817901 0 -0.19149280433277799 0.1207406895885598 0 -0.20389834412011351 0.1099575687372171 0 -0.2010674482676163 0.13480339609010589 0 -0.18205863263646879 0.10821927938767489 0 -0.19149280433277799 0.1207406895885598 0 -0.20389834412011351 0.1099575687372171 0 -0.20389834412011351 0.1099575687372171 0 -0.2010674482676163 0.13480339609010589 0 -0.20672923997261081 0.085111741384328324 0 -0.1931388516775161 0.095336989517555967 0 -0.20389834412011351 0.1099575687372171 0 -0.18205863263646879 0.10821927938767489 0 -0.1931388516775161 0.095336989517555967 0 -0.20389834412011351 0.1099575687372171 0 -0.20672923997261081 0.085111741384328324 0 -0.20389834412011351 0.1099575687372171 0 -0.20672923997261081 0.085111741384328324 0 -0.21388734673531121 0.1033551284107061 0 -0.20389834412011351 0.1099575687372171 0 -0.21388734673531121 0.1033551284107061 0 -0.20389834412011351 0.1099575687372171 0 -0.2114852126627256 0.12340619268656169 0 -0.21388734673531121 0.1033551284107061 0 -0.2114852126627256 0.12340619268656169 0 -0.2267232168114405 0.12091033812799611 0 -0.20389834412011351 0.1099575687372171 0 -0.2114852126627256 0.12340619268656169 0 -0.2010674482676163 0.13480339609010589 0 -0.2267232168114405 0.12091033812799611 0 -0.2294885522469686 0.10488479767730551 0 -0.23920404865319261 0.1150841774467052 0 -0.21388734673531121 0.1033551284107061 0 -0.2267232168114405 0.12091033812799611 0 -0.2294885522469686 0.10488479767730551 0 -0.21388734673531121 0.1033551284107061 0 -0.2267232168114405 0.12091033812799611 0 -0.22223250145735551 0.089227313054928939 0 -0.21388734673531121 0.1033551284107061 0 -0.2294885522469686 0.10488479767730551 0 -0.22223250145735551 0.089227313054928939 0 -0.2294885522469686 0.10488479767730551 0 -0.24486040053385399 0.09728867292445828 0 -0.2294885522469686 0.10488479767730551 0 -0.24486040053385399 0.09728867292445828 0 -0.23920404865319261 0.1150841774467052 0 -0.2267232168114405 0.12091033812799611 0 -0.23920404865319261 0.1150841774467052 0 -0.23955908688756991 0.138465547845286 0 -0.25431849269875151 0.11675481381501419 0 -0.23920404865319261 0.1150841774467052 0 -0.23955908688756991 0.138465547845286 0 -0.25431849269875151 0.11675481381501419 0 -0.24486040053385399 0.09728867292445828 0 -0.23920404865319261 0.1150841774467052 0 -0.2267232168114405 0.12091033812799611 0 -0.23955908688756991 0.138465547845286 0 -0.2204686839095937 0.137937886318765 0 -0.2114852126627256 0.12340619268656169 0 -0.2267232168114405 0.12091033812799611 0 -0.2204686839095937 0.137937886318765 0 -0.2267232168114405 0.12091033812799611 0 -0.23955908688756991 0.138465547845286 0 -0.2204686839095937 0.137937886318765 0 -0.22627614372686719 0.1593120219553783 0 -0.20952511643766841 0.15085675539404361 0 -0.23955908688756991 0.138465547845286 0 -0.2204686839095937 0.137937886318765 0 -0.22627614372686719 0.1593120219553783 0 -0.25239495696369851 0.15602075756257661 0 -0.23955908688756991 0.138465547845286 0 -0.22627614372686719 0.1593120219553783 0 -0.25239495696369851 0.15602075756257661 0 -0.23955908688756991 0.138465547845286 0 -0.25239495696369851 0.15602075756257661 0 -0.22627614372686719 0.1593120219553783 0 -0.260919808365077 0.16767992466790779 0 -0.24288140288130969 0.1652394195396886 0 -0.24258596318123651 0.17654300122448491 0 -0.25239495696369851 0.15602075756257661 0 -0.24288140288130969 0.1652394195396886 0 -0.22627614372686719 0.1593120219553783 0 -0.24288140288130969 0.1652394195396886 0 -0.24258596318123651 0.17654300122448491 0 -0.23223014216966831 0.16664139228809591 0 -0.23012671720866271 0.18134549626999061 0 -0.23223014216966831 0.16664139228809591 0 -0.24272611922733481 0.1892125248862366 0 -0.24258596318123651 0.17654300122448491 0 -0.23223014216966831 0.16664139228809591 0 -0.24272611922733481 0.1892125248862366 0 -0.23223014216966831 0.16664139228809591 0 -0.24272611922733481 0.1892125248862366 0 -0.25569895767009237 0.1838934654738045 0 -0.24258596318123651 0.17654300122448491 0 -0.24272611922733481 0.1892125248862366 0 -0.23012671720866271 0.18134549626999061 0 -0.2180836428584024 0.1731344686689317 0 -0.22153791736246789 0.19548558513935391 0 -0.23012671720866271 0.18134549626999061 0 -0.226922098614627 0.1733732366216135 0 -0.23223014216966831 0.16664139228809591 0 -0.23012671720866271 0.18134549626999061 0 -0.226922098614627 0.1733732366216135 0 -0.2180836428584024 0.1731344686689317 0 -0.24288140288130969 0.1652394195396886 0 -0.23223014216966831 0.16664139228809591 0 -0.22627614372686719 0.1593120219553783 0 -0.23223014216966831 0.16664139228809591 0 -0.22592540116080331 0.1682625366429821 0 -0.22627614372686719 0.1593120219553783 0 -0.226922098614627 0.1733732366216135 0 -0.23223014216966831 0.16664139228809591 0 -0.22592540116080331 0.1682625366429821 0 -0.22592540116080331 0.1682625366429821 0 -0.22627614372686719 0.1593120219553783 0 -0.2180836428584024 0.1731344686689317 0 -0.226922098614627 0.1733732366216135 0 -0.22592540116080331 0.1682625366429821 0 -0.2180836428584024 0.1731344686689317 0 -0.2180836428584024 0.1731344686689317 0 -0.2070130688444328 0.173147077234204 0 -0.20015733049003581 0.16260328634817919 0 -0.22627614372686719 0.1593120219553783 0 -0.2180836428584024 0.1731344686689317 0 -0.20015733049003581 0.16260328634817919 0 -0.22627614372686719 0.1593120219553783 0 -0.20015733049003581 0.16260328634817919 0 -0.20952511643766841 0.15085675539404361 0 -0.22627614372686719 0.1593120219553783 0 -0.20015733049003581 0.16260328634817919 0 -0.2070130688444328 0.173147077234204 0 -0.20015733049003581 0.16260328634817919 0 -0.2070130688444328 0.173147077234204 0 -0.22153791736246789 0.19548558513935391 0 -0.2046507045405509 0.19136891086296781 0 -0.2070130688444328 0.173147077234204 0 -0.22153791736246789 0.19548558513935391 0 -0.2180836428584024 0.1731344686689317 0 -0.2070130688444328 0.173147077234204 0 -0.22153791736246789 0.19548558513935391 0 -0.19557917582020029 0.18297213022909589 0 -0.197867088755457 0.162891882579695 0 -0.19557917582020029 0.18297213022909589 0 -0.18785991435660751 0.17745344305337141 0 -0.1830877827286326 0.19370588458945009 0 -0.19557917582020029 0.18297213022909589 0 -0.18785991435660751 0.17745344305337141 0 -0.1937887373922344 0.1634058007467063 0 -0.2070130688444328 0.173147077234204 0 -0.19557917582020029 0.18297213022909589 0 -0.197867088755457 0.162891882579695 0 -0.2070130688444328 0.173147077234204 0 -0.19557917582020029 0.18297213022909589 0 -0.2046507045405509 0.19136891086296781 0 -0.2070130688444328 0.173147077234204 0 -0.19557917582020029 0.18297213022909589 0 -0.19557917582020029 0.18297213022909589 0 -0.197867088755457 0.162891882579695 0 -0.1937887373922344 0.1634058007467063 0 -0.19823655241511909 0.15964922344299459 0 -0.20015733049003581 0.16260328634817919 0 -0.20952511643766841 0.15085675539404361 0 -0.197867088755457 0.162891882579695 0 -0.1937887373922344 0.1634058007467063 0 -0.197867088755457 0.162891882579695 0 -0.19823655241511909 0.15964922344299459 0 -0.1937887373922344 0.1634058007467063 0 -0.197867088755457 0.162891882579695 0 -0.19823655241511909 0.15964922344299459 0 -0.20015733049003581 0.16260328634817919 0 -0.19823655241511909 0.15964922344299459 0 -0.20015733049003581 0.16260328634817919 0 -0.197867088755457 0.162891882579695 0 -0.19823655241511909 0.15964922344299459 0 -0.197867088755457 0.162891882579695 0 -0.20015733049003581 0.16260328634817919 0 -0.2070130688444328 0.173147077234204 0 -0.197867088755457 0.162891882579695 0 -0.20015733049003581 0.16260328634817919 0 -0.18785991435660751 0.17745344305337141 0 -0.1937887373922344 0.1634058007467063 0 -0.18591822829066329 0.16815549083045539 0 -0.1937887373922344 0.1634058007467063 0 -0.1872022191134759 0.16152091987989681 0 -0.18591822829066329 0.16815549083045539 0 -0.1937887373922344 0.1634058007467063 0 -0.1919018194546378 0.1598681184859938 0 -0.1872022191134759 0.16152091987989681 0 -0.19823655241511909 0.15964922344299459 0 -0.1919018194546378 0.1598681184859938 0 -0.18837976889772201 0.15489652987437741 0 -0.19823655241511909 0.15964922344299459 0 -0.1937887373922344 0.1634058007467063 0 -0.1919018194546378 0.1598681184859938 0 -0.1919018194546378 0.1598681184859938 0 -0.18837976889772201 0.15489652987437741 0 -0.1872022191134759 0.16152091987989681 0 -0.19823655241511909 0.15964922344299459 0 -0.2010674482676163 0.13480339609010589 0 -0.20952511643766841 0.15085675539404361 0 -0.19823655241511909 0.15964922344299459 0 -0.18837976889772201 0.15489652987437741 0 -0.18859167236101629 0.14481586879111799 0 -0.19823655241511909 0.15964922344299459 0 -0.18859167236101629 0.14481586879111799 0 -0.19823655241511909 0.15964922344299459 0 -0.18859167236101629 0.14481586879111799 0 -0.2010674482676163 0.13480339609010589 0 -0.19823655241511909 0.15964922344299459 0 -0.2010674482676163 0.13480339609010589 0 -0.18859167236101629 0.14481586879111799 0 -0.2010674482676163 0.13480339609010589 0 -0.17894679230691349 0.12998251413924131 0 -0.19149280433277799 0.1207406895885598 0 -0.2010674482676163 0.13480339609010589 0 -0.17894679230691349 0.12998251413924131 0 -0.2114852126627256 0.12340619268656169 0 -0.2204686839095937 0.137937886318765 0 -0.2010674482676163 0.13480339609010589 0 -0.2204686839095937 0.137937886318765 0 -0.2010674482676163 0.13480339609010589 0 -0.20952511643766841 0.15085675539404361 0 -0.23010005325441499 0.2532555114298633 0 -0.2093904597989113 0.25103246476135638 0 -0.22096808016367239 0.2419283473576874 0 -0.22096808016367239 0.2419283473576874 0 -0.23043445271657881 0.22883567176312641 0 -0.20610493559205159 0.24708645300153859 0 -0.2403333629437539 0.25252643582608031 0 -0.23010005325441499 0.2532555114298633 0 -0.23225596099284609 0.233195032725247 0 -0.23010005325441499 0.2532555114298633 0 -0.22096808016367239 0.2419283473576874 0 -0.23225596099284609 0.233195032725247 0 -0.23010005325441499 0.2532555114298633 0 -0.23225596099284609 0.233195032725247 0 -0.22096808016367239 0.2419283473576874 0 -0.23225596099284609 0.233195032725247 0 -0.23043445271657881 0.22883567176312641 0 -0.2403333629437539 0.25252643582608031 0 -0.23225596099284609 0.233195032725247 0 -0.25434645180312648 0.24093369552766791 0 -0.2403333629437539 0.25252643582608031 0 -0.2446743450976778 0.2310682814558202 0 -0.2403333629437539 0.25252643582608031 0 -0.2446743450976778 0.2310682814558202 0 -0.23225596099284609 0.233195032725247 0 -0.2446743450976778 0.2310682814558202 0 -0.2329247320347245 0.2269721934985309 0 -0.23225596099284609 0.233195032725247 0 -0.2446743450976778 0.2310682814558202 0 -0.2390370253427643 0.22239835889155921 0 -0.2446743450976778 0.2310682814558202 0 -0.2390370253427643 0.22239835889155921 0 -0.2329247320347245 0.2269721934985309 0 -0.25282627616155218 0.22824145924833431 0 -0.2446743450976778 0.2310682814558202 0 -0.24810469829609649 0.22223529411510129 0 -0.24810469829609649 0.22223529411510129 0 -0.2390370253427643 0.22239835889155921 0 -0.24948170124813751 0.21458259847119859 0 -0.2446743450976778 0.2310682814558202 0 -0.24810469829609649 0.22223529411510129 0 -0.2390370253427643 0.22239835889155921 0 -0.2390370253427643 0.22239835889155921 0 -0.2329247320347245 0.2269721934985309 0 -0.23385044881841149 0.21835850308187299 0 -0.2390370253427643 0.22239835889155921 0 -0.2329247320347245 0.2269721934985309 0 -0.2390370253427643 0.22239835889155921 0 -0.23606276588050029 0.21782409304450551 0 -0.2390370253427643 0.22239835889155921 0 -0.23385044881841149 0.21835850308187299 0 -0.23606276588050029 0.21782409304450551 0 -0.22794851640362609 0.2228861551684693 0 -0.2329247320347245 0.2269721934985309 0 -0.23385044881841149 0.21835850308187299 0 -0.22794851640362609 0.2228861551684693 0 -0.23385044881841149 0.21835850308187299 0 -0.21234361145012101 0.2235537212350531 0 -0.2329247320347245 0.2269721934985309 0 -0.23385044881841149 0.21835850308187299 0 -0.22794851640362609 0.2228861551684693 0 -0.23043445271657881 0.22883567176312641 0 -0.2221643988393075 0.22670405783733241 0 -0.23385044881841149 0.21835850308187299 0 -0.21234361145012101 0.2235537212350531 0 -0.22794851640362609 0.2228861551684693 0 -0.2329247320347245 0.2269721934985309 0 -0.23043445271657881 0.22883567176312641 0 -0.22794851640362609 0.2228861551684693 0 -0.23043445271657881 0.22883567176312641 0 -0.2329247320347245 0.2269721934985309 0 -0.23225596099284609 0.233195032725247 0 -0.2329247320347245 0.2269721934985309 0 -0.23225596099284609 0.233195032725247 0 -0.23043445271657881 0.22883567176312641 0 -0.2329247320347245 0.2269721934985309 0 -0.23043445271657881 0.22883567176312641 0 -0.23225596099284609 0.233195032725247 0 -0.23043445271657881 0.22883567176312641 0 -0.23043445271657881 0.22883567176312641 0 -0.2221643988393075 0.22670405783733241 0 -0.21793101478690369 0.2315406831826804 0 -0.22794851640362609 0.2228861551684693 0 -0.2221643988393075 0.22670405783733241 0 -0.21234361145012101 0.2235537212350531 0 -0.22181711819395741 0.21137616708054749 0 -0.23385044881841149 0.21835850308187299 0 -0.21234361145012101 0.2235537212350531 0 -0.23606276588050029 0.21782409304450551 0 -0.23590371706144389 0.19929712513094061 0 -0.22153791736246789 0.19548558513935391 0 -0.22181711819395741 0.21137616708054749 0 -0.2341006994420809 0.21602994921222721 0 -0.22153791736246789 0.19548558513935391 0 -0.23606276588050029 0.21782409304450551 0 -0.22153791736246789 0.19548558513935391 0 -0.2341006994420809 0.21602994921222721 0 -0.23606276588050029 0.21782409304450551 0 -0.22153791736246789 0.19548558513935391 0 -0.22181711819395741 0.21137616708054749 0 -0.2341006994420809 0.21602994921222721 0 -0.23385044881841149 0.21835850308187299 0 -0.2341006994420809 0.21602994921222721 0 -0.23385044881841149 0.21835850308187299 0 -0.23606276588050029 0.21782409304450551 0 -0.24226313659179649 0.2097889012686511 0 -0.23590371706144389 0.19929712513094061 0 -0.2341006994420809 0.21602994921222721 0 -0.23385044881841149 0.21835850308187299 0 -0.23606276588050029 0.21782409304450551 0 -0.23385044881841149 0.21835850308187299 0 -0.23606276588050029 0.21782409304450551 0 -0.2390370253427643 0.22239835889155921 0 -0.23606276588050029 0.21782409304450551 0 -0.24948170124813751 0.21458259847119859 0 -0.23606276588050029 0.21782409304450551 0 -0.24948170124813751 0.21458259847119859 0 -0.24226313659179649 0.2097889012686511 0 -0.2390370253427643 0.22239835889155921 0 -0.24948170124813751 0.21458259847119859 0 -0.25322209628499892 0.2117836574843783 0 -0.24948170124813751 0.21458259847119859 0 -0.24226313659179649 0.2097889012686511 0 -0.23606276588050029 0.21782409304450551 0 -0.24948170124813751 0.21458259847119859 0 -0.25322209628499892 0.2117836574843783 0 -0.24226313659179649 0.2097889012686511 0 -0.24270564609790099 0.2021261501769048 0 -0.24226313659179649 0.2097889012686511 0 -0.23590371706144389 0.19929712513094061 0 -0.24270564609790099 0.2021261501769048 0 -0.25322209628499892 0.2117836574843783 0 -0.24270564609790099 0.2021261501769048 0 -0.24272611922733481 0.1892125248862366 0 -0.25322209628499892 0.2117836574843783 0 -0.24272611922733481 0.1892125248862366 0 -0.23590371706144389 0.19929712513094061 0 -0.24270564609790099 0.2021261501769048 0 -0.24272611922733481 0.1892125248862366 0 -0.23012671720866271 0.18134549626999061 0 -0.23590371706144389 0.19929712513094061 0 -0.24272611922733481 0.1892125248862366 0 -0.23012671720866271 0.18134549626999061 0 -0.23590371706144389 0.19929712513094061 0 -0.22153791736246789 0.19548558513935391 0 -0.22153791736246789 0.19548558513935391 0 -0.2046507045405509 0.19136891086296781 0 -0.20821518112106291 0.20530833349255681 0 -0.19557917582020029 0.18297213022909589 0 -0.2046507045405509 0.19136891086296781 0 -0.19392277901514521 0.19750977173574999 0 -0.19557917582020029 0.18297213022909589 0 -0.1830877827286326 0.19370588458945009 0 -0.19557917582020029 0.18297213022909589 0 -0.19392277901514521 0.19750977173574999 0 -0.1830877827286326 0.19370588458945009 0 -0.19557917582020029 0.18297213022909589 0 -0.19392277901514521 0.19750977173574999 0 -0.2046507045405509 0.19136891086296781 0 -0.19392277901514521 0.19750977173574999 0 -0.20821518112106291 0.20530833349255681 0 -0.19392277901514521 0.19750977173574999 0 -0.19501895616413509 0.2125558449016684 0 -0.20821518112106291 0.20530833349255681 0 -0.19392277901514521 0.19750977173574999 0 -0.19501895616413509 0.2125558449016684 0 -0.18504107668155939 0.2054752711477186 0 -0.22181711819395741 0.21137616708054749 0 -0.22153791736246789 0.19548558513935391 0 -0.20821518112106291 0.20530833349255681 0 -0.19501895616413509 0.2125558449016684 0 -0.20821518112106291 0.20530833349255681 0 -0.21234361145012101 0.2235537212350531 0 -0.22181711819395741 0.21137616708054749 0 -0.20821518112106291 0.20530833349255681 0 -0.21234361145012101 0.2235537212350531 0 -0.21234361145012101 0.2235537212350531 0 -0.2084183399588718 0.2338913026607487 0 -0.19083677408183089 0.22874893938823559 0 -0.2221643988393075 0.22670405783733241 0 -0.21234361145012101 0.2235537212350531 0 -0.21793101478690369 0.2315406831826804 0 -0.21234361145012101 0.2235537212350531 0 -0.21793101478690369 0.2315406831826804 0 -0.2084183399588718 0.2338913026607487 0 -0.19501895616413509 0.2125558449016684 0 -0.19083677408183089 0.22874893938823559 0 -0.18071658185944789 0.21659428916901999 0 -0.21234361145012101 0.2235537212350531 0 -0.19083677408183089 0.22874893938823559 0 -0.19501895616413509 0.2125558449016684 0 -0.21234361145012101 0.2235537212350531 0 -0.19083677408183089 0.22874893938823559 0 -0.2093904597989113 0.25103246476135638 0 -0.20610493559205159 0.24708645300153859 0 -0.18446325021697979 0.24235414717463771 0 -0.2084183399588718 0.2338913026607487 0 -0.19083677408183089 0.22874893938823559 0 -0.20610493559205159 0.24708645300153859 0 -0.19083677408183089 0.22874893938823559 0 -0.20610493559205159 0.24708645300153859 0 -0.18446325021697979 0.24235414717463771 0 -0.19083677408183089 0.22874893938823559 0 -0.20610493559205159 0.24708645300153859 0 -0.23043445271657881 0.22883567176312641 0 -0.20610493559205159 0.24708645300153859 0 -0.23043445271657881 0.22883567176312641 0 -0.21793101478690369 0.2315406831826804 0 -0.20610493559205159 0.24708645300153859 0 -0.2093904597989113 0.25103246476135638 0 -0.20610493559205159 0.24708645300153859 0 -0.21793101478690369 0.2315406831826804 0 -0.2084183399588718 0.2338913026607487 0 -0.20610493559205159 0.24708645300153859 0 -0.2093904597989113 0.25103246476135638 0 -0.22096808016367239 0.2419283473576874 0 -0.20610493559205159 0.24708645300153859 0 -0.17270491613566369 0.23312889335077211 0 -0.1545730581894966 0.2375088473133081 0 -0.16927361340338171 0.247141089791893 0 -0.17270491613566369 0.23312889335077211 0 -0.1545730581894966 0.2375088473133081 0 -0.1567069747180628 0.25251712941841459 0 -0.16927361340338171 0.247141089791893 0 -0.1545730581894966 0.2375088473133081 0 -0.19083677408183089 0.22874893938823559 0 -0.18446325021697979 0.24235414717463771 0 -0.17270491613566369 0.23312889335077211 0 -0.18107078859261619 0.25698777302626541 0 -0.16927361340338171 0.247141089791893 0 -0.18446325021697979 0.24235414717463771 0 -0.16927361340338171 0.247141089791893 0 -0.18446325021697979 0.24235414717463771 0 -0.17270491613566369 0.23312889335077211 0 -0.19083677408183089 0.22874893938823559 0 -0.17270491613566369 0.23312889335077211 0 -0.17270491613566369 0.23312889335077211 0 -0.16614371664024921 0.22239627182099239 0 -0.18071658185944789 0.21659428916901999 0 -0.19083677408183089 0.22874893938823559 0 -0.17270491613566369 0.23312889335077211 0 -0.18071658185944789 0.21659428916901999 0 -0.19083677408183089 0.22874893938823559 0 -0.18071658185944789 0.21659428916901999 0 -0.16614371664024921 0.22239627182099239 0 -0.15212763737957199 0.22030969032205769 0 -0.1545730581894966 0.2375088473133081 0 -0.17270491613566369 0.23312889335077211 0 -0.16614371664024921 0.22239627182099239 0 -0.1545730581894966 0.2375088473133081 0 -0.16614371664024921 0.22239627182099239 0 -0.1705963896370648 0.2044396389498043 0 -0.15212763737957199 0.22030969032205769 0 -0.1705963896370648 0.2044396389498043 0 -0.15212763737957199 0.22030969032205769 0 -0.1705963896370648 0.2044396389498043 0 -0.14886542930689989 0.19736589735508189 0 -0.15212763737957199 0.22030969032205769 0 -0.16614371664024921 0.22239627182099239 0 -0.1705963896370648 0.2044396389498043 0 -0.18071658185944789 0.21659428916901999 0 -0.19501895616413509 0.2125558449016684 0 -0.18071658185944789 0.21659428916901999 0 -0.18504107668155939 0.2054752711477186 0 -0.1705963896370648 0.2044396389498043 0 -0.18071658185944789 0.21659428916901999 0 -0.18504107668155939 0.2054752711477186 0 -0.1705963896370648 0.2044396389498043 0 -0.18071658185944789 0.21659428916901999 0 -0.1705963896370648 0.2044396389498043 0 -0.18504107668155939 0.2054752711477186 0 -0.1830877827286326 0.19370588458945009 0 -0.1705963896370648 0.2044396389498043 0 -0.1830877827286326 0.19370588458945009 0 -0.1706672079492762 0.18457235203631631 0 -0.1705963896370648 0.2044396389498043 0 -0.1830877827286326 0.19370588458945009 0 -0.19392277901514521 0.19750977173574999 0 -0.18504107668155939 0.2054752711477186 0 -0.1830877827286326 0.19370588458945009 0 -0.1705963896370648 0.2044396389498043 0 -0.15809980543564539 0.18943087166895561 0 -0.1706672079492762 0.18457235203631631 0 -0.1705963896370648 0.2044396389498043 0 -0.15809980543564539 0.18943087166895561 0 -0.14886542930689989 0.19736589735508189 0 -0.1705963896370648 0.2044396389498043 0 -0.15809980543564539 0.18943087166895561 0 -0.14886542930689989 0.19736589735508189 0 -0.13624284318223809 0.20083592163761699 0 -0.1418161339875777 0.2099168101974819 0 -0.13536306407923671 0.18952571373874991 0 -0.1195568148613229 0.18101293534573859 0 -0.1243062604840254 0.19886715055189191 0 -0.13536306407923671 0.18952571373874991 0 -0.13624284318223809 0.20083592163761699 0 -0.1243062604840254 0.19886715055189191 0 -0.14886542930689989 0.19736589735508189 0 -0.13536306407923671 0.18952571373874991 0 -0.13624284318223809 0.20083592163761699 0 -0.13624284318223809 0.20083592163761699 0 -0.1307649044748557 0.21173015447677099 0 -0.1418161339875777 0.2099168101974819 0 -0.13624284318223809 0.20083592163761699 0 -0.1307649044748557 0.21173015447677099 0 -0.1243062604840254 0.19886715055189191 0 -0.1307649044748557 0.21173015447677099 0 -0.14168058337139641 0.21843017327388031 0 -0.1418161339875777 0.2099168101974819 0 -0.14168058337139641 0.21843017327388031 0 -0.1418161339875777 0.2099168101974819 0 -0.15212763737957199 0.22030969032205769 0 -0.14886542930689989 0.19736589735508189 0 -0.15212763737957199 0.22030969032205769 0 -0.14886542930689989 0.19736589735508189 0 -0.1418161339875777 0.2099168101974819 0 -0.15212763737957199 0.22030969032205769 0 -0.148964184551901 0.22302802008190531 0 -0.13473005646307479 0.22716619129118559 0 -0.1545730581894966 0.2375088473133081 0 -0.148964184551901 0.22302802008190531 0 -0.15212763737957199 0.22030969032205769 0 -0.1545730581894966 0.2375088473133081 0 -0.15212763737957199 0.22030969032205769 0 -0.1545730581894966 0.2375088473133081 0 -0.148964184551901 0.22302802008190531 0 -0.15212763737957199 0.22030969032205769 0 -0.14168058337139641 0.21843017327388031 0 -0.148964184551901 0.22302802008190531 0 -0.13473005646307479 0.22716619129118559 0 -0.14168058337139641 0.21843017327388031 0 -0.148964184551901 0.22302802008190531 0 -0.15212763737957199 0.22030969032205769 0 -0.13473005646307479 0.22716619129118559 0 -0.12591495098227851 0.2444315350264871 0 -0.11799606559347629 0.231127879327088 0 -0.13473005646307479 0.22716619129118559 0 -0.11799606559347629 0.231127879327088 0 -0.12321774739119939 0.2203782023760566 0 -0.1307649044748557 0.21173015447677099 0 -0.14168058337139641 0.21843017327388031 0 -0.13473005646307479 0.22716619129118559 0 -0.1307649044748557 0.21173015447677099 0 -0.13473005646307479 0.22716619129118559 0 -0.12321774739119939 0.2203782023760566 0 -0.12591495098227851 0.2444315350264871 0 -0.1545730581894966 0.2375088473133081 0 -0.13473005646307479 0.22716619129118559 0 -0.12591495098227851 0.2444315350264871 0 -0.1545730581894966 0.2375088473133081 0 -0.141828962649382 0.25809668212619652 0 -0.12591495098227851 0.2444315350264871 0 -0.1545730581894966 0.2375088473133081 0 -0.1567069747180628 0.25251712941841459 0 -0.141828962649382 0.25809668212619652 0 -0.1545730581894966 0.2375088473133081 0 -0.1567069747180628 0.25251712941841459 0 -0.1545730581894966 0.2375088473133081 0 -0.16279804868689121 0.1494822239291097 0 -0.1644733372736773 0.13526483928446961 0 -0.14728465427452231 0.13820002546012569 0 -0.16279804868689121 0.1494822239291097 0 -0.1644733372736773 0.13526483928446961 0 -0.1749191897102802 0.1471337798136165 0 -0.17004839027627019 0.15336680832743951 0 -0.16279804868689121 0.1494822239291097 0 -0.16855345987323611 0.16043924071245039 0 -0.17004839027627019 0.15336680832743951 0 -0.16279804868689121 0.1494822239291097 0 -0.1749191897102802 0.1471337798136165 0 -0.16279804868689121 0.1494822239291097 0 -0.16025103918829661 0.1619168945049976 0 -0.15322928456258089 0.15461747786855609 0 -0.16121563861803809 0.1166900199948996 0 -0.1644733372736773 0.13526483928446961 0 -0.14728465427452231 0.13820002546012569 0 -0.16121563861803809 0.1166900199948996 0 -0.1644733372736773 0.13526483928446961 0 -0.17894679230691349 0.12998251413924131 0 -0.1644733372736773 0.13526483928446961 0 -0.17894679230691349 0.12998251413924131 0 -0.1749191897102802 0.1471337798136165 0 -0.18859167236101629 0.14481586879111799 0 -0.17894679230691349 0.12998251413924131 0 -0.18859167236101629 0.14481586879111799 0 -0.17894679230691349 0.12998251413924131 0 -0.1749191897102802 0.1471337798136165 0 -0.17004839027627019 0.15336680832743951 0 -0.1749191897102802 0.1471337798136165 0 -0.17505883702082239 0.15717864591776251 0 -0.1749191897102802 0.1471337798136165 0 -0.18129563755352929 0.1548606928567938 0 -0.17505883702082239 0.15717864591776251 0 -0.18859167236101629 0.14481586879111799 0 -0.1749191897102802 0.1471337798136165 0 -0.18129563755352929 0.1548606928567938 0 -0.18837976889772201 0.15489652987437741 0 -0.18859167236101629 0.14481586879111799 0 -0.18129563755352929 0.1548606928567938 0 -0.18837976889772201 0.15489652987437741 0 -0.18129563755352929 0.1548606928567938 0 -0.1872022191134759 0.16152091987989681 0 -0.18129563755352929 0.1548606928567938 0 -0.18116859998125201 0.16194377570600779 0 -0.1872022191134759 0.16152091987989681 0 -0.18116859998125201 0.16194377570600779 0 -0.1872022191134759 0.16152091987989681 0 -0.18591822829066329 0.16815549083045539 0 -0.18116859998125201 0.16194377570600779 0 -0.18591822829066329 0.16815549083045539 0 -0.1790854168261197 0.17480470438613191 0 -0.18116859998125201 0.16194377570600779 0 -0.17436774473036651 0.16532757809026671 0 -0.1790854168261197 0.17480470438613191 0 -0.17436774473036651 0.16532757809026671 0 -0.1790854168261197 0.17480470438613191 0 -0.16797115070866711 0.17068645416028799 0 -0.18116859998125201 0.16194377570600779 0 -0.17436774473036651 0.16532757809026671 0 -0.17505883702082239 0.15717864591776251 0 -0.17436774473036651 0.16532757809026671 0 -0.17505883702082239 0.15717864591776251 0 -0.16855345987323611 0.16043924071245039 0 -0.18129563755352929 0.1548606928567938 0 -0.18116859998125201 0.16194377570600779 0 -0.17505883702082239 0.15717864591776251 0 -0.1830877827286326 0.19370588458945009 0 -0.1790854168261197 0.17480470438613191 0 -0.1706672079492762 0.18457235203631631 0 -0.18785991435660751 0.17745344305337141 0 -0.1830877827286326 0.19370588458945009 0 -0.1790854168261197 0.17480470438613191 0 -0.18785991435660751 0.17745344305337141 0 -0.18591822829066329 0.16815549083045539 0 -0.1790854168261197 0.17480470438613191 0 -0.1790854168261197 0.17480470438613191 0 -0.1706672079492762 0.18457235203631631 0 -0.16797115070866711 0.17068645416028799 0 -0.1706672079492762 0.18457235203631631 0 -0.16308431430715181 0.17823567951874711 0 -0.16797115070866711 0.17068645416028799 0 -0.16308431430715181 0.17823567951874711 0 -0.16797115070866711 0.17068645416028799 0 -0.15941312692221329 0.16930234966423999 0 -0.16308431430715181 0.17823567951874711 0 -0.15941312692221329 0.16930234966423999 0 -0.15393169322971259 0.17425412005636509 0 -0.15809980543564539 0.18943087166895561 0 -0.1706672079492762 0.18457235203631631 0 -0.16308431430715181 0.17823567951874711 0 -0.15809980543564539 0.18943087166895561 0 -0.16308431430715181 0.17823567951874711 0 -0.15393169322971259 0.17425412005636509 0 -0.17004839027627019 0.15336680832743951 0 -0.17505883702082239 0.15717864591776251 0 -0.16855345987323611 0.16043924071245039 0 -0.17436774473036651 0.16532757809026671 0 -0.16855345987323611 0.16043924071245039 0 -0.16797115070866711 0.17068645416028799 0 -0.16855345987323611 0.16043924071245039 0 -0.16797115070866711 0.17068645416028799 0 -0.16025103918829661 0.1619168945049976 0 -0.15941312692221329 0.16930234966423999 0 -0.16025103918829661 0.1619168945049976 0 -0.15205982980258689 0.16407052002861461 0 -0.16797115070866711 0.17068645416028799 0 -0.15941312692221329 0.16930234966423999 0 -0.16025103918829661 0.1619168945049976 0 -0.16279804868689121 0.1494822239291097 0 -0.16855345987323611 0.16043924071245039 0 -0.16025103918829661 0.1619168945049976 0 -0.15205982980258689 0.16407052002861461 0 -0.14526527778382001 0.1581793750270804 0 -0.15322928456258089 0.15461747786855609 0 -0.16025103918829661 0.1619168945049976 0 -0.15205982980258689 0.16407052002861461 0 -0.15322928456258089 0.15461747786855609 0 -0.15941312692221329 0.16930234966423999 0 -0.15205982980258689 0.16407052002861461 0 -0.15393169322971259 0.17425412005636509 0 -0.15205982980258689 0.16407052002861461 0 -0.14495411651244211 0.16985681486066151 0 -0.15393169322971259 0.17425412005636509 0 -0.14495411651244211 0.16985681486066151 0 -0.14560322123422681 0.17442210438810621 0 -0.13335366993100739 0.15971003092535241 0 -0.14495411651244211 0.16985681486066151 0 -0.14526527778382001 0.1581793750270804 0 -0.13335366993100739 0.15971003092535241 0 -0.15205982980258689 0.16407052002861461 0 -0.14495411651244211 0.16985681486066151 0 -0.14526527778382001 0.1581793750270804 0 -0.15809980543564539 0.18943087166895561 0 -0.14886542930689989 0.19736589735508189 0 -0.14560322123422681 0.17442210438810621 0 -0.14886542930689989 0.19736589735508189 0 -0.13536306407923671 0.18952571373874991 0 -0.14560322123422681 0.17442210438810621 0 -0.14886542930689989 0.19736589735508189 0 -0.14560322123422681 0.17442210438810621 0 -0.15809980543564539 0.18943087166895561 0 -0.14560322123422681 0.17442210438810621 0 -0.15809980543564539 0.18943087166895561 0 -0.15393169322971259 0.17425412005636509 0 -0.14560322123422681 0.17442210438810621 0 -0.14495411651244211 0.16985681486066151 0 -0.15393169322971259 0.17425412005636509 0 -0.14560322123422681 0.17442210438810621 0 -0.14495411651244211 0.16985681486066151 0 -0.14560322123422681 0.17442210438810621 0 -0.13536306407923671 0.18952571373874991 0 -0.14560322123422681 0.17442210438810621 0 -0.1195568148613229 0.18101293534573859 0 -0.14560322123422681 0.17442210438810621 0 -0.13335366993100739 0.15971003092535241 0 -0.1195568148613229 0.18101293534573859 0 -0.13335366993100739 0.15971003092535241 0 -0.1195568148613229 0.18101293534573859 0 -0.14560322123422681 0.17442210438810621 0 -0.13335366993100739 0.15971003092535241 0 -0.13335366993100739 0.15971003092535241 0 -0.12326775778306551 0.14759655208955699 0 -0.1217284345599457 0.1621001980744789 0 -0.13335366993100739 0.15971003092535241 0 -0.14728465427452231 0.13820002546012569 0 -0.12326775778306551 0.14759655208955699 0 -0.13335366993100739 0.15971003092535241 0 -0.12326775778306551 0.14759655208955699 0 -0.13335366993100739 0.15971003092535241 0 -0.14728465427452231 0.13820002546012569 0 -0.16279804868689121 0.1494822239291097 0 -0.15322928456258089 0.15461747786855609 0 -0.14728465427452231 0.13820002546012569 0 -0.14526527778382001 0.1581793750270804 0 -0.13335366993100739 0.15971003092535241 0 -0.14728465427452231 0.13820002546012569 0 -0.14526527778382001 0.1581793750270804 0 -0.15322928456258089 0.15461747786855609 0 -0.14728465427452231 0.13820002546012569 0 -0.16121563861803809 0.1166900199948996 0 -0.14728465427452231 0.13820002546012569 0 -0.14728465427452231 0.13820002546012569 0 -0.12873287106809519 0.13171820984723381 0 -0.12326775778306551 0.14759655208955699 0 -0.14186701807518029 0.1178977593512698 0 -0.14728465427452231 0.13820002546012569 0 -0.12873287106809519 0.13171820984723381 0 -0.12873287106809519 0.13171820984723381 0 -0.11471686563500121 0.12832906634951269 0 -0.12429981908482179 0.1174512197072704 0 -0.12873287106809519 0.13171820984723381 0 -0.1188875648772051 0.13735275746858469 0 -0.12326775778306551 0.14759655208955699 0 -0.12873287106809519 0.13171820984723381 0 -0.1188875648772051 0.13735275746858469 0 -0.11471686563500121 0.12832906634951269 0 -0.1188875648772051 0.13735275746858469 0 -0.11471686563500121 0.12832906634951269 0 -0.1088327650226586 0.14176720158803541 0 -0.099578721583937699 0.12804784081570969 0 -0.09672305596825212 0.1531295414086371 0 -0.099578721583937699 0.12804784081570969 0 -0.096101510095471215 0.14365402511793179 0 -0.091623631369742775 0.12047629905862541 0 -0.11471686563500121 0.12832906634951269 0 -0.099578721583937699 0.12804784081570969 0 -0.1088327650226586 0.14176720158803541 0 -0.096101510095471215 0.14365402511793179 0 -0.091623631369742775 0.12047629905862541 0 -0.099578721583937699 0.12804784081570969 0 -0.09672305596825212 0.1531295414086371 0 -0.1088327650226586 0.14176720158803541 0 -0.099578721583937699 0.12804784081570969 0 -0.09672305596825212 0.1531295414086371 0 -0.096101510095471215 0.14365402511793179 0 -0.09672305596825212 0.1531295414086371 0 -0.1088327650226586 0.14176720158803541 0 -0.1107354956643871 0.1600812739372677 0 -0.09672305596825212 0.1531295414086371 0 -0.096101510095471215 0.14365402511793179 0 -0.088806346275356773 0.14889069418851561 0 -0.1088327650226586 0.14176720158803541 0 -0.12326775778306551 0.14759655208955699 0 -0.1107354956643871 0.1600812739372677 0 -0.1188875648772051 0.13735275746858469 0 -0.1088327650226586 0.14176720158803541 0 -0.12326775778306551 0.14759655208955699 0 -0.13335366993100739 0.15971003092535241 0 -0.1217284345599457 0.1621001980744789 0 -0.1195568148613229 0.18101293534573859 0 -0.12326775778306551 0.14759655208955699 0 -0.1217284345599457 0.1621001980744789 0 -0.1107354956643871 0.1600812739372677 0 -0.1217284345599457 0.1621001980744789 0 -0.1107354956643871 0.1600812739372677 0 -0.1195568148613229 0.18101293534573859 0 -0.1107354956643871 0.1600812739372677 0 -0.1195568148613229 0.18101293534573859 0 -0.093867390352566554 0.17821124200156449 0 -0.1195568148613229 0.18101293534573859 0 -0.093867390352566554 0.17821124200156449 0 -0.1057599597916395 0.20231583976612549 0 -0.09672305596825212 0.1531295414086371 0 -0.093867390352566554 0.17821124200156449 0 -0.09672305596825212 0.1531295414086371 0 -0.1107354956643871 0.1600812739372677 0 -0.093867390352566554 0.17821124200156449 0 -0.09672305596825212 0.1531295414086371 0 -0.093867390352566554 0.17821124200156449 0 -0.084996415224264293 0.16248014163144481 0 -0.084996415224264293 0.16248014163144481 0 -0.076035429492428711 0.17498803497223331 0 -0.073864864207949549 0.1606049269839683 0 -0.084996415224264293 0.16248014163144481 0 -0.073864864207949549 0.1606049269839683 0 -0.078917197034161363 0.1481227335824461 0 -0.093867390352566554 0.17821124200156449 0 -0.076035429492428711 0.17498803497223331 0 -0.078687161340650125 0.18996705149265181 0 -0.093867390352566554 0.17821124200156449 0 -0.084996415224264293 0.16248014163144481 0 -0.076035429492428711 0.17498803497223331 0 -0.076035429492428711 0.17498803497223331 0 -0.064020833534938815 0.1658954385487785 0 -0.060754907304701143 0.1938051271302465 0 -0.076035429492428711 0.17498803497223331 0 -0.078687161340650125 0.18996705149265181 0 -0.060754907304701143 0.1938051271302465 0 -0.076035429492428711 0.17498803497223331 0 -0.073864864207949549 0.1606049269839683 0 -0.064020833534938815 0.1658954385487785 0 -0.073864864207949549 0.1606049269839683 0 -0.064020833534938815 0.1658954385487785 0 -0.06535444575395459 0.15153828618493889 0 -0.073864864207949549 0.1606049269839683 0 -0.06535444575395459 0.15153828618493889 0 -0.078917197034161363 0.1481227335824461 0 -0.06535444575395459 0.15153828618493889 0 -0.066936901952508024 0.1376855039526467 0 -0.078917197034161363 0.1481227335824461 0 -0.066936901952508024 0.1376855039526467 0 -0.07873041137024081 0.13235177789959959 0 -0.078917197034161363 0.1481227335824461 0 -0.066936901952508024 0.1376855039526467 0 -0.068082342106534466 0.12536131734153561 0 -0.05364742747405786 0.1246936902026535 0 -0.068082342106534466 0.12536131734153561 0 -0.07873041137024081 0.13235177789959959 0 -0.077631513102752042 0.12092144142235139 0 -0.066936901952508024 0.1376855039526467 0 -0.068082342106534466 0.12536131734153561 0 -0.07873041137024081 0.13235177789959959 0 -0.07873041137024081 0.13235177789959959 0 -0.086835819228994596 0.1386991059694237 0 -0.091623631369742775 0.12047629905862541 0 -0.07873041137024081 0.13235177789959959 0 -0.086835819228994596 0.1386991059694237 0 -0.078917197034161363 0.1481227335824461 0 -0.096101510095471215 0.14365402511793179 0 -0.086835819228994596 0.1386991059694237 0 -0.091623631369742775 0.12047629905862541 0 -0.096101510095471215 0.14365402511793179 0 -0.086835819228994596 0.1386991059694237 0 -0.088806346275356773 0.14889069418851561 0 -0.09672305596825212 0.1531295414086371 0 -0.084996415224264293 0.16248014163144481 0 -0.088806346275356773 0.14889069418851561 0 -0.084996415224264293 0.16248014163144481 0 -0.088806346275356773 0.14889069418851561 0 -0.078917197034161363 0.1481227335824461 0 -0.086835819228994596 0.1386991059694237 0 -0.088806346275356773 0.14889069418851561 0 -0.078917197034161363 0.1481227335824461 0 -0.097256843775060275 0.25135422273966612 0 -0.12591495098227851 0.2444315350264871 0 -0.1036951889924906 0.23742530707814541 0 -0.1036951889924906 0.23742530707814541 0 -0.095968320600416282 0.23072657495421581 0 -0.087683837822331606 0.24058546946074971 0 -0.097256843775060275 0.25135422273966612 0 -0.1036951889924906 0.23742530707814541 0 -0.087683837822331606 0.24058546946074971 0 -0.12591495098227851 0.2444315350264871 0 -0.1036951889924906 0.23742530707814541 0 -0.11799606559347629 0.231127879327088 0 -0.097256843775060275 0.25135422273966612 0 -0.12591495098227851 0.2444315350264871 0 -0.11799606559347629 0.231127879327088 0 -0.12321774739119939 0.2203782023760566 0 -0.1132318021170388 0.220248650460354 0 -0.11799606559347629 0.231127879327088 0 -0.1132318021170388 0.220248650460354 0 -0.1036146793678512 0.22591876722155349 0 -0.1132318021170388 0.220248650460354 0 -0.1036146793678512 0.22591876722155349 0 -0.10631777887870129 0.21653162284906199 0 -0.1036951889924906 0.23742530707814541 0 -0.11799606559347629 0.231127879327088 0 -0.1036146793678512 0.22591876722155349 0 -0.1036951889924906 0.23742530707814541 0 -0.1036146793678512 0.22591876722155349 0 -0.095968320600416282 0.23072657495421581 0 -0.1036146793678512 0.22591876722155349 0 -0.095968320600416282 0.23072657495421581 0 -0.091963104721955985 0.2236187441865124 0 -0.1036146793678512 0.22591876722155349 0 -0.10631777887870129 0.21653162284906199 0 -0.091963104721955985 0.2236187441865124 0 -0.1057599597916395 0.20231583976612549 0 -0.091963104721955985 0.2236187441865124 0 -0.1057599597916395 0.20231583976612549 0 -0.091011724736880961 0.20329294259449199 0 -0.091963104721955985 0.2236187441865124 0 -0.10631777887870129 0.21653162284906199 0 -0.1057599597916395 0.20231583976612549 0 -0.091963104721955985 0.2236187441865124 0 -0.1132318021170388 0.220248650460354 0 -0.10631777887870129 0.21653162284906199 0 -0.117019348395021 0.2105561126107646 0 -0.117019348395021 0.2105561126107646 0 -0.1243062604840254 0.19886715055189191 0 -0.1057599597916395 0.20231583976612549 0 -0.1307649044748557 0.21173015447677099 0 -0.12321774739119939 0.2203782023760566 0 -0.117019348395021 0.2105561126107646 0 -0.12321774739119939 0.2203782023760566 0 -0.1132318021170388 0.220248650460354 0 -0.117019348395021 0.2105561126107646 0 -0.1307649044748557 0.21173015447677099 0 -0.117019348395021 0.2105561126107646 0 -0.1243062604840254 0.19886715055189191 0 -0.10631777887870129 0.21653162284906199 0 -0.117019348395021 0.2105561126107646 0 -0.1057599597916395 0.20231583976612549 0 -0.1195568148613229 0.18101293534573859 0 -0.1057599597916395 0.20231583976612549 0 -0.1195568148613229 0.18101293534573859 0 -0.1243062604840254 0.19886715055189191 0 -0.1057599597916395 0.20231583976612549 0 -0.093867390352566554 0.17821124200156449 0 -0.1057599597916395 0.20231583976612549 0 -0.091011724736880961 0.20329294259449199 0 -0.093867390352566554 0.17821124200156449 0 -0.078687161340650125 0.18996705149265181 0 -0.091011724736880961 0.20329294259449199 0 -0.093867390352566554 0.17821124200156449 0 -0.091011724736880961 0.20329294259449199 0 -0.078687161340650125 0.18996705149265181 0 -0.072314997474115628 0.20193602111312009 0 -0.091011724736880961 0.20329294259449199 0 -0.078687161340650125 0.18996705149265181 0 -0.072314997474115628 0.20193602111312009 0 -0.060754907304701143 0.1938051271302465 0 -0.072314997474115628 0.20193602111312009 0 -0.057488981074463492 0.2217148157117145 0 -0.060754907304701143 0.1938051271302465 0 -0.072314997474115628 0.20193602111312009 0 -0.07517898180013087 0.2141937283985281 0 -0.057488981074463492 0.2217148157117145 0 -0.072314997474115628 0.20193602111312009 0 -0.07517898180013087 0.2141937283985281 0 -0.091011724736880961 0.20329294259449199 0 -0.091011724736880961 0.20329294259449199 0 -0.091963104721955985 0.2236187441865124 0 -0.088156059121195354 0.2283746431874196 0 -0.07517898180013087 0.2141937283985281 0 -0.091011724736880961 0.20329294259449199 0 -0.082505599780357278 0.21815718184930069 0 -0.091011724736880961 0.20329294259449199 0 -0.082505599780357278 0.21815718184930069 0 -0.088156059121195354 0.2283746431874196 0 -0.091011724736880961 0.20329294259449199 0 -0.088156059121195354 0.2283746431874196 0 -0.095968320600416282 0.23072657495421581 0 -0.088156059121195354 0.2283746431874196 0 -0.087683837822331606 0.24058546946074971 0 -0.095968320600416282 0.23072657495421581 0 -0.091963104721955985 0.2236187441865124 0 -0.088156059121195354 0.2283746431874196 0 -0.088156059121195354 0.2283746431874196 0 -0.075675633463221953 0.22676741321676341 0 -0.079063273031776793 0.2362881691744427 0 -0.082505599780357278 0.21815718184930069 0 -0.088156059121195354 0.2283746431874196 0 -0.075675633463221953 0.22676741321676341 0 -0.07517898180013087 0.2141937283985281 0 -0.075675633463221953 0.22676741321676341 0 -0.057488981074463492 0.2217148157117145 0 -0.075675633463221953 0.22676741321676341 0 -0.068189074222653523 0.23801080903900801 0 -0.057488981074463492 0.2217148157117145 0 -0.07517898180013087 0.2141937283985281 0 -0.082505599780357278 0.21815718184930069 0 -0.075675633463221953 0.22676741321676341 0 -0.075675633463221953 0.22676741321676341 0 -0.068189074222653523 0.23801080903900801 0 -0.079063273031776793 0.2362881691744427 0 -0.068189074222653523 0.23801080903900801 0 -0.077907903660119127 0.24548654409250509 0 -0.079063273031776793 0.2362881691744427 0 -0.068189074222653523 0.23801080903900801 0 -0.066655656541049935 0.2484036836883256 0 -0.054223054844222747 0.24962450429318209 0 -0.068189074222653523 0.23801080903900801 0 -0.066655656541049935 0.2484036836883256 0 -0.077907903660119127 0.24548654409250509 0 -0.097256843775060275 0.25135422273966612 0 -0.077907903660119127 0.24548654409250509 0 -0.087683837822331606 0.24058546946074971 0 -0.088156059121195354 0.2283746431874196 0 -0.079063273031776793 0.2362881691744427 0 -0.087683837822331606 0.24058546946074971 0 -0.077907903660119127 0.24548654409250509 0 -0.079063273031776793 0.2362881691744427 0 -0.087683837822331606 0.24058546946074971 0 -0.034540175446752752 0.23777781276142859 0 -0.054223054844222747 0.24962450429318209 0 -0.043790278277067142 0.26172132271316523 0 -0.034540175446752752 0.23777781276142859 0 -0.054223054844222747 0.24962450429318209 0 -0.054223054844222747 0.24962450429318209 0 -0.057488981074463492 0.2217148157117145 0 -0.068189074222653523 0.23801080903900801 0 -0.054223054844222747 0.24962450429318209 0 -0.057488981074463492 0.2217148157117145 0 -0.034540175446752752 0.23777781276142859 0 -0.054223054844222747 0.24962450429318209 0 -0.057488981074463492 0.2217148157117145 0 -0.034540175446752752 0.23777781276142859 0 -0.057488981074463492 0.2217148157117145 0 -0.031877796093206061 0.21295319993917219 0 -0.057488981074463492 0.2217148157117145 0 -0.031877796093206061 0.21295319993917219 0 -0.044721758524538358 0.2014263506549224 0 -0.031877796093206061 0.21295319993917219 0 -0.044721758524538358 0.2014263506549224 0 -0.02857741795319994 0.20124522763689731 0 -0.057488981074463492 0.2217148157117145 0 -0.060754907304701143 0.1938051271302465 0 -0.057488981074463492 0.2217148157117145 0 -0.060754907304701143 0.1938051271302465 0 -0.044721758524538358 0.2014263506549224 0 -0.060754907304701143 0.1938051271302465 0 -0.048918105439665738 0.1909817494769547 0 -0.044721758524538358 0.2014263506549224 0 -0.060754907304701143 0.1938051271302465 0 -0.048918105439665738 0.1909817494769547 0 -0.055757950965269129 0.1800709515265102 0 -0.044721758524538358 0.2014263506549224 0 -0.034437804964154342 0.1886245685961396 0 -0.02857741795319994 0.20124522763689731 0 -0.048918105439665738 0.1909817494769547 0 -0.044721758524538358 0.2014263506549224 0 -0.034437804964154342 0.1886245685961396 0 -0.034437804964154342 0.1886245685961396 0 -0.013117658963039311 0.19717818566576861 0 -0.034437804964154342 0.1886245685961396 0 -0.02857741795319994 0.20124522763689731 0 -0.013117658963039311 0.19717818566576861 0 -0.034437804964154342 0.1886245685961396 0 -0.016668026245672179 0.1938330056451858 0 -0.017328170231205212 0.18445312152344881 0 -0.034437804964154342 0.1886245685961396 0 -0.016668026245672179 0.1938330056451858 0 -0.013117658963039311 0.19717818566576861 0 -0.02857741795319994 0.20124522763689731 0 -0.013117658963039311 0.19717818566576861 0 -0.01967739912709118 0.20982125082874181 0 -0.013117658963039311 0.19717818566576861 0 0.0039198565298387798 0.20401361649895081 0 -0.011984614806837719 0.1924189824510403 0 -0.0085537697222126934 0.1879526660136096 0 -0.017328170231205212 0.18445312152344881 0 -0.0032160007183766721 0.19714898029000569 0 -0.013117658963039311 0.19717818566576861 0 0.0039198565298387798 0.20401361649895081 0 -0.016668026245672179 0.1938330056451858 0 -0.011984614806837719 0.1924189824510403 0 -0.017328170231205212 0.18445312152344881 0 -0.016668026245672179 0.1938330056451858 0 -0.011984614806837719 0.1924189824510403 0 -0.013117658963039311 0.19717818566576861 0 -0.011984614806837719 0.1924189824510403 0 -0.0080014800484485612 0.19317644977962059 0 -0.013117658963039311 0.19717818566576861 0 -0.011984614806837719 0.1924189824510403 0 -0.0080014800484485612 0.19317644977962059 0 -0.0085537697222126934 0.1879526660136096 0 -0.0080014800484485612 0.19317644977962059 0 -0.0085537697222126934 0.1879526660136096 0 -0.002484186227551892 0.19124640694551329 0 -0.0085537697222126934 0.1879526660136096 0 -0.002484186227551892 0.19124640694551329 0 -0.00075048098972077515 0.18337383293429479 0 -0.0080014800484485612 0.19317644977962059 0 -0.002484186227551892 0.19124640694551329 0 -0.0032160007183766721 0.19714898029000569 0 -0.002484186227551892 0.19124640694551329 0 -0.0032160007183766721 0.19714898029000569 0 0.0039271042507982171 0.19629700050329141 0 -0.0080014800484485612 0.19317644977962059 0 -0.0032160007183766721 0.19714898029000569 0 -0.013117658963039311 0.19717818566576861 0 -0.016668026245672179 0.1938330056451858 0 -0.013117658963039311 0.19717818566576861 0 -0.013117658963039311 0.19717818566576861 0 0.0048255833481865096 0.21408442969792041 0 0.0039198565298387798 0.20401361649895081 0 -0.013117658963039311 0.19717818566576861 0 0.0048255833481865096 0.21408442969792041 0 -0.013117658963039311 0.19717818566576861 0 -0.0099568265767271697 0.21179851967219659 0 -0.01967739912709118 0.20982125082874181 0 -0.0099568265767271697 0.21179851967219659 0 -0.01967739912709118 0.20982125082874181 0 -0.014857296049283391 0.2259311212296741 0 -0.013117658963039311 0.19717818566576861 0 -0.0099568265767271697 0.21179851967219659 0 0.0048255833481865096 0.21408442969792041 0 -0.0099568265767271697 0.21179851967219659 0 -0.014857296049283391 0.2259311212296741 0 0.0048255833481865096 0.21408442969792041 0 -0.031877796093206061 0.21295319993917219 0 -0.01967739912709118 0.20982125082874181 0 -0.014857296049283391 0.2259311212296741 0 -0.031877796093206061 0.21295319993917219 0 -0.02857741795319994 0.20124522763689731 0 -0.01967739912709118 0.20982125082874181 0 -0.034540175446752752 0.23777781276142859 0 -0.014857296049283391 0.2259311212296741 0 -0.034540175446752752 0.23777781276142859 0 -0.031877796093206061 0.21295319993917219 0 -0.014857296049283391 0.2259311212296741 0 -0.014857296049283391 0.2259311212296741 0 -0.0031228787433460439 0.2313728718970848 0 0.0048255833481865096 0.21408442969792041 0 -0.014857296049283391 0.2259311212296741 0 0.0048255833481865096 0.21408442969792041 0 -0.014857296049283391 0.2259311212296741 0 -0.0031228787433460439 0.2313728718970848 0 -0.011370441283191819 0.24125883903700199 0 -0.0031228787433460439 0.2313728718970848 0 -0.011370441283191819 0.24125883903700199 0 0.0037910183183384968 0.24050713882929031 0 -0.0025019221426154608 0.25448127945916882 0 -0.011370441283191819 0.24125883903700199 0 0.0037910183183384968 0.24050713882929031 0 -0.016889468353333749 0.25391797572469321 0 -0.0025019221426154608 0.25448127945916882 0 -0.011370441283191819 0.24125883903700199 0 -0.016889468353333749 0.25391797572469321 0 -0.034540175446752752 0.23777781276142859 0 -0.011370441283191819 0.24125883903700199 0 -0.034540175446752752 0.23777781276142859 0 -0.014857296049283391 0.2259311212296741 0 -0.011370441283191819 0.24125883903700199 0 -0.039763363473903017 0.1498216230663911 0 -0.04027643551265573 0.13442171267566641 0 -0.052982354236083593 0.14244903969897549 0 -0.039763363473903017 0.1498216230663911 0 -0.04027643551265573 0.13442171267566641 0 -0.028933126792455209 0.14132668455497999 0 -0.04027643551265573 0.13442171267566641 0 -0.030139925242366469 0.1217790665657921 0 -0.05364742747405786 0.1246936902026535 0 -0.04027643551265573 0.13442171267566641 0 -0.028933126792455209 0.14132668455497999 0 -0.030139925242366469 0.1217790665657921 0 -0.04027643551265573 0.13442171267566641 0 -0.052982354236083593 0.14244903969897549 0 -0.05364742747405786 0.1246936902026535 0 -0.066936901952508024 0.1376855039526467 0 -0.052982354236083593 0.14244903969897549 0 -0.05364742747405786 0.1246936902026535 0 -0.06535444575395459 0.15153828618493889 0 -0.066936901952508024 0.1376855039526467 0 -0.052982354236083593 0.14244903969897549 0 -0.039763363473903017 0.1498216230663911 0 -0.052982354236083593 0.14244903969897549 0 -0.052383902127356607 0.15744644283523329 0 -0.06535444575395459 0.15153828618493889 0 -0.052982354236083593 0.14244903969897549 0 -0.052383902127356607 0.15744644283523329 0 -0.064020833534938815 0.1658954385487785 0 -0.052383902127356607 0.15744644283523329 0 -0.055757950965269129 0.1800709515265102 0 -0.052383902127356607 0.15744644283523329 0 -0.055757950965269129 0.1800709515265102 0 -0.038374173274806023 0.16787679777038159 0 -0.064020833534938815 0.1658954385487785 0 -0.06535444575395459 0.15153828618493889 0 -0.052383902127356607 0.15744644283523329 0 -0.064020833534938815 0.1658954385487785 0 -0.060754907304701143 0.1938051271302465 0 -0.064020833534938815 0.1658954385487785 0 -0.060754907304701143 0.1938051271302465 0 -0.055757950965269129 0.1800709515265102 0 -0.034437804964154342 0.1886245685961396 0 -0.055757950965269129 0.1800709515265102 0 -0.048918105439665738 0.1909817494769547 0 -0.034437804964154342 0.1886245685961396 0 -0.055757950965269129 0.1800709515265102 0 -0.034437804964154342 0.1886245685961396 0 -0.055757950965269129 0.1800709515265102 0 -0.038374173274806023 0.16787679777038159 0 -0.034437804964154342 0.1886245685961396 0 -0.038374173274806023 0.16787679777038159 0 -0.022287990732853449 0.17430769339780269 0 -0.039763363473903017 0.1498216230663911 0 -0.052383902127356607 0.15744644283523329 0 -0.038374173274806023 0.16787679777038159 0 -0.039763363473903017 0.1498216230663911 0 -0.038374173274806023 0.16787679777038159 0 -0.02428067132226016 0.15725660838566391 0 -0.02428067132226016 0.15725660838566391 0 -0.022287990732853449 0.17430769339780269 0 -0.0078416358702520367 0.16673659981756109 0 -0.038374173274806023 0.16787679777038159 0 -0.02428067132226016 0.15725660838566391 0 -0.022287990732853449 0.17430769339780269 0 -0.034437804964154342 0.1886245685961396 0 -0.022287990732853449 0.17430769339780269 0 -0.017328170231205212 0.18445312152344881 0 -0.022287990732853449 0.17430769339780269 0 -0.017328170231205212 0.18445312152344881 0 -0.0093700886661084448 0.17842294026522651 0 -0.0085537697222126934 0.1879526660136096 0 -0.017328170231205212 0.18445312152344881 0 -0.0093700886661084448 0.17842294026522651 0 -0.022287990732853449 0.17430769339780269 0 -0.0093700886661084448 0.17842294026522651 0 -0.0078416358702520367 0.16673659981756109 0 -0.0093700886661084448 0.17842294026522651 0 -0.00075048098972077515 0.18337383293429479 0 0.00054151554959348336 0.17371372790464201 0 -0.0093700886661084448 0.17842294026522651 0 -0.0078416358702520367 0.16673659981756109 0 0.00054151554959348336 0.17371372790464201 0 -0.0085537697222126934 0.1879526660136096 0 -0.0093700886661084448 0.17842294026522651 0 -0.00075048098972077515 0.18337383293429479 0 -0.0078416358702520367 0.16673659981756109 0 -0.01067358928902503 0.14426743280506321 0 0.0087927466643164098 0.1667557990443343 0 -0.02428067132226016 0.15725660838566391 0 -0.0078416358702520367 0.16673659981756109 0 -0.01067358928902503 0.14426743280506321 0 -0.01067358928902503 0.14426743280506321 0 0.0087927466643164098 0.1667557990443343 0 -0.02428067132226016 0.15725660838566391 0 -0.01067358928902503 0.14426743280506321 0 -0.028933126792455209 0.14132668455497999 0 -0.039763363473903017 0.1498216230663911 0 -0.02428067132226016 0.15725660838566391 0 -0.028933126792455209 0.14132668455497999 0 -0.01067358928902503 0.14426743280506321 0 -0.030139925242366469 0.1217790665657921 0 -0.01067358928902503 0.14426743280506321 0 -0.028933126792455209 0.14132668455497999 0 -0.030139925242366469 0.1217790665657921 0 -0.01067358928902503 0.14426743280506321 0 -0.0065689069546226563 0.12037126698299649 0 -0.030139925242366469 0.1217790665657921 0 -0.01067358928902503 0.14426743280506321 0 -0.0065689069546226563 0.12037126698299649 0 0.0072044739687509426 0.1294865518647885 0 -0.0065689069546226563 0.12037126698299649 0 -0.0030616360702873028 0.10236709566844519 0 0.0072044739687509426 0.1294865518647885 0 -0.0065689069546226563 0.12037126698299649 0 -0.0039833184615176752 0.091133419780590988 0 -0.0065689069546226563 0.12037126698299649 0 -0.0221649322902433 0.1040433737059162 0 -0.0039833184615176752 0.091133419780590988 0 -0.0065689069546226563 0.12037126698299649 0 -0.0030616360702873028 0.10236709566844519 0 -0.0039833184615176752 0.091133419780590988 0 -0.0221649322902433 0.1040433737059162 0 -0.021742909782084829 0.085793414546869604 0 -0.049606261195707983 0.099290700326520875 0 -0.0065689069546226563 0.12037126698299649 0 -0.0221649322902433 0.1040433737059162 0 -0.030139925242366469 0.1217790665657921 0 -0.021742909782084829 0.085793414546869604 0 -0.03399562736470868 0.068906005689512939 0 -0.0013977299684126961 0.061895572578185468 0 -0.0039833184615176752 0.091133419780590988 0 -0.0013977299684126961 0.061895572578185468 0 -0.0039833184615176752 0.091133419780590988 0 -0.021742909782084829 0.085793414546869604 0 -0.0013977299684126961 0.061895572578185468 0 -0.0221649322902433 0.1040433737059162 0 -0.0039833184615176752 0.091133419780590988 0 -0.021742909782084829 0.085793414546869604 0 -0.021742909782084829 0.085793414546869604 0 -0.03399562736470868 0.068906005689512939 0 -0.049606261195707983 0.099290700326520875 0 -0.03399562736470868 0.068906005689512939 0 -0.058740312041568661 0.069442452162019649 0 -0.049606261195707983 0.099290700326520875 0 -0.058740312041568661 0.069442452162019649 0 -0.049606261195707983 0.099290700326520875 0 -0.067882696134933043 0.088998726838632719 0 -0.03399562736470868 0.068906005689512939 0 -0.058740312041568661 0.069442452162019649 0 -0.05064407376920313 0.049489635567041071 0 -0.030139925242366469 0.1217790665657921 0 -0.049606261195707983 0.099290700326520875 0 -0.030139925242366469 0.1217790665657921 0 -0.049606261195707983 0.099290700326520875 0 -0.05364742747405786 0.1246936902026535 0 -0.0221649322902433 0.1040433737059162 0 -0.030139925242366469 0.1217790665657921 0 -0.049606261195707983 0.099290700326520875 0 -0.049606261195707983 0.099290700326520875 0 -0.05364742747405786 0.1246936902026535 0 -0.067395949591067927 0.1134572274005493 0 -0.068082342106534466 0.12536131734153561 0 -0.05364742747405786 0.1246936902026535 0 -0.067395949591067927 0.1134572274005493 0 -0.067395949591067927 0.1134572274005493 0 -0.077631513102752042 0.12092144142235139 0 -0.07998019580008886 0.1107211965785182 0 -0.068082342106534466 0.12536131734153561 0 -0.067395949591067927 0.1134572274005493 0 -0.077631513102752042 0.12092144142235139 0 -0.07873041137024081 0.13235177789959959 0 -0.077631513102752042 0.12092144142235139 0 -0.091623631369742775 0.12047629905862541 0 -0.077631513102752042 0.12092144142235139 0 -0.07998019580008886 0.1107211965785182 0 -0.091623631369742775 0.12047629905862541 0 -0.07998019580008886 0.1107211965785182 0 -0.091623631369742775 0.12047629905862541 0 -0.087145752644014363 0.097298572999318919 0 -0.091623631369742775 0.12047629905862541 0 -0.087145752644014363 0.097298572999318919 0 -0.091623631369742775 0.12047629905862541 0 -0.087145752644014363 0.097298572999318919 0 -0.095548183403899603 0.09786082909091956 0 -0.087145752644014363 0.097298572999318919 0 -0.091247092990805967 0.090678693544016295 0 -0.095548183403899603 0.09786082909091956 0 -0.07998019580008886 0.1107211965785182 0 -0.087145752644014363 0.097298572999318919 0 -0.072420138696938002 0.1010420495424315 0 -0.087145752644014363 0.097298572999318919 0 -0.072420138696938002 0.1010420495424315 0 -0.067882696134933043 0.088998726838632719 0 -0.049606261195707983 0.099290700326520875 0 -0.067395949591067927 0.1134572274005493 0 -0.072420138696938002 0.1010420495424315 0 -0.049606261195707983 0.099290700326520875 0 -0.072420138696938002 0.1010420495424315 0 -0.067882696134933043 0.088998726838632719 0 -0.067395949591067927 0.1134572274005493 0 -0.07998019580008886 0.1107211965785182 0 -0.072420138696938002 0.1010420495424315 0 -0.058740312041568661 0.069442452162019649 0 -0.082667873918285922 0.074120846940012516 0 -0.07818999519255751 0.050943120880706183 0 -0.058740312041568661 0.069442452162019649 0 -0.067882696134933043 0.088998726838632719 0 -0.082667873918285922 0.074120846940012516 0 -0.082667873918285922 0.074120846940012516 0 -0.095333222261335143 0.064195338569509125 0 -0.07818999519255751 0.050943120880706183 0 -0.082667873918285922 0.074120846940012516 0 -0.07818999519255751 0.050943120880706183 0 -0.082667873918285922 0.074120846940012516 0 -0.093557215772388763 0.077847401343848613 0 -0.095333222261335143 0.064195338569509125 0 -0.082667873918285922 0.074120846940012516 0 -0.093557215772388763 0.077847401343848613 0 -0.091247092990805967 0.090678693544016295 0 -0.087145752644014363 0.097298572999318919 0 -0.082667873918285922 0.074120846940012516 0 -0.087145752644014363 0.097298572999318919 0 -0.067882696134933043 0.088998726838632719 0 -0.082667873918285922 0.074120846940012516 0 -0.087145752644014363 0.097298572999318919 0 -0.082667873918285922 0.074120846940012516 0 -0.091247092990805967 0.090678693544016295 0 -0.1052900528153116 0.077884439629855029 0 -0.1141119725103059 0.091353462926968845 0 -0.10243438719962331 0.10296614022278219 0 -0.091247092990805967 0.090678693544016295 0 -0.1052900528153116 0.077884439629855029 0 -0.095548183403899603 0.09786082909091956 0 -0.1052900528153116 0.077884439629855029 0 -0.10243438719962331 0.10296614022278219 0 -0.1052900528153116 0.077884439629855029 0 -0.10243438719962331 0.10296614022278219 0 -0.095548183403899603 0.09786082909091956 0 -0.093557215772388763 0.077847401343848613 0 -0.091247092990805967 0.090678693544016295 0 -0.1052900528153116 0.077884439629855029 0 -0.091247092990805967 0.090678693544016295 0 -0.1052900528153116 0.077884439629855029 0 -0.1052900528153116 0.077884439629855029 0 -0.1081226958244482 0.053004949730325483 0 -0.095333222261335143 0.064195338569509125 0 -0.1052900528153116 0.077884439629855029 0 -0.1081226958244482 0.053004949730325483 0 -0.093557215772388763 0.077847401343848613 0 -0.095333222261335143 0.064195338569509125 0 -0.1052900528153116 0.077884439629855029 0 -0.12572298522339581 0.059268412189289799 0 -0.1052900528153116 0.077884439629855029 0 -0.12572298522339581 0.059268412189289799 0 -0.1052900528153116 0.077884439629855029 0 -0.1207958594767826 0.079250843644594948 0 -0.12572298522339581 0.059268412189289799 0 -0.1052900528153116 0.077884439629855029 0 -0.1081226958244482 0.053004949730325483 0 -0.1052900528153116 0.077884439629855029 0 -0.1141119725103059 0.091353462926968845 0 -0.1207958594767826 0.079250843644594948 0 -0.1257424217415215 0.091860626022193526 0 -0.1141119725103059 0.091353462926968845 0 -0.1207958594767826 0.079250843644594948 0 -0.1141119725103059 0.091353462926968845 0 -0.1181955928242234 0.1042344765897769 0 -0.10243438719962331 0.10296614022278219 0 -0.1181955928242234 0.1042344765897769 0 -0.111652724870552 0.1163877380424853 0 -0.10243438719962331 0.10296614022278219 0 -0.1257424217415215 0.091860626022193526 0 -0.1141119725103059 0.091353462926968845 0 -0.1181955928242234 0.1042344765897769 0 -0.1181955928242234 0.1042344765897769 0 -0.12429981908482179 0.1174512197072704 0 -0.111652724870552 0.1163877380424853 0 -0.11471686563500121 0.12832906634951269 0 -0.12429981908482179 0.1174512197072704 0 -0.111652724870552 0.1163877380424853 0 -0.099578721583937699 0.12804784081570969 0 -0.091623631369742775 0.12047629905862541 0 -0.10243438719962331 0.10296614022278219 0 -0.099578721583937699 0.12804784081570969 0 -0.111652724870552 0.1163877380424853 0 -0.10243438719962331 0.10296614022278219 0 -0.099578721583937699 0.12804784081570969 0 -0.10243438719962331 0.10296614022278219 0 -0.11471686563500121 0.12832906634951269 0 -0.099578721583937699 0.12804784081570969 0 -0.111652724870552 0.1163877380424853 0 -0.091623631369742775 0.12047629905862541 0 -0.10243438719962331 0.10296614022278219 0 -0.095548183403899603 0.09786082909091956 0 -0.097712007629014913 0.016292779913943709 0 -0.11007925314357569 0.0059405837614587911 0 -0.1109553388335876 0.028125459830796281 0 -0.097712007629014913 0.016292779913943709 0 -0.1109553388335876 0.028125459830796281 0 -0.09169562479619657 0.03540296082554658 0 -0.098431176206989657 -0.0027502751599372609 0 -0.097712007629014913 0.016292779913943709 0 -0.11007925314357569 0.0059405837614587911 0 -0.12556787346907991 0.0072178933967609119 0 -0.11007925314357569 0.0059405837614587911 0 -0.1109553388335876 0.028125459830796281 0 -0.12733846300996149 0.040519962503919933 0 -0.1347331426304843 0.024221817457561769 0 -0.1109553388335876 0.028125459830796281 0 -0.12556787346907991 0.0072178933967609119 0 -0.1347331426304843 0.024221817457561769 0 -0.1109553388335876 0.028125459830796281 0 -0.1109553388335876 0.028125459830796281 0 -0.1081226958244482 0.053004949730325483 0 -0.12733846300996149 0.040519962503919933 0 -0.1109553388335876 0.028125459830796281 0 -0.1081226958244482 0.053004949730325483 0 -0.12572298522339581 0.059268412189289799 0 -0.12733846300996149 0.040519962503919933 0 -0.1081226958244482 0.053004949730325483 0 -0.095333222261335143 0.064195338569509125 0 -0.1081226958244482 0.053004949730325483 0 -0.093335384518634351 0.050886592501521839 0 -0.1081226958244482 0.053004949730325483 0 -0.09169562479619657 0.03540296082554658 0 -0.093335384518634351 0.050886592501521839 0 -0.1109553388335876 0.028125459830796281 0 -0.1081226958244482 0.053004949730325483 0 -0.09169562479619657 0.03540296082554658 0 -0.09169562479619657 0.03540296082554658 0 -0.093335384518634351 0.050886592501521839 0 -0.07818999519255751 0.050943120880706183 0 -0.095333222261335143 0.064195338569509125 0 -0.093335384518634351 0.050886592501521839 0 -0.07818999519255751 0.050943120880706183 0 -0.058740312041568661 0.069442452162019649 0 -0.07818999519255751 0.050943120880706183 0 -0.05064407376920313 0.049489635567041071 0 -0.09169562479619657 0.03540296082554658 0 -0.07818999519255751 0.050943120880706183 0 -0.064380596076999849 0.031951534656385991 0 -0.07818999519255751 0.050943120880706183 0 -0.064380596076999849 0.031951534656385991 0 -0.05064407376920313 0.049489635567041071 0 -0.06975928411668901 -0.01229153909763884 0 -0.079132482834772755 0.013682388854395209 0 -0.043910064218845822 0.0067164781922273448 0 -0.097712007629014913 0.016292779913943709 0 -0.09169562479619657 0.03540296082554658 0 -0.079132482834772755 0.013682388854395209 0 -0.09169562479619657 0.03540296082554658 0 -0.064380596076999849 0.031951534656385991 0 -0.079132482834772755 0.013682388854395209 0 -0.098431176206989657 -0.0027502751599372609 0 -0.079132482834772755 0.013682388854395209 0 -0.098431176206989657 -0.0027502751599372609 0 -0.097712007629014913 0.016292779913943709 0 -0.079132482834772755 0.013682388854395209 0 -0.098431176206989657 -0.0027502751599372609 0 -0.086110148374193937 -0.001970309334132247 0 -0.079132482834772755 0.013682388854395209 0 -0.064380596076999849 0.031951534656385991 0 -0.079132482834772755 0.013682388854395209 0 -0.043910064218845822 0.0067164781922273448 0 -0.064380596076999849 0.031951534656385991 0 -0.043910064218845822 0.0067164781922273448 0 -0.040906625376058187 0.031357774789195568 0 -0.043910064218845822 0.0067164781922273448 0 -0.040906625376058187 0.031357774789195568 0 -0.02125360262080429 0.008884990623213615 0 -0.03107858007825207 -0.001663579753201861 0 -0.043910064218845822 0.0067164781922273448 0 -0.02125360262080429 0.008884990623213615 0 -0.064380596076999849 0.031951534656385991 0 -0.05064407376920313 0.049489635567041071 0 -0.040906625376058187 0.031357774789195568 0 -0.05064407376920313 0.049489635567041071 0 -0.040906625376058187 0.031357774789195568 0 -0.023827616435190581 0.0485861479675362 0 -0.03399562736470868 0.068906005689512939 0 -0.05064407376920313 0.049489635567041071 0 -0.023827616435190581 0.0485861479675362 0 -0.03399562736470868 0.068906005689512939 0 -0.023827616435190581 0.0485861479675362 0 -0.0013977299684126961 0.061895572578185468 0 -0.040906625376058187 0.031357774789195568 0 -0.023827616435190581 0.0485861479675362 0 -0.01995387424095902 0.028985214940029959 0 -0.023827616435190581 0.0485861479675362 0 -0.01995387424095902 0.028985214940029959 0 0.001187858524692287 0.032657725375779913 0 -0.023827616435190581 0.0485861479675362 0 -0.0013977299684126961 0.061895572578185468 0 0.001187858524692287 0.032657725375779913 0 -0.0013977299684126961 0.061895572578185468 0 0.001187858524692287 0.032657725375779913 0 -0.040906625376058187 0.031357774789195568 0 -0.02125360262080429 0.008884990623213615 0 -0.01995387424095902 0.028985214940029959 0 -0.02125360262080429 0.008884990623213615 0 -0.01995387424095902 0.028985214940029959 0 5.341634955609182e-05 0.01381932564360088 0 -0.01995387424095902 0.028985214940029959 0 5.341634955609182e-05 0.01381932564360088 0 0.001187858524692287 0.032657725375779913 0 -0.0017141771070067441 -0.0048886145369329021 0 -0.02125360262080429 0.008884990623213615 0 5.341634955609182e-05 0.01381932564360088 0 -0.0017141771070067441 -0.0048886145369329021 0 5.341634955609182e-05 0.01381932564360088 0 0.021381410550077889 -0.0025360332760345681 0 5.341634955609182e-05 0.01381932564360088 0 0.02067288299133643 0.019812670735549289 0 0.021381410550077889 -0.0025360332760345681 0 5.341634955609182e-05 0.01381932564360088 0 0.02067288299133643 0.019812670735549289 0 0.001187858524692287 0.032657725375779913 0 0.02067288299133643 0.019812670735549289 0 0.001187858524692287 0.032657725375779913 0 0.023744740692711579 0.041121915451941729 0 0.02067288299133643 0.019812670735549289 0 0.023744740692711579 0.041121915451941729 0 0.042411341368951708 0.018255174519402149 0 0.02067288299133643 0.019812670735549289 0 0.042411341368951708 0.018255174519402149 0 0.021381410550077889 -0.0025360332760345681 0 -0.0013977299684126961 0.061895572578185468 0 0.001187858524692287 0.032657725375779913 0 0.023744740692711579 0.041121915451941729 0 -0.0013977299684126961 0.061895572578185468 0 0.023744740692711579 0.041121915451941729 0 0.027635948529100729 0.065544400493546207 0 0.023744740692711579 0.041121915451941729 0 0.050213688753567652 0.049005887833228123 0 0.027635948529100729 0.065544400493546207 0 0.023744740692711579 0.041121915451941729 0 0.050213688753567652 0.049005887833228123 0 0.042411341368951708 0.018255174519402149 0 0.050213688753567652 0.049005887833228123 0 0.042411341368951708 0.018255174519402149 0 0.063943628719096549 0.027517985625802311 0 0.050213688753567652 0.049005887833228123 0 0.068154946810190326 0.064304129194774851 0 0.04892100000674203 0.073422509656814378 0 0.042411341368951708 0.018255174519402149 0 0.063943628719096549 0.027517985625802311 0 0.069500382531848703 -0.0037633012112028501 0 0.042411341368951708 0.018255174519402149 0 0.021381410550077889 -0.0025360332760345681 0 0.043920739850203283 -0.0072118260788971156 0 0.042411341368951708 0.018255174519402149 0 0.043920739850203283 -0.0072118260788971156 0 0.069500382531848703 -0.0037633012112028501 0 0.082655276583320461 0.018380344673356839 0 0.069500382531848703 -0.0037633012112028501 0 0.101293324773198 -0.0039993906878447449 0 0.082655276583320461 0.018380344673356839 0 0.063943628719096549 0.027517985625802311 0 0.069500382531848703 -0.0037633012112028501 0 0.082655276583320461 0.018380344673356839 0 0.069500382531848703 -0.0037633012112028501 0 0.082655276583320461 0.018380344673356839 0 0.095810170634792219 0.040523990557916521 0 0.082655276583320461 0.018380344673356839 0 0.095810170634792219 0.040523990557916521 0 0.099088453781616209 0.023714959139540519 0 0.082655276583320461 0.018380344673356839 0 0.063943628719096549 0.027517985625802311 0 0.076025464548533428 0.047035396588424518 0 0.050213688753567652 0.049005887833228123 0 0.063943628719096549 0.027517985625802311 0 0.076025464548533428 0.047035396588424518 0 0.076025464548533428 0.047035396588424518 0 0.080302554057131298 0.060442691768057791 0 0.068154946810190326 0.064304129194774851 0 0.050213688753567652 0.049005887833228123 0 0.076025464548533428 0.047035396588424518 0 0.068154946810190326 0.064304129194774851 0 0.076025464548533428 0.047035396588424518 0 0.080302554057131298 0.060442691768057791 0 0.093748596754209809 0.058757415925190223 0 0.076025464548533428 0.047035396588424518 0 0.093748596754209809 0.058757415925190223 0 0.095810170634792219 0.040523990557916521 0 0.082655276583320461 0.018380344673356839 0 0.076025464548533428 0.047035396588424518 0 0.095810170634792219 0.040523990557916521 0 0.095810170634792219 0.040523990557916521 0 0.1113448769352765 0.040434291015852247 0 0.099088453781616209 0.023714959139540519 0 0.095810170634792219 0.040523990557916521 0 0.1090176273372695 0.056800038787108251 0 0.1113448769352765 0.040434291015852247 0 0.093748596754209809 0.058757415925190223 0 0.095810170634792219 0.040523990557916521 0 0.1090176273372695 0.056800038787108251 0 0.093748596754209809 0.058757415925190223 0 0.1090176273372695 0.056800038787108251 0 0.1090176273372695 0.056800038787108251 0 0.1188998646847803 0.047270874532032131 0 0.1113448769352765 0.040434291015852247 0 0.1090176273372695 0.056800038787108251 0 0.1242866579203294 0.054842661649026667 0 0.1090176273372695 0.056800038787108251 0 0.1188998646847803 0.047270874532032131 0 0.1242866579203294 0.054842661649026667 0 0.1188998646847803 0.047270874532032131 0 0.1242866579203294 0.054842661649026667 0 0.12734439964614791 0.041959784147495953 0 0.1188998646847803 0.047270874532032131 0 0.1113448769352765 0.040434291015852247 0 0.12734439964614791 0.041959784147495953 0 0.1113448769352765 0.040434291015852247 0 0.1143188622096707 0.018980196729826919 0 0.12734439964614791 0.041959784147495953 0 0.1143188622096707 0.018980196729826919 0 0.1249964635211437 0.01213688249542326 0 0.13254342773512631 0.02005523889709885 0 0.1143188622096707 0.018980196729826919 0 0.13254342773512631 0.02005523889709885 0 0.12734439964614791 0.041959784147495953 0 0.1143188622096707 0.018980196729826919 0 0.12734439964614791 0.041959784147495953 0 0.1249964635211437 0.01213688249542326 0 0.1175127348718072 0.01067550027173729 0 0.121771477586586 0.0039720656753206122 0 0.1143188622096707 0.018980196729826919 0 0.1249964635211437 0.01213688249542326 0 0.1175127348718072 0.01067550027173729 0 0.1175127348718072 0.01067550027173729 0 0.121771477586586 0.0039720656753206122 0 0.1153208076775617 0.00409293499705057 0 0.121771477586586 0.0039720656753206122 0 0.1153208076775617 0.00409293499705057 0 0.1152371807240606 -0.0032042940777625038 0 0.1153208076775617 0.00409293499705057 0 0.1059075416843831 0.0041409875032136761 0 0.1152371807240606 -0.0032042940777625038 0 0.1175127348718072 0.01067550027173729 0 0.1153208076775617 0.00409293499705057 0 0.1059075416843831 0.0041409875032136761 0 0.1143188622096707 0.018980196729826919 0 0.1059075416843831 0.0041409875032136761 0 0.1143188622096707 0.018980196729826919 0 0.1175127348718072 0.01067550027173729 0 0.1059075416843831 0.0041409875032136761 0 0.1143188622096707 0.018980196729826919 0 0.1059075416843831 0.0041409875032136761 0 0.099088453781616209 0.023714959139540519 0 0.082655276583320461 0.018380344673356839 0 0.099088453781616209 0.023714959139540519 0 0.101293324773198 -0.0039993906878447449 0 0.1059075416843831 0.0041409875032136761 0 0.099088453781616209 0.023714959139540519 0 0.101293324773198 -0.0039993906878447449 0 0.1059075416843831 0.0041409875032136761 0 0.101293324773198 -0.0039993906878447449 0 0.1113448769352765 0.040434291015852247 0 0.1143188622096707 0.018980196729826919 0 0.099088453781616209 0.023714959139540519 0 0.097680845029634075 0.098382140485103631 0 0.099690333406289966 0.1111194309190658 0 0.11386344695632029 0.098757734294965371 0 0.097680845029634075 0.098382140485103631 0 0.11386344695632029 0.098757734294965371 0 0.1031566721099218 0.087174749064411236 0 0.099690333406289966 0.1111194309190658 0 0.1126835225611459 0.11355849854382789 0 0.11386344695632029 0.098757734294965371 0 0.099690333406289966 0.1111194309190658 0 0.081579492874419471 0.1185512451496528 0 0.1019050452429672 0.12667247843380891 0 0.099690333406289966 0.1111194309190658 0 0.1126835225611459 0.11355849854382789 0 0.1019050452429672 0.12667247843380891 0 0.1163880514119067 0.12715034791592869 0 0.1304011663373528 0.10339450756242009 0 0.1163880514119067 0.12715034791592869 0 0.1304011663373528 0.10339450756242009 0 0.1281544758814985 0.11862895524590369 0 0.1126835225611459 0.11355849854382789 0 0.1163880514119067 0.12715034791592869 0 0.1304011663373528 0.10339450756242009 0 0.1126835225611459 0.11355849854382789 0 0.1019050452429672 0.12667247843380891 0 0.1163880514119067 0.12715034791592869 0 0.1126835225611459 0.11355849854382789 0 0.11386344695632029 0.098757734294965371 0 0.1304011663373528 0.10339450756242009 0 0.11386344695632029 0.098757734294965371 0 0.1260357132457155 0.090459397563870586 0 0.1304011663373528 0.10339450756242009 0 0.11386344695632029 0.098757734294965371 0 0.1190750524383254 0.076800197971996165 0 0.1260357132457155 0.090459397563870586 0 0.11386344695632029 0.098757734294965371 0 0.1190750524383254 0.076800197971996165 0 0.1031566721099218 0.087174749064411236 0 0.11386344695632029 0.098757734294965371 0 0.1190750524383254 0.076800197971996165 0 0.1242866579203294 0.054842661649026667 0 0.1190750524383254 0.076800197971996165 0 0.13019872837630411 0.06661063600616067 0 0.1090176273372695 0.056800038787108251 0 0.1242866579203294 0.054842661649026667 0 0.1190750524383254 0.076800197971996165 0 0.1242866579203294 0.054842661649026667 0 0.1190750524383254 0.076800197971996165 0 0.1090176273372695 0.056800038787108251 0 0.1190750524383254 0.076800197971996165 0 0.099674010352725467 0.073519184471671217 0 0.093748596754209809 0.058757415925190223 0 0.1090176273372695 0.056800038787108251 0 0.099674010352725467 0.073519184471671217 0 0.099674010352725467 0.073519184471671217 0 0.1031566721099218 0.087174749064411236 0 0.085490005772603683 0.088414488098319755 0 0.1190750524383254 0.076800197971996165 0 0.099674010352725467 0.073519184471671217 0 0.1031566721099218 0.087174749064411236 0 0.097680845029634075 0.098382140485103631 0 0.1031566721099218 0.087174749064411236 0 0.085490005772603683 0.088414488098319755 0 0.085490005772603683 0.088414488098319755 0 0.083281208115591657 0.071673825363841606 0 0.06739346333724755 0.082735278082794128 0 0.099674010352725467 0.073519184471671217 0 0.085490005772603683 0.088414488098319755 0 0.083281208115591657 0.071673825363841606 0 0.093748596754209809 0.058757415925190223 0 0.099674010352725467 0.073519184471671217 0 0.083281208115591657 0.071673825363841606 0 0.080302554057131298 0.060442691768057791 0 0.093748596754209809 0.058757415925190223 0 0.083281208115591657 0.071673825363841606 0 0.083281208115591657 0.071673825363841606 0 0.068154946810190326 0.064304129194774851 0 0.06739346333724755 0.082735278082794128 0 0.080302554057131298 0.060442691768057791 0 0.083281208115591657 0.071673825363841606 0 0.068154946810190326 0.064304129194774851 0 0.085490005772603683 0.088414488098319755 0 0.06739346333724755 0.082735278082794128 0 0.06690649003881019 0.1007536335799397 0 0.06690649003881019 0.1007536335799397 0 0.083191264182176802 0.1033264015194966 0 0.066393152468834454 0.11800331653599359 0 0.085490005772603683 0.088414488098319755 0 0.06690649003881019 0.1007536335799397 0 0.083191264182176802 0.1033264015194966 0 0.097680845029634075 0.098382140485103631 0 0.099690333406289966 0.1111194309190658 0 0.083191264182176802 0.1033264015194966 0 0.097680845029634075 0.098382140485103631 0 0.085490005772603683 0.088414488098319755 0 0.083191264182176802 0.1033264015194966 0 0.099690333406289966 0.1111194309190658 0 0.083191264182176802 0.1033264015194966 0 0.081579492874419471 0.1185512451496528 0 0.083191264182176802 0.1033264015194966 0 0.081579492874419471 0.1185512451496528 0 0.066393152468834454 0.11800331653599359 0 0.081579492874419471 0.1185512451496528 0 0.066393152468834454 0.11800331653599359 0 0.072750462336407251 0.13369032990328289 0 0.066393152468834454 0.11800331653599359 0 0.047148634557771921 0.1138362614325438 0 0.056441665664837402 0.13219140815028571 0 0.06690649003881019 0.1007536335799397 0 0.066393152468834454 0.11800331653599359 0 0.047148634557771921 0.1138362614325438 0 0.06690649003881019 0.1007536335799397 0 0.047148634557771921 0.1138362614325438 0 0.048983892080519661 0.093624163568765767 0 0.047148634557771921 0.1138362614325438 0 0.033909791698145883 0.1005666170526763 0 0.048983892080519661 0.093624163568765767 0 0.047148634557771921 0.1138362614325438 0 0.024316499947380561 0.1160392831373778 0 0.03616400701499331 0.13279498369955009 0 0.047148634557771921 0.1138362614325438 0 0.033909791698145883 0.1005666170526763 0 0.024316499947380561 0.1160392831373778 0 0.068154946810190326 0.064304129194774851 0 0.06739346333724755 0.082735278082794128 0 0.04892100000674203 0.073422509656814378 0 0.06739346333724755 0.082735278082794128 0 0.06690649003881019 0.1007536335799397 0 0.048983892080519661 0.093624163568765767 0 0.06739346333724755 0.082735278082794128 0 0.04892100000674203 0.073422509656814378 0 0.048983892080519661 0.093624163568765767 0 0.04892100000674203 0.073422509656814378 0 0.048983892080519661 0.093624163568765767 0 0.031291828177319889 0.084577094810787429 0 0.033909791698145883 0.1005666170526763 0 0.048983892080519661 0.093624163568765767 0 0.031291828177319889 0.084577094810787429 0 0.050213688753567652 0.049005887833228123 0 0.04892100000674203 0.073422509656814378 0 0.027635948529100729 0.065544400493546207 0 0.04892100000674203 0.073422509656814378 0 0.031291828177319889 0.084577094810787429 0 0.027635948529100729 0.065544400493546207 0 0.031291828177319889 0.084577094810787429 0 0.027635948529100729 0.065544400493546207 0 0.01222932942759763 0.080967886342576179 0 0.031291828177319889 0.084577094810787429 0 0.01222932942759763 0.080967886342576179 0 0.019048886874825841 0.095770061287878863 0 0.033909791698145883 0.1005666170526763 0 0.031291828177319889 0.084577094810787429 0 0.019048886874825841 0.095770061287878863 0 -0.0039833184615176752 0.091133419780590988 0 0.01222932942759763 0.080967886342576179 0 0.0073307222141845048 0.096298710524754805 0 0.01222932942759763 0.080967886342576179 0 0.019048886874825841 0.095770061287878863 0 0.0073307222141845048 0.096298710524754805 0 -0.0013977299684126961 0.061895572578185468 0 0.027635948529100729 0.065544400493546207 0 0.01222932942759763 0.080967886342576179 0 -0.0039833184615176752 0.091133419780590988 0 -0.0013977299684126961 0.061895572578185468 0 0.01222932942759763 0.080967886342576179 0 0.024316499947380561 0.1160392831373778 0 0.01242034930030401 0.1112550895442827 0 0.019870025758843831 0.12799242069199929 0 0.024316499947380561 0.1160392831373778 0 0.019048886874825841 0.095770061287878863 0 0.01242034930030401 0.1112550895442827 0 0.033909791698145883 0.1005666170526763 0 0.024316499947380561 0.1160392831373778 0 0.019048886874825841 0.095770061287878863 0 0.019048886874825841 0.095770061287878863 0 0.0073307222141845048 0.096298710524754805 0 0.01242034930030401 0.1112550895442827 0 -0.0030616360702873028 0.10236709566844519 0 -0.0039833184615176752 0.091133419780590988 0 0.0073307222141845048 0.096298710524754805 0 -0.0030616360702873028 0.10236709566844519 0 0.0073307222141845048 0.096298710524754805 0 0.01242034930030401 0.1112550895442827 0 -0.0030616360702873028 0.10236709566844519 0 0.0072044739687509426 0.1294865518647885 0 0.01242034930030401 0.1112550895442827 0 0.0072044739687509426 0.1294865518647885 0 0.019870025758843831 0.12799242069199929 0 -0.0030616360702873028 0.10236709566844519 0 0.01242034930030401 0.1112550895442827 0 0.0072044739687509426 0.1294865518647885 0 -0.01067358928902503 0.14426743280506321 0 0.0072044739687509426 0.1294865518647885 0 0.005504507999078357 0.14563293011059689 0 0.0072044739687509426 0.1294865518647885 0 0.019870025758843831 0.12799242069199929 0 0.022409685307456208 0.1390259648813594 0 0.019870025758843831 0.12799242069199929 0 0.022409685307456208 0.1390259648813594 0 0.03616400701499331 0.13279498369955009 0 0.024316499947380561 0.1160392831373778 0 0.019870025758843831 0.12799242069199929 0 0.03616400701499331 0.13279498369955009 0 0.022409685307456208 0.1390259648813594 0 0.03616400701499331 0.13279498369955009 0 0.03133933578690376 0.14824986008932731 0 0.0072044739687509426 0.1294865518647885 0 0.022409685307456208 0.1390259648813594 0 0.01747058400778919 0.15660600806113181 0 0.022409685307456208 0.1390259648813594 0 0.01747058400778919 0.15660600806113181 0 0.03133933578690376 0.14824986008932731 0 0.01747058400778919 0.15660600806113181 0 0.03131463053858162 0.15909951019301061 0 0.03133933578690376 0.14824986008932731 0 0.0072044739687509426 0.1294865518647885 0 0.005504507999078357 0.14563293011059689 0 0.01747058400778919 0.15660600806113181 0 -0.01067358928902503 0.14426743280506321 0 0.005504507999078357 0.14563293011059689 0 0.0087927466643164098 0.1667557990443343 0 0.0072044739687509426 0.1294865518647885 0 0.01747058400778919 0.15660600806113181 0 0.005504507999078357 0.14563293011059689 0 0.0087927466643164098 0.1667557990443343 0 0.01747058400778919 0.15660600806113181 0 -0.0078416358702520367 0.16673659981756109 0 0.0087927466643164098 0.1667557990443343 0 0.00054151554959348336 0.17371372790464201 0 0.0087927466643164098 0.1667557990443343 0 0.0066465371504250961 0.17814010097037039 0 0.01375263724197542 0.18348863648206701 0 -0.00075048098972077515 0.18337383293429479 0 0.0073551767073860488 0.18504773900536309 0 0.0066465371504250961 0.17814010097037039 0 -0.00075048098972077515 0.18337383293429479 0 0.0073551767073860488 0.18504773900536309 0 0.003252317392787966 0.18968064607506169 0 0.0087927466643164098 0.1667557990443343 0 0.00054151554959348336 0.17371372790464201 0 0.0066465371504250961 0.17814010097037039 0 -0.00075048098972077515 0.18337383293429479 0 0.00054151554959348336 0.17371372790464201 0 0.0066465371504250961 0.17814010097037039 0 0.0073551767073860488 0.18504773900536309 0 0.0066465371504250961 0.17814010097037039 0 0.01375263724197542 0.18348863648206701 0 0.0073551767073860488 0.18504773900536309 0 0.01375263724197542 0.18348863648206701 0 0.011577621637272301 0.19061021377222401 0 0.0087927466643164098 0.1667557990443343 0 0.01375263724197542 0.18348863648206701 0 0.02825908261765785 0.18924416528360541 0 0.0087927466643164098 0.1667557990443343 0 0.02773669404682744 0.1837254642574751 0 0.02825908261765785 0.18924416528360541 0 0.0087927466643164098 0.1667557990443343 0 0.02825908261765785 0.18924416528360541 0 0.02773669404682744 0.1837254642574751 0 0.0303167681628831 0.1701855917273345 0 0.033934173137341421 0.17878533953555989 0 0.02773669404682744 0.1837254642574751 0 0.01747058400778919 0.15660600806113181 0 0.0087927466643164098 0.1667557990443343 0 0.02773669404682744 0.1837254642574751 0 0.01747058400778919 0.15660600806113181 0 0.02773669404682744 0.1837254642574751 0 0.01747058400778919 0.15660600806113181 0 0.0303167681628831 0.1701855917273345 0 0.01747058400778919 0.15660600806113181 0 0.0303167681628831 0.1701855917273345 0 0.03131463053858162 0.15909951019301061 0 0.03131463053858162 0.15909951019301061 0 0.035948809718061123 0.16511390216200211 0 0.041460443038897767 0.15680587881206459 0 0.0303167681628831 0.1701855917273345 0 0.03131463053858162 0.15909951019301061 0 0.035948809718061123 0.16511390216200211 0 0.0303167681628831 0.1701855917273345 0 0.035948809718061123 0.16511390216200211 0 0.039598560065880153 0.17654934617608611 0 0.035948809718061123 0.16511390216200211 0 0.039598560065880153 0.17654934617608611 0 0.048468662746622898 0.1686286511232743 0 0.035948809718061123 0.16511390216200211 0 0.041460443038897767 0.15680587881206459 0 0.048468662746622898 0.1686286511232743 0 0.039598560065880153 0.17654934617608611 0 0.052523149820335423 0.18506302173513861 0 0.048468662746622898 0.1686286511232743 0 0.02773669404682744 0.1837254642574751 0 0.038084670273775011 0.18468095598134401 0 0.033934173137341421 0.17878533953555989 0 0.038084670273775011 0.18468095598134401 0 0.033934173137341421 0.17878533953555989 0 0.039598560065880153 0.17654934617608611 0 0.0303167681628831 0.1701855917273345 0 0.033934173137341421 0.17878533953555989 0 0.039598560065880153 0.17654934617608611 0 0.038084670273775011 0.18468095598134401 0 0.039598560065880153 0.17654934617608611 0 0.052523149820335423 0.18506302173513861 0 0.052523149820335423 0.18506302173513861 0 0.048468662746622898 0.1686286511232743 0 0.066269750831233931 0.1717915786650116 0 0.048468662746622898 0.1686286511232743 0 0.05497405102695585 0.15791186907615029 0 0.066269750831233931 0.1717915786650116 0 0.041460443038897767 0.15680587881206459 0 0.048468662746622898 0.1686286511232743 0 0.05497405102695585 0.15791186907615029 0 0.05497405102695585 0.15791186907615029 0 0.061469972634365128 0.14407492015949369 0 0.046627859668165753 0.14534433595696061 0 0.041460443038897767 0.15680587881206459 0 0.05497405102695585 0.15791186907615029 0 0.046627859668165753 0.14534433595696061 0 0.061469972634365128 0.14407492015949369 0 0.056441665664837402 0.13219140815028571 0 0.046627859668165753 0.14534433595696061 0 0.047148634557771921 0.1138362614325438 0 0.056441665664837402 0.13219140815028571 0 0.03616400701499331 0.13279498369955009 0 0.056441665664837402 0.13219140815028571 0 0.03616400701499331 0.13279498369955009 0 0.046627859668165753 0.14534433595696061 0 0.03616400701499331 0.13279498369955009 0 0.03133933578690376 0.14824986008932731 0 0.046627859668165753 0.14534433595696061 0 0.03131463053858162 0.15909951019301061 0 0.041460443038897767 0.15680587881206459 0 0.03133933578690376 0.14824986008932731 0 0.041460443038897767 0.15680587881206459 0 0.03133933578690376 0.14824986008932731 0 0.046627859668165753 0.14534433595696061 0 0.026731698772315429 0.2461293443832899 0 0.024932163103941848 0.23302898487400661 0 0.039750545832275663 0.24699096511268431 0 0.016987438107562921 0.24110486204154891 0 0.020257828799331731 0.23204042948061571 0 0.024932163103941848 0.23302898487400661 0 0.016987438107562921 0.24110486204154891 0 0.01210683408499824 0.23510565181352569 0 0.020257828799331731 0.23204042948061571 0 0.026731698772315429 0.2461293443832899 0 0.016987438107562921 0.24110486204154891 0 0.024932163103941848 0.23302898487400661 0 0.026731698772315429 0.2461293443832899 0 0.016987438107562921 0.24110486204154891 0 0.02017640883122513 0.25384844174363852 0 0.016987438107562921 0.24110486204154891 0 0.0098433085545792456 0.25159142850186728 0 0.02017640883122513 0.25384844174363852 0 0.016987438107562921 0.24110486204154891 0 0.0037910183183384968 0.24050713882929031 0 0.0098433085545792456 0.25159142850186728 0 -0.0025019221426154608 0.25448127945916882 0 0.0037910183183384968 0.24050713882929031 0 0.0098433085545792456 0.25159142850186728 0 0.0037910183183384968 0.24050713882929031 0 0.01210683408499824 0.23510565181352569 0 0.0073091978414697358 0.22874846030440371 0 0.016987438107562921 0.24110486204154891 0 0.0037910183183384968 0.24050713882929031 0 0.01210683408499824 0.23510565181352569 0 0.024932163103941848 0.23302898487400661 0 0.0048255833481865096 0.21408442969792041 0 0.0073091978414697358 0.22874846030440371 0 0.020257828799331731 0.23204042948061571 0 0.0048255833481865096 0.21408442969792041 0 -0.0031228787433460439 0.2313728718970848 0 0.0073091978414697358 0.22874846030440371 0 0.0048255833481865096 0.21408442969792041 0 0.01210683408499824 0.23510565181352569 0 0.0073091978414697358 0.22874846030440371 0 0.020257828799331731 0.23204042948061571 0 -0.0031228787433460439 0.2313728718970848 0 0.0037910183183384968 0.24050713882929031 0 0.0073091978414697358 0.22874846030440371 0 0.024932163103941848 0.23302898487400661 0 0.02095737202271707 0.21084904733213269 0 0.0048255833481865096 0.21408442969792041 0 0.02948248989451465 0.2207674131459165 0 0.024932163103941848 0.23302898487400661 0 0.02095737202271707 0.21084904733213269 0 0.020257828799331731 0.23204042948061571 0 0.024932163103941848 0.23302898487400661 0 0.0048255833481865096 0.21408442969792041 0 0.020257828799331731 0.23204042948061571 0 0.024932163103941848 0.23302898487400661 0 0.02948248989451465 0.2207674131459165 0 0.02947853867924714 0.2044475301059174 0 0.02095737202271707 0.21084904733213269 0 0.02947853867924714 0.2044475301059174 0 0.02095737202271707 0.21084904733213269 0 0.02256180969871012 0.20469314004851311 0 0.02095737202271707 0.21084904733213269 0 0.02256180969871012 0.20469314004851311 0 0.015925612282254899 0.20336966435795539 0 0.0048255833481865096 0.21408442969792041 0 0.01305400875185686 0.20913192170450709 0 0.02095737202271707 0.21084904733213269 0 0.0039198565298387798 0.20401361649895081 0 0.02095737202271707 0.21084904733213269 0 0.015925612282254899 0.20336966435795539 0 0.0039198565298387798 0.20401361649895081 0 0.02095737202271707 0.21084904733213269 0 0.0039198565298387798 0.20401361649895081 0 0.01305400875185686 0.20913192170450709 0 0.02095737202271707 0.21084904733213269 0 0.0048255833481865096 0.21408442969792041 0 0.01305400875185686 0.20913192170450709 0 0.0048255833481865096 0.21408442969792041 0 0.0039198565298387798 0.20401361649895081 0 0.01305400875185686 0.20913192170450709 0 0.015925612282254899 0.20336966435795539 0 0.0039198565298387798 0.20401361649895081 0 0.011821067507004641 0.198520120521396 0 0.0039198565298387798 0.20401361649895081 0 0.011821067507004641 0.198520120521396 0 0.0039271042507982171 0.19629700050329141 0 -0.0032160007183766721 0.19714898029000569 0 0.0039198565298387798 0.20401361649895081 0 0.0039271042507982171 0.19629700050329141 0 0.0073551767073860488 0.18504773900536309 0 0.003252317392787966 0.18968064607506169 0 0.011577621637272301 0.19061021377222401 0 -0.002484186227551892 0.19124640694551329 0 -0.00075048098972077515 0.18337383293429479 0 0.003252317392787966 0.18968064607506169 0 0.0039271042507982171 0.19629700050329141 0 0.003252317392787966 0.18968064607506169 0 0.011577621637272301 0.19061021377222401 0 -0.002484186227551892 0.19124640694551329 0 0.0039271042507982171 0.19629700050329141 0 0.003252317392787966 0.18968064607506169 0 0.011821067507004641 0.198520120521396 0 0.011577621637272301 0.19061021377222401 0 0.015895870023702161 0.19476285568329341 0 0.011821067507004641 0.198520120521396 0 0.0039271042507982171 0.19629700050329141 0 0.011577621637272301 0.19061021377222401 0 0.01375263724197542 0.18348863648206701 0 0.011577621637272301 0.19061021377222401 0 0.01988465867479481 0.19113380081650491 0 0.01375263724197542 0.18348863648206701 0 0.01988465867479481 0.19113380081650491 0 0.02825908261765785 0.18924416528360541 0 0.011577621637272301 0.19061021377222401 0 0.01988465867479481 0.19113380081650491 0 0.015895870023702161 0.19476285568329341 0 0.01988465867479481 0.19113380081650491 0 0.020367955653003918 0.1987723973887843 0 0.024497558906175929 0.19589947339870301 0 0.01988465867479481 0.19113380081650491 0 0.015895870023702161 0.19476285568329341 0 0.020367955653003918 0.1987723973887843 0 0.015925612282254899 0.20336966435795539 0 0.011821067507004641 0.198520120521396 0 0.020367955653003918 0.1987723973887843 0 0.011821067507004641 0.198520120521396 0 0.015895870023702161 0.19476285568329341 0 0.020367955653003918 0.1987723973887843 0 0.02256180969871012 0.20469314004851311 0 0.015925612282254899 0.20336966435795539 0 0.020367955653003918 0.1987723973887843 0 0.02947853867924714 0.2044475301059174 0 0.02256180969871012 0.20469314004851311 0 0.020367955653003918 0.1987723973887843 0 0.02947853867924714 0.2044475301059174 0 0.020367955653003918 0.1987723973887843 0 0.024497558906175929 0.19589947339870301 0 0.02947853867924714 0.2044475301059174 0 0.024497558906175929 0.19589947339870301 0 0.02825908261765785 0.18924416528360541 0 0.01988465867479481 0.19113380081650491 0 0.024497558906175929 0.19589947339870301 0 0.02825908261765785 0.18924416528360541 0 0.02773669404682744 0.1837254642574751 0 0.04045405274786968 0.19441414303960261 0 0.038002804085865677 0.21084492045381839 0 0.04045405274786968 0.19441414303960261 0 0.056656890382141487 0.20109475432102669 0 0.038002804085865677 0.21084492045381839 0 0.02773669404682744 0.1837254642574751 0 0.038002804085865677 0.21084492045381839 0 0.02773669404682744 0.1837254642574751 0 0.02825908261765785 0.18924416528360541 0 0.038002804085865677 0.21084492045381839 0 0.02947853867924714 0.2044475301059174 0 0.02825908261765785 0.18924416528360541 0 0.038002804085865677 0.21084492045381839 0 0.02773669404682744 0.1837254642574751 0 0.038084670273775011 0.18468095598134401 0 0.04045405274786968 0.19441414303960261 0 0.038084670273775011 0.18468095598134401 0 0.052523149820335423 0.18506302173513861 0 0.04045405274786968 0.19441414303960261 0 0.052523149820335423 0.18506302173513861 0 0.056656890382141487 0.20109475432102669 0 0.076239862330780325 0.19521187280657359 0 0.052523149820335423 0.18506302173513861 0 0.04045405274786968 0.19441414303960261 0 0.056656890382141487 0.20109475432102669 0 0.056656890382141487 0.20109475432102669 0 0.038002804085865677 0.21084492045381839 0 0.063172325252940156 0.21736471507514191 0 0.02948248989451465 0.2207674131459165 0 0.02947853867924714 0.2044475301059174 0 0.038002804085865677 0.21084492045381839 0 0.038002804085865677 0.21084492045381839 0 0.048268914124904257 0.23796437665016171 0 0.02948248989451465 0.2207674131459165 0 0.024932163103941848 0.23302898487400661 0 0.048268914124904257 0.23796437665016171 0 0.02948248989451465 0.2207674131459165 0 0.038002804085865677 0.21084492045381839 0 0.048268914124904257 0.23796437665016171 0 0.048268914124904257 0.23796437665016171 0 0.070927320206298244 0.2427563080948795 0 0.063172325252940156 0.21736471507514191 0 0.038002804085865677 0.21084492045381839 0 0.048268914124904257 0.23796437665016171 0 0.063172325252940156 0.21736471507514191 0 0.048268914124904257 0.23796437665016171 0 0.039750545832275663 0.24699096511268431 0 0.056400187642633257 0.25944434473408118 0 0.048268914124904257 0.23796437665016171 0 0.070927320206298244 0.2427563080948795 0 0.048268914124904257 0.23796437665016171 0 0.070927320206298244 0.2427563080948795 0 0.056400187642633257 0.25944434473408118 0 0.048268914124904257 0.23796437665016171 0 0.056400187642633257 0.25944434473408118 0 0.024932163103941848 0.23302898487400661 0 0.048268914124904257 0.23796437665016171 0 0.024932163103941848 0.23302898487400661 0 0.048268914124904257 0.23796437665016171 0 0.039750545832275663 0.24699096511268431 0 0.024932163103941848 0.23302898487400661 0 0.039750545832275663 0.24699096511268431 0 0.026731698772315429 0.2461293443832899 0 0.039750545832275663 0.24699096511268431 0 0.031811937986571448 0.25567346814457209 0 0.093585726287692156 0.24754823953959759 0 0.070927320206298244 0.2427563080948795 0 0.080893704817024972 0.22489642415907959 0 0.093585726287692156 0.24754823953959759 0 0.070927320206298244 0.2427563080948795 0 0.078640590914060185 0.2535391572384193 0 0.093585726287692156 0.24754823953959759 0 0.070927320206298244 0.2427563080948795 0 0.070927320206298244 0.2427563080948795 0 0.080893704817024972 0.22489642415907959 0 0.063172325252940156 0.21736471507514191 0 0.093585726287692156 0.24754823953959759 0 0.080893704817024972 0.22489642415907959 0 0.10054329000741399 0.2216009852792056 0 0.076239862330780325 0.19521187280657359 0 0.1075008537271359 0.1956537310188135 0 0.089307399408620508 0.17305903053800539 0 0.080893704817024972 0.22489642415907959 0 0.076239862330780325 0.19521187280657359 0 0.10054329000741399 0.2216009852792056 0 0.056656890382141487 0.20109475432102669 0 0.063172325252940156 0.21736471507514191 0 0.076239862330780325 0.19521187280657359 0 0.080893704817024972 0.22489642415907959 0 0.063172325252940156 0.21736471507514191 0 0.076239862330780325 0.19521187280657359 0 0.063172325252940156 0.21736471507514191 0 0.076239862330780325 0.19521187280657359 0 0.076239862330780325 0.19521187280657359 0 0.1075008537271359 0.1956537310188135 0 0.10054329000741399 0.2216009852792056 0 0.12450714188659549 0.19394286995342969 0 0.1246241875653938 0.18552306235718449 0 0.11488129939736159 0.1940914856269165 0 0.12450714188659549 0.19394286995342969 0 0.1246241875653938 0.18552306235718449 0 0.11488129939736159 0.1940914856269165 0 0.12450714188659549 0.19394286995342969 0 0.11488129939736159 0.1940914856269165 0 0.12450714188659549 0.19394286995342969 0 0.1140102968413562 0.20819132394223691 0 0.1075008537271359 0.1956537310188135 0 0.11488129939736159 0.1940914856269165 0 0.1140102968413562 0.20819132394223691 0 0.12450714188659549 0.19394286995342969 0 0.1140102968413562 0.20819132394223691 0 0.1241726613013963 0.21800409289661801 0 0.1140102968413562 0.20819132394223691 0 0.1241726613013963 0.21800409289661801 0 0.10054329000741399 0.2216009852792056 0 0.12450714188659549 0.19394286995342969 0 0.1241726613013963 0.21800409289661801 0 0.1075008537271359 0.1956537310188135 0 0.1140102968413562 0.20819132394223691 0 0.10054329000741399 0.2216009852792056 0 0.1075008537271359 0.1956537310188135 0 0.10054329000741399 0.2216009852792056 0 0.093585726287692156 0.24754823953959759 0 0.10054329000741399 0.2216009852792056 0 0.1105540372001117 0.23313037183836541 0 0.1241726613013963 0.21800409289661801 0 0.10054329000741399 0.2216009852792056 0 0.1105540372001117 0.23313037183836541 0 0.1241726613013963 0.21800409289661801 0 0.1105540372001117 0.23313037183836541 0 0.1238719872604158 0.23963340548855089 0 0.1241726613013963 0.21800409289661801 0 0.1238719872604158 0.23963340548855089 0 0.1241726613013963 0.21800409289661801 0 0.1105540372001117 0.23313037183836541 0 0.1105540372001117 0.23313037183836541 0 0.1238719872604158 0.23963340548855089 0 0.11618678034287309 0.25232804184438928 0 0.1238719872604158 0.23963340548855089 0 0.1236735058847456 0.25391137808672171 0 0.1238719872604158 0.23963340548855089 0 0.1236735058847456 0.25391137808672171 0 0.11618678034287309 0.25232804184438928 0 0.1238719872604158 0.23963340548855089 0 0.11618678034287309 0.25232804184438928 0 0.1105540372001117 0.23313037183836541 0 0.096935413098827208 0.248256650780113 0 0.11618678034287309 0.25232804184438928 0 0.093585726287692156 0.24754823953959759 0 0.10054329000741399 0.2216009852792056 0 0.093585726287692156 0.24754823953959759 0 0.1105540372001117 0.23313037183836541 0 0.096935413098827208 0.248256650780113 0 0.1105540372001117 0.23313037183836541 0 0.096935413098827208 0.248256650780113 0 0.093585726287692156 0.24754823953959759 0 0.096935413098827208 0.248256650780113 0 0.093585726287692156 0.24754823953959759 0 0.096935413098827208 0.248256650780113 0 0.091894427373696796 0.25385570070267199 0 0.09197721468043929 0.1347287167095452 0 0.076555824475459486 0.15123665771078881 0 0.10237493648646021 0.15090618826943689 0 0.081579492874419471 0.1185512451496528 0 0.09197721468043929 0.1347287167095452 0 0.1019050452429672 0.12667247843380891 0 0.09197721468043929 0.1347287167095452 0 0.072750462336407251 0.13369032990328289 0 0.076555824475459486 0.15123665771078881 0 0.081579492874419471 0.1185512451496528 0 0.09197721468043929 0.1347287167095452 0 0.072750462336407251 0.13369032990328289 0 0.081579492874419471 0.1185512451496528 0 0.09197721468043929 0.1347287167095452 0 0.061469972634365128 0.14407492015949369 0 0.056441665664837402 0.13219140815028571 0 0.072750462336407251 0.13369032990328289 0 0.066393152468834454 0.11800331653599359 0 0.056441665664837402 0.13219140815028571 0 0.072750462336407251 0.13369032990328289 0 0.061469972634365128 0.14407492015949369 0 0.072750462336407251 0.13369032990328289 0 0.076555824475459486 0.15123665771078881 0 0.05497405102695585 0.15791186907615029 0 0.061469972634365128 0.14407492015949369 0 0.076555824475459486 0.15123665771078881 0 0.076555824475459486 0.15123665771078881 0 0.066269750831233931 0.1717915786650116 0 0.089307399408620508 0.17305903053800539 0 0.05497405102695585 0.15791186907615029 0 0.076555824475459486 0.15123665771078881 0 0.066269750831233931 0.1717915786650116 0 0.052523149820335423 0.18506302173513861 0 0.076239862330780325 0.19521187280657359 0 0.066269750831233931 0.1717915786650116 0 0.076239862330780325 0.19521187280657359 0 0.066269750831233931 0.1717915786650116 0 0.089307399408620508 0.17305903053800539 0 0.076239862330780325 0.19521187280657359 0 0.089307399408620508 0.17305903053800539 0 0.076555824475459486 0.15123665771078881 0 0.089307399408620508 0.17305903053800539 0 0.10237493648646021 0.15090618826943689 0 0.089307399408620508 0.17305903053800539 0 0.1144584174468585 0.16970647675842129 0 0.10237493648646021 0.15090618826943689 0 0.1144584174468585 0.16970647675842129 0 0.10237493648646021 0.15090618826943689 0 0.089307399408620508 0.17305903053800539 0 0.10237493648646021 0.15090618826943689 0 0.1075008537271359 0.1956537310188135 0 0.089307399408620508 0.17305903053800539 0 0.1144584174468585 0.16970647675842129 0 0.1246241875653938 0.18552306235718449 0 0.1144584174468585 0.16970647675842129 0 0.1248954827718597 0.16600714802590999 0 0.1246241875653938 0.18552306235718449 0 0.1248954827718597 0.16600714802590999 0 0.1075008537271359 0.1956537310188135 0 0.11488129939736159 0.1940914856269165 0 0.1144584174468585 0.16970647675842129 0 0.11488129939736159 0.1940914856269165 0 0.1246241875653938 0.18552306235718449 0 0.1144584174468585 0.16970647675842129 0 0.1075008537271359 0.1956537310188135 0 0.1144584174468585 0.16970647675842129 0 0.1246241875653938 0.18552306235718449 0 0.1144584174468585 0.16970647675842129 0 0.1144584174468585 0.16970647675842129 0 0.1213064466641782 0.14416771600216249 0 0.12818954365009411 0.15557348119845391 0 0.1144584174468585 0.16970647675842129 0 0.1213064466641782 0.14416771600216249 0 0.1144584174468585 0.16970647675842129 0 0.1248954827718597 0.16600714802590999 0 0.12818954365009411 0.15557348119845391 0 0.1144584174468585 0.16970647675842129 0 0.1213064466641782 0.14416771600216249 0 0.10237493648646021 0.15090618826943689 0 0.1213064466641782 0.14416771600216249 0 0.10237493648646021 0.15090618826943689 0 0.1163880514119067 0.12715034791592869 0 0.09197721468043929 0.1347287167095452 0 0.10237493648646021 0.15090618826943689 0 0.09197721468043929 0.1347287167095452 0 0.10237493648646021 0.15090618826943689 0 0.1019050452429672 0.12667247843380891 0 0.10237493648646021 0.15090618826943689 0 0.1019050452429672 0.12667247843380891 0 0.1163880514119067 0.12715034791592869 0 0.10237493648646021 0.15090618826943689 0 0.1163880514119067 0.12715034791592869 0 0.1213064466641782 0.14416771600216249 0 0.1163880514119067 0.12715034791592869 0 0.1281544758814985 0.11862895524590369 0 0.1213064466641782 0.14416771600216249 0 0.1281544758814985 0.11862895524590369 0 0.1213064466641782 0.14416771600216249 0 0.14230915071939379 0.13413959478182499 0 0.1281544758814985 0.11862895524590369 0 0.14230915071939379 0.13413959478182499 0 0.1534169810208583 0.12716791753839049 0 0.14867074427463431 0.1174715595658975 0 0.14230915071939379 0.13413959478182499 0 0.15448891370271761 0.13608113942128441 0 0.15057223793698599 0.14871136633987339 0 0.14230915071939379 0.13413959478182499 0 0.15448891370271761 0.13608113942128441 0 0.1534169810208583 0.12716791753839049 0 0.14230915071939379 0.13413959478182499 0 0.15057223793698599 0.14871136633987339 0 0.1366695711188457 0.14825949012524489 0 0.15057223793698599 0.14871136633987339 0 0.1366695711188457 0.14825949012524489 0 0.14116157265850099 0.15999618123578579 0 0.1213064466641782 0.14416771600216249 0 0.14230915071939379 0.13413959478182499 0 0.1366695711188457 0.14825949012524489 0 0.1366695711188457 0.14825949012524489 0 0.12818954365009411 0.15557348119845391 0 0.14116157265850099 0.15999618123578579 0 0.1213064466641782 0.14416771600216249 0 0.1366695711188457 0.14825949012524489 0 0.12818954365009411 0.15557348119845391 0 0.1248954827718597 0.16600714802590999 0 0.12818954365009411 0.15557348119845391 0 0.13390388219737481 0.16731301497611151 0 0.1248954827718597 0.16600714802590999 0 0.13390388219737481 0.16731301497611151 0 0.13232336648735291 0.17575276196773651 0 0.13390388219737481 0.16731301497611151 0 0.14363903642133019 0.1748905549627707 0 0.14116157265850099 0.15999618123578579 0 0.12818954365009411 0.15557348119845391 0 0.13390388219737481 0.16731301497611151 0 0.14116157265850099 0.15999618123578579 0 0.1246241875653938 0.18552306235718449 0 0.1248954827718597 0.16600714802590999 0 0.13232336648735291 0.17575276196773651 0 0.1246241875653938 0.18552306235718449 0 0.13232336648735291 0.17575276196773651 0 0.13647113451674611 0.1847092820132446 0 0.13390388219737481 0.16731301497611151 0 0.13232336648735291 0.17575276196773651 0 0.14363903642133019 0.1748905549627707 0 0.13232336648735291 0.17575276196773651 0 0.13647113451674611 0.1847092820132446 0 0.14363903642133019 0.1748905549627707 0 0.13647113451674611 0.1847092820132446 0 0.14363903642133019 0.1748905549627707 0 0.15178756785434661 0.193521680963196 0 0.14363903642133019 0.1748905549627707 0 0.16250571666663119 0.17581714769042739 0 0.15178756785434661 0.193521680963196 0 0.14363903642133019 0.1748905549627707 0 0.1525815178341772 0.1635883427776342 0 0.16250571666663119 0.17581714769042739 0 0.15057223793698599 0.14871136633987339 0 0.14116157265850099 0.15999618123578579 0 0.1525815178341772 0.1635883427776342 0 0.14363903642133019 0.1748905549627707 0 0.14116157265850099 0.15999618123578579 0 0.1525815178341772 0.1635883427776342 0 0.15057223793698599 0.14871136633987339 0 0.1525815178341772 0.1635883427776342 0 0.16502902548743739 0.15852646365931361 0 0.1525815178341772 0.1635883427776342 0 0.16502902548743739 0.15852646365931361 0 0.16250571666663119 0.17581714769042739 0 0.16502902548743739 0.15852646365931361 0 0.16250571666663119 0.17581714769042739 0 0.17538093546491851 0.17044984385048531 0 0.16250571666663119 0.17581714769042739 0 0.15178756785434661 0.193521680963196 0 0.1771422334679757 0.1931302242454731 0 0.16250571666663119 0.17581714769042739 0 0.15178756785434661 0.193521680963196 0 0.16250571666663119 0.17581714769042739 0 0.17538093546491851 0.17044984385048531 0 0.1771422334679757 0.1931302242454731 0 0.17538093546491851 0.17044984385048531 0 0.1771422334679757 0.1931302242454731 0 0.19053093986809291 0.17536874227683361 0 0.17538093546491851 0.17044984385048531 0 0.18169676183445521 0.14940664138037879 0 0.19053093986809291 0.17536874227683361 0 0.16502902548743739 0.15852646365931361 0 0.17538093546491851 0.17044984385048531 0 0.18169676183445521 0.14940664138037879 0 0.18169676183445521 0.14940664138037879 0 0.19053093986809291 0.17536874227683361 0 0.18169676183445521 0.14940664138037879 0 0.18679422490555 0.12776259585868099 0 0.1919116766748874 0.13944105001550711 0 0.18169676183445521 0.14940664138037879 0 0.18679422490555 0.12776259585868099 0 0.17286258380081651 0.1234445404839242 0 0.18169676183445521 0.14940664138037879 0 0.16838432681773319 0.14137779622852231 0 0.17286258380081651 0.1234445404839242 0 0.18169676183445521 0.14940664138037879 0 0.17286258380081651 0.1234445404839242 0 0.16941971134902881 0.12586614707637589 0 0.16838432681773319 0.14137779622852231 0 0.17286258380081651 0.1234445404839242 0 0.16941971134902881 0.12586614707637589 0 0.16162818637675411 0.12832562835237851 0 0.16838432681773319 0.14137779622852231 0 0.16941971134902881 0.12586614707637589 0 0.16162818637675411 0.12832562835237851 0 0.16577080658331569 0.1214168677430941 0 0.1534169810208583 0.12716791753839049 0 0.16162818637675411 0.12832562835237851 0 0.15998791003079171 0.1198216655705673 0 0.15448891370271761 0.13608113942128441 0 0.1534169810208583 0.12716791753839049 0 0.16162818637675411 0.12832562835237851 0 0.15448891370271761 0.13608113942128441 0 0.16162818637675411 0.12832562835237851 0 0.16838432681773319 0.14137779622852231 0 0.15057223793698599 0.14871136633987339 0 0.16502902548743739 0.15852646365931361 0 0.16838432681773319 0.14137779622852231 0 0.15448891370271761 0.13608113942128441 0 0.15057223793698599 0.14871136633987339 0 0.16838432681773319 0.14137779622852231 0 0.16502902548743739 0.15852646365931361 0 0.18169676183445521 0.14940664138037879 0 0.16838432681773319 0.14137779622852231 0 0.15083290089686921 0.24749494986470669 0 0.1423163326226419 0.2340707195205089 0 0.15728948788584271 0.2363459230557102 0 0.15083290089686921 0.24749494986470669 0 0.13816775809442031 0.24627451237299089 0 0.1423163326226419 0.2340707195205089 0 0.15083290089686921 0.24749494986470669 0 0.13816775809442031 0.24627451237299089 0 0.1404410137384193 0.25174185577515618 0 0.13816775809442031 0.24627451237299089 0 0.12993161786884411 0.2443905597251699 0 0.13401322023579421 0.2377429429524161 0 0.13816775809442031 0.24627451237299089 0 0.12993161786884411 0.2443905597251699 0 0.1236735058847456 0.25391137808672171 0 0.1238719872604158 0.23963340548855089 0 0.12993161786884411 0.2443905597251699 0 0.1236735058847456 0.25391137808672171 0 0.1238719872604158 0.23963340548855089 0 0.12993161786884411 0.2443905597251699 0 0.13401322023579421 0.2377429429524161 0 0.13816775809442031 0.24627451237299089 0 0.13401322023579421 0.2377429429524161 0 0.1423163326226419 0.2340707195205089 0 0.13401322023579421 0.2377429429524161 0 0.1324888719611132 0.22539979812192651 0 0.1423163326226419 0.2340707195205089 0 0.1324888719611132 0.22539979812192651 0 0.1423163326226419 0.2340707195205089 0 0.14110575666181249 0.21116619075530341 0 0.1241726613013963 0.21800409289661801 0 0.1238719872604158 0.23963340548855089 0 0.1324888719611132 0.22539979812192651 0 0.1238719872604158 0.23963340548855089 0 0.13401322023579421 0.2377429429524161 0 0.1324888719611132 0.22539979812192651 0 0.1238719872604158 0.23963340548855089 0 0.1324888719611132 0.22539979812192651 0 0.1241726613013963 0.21800409289661801 0 0.1324888719611132 0.22539979812192651 0 0.12657473713105741 0.2153360943698629 0 0.1423163326226419 0.2340707195205089 0 0.14110575666181249 0.21116619075530341 0 0.15728948788584271 0.2363459230557102 0 0.14110575666181249 0.21116619075530341 0 0.1646928215633468 0.21379685092298981 0 0.15728948788584271 0.2363459230557102 0 0.14110575666181249 0.21116619075530341 0 0.15728948788584271 0.2363459230557102 0 0.15542048827279711 0.20528118978278981 0 0.14110575666181249 0.21116619075530341 0 0.1646928215633468 0.21379685092298981 0 0.15542048827279711 0.20528118978278981 0 0.14110575666181249 0.21116619075530341 0 0.15178756785434661 0.193521680963196 0 0.12450714188659549 0.19394286995342969 0 0.12657473713105741 0.2153360943698629 0 0.1311542678216277 0.2053450157559695 0 0.12450714188659549 0.19394286995342969 0 0.1241726613013963 0.21800409289661801 0 0.12657473713105741 0.2153360943698629 0 0.1324888719611132 0.22539979812192651 0 0.14110575666181249 0.21116619075530341 0 0.1324888719611132 0.22539979812192651 0 0.14110575666181249 0.21116619075530341 0 0.1328309083939028 0.21431177475076549 0 0.14110575666181249 0.21116619075530341 0 0.1311542678216277 0.2053450157559695 0 0.12998151425530749 0.19385834981533639 0 0.1328309083939028 0.21431177475076549 0 0.12657473713105741 0.2153360943698629 0 0.1311542678216277 0.2053450157559695 0 0.1324888719611132 0.22539979812192651 0 0.1328309083939028 0.21431177475076549 0 0.12657473713105741 0.2153360943698629 0 0.1241726613013963 0.21800409289661801 0 0.12657473713105741 0.2153360943698629 0 0.14110575666181249 0.21116619075530341 0 0.1328309083939028 0.21431177475076549 0 0.1311542678216277 0.2053450157559695 0 0.14110575666181249 0.21116619075530341 0 0.12998151425530749 0.19385834981533639 0 0.13647113451674611 0.1847092820132446 0 0.12998151425530749 0.19385834981533639 0 0.15178756785434661 0.193521680963196 0 0.12450714188659549 0.19394286995342969 0 0.1311542678216277 0.2053450157559695 0 0.12998151425530749 0.19385834981533639 0 0.1246241875653938 0.18552306235718449 0 0.12998151425530749 0.19385834981533639 0 0.1246241875653938 0.18552306235718449 0 0.13647113451674611 0.1847092820132446 0 0.12998151425530749 0.19385834981533639 0 0.12450714188659549 0.19394286995342969 0 0.1246241875653938 0.18552306235718449 0 0.12998151425530749 0.19385834981533639 0 0.12450714188659549 0.19394286995342969 0 0.12998151425530749 0.19385834981533639 0 0.14110575666181249 0.21116619075530341 0 0.15178756785434661 0.193521680963196 0 0.12998151425530749 0.19385834981533639 0 0.15178756785434661 0.193521680963196 0 0.14110575666181249 0.21116619075530341 0 0.12998151425530749 0.19385834981533639 0 0.15178756785434661 0.193521680963196 0 0.15542048827279711 0.20528118978278981 0 0.15178756785434661 0.193521680963196 0 0.1771422334679757 0.1931302242454731 0 0.15178756785434661 0.193521680963196 0 0.1771422334679757 0.1931302242454731 0 0.1771422334679757 0.1931302242454731 0 0.1646928215633468 0.21379685092298981 0 0.18997886234799929 0.20325210824807879 0 0.1646928215633468 0.21379685092298981 0 0.1882085313442165 0.22037348190573899 0 0.18997886234799929 0.20325210824807879 0 0.15542048827279711 0.20528118978278981 0 0.1771422334679757 0.1931302242454731 0 0.1646928215633468 0.21379685092298981 0 0.1646928215633468 0.21379685092298981 0 0.17178882604312329 0.22861648912218149 0 0.15728948788584271 0.2363459230557102 0 0.17178882604312329 0.22861648912218149 0 0.18592605934305231 0.23419452216654871 0 0.1882085313442165 0.22037348190573899 0 0.1646928215633468 0.21379685092298981 0 0.17178882604312329 0.22861648912218149 0 0.1882085313442165 0.22037348190573899 0 0.17178882604312329 0.22861648912218149 0 0.18592605934305231 0.23419452216654871 0 0.17660034940653269 0.23726824215934719 0 0.17660034940653269 0.23726824215934719 0 0.1829076202125654 0.2424975564581717 0 0.17491037166253801 0.2447481632100704 0 0.17178882604312329 0.22861648912218149 0 0.17660034940653269 0.23726824215934719 0 0.16896272089888631 0.23842531279741119 0 0.1829076202125654 0.2424975564581717 0 0.1979320577625657 0.2459244179793294 0 0.1799161884518892 0.25142285325438662 0 0.17660034940653269 0.23726824215934719 0 0.17491037166253801 0.2447481632100704 0 0.16896272089888631 0.23842531279741119 0 0.18592605934305231 0.23419452216654871 0 0.17660034940653269 0.23726824215934719 0 0.1829076202125654 0.2424975564581717 0 0.17491037166253801 0.2447481632100704 0 0.16497149506014561 0.2462181629185704 0 0.1799161884518892 0.25142285325438662 0 0.1829076202125654 0.2424975564581717 0 0.17491037166253801 0.2447481632100704 0 0.1799161884518892 0.25142285325438662 0 0.17491037166253801 0.2447481632100704 0 0.1799161884518892 0.25142285325438662 0 0.17491037166253801 0.2447481632100704 0 0.16497149506014561 0.2462181629185704 0 0.16896272089888631 0.23842531279741119 0 0.17178882604312329 0.22861648912218149 0 0.16896272089888631 0.23842531279741119 0 0.15728948788584271 0.2363459230557102 0 0.16497149506014561 0.2462181629185704 0 0.16896272089888631 0.23842531279741119 0 0.15728948788584271 0.2363459230557102 0 0.15083290089686921 0.24749494986470669 0 0.16497149506014561 0.2462181629185704 0 0.15728948788584271 0.2363459230557102 0 0.21594792707324209 0.24042598270427171 0 0.1979320577625657 0.2459244179793294 0 0.20079326498191541 0.2312743016037202 0 0.21594792707324209 0.24042598270427171 0 0.1979320577625657 0.2459244179793294 0 0.21594792707324209 0.24042598270427171 0 0.1979320577625657 0.2459244179793294 0 0.20325367937174829 0.26056913862715692 0 0.1979320577625657 0.2459244179793294 0 0.1799161884518892 0.25142285325438662 0 0.18592605934305231 0.23419452216654871 0 0.1979320577625657 0.2459244179793294 0 0.20079326498191541 0.2312743016037202 0 0.18592605934305231 0.23419452216654871 0 0.1829076202125654 0.2424975564581717 0 0.1979320577625657 0.2459244179793294 0 0.20079326498191541 0.2312743016037202 0 0.1882085313442165 0.22037348190573899 0 0.21595174938649991 0.21545310326271211 0 0.18592605934305231 0.23419452216654871 0 0.20079326498191541 0.2312743016037202 0 0.1882085313442165 0.22037348190573899 0 0.21594792707324209 0.24042598270427171 0 0.20079326498191541 0.2312743016037202 0 0.21595174938649991 0.21545310326271211 0 0.21595174938649991 0.21545310326271211 0 0.18997886234799929 0.20325210824807879 0 0.2024968990816047 0.1927387675277478 0 0.1882085313442165 0.22037348190573899 0 0.21595174938649991 0.21545310326271211 0 0.18997886234799929 0.20325210824807879 0 0.1771422334679757 0.1931302242454731 0 0.2024968990816047 0.1927387675277478 0 0.1771422334679757 0.1931302242454731 0 0.18997886234799929 0.20325210824807879 0 0.2024968990816047 0.1927387675277478 0 0.2024968990816047 0.1927387675277478 0 0.2278515646952336 0.19234731081002171 0 0.2209047775567077 0.17953696560825341 0 0.21595174938649991 0.21545310326271211 0 0.2024968990816047 0.1927387675277478 0 0.2278515646952336 0.19234731081002171 0 0.2024968990816047 0.1927387675277478 0 0.2278515646952336 0.19234731081002171 0 0.2278515646952336 0.19234731081002171 0 0.25649420310475318 0.19190509029764649 0 0.2278515646952336 0.19234731081002171 0 0.24128462716362961 0.18445528132269509 0 0.25649420310475318 0.19190509029764649 0 0.2278515646952336 0.19234731081002171 0 0.24427503268031461 0.20400899313591381 0 0.25649420310475318 0.19190509029764649 0 0.2278515646952336 0.19234731081002171 0 0.24427503268031461 0.20400899313591381 0 0.2337144769783697 0.2145813735704595 0 0.24427503268031461 0.20400899313591381 0 0.24808779473519629 0.2159556975898955 0 0.25586911737187018 0.20564961163218251 0 0.24427503268031461 0.20400899313591381 0 0.24808779473519629 0.2159556975898955 0 0.2337144769783697 0.2145813735704595 0 0.21595174938649991 0.21545310326271211 0 0.2278515646952336 0.19234731081002171 0 0.21595174938649991 0.21545310326271211 0 0.2278515646952336 0.19234731081002171 0 0.2337144769783697 0.2145813735704595 0 0.21595174938649991 0.21545310326271211 0 0.2337144769783697 0.2145813735704595 0 0.2343664251742919 0.23011704494531479 0 0.21594792707324209 0.24042598270427171 0 0.21595174938649991 0.21545310326271211 0 0.2343664251742919 0.23011704494531479 0 0.24808779473519629 0.2159556975898955 0 0.2337144769783697 0.2145813735704595 0 0.2343664251742919 0.23011704494531479 0 0.24808779473519629 0.2159556975898955 0 0.2343664251742919 0.23011704494531479 0 0.25988957190685602 0.2288019511781732 0 0.2343664251742919 0.23011704494531479 0 0.23567479271649619 0.25018030840336758 0 0.25228557980028771 0.24505571941488249 0 0.2343664251742919 0.23011704494531479 0 0.25228557980028771 0.24505571941488249 0 0.25988957190685602 0.2288019511781732 0 0.21594792707324209 0.24042598270427171 0 0.2343664251742919 0.23011704494531479 0 0.23567479271649619 0.25018030840336758 0 0.204379511912646 0.1512984560645842 0 0.21596987500108669 0.16062346790034029 0 0.2270158766650584 0.15368196287279551 0 0.204379511912646 0.1512984560645842 0 0.2171856675560781 0.13248121685301981 0 0.2270158766650584 0.15368196287279551 0 0.204379511912646 0.1512984560645842 0 0.2171856675560781 0.13248121685301981 0 0.19883981987304769 0.12810831401420031 0 0.204379511912646 0.1512984560645842 0 0.19883981987304769 0.12810831401420031 0 0.1919116766748874 0.13944105001550711 0 0.18679422490555 0.12776259585868099 0 0.19883981987304769 0.12810831401420031 0 0.1919116766748874 0.13944105001550711 0 0.18169676183445521 0.14940664138037879 0 0.204379511912646 0.1512984560645842 0 0.1919116766748874 0.13944105001550711 0 0.18169676183445521 0.14940664138037879 0 0.204379511912646 0.1512984560645842 0 0.19053093986809291 0.17536874227683361 0 0.204379511912646 0.1512984560645842 0 0.19053093986809291 0.17536874227683361 0 0.21074038086207489 0.17095675381286879 0 0.1771422334679757 0.1931302242454731 0 0.2024968990816047 0.1927387675277478 0 0.19053093986809291 0.17536874227683361 0 0.2024968990816047 0.1927387675277478 0 0.19053093986809291 0.17536874227683361 0 0.21074038086207489 0.17095675381286879 0 0.2024968990816047 0.1927387675277478 0 0.21074038086207489 0.17095675381286879 0 0.2209047775567077 0.17953696560825341 0 0.21074038086207489 0.17095675381286879 0 0.2222341026598792 0.1677830748211156 0 0.2209047775567077 0.17953696560825341 0 0.204379511912646 0.1512984560645842 0 0.21074038086207489 0.17095675381286879 0 0.21596987500108669 0.16062346790034029 0 0.21074038086207489 0.17095675381286879 0 0.21596987500108669 0.16062346790034029 0 0.2222341026598792 0.1677830748211156 0 0.2368460857740381 0.17488270889257149 0 0.2270158766650584 0.15368196287279551 0 0.21596987500108669 0.16062346790034029 0 0.2222341026598792 0.1677830748211156 0 0.2270158766650584 0.15368196287279551 0 0.2222341026598792 0.1677830748211156 0 0.2368460857740381 0.17488270889257149 0 0.2270158766650584 0.15368196287279551 0 0.2278515646952336 0.19234731081002171 0 0.2209047775567077 0.17953696560825341 0 0.2368460857740381 0.17488270889257149 0 0.2278515646952336 0.19234731081002171 0 0.2368460857740381 0.17488270889257149 0 0.2222341026598792 0.1677830748211156 0 0.2209047775567077 0.17953696560825341 0 0.2368460857740381 0.17488270889257149 0 0.24128462716362961 0.18445528132269509 0 0.25007346677225739 0.1737250408490377 0 0.2580936334585805 0.18014770108339709 0 0.2278515646952336 0.19234731081002171 0 0.24128462716362961 0.18445528132269509 0 0.2368460857740381 0.17488270889257149 0 0.24128462716362961 0.18445528132269509 0 0.2368460857740381 0.17488270889257149 0 0.24128462716362961 0.18445528132269509 0 0.2368460857740381 0.17488270889257149 0 0.25007346677225739 0.1737250408490377 0 0.2368460857740381 0.17488270889257149 0 0.2466207162892457 0.15590337365697499 0 0.25007346677225739 0.1737250408490377 0 0.2368460857740381 0.17488270889257149 0 0.2466207162892457 0.15590337365697499 0 0.2270158766650584 0.15368196287279551 0 0.2368460857740381 0.17488270889257149 0 0.2466207162892457 0.15590337365697499 0 0.2466207162892457 0.15590337365697499 0 0.23493336961687331 0.13851276831700801 0 0.25639534680445358 0.13692403842137879 0 0.2466207162892457 0.15590337365697499 0 0.2270158766650584 0.15368196287279551 0 0.23493336961687331 0.13851276831700801 0 0.2171856675560781 0.13248121685301981 0 0.2270158766650584 0.15368196287279551 0 0.2171856675560781 0.13248121685301981 0 0.2270158766650584 0.15368196287279551 0 0.23493336961687331 0.13851276831700801 0 0.2171856675560781 0.13248121685301981 0 0.23493336961687331 0.13851276831700801 0 0.23167194326799029 0.1237857610118045 0 0.23493336961687331 0.13851276831700801 0 0.24969380875232 0.1146601967644879 0 0.23493336961687331 0.13851276831700801 0 0.25600550264511829 0.1257557650968337 0 0.25639534680445358 0.13692403842137879 0 0.23493336961687331 0.13851276831700801 0 0.24969380875232 0.1146601967644879 0 0.25600550264511829 0.1257557650968337 0 0.23493336961687331 0.13851276831700801 0 0.24969380875232 0.1146601967644879 0 0.23167194326799029 0.1237857610118045 0 0.24969380875232 0.1146601967644879 0 0.2248749271466898 0.1094888621127024 0 0.24969380875232 0.1146601967644879 0 0.2248749271466898 0.1094888621127024 0 0.23167194326799029 0.1237857610118045 0 0.24969380875232 0.1146601967644879 0 0.2349783282206995 0.1013373271916259 0 0.2248749271466898 0.1094888621127024 0 0.24969380875232 0.1146601967644879 0 0.2349783282206995 0.1013373271916259 0 0.24341297724124619 0.09226928902641815 0 0.2349783282206995 0.1013373271916259 0 0.2248749271466898 0.1094888621127024 0 0.22193159974254209 0.088930960862895245 0 0.2349783282206995 0.1013373271916259 0 0.22193159974254209 0.088930960862895245 0 0.24341297724124619 0.09226928902641815 0 0.2171856675560781 0.13248121685301981 0 0.2248749271466898 0.1094888621127024 0 0.23167194326799029 0.1237857610118045 0 0.2171856675560781 0.13248121685301981 0 0.19883981987304769 0.12810831401420031 0 0.2073554584470978 0.11128047083324411 0 0.2171856675560781 0.13248121685301981 0 0.2248749271466898 0.1094888621127024 0 0.2073554584470978 0.11128047083324411 0 0.2171856675560781 0.13248121685301981 0 0.2073554584470978 0.11128047083324411 0 0.2248749271466898 0.1094888621127024 0 0.20005604554105891 0.1043175274609192 0 0.22193159974254209 0.088930960862895245 0 0.2248749271466898 0.1094888621127024 0 0.20005604554105891 0.1043175274609192 0 0.20005604554105891 0.1043175274609192 0 0.22193159974254209 0.088930960862895245 0 0.2248749271466898 0.1094888621127024 0 0.2073554584470978 0.11128047083324411 0 0.20005604554105891 0.1043175274609192 0 0.20005604554105891 0.1043175274609192 0 0.20198385739075031 0.095368306165601185 0 0.22193159974254209 0.088930960862895245 0 0.20005604554105891 0.1043175274609192 0 0.19740939736778859 0.1037660641183312 0 0.20005604554105891 0.1043175274609192 0 0.19740939736778859 0.1037660641183312 0 0.1922525181774046 0.10531725266816409 0 0.20005604554105891 0.1043175274609192 0 0.19740939736778859 0.1037660641183312 0 0.20198385739075031 0.095368306165601185 0 0.19740939736778859 0.1037660641183312 0 0.20198385739075031 0.095368306165601185 0 0.19234561319900201 0.096390375206442419 0 0.19740939736778859 0.1037660641183312 0 0.19234561319900201 0.096390375206442419 0 0.1923258967116882 0.1018300282384674 0 0.19234561319900201 0.096390375206442419 0 0.1923258967116882 0.1018300282384674 0 0.18501193659555029 0.10279160955068189 0 0.1922525181774046 0.10531725266816409 0 0.18645931467093699 0.1138810339724208 0 0.18501193659555029 0.10279160955068189 0 0.20005604554105891 0.1043175274609192 0 0.18645931467093699 0.1138810339724208 0 0.20005604554105891 0.1043175274609192 0 0.1922525181774046 0.10531725266816409 0 0.18645931467093699 0.1138810339724208 0 0.19740939736778859 0.1037660641183312 0 0.1923258967116882 0.1018300282384674 0 0.1922525181774046 0.10531725266816409 0 0.1923258967116882 0.1018300282384674 0 0.1922525181774046 0.10531725266816409 0 0.18501193659555029 0.10279160955068189 0 0.19883981987304769 0.12810831401420031 0 0.2073554584470978 0.11128047083324411 0 0.19639951096238151 0.1158217381033151 0 0.20005604554105891 0.1043175274609192 0 0.19639951096238151 0.1158217381033151 0 0.18645931467093699 0.1138810339724208 0 0.18679422490555 0.12776259585868099 0 0.19639951096238151 0.1158217381033151 0 0.18645931467093699 0.1138810339724208 0 0.18679422490555 0.12776259585868099 0 0.19883981987304769 0.12810831401420031 0 0.19639951096238151 0.1158217381033151 0 0.2073554584470978 0.11128047083324411 0 0.20005604554105891 0.1043175274609192 0 0.19639951096238151 0.1158217381033151 0 0.19637691031527821 0.066554425702942982 0 0.19817663110335981 0.083436603179417868 0 0.20393825152466361 0.06609806002795128 0 0.19637691031527821 0.066554425702942982 0 0.19817663110335981 0.083436603179417868 0 0.17985073685297209 0.076665109976698065 0 0.19637691031527821 0.066554425702942982 0 0.20393825152466361 0.06609806002795128 0 0.20608182751677681 0.057977038411464538 0 0.19234561319900201 0.096390375206442419 0 0.19817663110335981 0.083436603179417868 0 0.173212435477473 0.09447928213736384 0 0.20198385739075031 0.095368306165601185 0 0.19234561319900201 0.096390375206442419 0 0.19817663110335981 0.083436603179417868 0 0.19817663110335981 0.083436603179417868 0 0.22314082672924659 0.072393924221471895 0 0.22193159974254209 0.088930960862895245 0 0.20198385739075031 0.095368306165601185 0 0.19817663110335981 0.083436603179417868 0 0.22193159974254209 0.088930960862895245 0 0.19817663110335981 0.083436603179417868 0 0.22314082672924659 0.072393924221471895 0 0.19817663110335981 0.083436603179417868 0 0.20393825152466361 0.06609806002795128 0 0.21207297936647709 0.068189019871906092 0 0.19817663110335981 0.083436603179417868 0 0.21207297936647709 0.068189019871906092 0 0.22314082672924659 0.072393924221471895 0 0.20393825152466361 0.06609806002795128 0 0.21207297936647709 0.068189019871906092 0 0.2116055252999362 0.058707742363919881 0 0.21207297936647709 0.068189019871906092 0 0.22314082672924659 0.072393924221471895 0 0.22101575085740061 0.0605957805889559 0 0.22314082672924659 0.072393924221471895 0 0.2481050223551334 0.061351245263525929 0 0.23136940638301801 0.0577216066074746 0 0.22314082672924659 0.072393924221471895 0 0.22101575085740061 0.0605957805889559 0 0.23136940638301801 0.0577216066074746 0 0.22314082672924659 0.072393924221471895 0 0.22193159974254209 0.088930960862895245 0 0.24380715394402469 0.073544394264870264 0 0.22193159974254209 0.088930960862895245 0 0.24380715394402469 0.073544394264870264 0 0.24341297724124619 0.09226928902641815 0 0.24380715394402469 0.073544394264870264 0 0.25208268704043379 0.084684593158753041 0 0.22193159974254209 0.088930960862895245 0 0.24341297724124619 0.09226928902641815 0 0.24380715394402469 0.073544394264870264 0 0.22314082672924659 0.072393924221471895 0 0.2481050223551334 0.061351245263525929 0 0.22314082672924659 0.072393924221471895 0 0.24380715394402469 0.073544394264870264 0 0.2481050223551334 0.061351245263525929 0 0.24380715394402469 0.073544394264870264 0 0.2481050223551334 0.061351245263525929 0 0.25768453749212161 0.072224708755609601 0 0.2481050223551334 0.061351245263525929 0 0.23931315423165239 0.050193079856716387 0 0.23136940638301801 0.0577216066074746 0 0.2481050223551334 0.061351245263525929 0 0.23931315423165239 0.050193079856716387 0 0.25201310757198142 0.047924820611042862 0 0.23931315423165239 0.050193079856716387 0 0.24217759050252241 0.038129156280343898 0 0.25201310757198142 0.047924820611042862 0 0.23931315423165239 0.050193079856716387 0 0.24217759050252241 0.038129156280343898 0 0.22290064434560711 0.045838570521194721 0 0.24217759050252241 0.038129156280343898 0 0.2531827473692414 0.03809197300851979 0 0.25201310757198142 0.047924820611042862 0 0.24217759050252241 0.038129156280343898 0 0.25063870453790149 0.029346383652999689 0 0.2531827473692414 0.03809197300851979 0 0.24217759050252241 0.038129156280343898 0 0.24086600189243729 0.028949228859777229 0 0.25063870453790149 0.029346383652999689 0 0.24217759050252241 0.038129156280343898 0 0.22845816754691581 0.036069551331455917 0 0.24086600189243729 0.028949228859777229 0 0.24217759050252241 0.038129156280343898 0 0.22290064434560711 0.045838570521194721 0 0.24217759050252241 0.038129156280343898 0 0.22845816754691581 0.036069551331455917 0 0.22290064434560711 0.045838570521194721 0 0.22845816754691581 0.036069551331455917 0 0.2160441262818317 0.030880524479507249 0 0.22845816754691581 0.036069551331455917 0 0.21914205732459049 0.039050137742769317 0 0.2160441262818317 0.030880524479507249 0 0.22845816754691581 0.036069551331455917 0 0.21914205732459049 0.039050137742769317 0 0.22290064434560711 0.045838570521194721 0 0.23931315423165239 0.050193079856716387 0 0.22290064434560711 0.045838570521194721 0 0.23136940638301801 0.0577216066074746 0 0.22290064434560711 0.045838570521194721 0 0.22101575085740061 0.0605957805889559 0 0.23136940638301801 0.0577216066074746 0 0.2275301440843418 0.0064778870739085016 0 0.25002232248928719 0.01717386052955492 0 0.24383330556498831 0.002616746942265157 0 0.2275301440843418 0.0064778870739085016 0 0.2355397684761206 -0.0071777351202999429 0 0.24383330556498831 0.002616746942265157 0 0.2275301440843418 0.0064778870739085016 0 0.25002232248928719 0.01717386052955492 0 0.23303322438555971 0.0240271925045317 0 0.2275301440843418 0.0064778870739085016 0 0.25002232248928719 0.01717386052955492 0 0.24086600189243729 0.028949228859777229 0 0.23303322438555971 0.0240271925045317 0 0.25002232248928719 0.01717386052955492 0 0.23303322438555971 0.0240271925045317 0 0.25002232248928719 0.01717386052955492 0 0.24086600189243729 0.028949228859777229 0 0.25063870453790149 0.029346383652999689 0 0.25002232248928719 0.01717386052955492 0 0.23303322438555971 0.0240271925045317 0 0.2160441262818317 0.030880524479507249 0 0.22845816754691581 0.036069551331455917 0 0.23303322438555971 0.0240271925045317 0 0.2160441262818317 0.030880524479507249 0 0.23303322438555971 0.0240271925045317 0 0.22244729199619931 0.0190620341781149 0 0.2160441262818317 0.030880524479507249 0 0.23303322438555971 0.0240271925045317 0 0.22244729199619931 0.0190620341781149 0 0.2275301440843418 0.0064778870739085016 0 0.22845816754691581 0.036069551331455917 0 0.24086600189243729 0.028949228859777229 0 0.23303322438555971 0.0240271925045317 0 0.22244729199619931 0.0190620341781149 0 0.2275301440843418 0.0064778870739085016 0 0.2131816732330635 0.01486253265451282 0 0.2131816732330635 0.01486253265451282 0 0.19443778478421739 0.0080045751457127681 0 0.20503796567939631 -0.004218086381737692 0 0.2275301440843418 0.0064778870739085016 0 0.20503796567939631 -0.004218086381737692 0 0.2275301440843418 0.0064778870739085016 0 0.2131816732330635 0.01486253265451282 0 0.20503796567939631 -0.004218086381737692 0 0.22244729199619931 0.0190620341781149 0 0.2131816732330635 0.01486253265451282 0 0.2160441262818317 0.030880524479507249 0 0.2131816732330635 0.01486253265451282 0 0.2020098588860833 0.02501424863839068 0 0.19443778478421739 0.0080045751457127681 0 0.2131816732330635 0.01486253265451282 0 0.2160441262818317 0.030880524479507249 0 0.2020098588860833 0.02501424863839068 0 0.2160441262818317 0.030880524479507249 0 0.2020098588860833 0.02501424863839068 0 0.20374036176748439 0.035843812244634017 0 0.2160441262818317 0.030880524479507249 0 0.2020098588860833 0.02501424863839068 0 0.2020098588860833 0.02501424863839068 0 0.1879755914903348 0.01914797279727434 0 0.19443778478421739 0.0080045751457127681 0 0.1879755914903348 0.01914797279727434 0 0.20374036176748439 0.035843812244634017 0 0.1879755914903348 0.01914797279727434 0 0.19561664382148591 0.039120886496314219 0 0.1834913676792104 0.017273582558898899 0 0.2020098588860833 0.02501424863839068 0 0.1879755914903348 0.01914797279727434 0 0.20374036176748439 0.035843812244634017 0 0.19561664382148591 0.039120886496314219 0 0.1834913676792104 0.017273582558898899 0 0.2020098588860833 0.02501424863839068 0 0.1879755914903348 0.01914797279727434 0 0.19443778478421739 0.0080045751457127681 0 0.18538464162673801 -0.0032732069809759431 0 0.20503796567939631 -0.004218086381737692 0 0.22290064434560711 0.045838570521194721 0 0.20362369818869211 0.05354798476204678 0 0.2109350069303044 0.043463373989422002 0 0.22290064434560711 0.045838570521194721 0 0.20362369818869211 0.05354798476204678 0 0.2116055252999362 0.058707742363919881 0 0.22290064434560711 0.045838570521194721 0 0.20362369818869211 0.05354798476204678 0 0.20362369818869211 0.05354798476204678 0 0.20608182751677681 0.057977038411464538 0 0.2116055252999362 0.058707742363919881 0 0.20362369818869211 0.05354798476204678 0 0.20608182751677681 0.057977038411464538 0 0.20393825152466361 0.06609806002795128 0 0.20608182751677681 0.057977038411464538 0 0.2116055252999362 0.058707742363919881 0 0.21207297936647709 0.068189019871906092 0 0.22101575085740061 0.0605957805889559 0 0.2116055252999362 0.058707742363919881 0 0.22290064434560711 0.045838570521194721 0 0.22101575085740061 0.0605957805889559 0 0.2116055252999362 0.058707742363919881 0 0.21914205732459049 0.039050137742769317 0 0.22290064434560711 0.045838570521194721 0 0.2109350069303044 0.043463373989422002 0 0.21914205732459049 0.039050137742769317 0 0.2160441262818317 0.030880524479507249 0 0.2109350069303044 0.043463373989422002 0 0.2160441262818317 0.030880524479507249 0 0.20374036176748439 0.035843812244634017 0 0.2160441262818317 0.030880524479507249 0 0.20374036176748439 0.035843812244634017 0 0.2109350069303044 0.043463373989422002 0 0.20374036176748439 0.035843812244634017 0 0.2109350069303044 0.043463373989422002 0 0.19561664382148591 0.039120886496314219 0 0.20362369818869211 0.05354798476204678 0 0.2109350069303044 0.043463373989422002 0 0.19561664382148591 0.039120886496314219 0 0.20374036176748439 0.035843812244634017 0 0.2109350069303044 0.043463373989422002 0 0.1879755914903348 0.01914797279727434 0 0.20374036176748439 0.035843812244634017 0 0.19561664382148591 0.039120886496314219 0 0.20362369818869211 0.05354798476204678 0 0.19561664382148591 0.039120886496314219 0 0.20374036176748439 0.035843812244634017 0 0.19561664382148591 0.039120886496314219 0 0.19561664382148591 0.039120886496314219 0 0.19168335500553019 0.048623454825217911 0 0.18163572638383321 0.047490933922100367 0 0.20362369818869211 0.05354798476204678 0 0.18293163825279601 0.061823344367441663 0 0.19637691031527821 0.066554425702942982 0 0.20362369818869211 0.05354798476204678 0 0.18293163825279601 0.061823344367441663 0 0.20362369818869211 0.05354798476204678 0 0.18293163825279601 0.061823344367441663 0 0.18666207516501759 0.05367871150280739 0 0.20362369818869211 0.05354798476204678 0 0.19168335500553019 0.048623454825217911 0 0.18666207516501759 0.05367871150280739 0 0.20362369818869211 0.05354798476204678 0 0.19561664382148591 0.039120886496314219 0 0.19168335500553019 0.048623454825217911 0 0.19637691031527821 0.066554425702942982 0 0.20362369818869211 0.05354798476204678 0 0.20608182751677681 0.057977038411464538 0 0.18293163825279601 0.061823344367441663 0 0.17343595799423631 0.056907839637230229 0 0.18666207516501759 0.05367871150280739 0 0.17343595799423631 0.056907839637230229 0 0.18163572638383321 0.047490933922100367 0 0.17171504707218571 0.048762691862018301 0 0.18163572638383321 0.047490933922100367 0 0.17171504707218571 0.048762691862018301 0 0.19168335500553019 0.048623454825217911 0 0.18666207516501759 0.05367871150280739 0 0.18163572638383321 0.047490933922100367 0 0.17343595799423631 0.056907839637230229 0 0.18666207516501759 0.05367871150280739 0 0.18163572638383321 0.047490933922100367 0 0.19561664382148591 0.039120886496314219 0 0.17171504707218571 0.048762691862018301 0 0.17050147496951509 0.030362226023024338 0 0.19561664382148591 0.039120886496314219 0 0.18163572638383321 0.047490933922100367 0 0.17171504707218571 0.048762691862018301 0 0.19561664382148591 0.039120886496314219 0 0.17171504707218571 0.048762691862018301 0 0.17171504707218571 0.048762691862018301 0 0.17050147496951509 0.030362226023024338 0 0.1520875320451967 0.029373992082944781 0 0.17171504707218571 0.048762691862018301 0 0.1520875320451967 0.029373992082944781 0 0.1460048357723806 0.052058551382356218 0 0.17171504707218571 0.048762691862018301 0 0.16650111436116091 0.050865970773333449 0 0.1460048357723806 0.052058551382356218 0 0.15653123522308479 0.059176013737721182 0 0.16650111436116091 0.050865970773333449 0 0.1460048357723806 0.052058551382356218 0 0.17171504707218571 0.048762691862018301 0 0.1460048357723806 0.052058551382356218 0 0.15653123522308479 0.059176013737721182 0 0.16477470170546379 0.058775815362383868 0 0.16650111436116091 0.050865970773333449 0 0.17343595799423631 0.056907839637230229 0 0.16477470170546379 0.058775815362383868 0 0.16650111436116091 0.050865970773333449 0 0.17343595799423631 0.056907839637230229 0 0.16477470170546379 0.058775815362383868 0 0.16223957831690031 0.070098703972837753 0 0.17343595799423631 0.056907839637230229 0 0.17171504707218571 0.048762691862018301 0 0.16650111436116091 0.050865970773333449 0 0.17171504707218571 0.048762691862018301 0 0.16650111436116091 0.050865970773333449 0 0.17962099749985549 0.01029995551185294 0 0.1834913676792104 0.017273582558898899 0 0.15817022831801089 0.0066894327835327694 0 0.19443778478421739 0.0080045751457127681 0 0.17962099749985549 0.01029995551185294 0 0.18538464162673801 -0.0032732069809759431 0 0.1879755914903348 0.01914797279727434 0 0.17962099749985549 0.01029995551185294 0 0.1834913676792104 0.017273582558898899 0 0.1879755914903348 0.01914797279727434 0 0.17962099749985549 0.01029995551185294 0 0.1879755914903348 0.01914797279727434 0 0.19443778478421739 0.0080045751457127681 0 0.17962099749985549 0.01029995551185294 0 0.17962099749985549 0.01029995551185294 0 0.1834913676792104 0.017273582558898899 0 0.19561664382148591 0.039120886496314219 0 0.1834913676792104 0.017273582558898899 0 0.17050147496951509 0.030362226023024338 0 0.1879755914903348 0.01914797279727434 0 0.1834913676792104 0.017273582558898899 0 0.17050147496951509 0.030362226023024338 0 0.15817022831801089 0.0066894327835327694 0 0.1520875320451967 0.029373992082944781 0 0.1834913676792104 0.017273582558898899 0 0.17050147496951509 0.030362226023024338 0 0.15817022831801089 0.0066894327835327694 0 0.17962099749985549 0.01029995551185294 0 0.15817022831801089 0.0066894327835327694 0 0.16216050780751659 -0.0081917527370382152 0 0.17962099749985549 0.01029995551185294 0 0.16216050780751659 -0.0081917527370382152 0 0.1834913676792104 0.017273582558898899 0 0.15817022831801089 0.0066894327835327694 0 0.15817022831801089 0.0066894327835327694 0 0.13254342773512631 0.02005523889709885 0 0.13774245582409919 -0.0018493063532995979 0 0.15817022831801089 0.0066894327835327694 0 0.13774245582409919 -0.0018493063532995979 0 0.1520875320451967 0.029373992082944781 0 0.13254342773512631 0.02005523889709885 0 0.1383850394015643 0.039410419937192909 0 0.15817022831801089 0.0066894327835327694 0 0.1520875320451967 0.029373992082944781 0 0.15817022831801089 0.0066894327835327694 0 0.1520875320451967 0.029373992082944781 0 0.13254342773512631 0.02005523889709885 0 0.13254342773512631 0.02005523889709885 0 0.12734439964614791 0.041959784147495953 0 0.1249964635211437 0.01213688249542326 0 0.13254342773512631 0.02005523889709885 0 0.13013997002243219 0.0026182745816751701 0 0.13254342773512631 0.02005523889709885 0 0.13013997002243219 0.0026182745816751701 0 0.13774245582409919 -0.0018493063532995979 0 0.13254342773512631 0.02005523889709885 0 0.13774245582409919 -0.0018493063532995979 0 0.1249964635211437 0.01213688249542326 0 0.121771477586586 0.0039720656753206122 0 0.13013997002243219 0.0026182745816751701 0 0.121771477586586 0.0039720656753206122 0 0.13013997002243219 0.0026182745816751701 0 0.1249114752804408 -0.0025660630866009781 0 0.1460048357723806 0.052058551382356218 0 0.1418505343161458 0.067551433733387872 0 0.15653123522308479 0.059176013737721182 0 0.1460048357723806 0.052058551382356218 0 0.1418505343161458 0.067551433733387872 0 0.1520875320451967 0.029373992082944781 0 0.1460048357723806 0.052058551382356218 0 0.1383850394015643 0.039410419937192909 0 0.1520875320451967 0.029373992082944781 0 0.1460048357723806 0.052058551382356218 0 0.1383850394015643 0.039410419937192909 0 0.12734439964614791 0.041959784147495953 0 0.1339450018089664 0.053604533176067101 0 0.13254342773512631 0.02005523889709885 0 0.1383850394015643 0.039410419937192909 0 0.12734439964614791 0.041959784147495953 0 0.1242866579203294 0.054842661649026667 0 0.1339450018089664 0.053604533176067101 0 0.12734439964614791 0.041959784147495953 0 0.1339450018089664 0.053604533176067101 0 0.1242866579203294 0.054842661649026667 0 0.12734439964614791 0.041959784147495953 0 0.1339450018089664 0.053604533176067101 0 0.1242866579203294 0.054842661649026667 0 0.12734439964614791 0.041959784147495953 0 0.1460048357723806 0.052058551382356218 0 0.1383850394015643 0.039410419937192909 0 0.1339450018089664 0.053604533176067101 0 0.1460048357723806 0.052058551382356218 0 0.1339450018089664 0.053604533176067101 0 0.1460048357723806 0.052058551382356218 0 0.1339450018089664 0.053604533176067101 0 0.1418505343161458 0.067551433733387872 0 0.1339450018089664 0.053604533176067101 0 0.1418505343161458 0.067551433733387872 0 0.1242866579203294 0.054842661649026667 0 0.1339450018089664 0.053604533176067101 0 0.13019872837630411 0.06661063600616067 0 0.1190750524383254 0.076800197971996165 0 0.13019872837630411 0.06661063600616067 0 0.1304325066950606 0.078902371953011696 0 0.13019872837630411 0.06661063600616067 0 0.1418505343161458 0.067551433733387872 0 0.1304325066950606 0.078902371953011696 0 0.1339450018089664 0.053604533176067101 0 0.13019872837630411 0.06661063600616067 0 0.1418505343161458 0.067551433733387872 0 0.1418505343161458 0.067551433733387872 0 0.16223957831690031 0.070098703972837753 0 0.15741158756395501 0.081131388732004039 0 0.15653123522308479 0.059176013737721182 0 0.1418505343161458 0.067551433733387872 0 0.16223957831690031 0.070098703972837753 0 0.1418505343161458 0.067551433733387872 0 0.1456813654405085 0.08946573801986242 0 0.1563476213090888 0.093127121453025027 0 0.1418505343161458 0.067551433733387872 0 0.1563476213090888 0.093127121453025027 0 0.1418505343161458 0.067551433733387872 0 0.1456813654405085 0.08946573801986242 0 0.13500250509881881 0.093090194489644923 0 0.1418505343161458 0.067551433733387872 0 0.15741158756395501 0.081131388732004039 0 0.1563476213090888 0.093127121453025027 0 0.1456813654405085 0.08946573801986242 0 0.15068736662186791 0.098371694134489887 0 0.1563476213090888 0.093127121453025027 0 0.1418505343161458 0.067551433733387872 0 0.13500250509881881 0.093090194489644923 0 0.1418505343161458 0.067551433733387872 0 0.13500250509881881 0.093090194489644923 0 0.1304325066950606 0.078902371953011696 0 0.1190750524383254 0.076800197971996165 0 0.1304325066950606 0.078902371953011696 0 0.1260357132457155 0.090459397563870586 0 0.13500250509881881 0.093090194489644923 0 0.1304325066950606 0.078902371953011696 0 0.1260357132457155 0.090459397563870586 0 0.13500250509881881 0.093090194489644923 0 0.1281544758814985 0.11862895524590369 0 0.13500250509881881 0.093090194489644923 0 0.1281544758814985 0.11862895524590369 0 0.14451089072782591 0.1042530502659956 0 0.13500250509881881 0.093090194489644923 0 0.1260357132457155 0.090459397563870586 0 0.1304011663373528 0.10339450756242009 0 0.13500250509881881 0.093090194489644923 0 0.1304011663373528 0.10339450756242009 0 0.1281544758814985 0.11862895524590369 0 0.1281544758814985 0.11862895524590369 0 0.14867074427463431 0.1174715595658975 0 0.14451089072782591 0.1042530502659956 0 0.14230915071939379 0.13413959478182499 0 0.1281544758814985 0.11862895524590369 0 0.14867074427463431 0.1174715595658975 0 0.14867074427463431 0.1174715595658975 0 0.15620958901004861 0.1066408667990765 0 0.15761265431667029 0.11379999735356321 0 0.14867074427463431 0.1174715595658975 0 0.15998791003079171 0.1198216655705673 0 0.15761265431667029 0.11379999735356321 0 0.14867074427463431 0.1174715595658975 0 0.14451089072782591 0.1042530502659956 0 0.15620958901004861 0.1066408667990765 0 0.1534169810208583 0.12716791753839049 0 0.14867074427463431 0.1174715595658975 0 0.15998791003079171 0.1198216655705673 0 0.1456813654405085 0.08946573801986242 0 0.14451089072782591 0.1042530502659956 0 0.15068736662186791 0.098371694134489887 0 0.1456813654405085 0.08946573801986242 0 0.13500250509881881 0.093090194489644923 0 0.14451089072782591 0.1042530502659956 0 0.14451089072782591 0.1042530502659956 0 0.15620958901004861 0.1066408667990765 0 0.15068736662186791 0.098371694134489887 0 0.15620958901004861 0.1066408667990765 0 0.15068736662186791 0.098371694134489887 0 0.1563476213090888 0.093127121453025027 0 0.17120714075833399 0.1185794835274511 0 0.1563476213090888 0.093127121453025027 0 0.16280556064181631 0.111900519074664 0 0.17120714075833399 0.1185794835274511 0 0.1563476213090888 0.093127121453025027 0 0.1675419984628069 0.1078082727012669 0 0.17120714075833399 0.1185794835274511 0 0.1563476213090888 0.093127121453025027 0 0.1675419984628069 0.1078082727012669 0 0.173212435477473 0.09447928213736384 0 0.1622214131247964 0.092172004918609801 0 0.15620958901004861 0.1066408667990765 0 0.16280556064181631 0.111900519074664 0 0.1563476213090888 0.093127121453025027 0 0.1675419984628069 0.1078082727012669 0 0.1563476213090888 0.093127121453025027 0 0.1622214131247964 0.092172004918609801 0 0.1675419984628069 0.1078082727012669 0 0.1622214131247964 0.092172004918609801 0 0.16162818637675411 0.12832562835237851 0 0.15998791003079171 0.1198216655705673 0 0.16577080658331569 0.1214168677430941 0 0.15998791003079171 0.1198216655705673 0 0.16485224638948681 0.1179604653902481 0 0.16577080658331569 0.1214168677430941 0 0.15998791003079171 0.1198216655705673 0 0.16280556064181631 0.111900519074664 0 0.16485224638948681 0.1179604653902481 0 0.15998791003079171 0.1198216655705673 0 0.15761265431667029 0.11379999735356321 0 0.16280556064181631 0.111900519074664 0 0.15620958901004861 0.1066408667990765 0 0.15761265431667029 0.11379999735356321 0 0.16280556064181631 0.111900519074664 0 0.16280556064181631 0.111900519074664 0 0.16485224638948681 0.1179604653902481 0 0.17120714075833399 0.1185794835274511 0 0.1675419984628069 0.1078082727012669 0 0.17120714075833399 0.1185794835274511 0 0.1675419984628069 0.1078082727012669 0 0.17120714075833399 0.1185794835274511 0 0.1761110695528037 0.1136158142780314 0 0.16485224638948681 0.1179604653902481 0 0.17120714075833399 0.1185794835274511 0 0.16577080658331569 0.1214168677430941 0 0.17120714075833399 0.1185794835274511 0 0.16939175583348001 0.1221681798234734 0 0.16577080658331569 0.1214168677430941 0 0.16941971134902881 0.12586614707637589 0 0.16939175583348001 0.1221681798234734 0 0.16577080658331569 0.1214168677430941 0 0.17120714075833399 0.1185794835274511 0 0.16939175583348001 0.1221681798234734 0 0.17286258380081651 0.1234445404839242 0 0.16941971134902881 0.12586614707637589 0 0.17286258380081651 0.1234445404839242 0 0.16941971134902881 0.12586614707637589 0 0.16939175583348001 0.1221681798234734 0 0.17286258380081651 0.1234445404839242 0 0.17286258380081651 0.1234445404839242 0 0.18645931467093699 0.1138810339724208 0 0.17120714075833399 0.1185794835274511 0 0.17286258380081651 0.1234445404839242 0 0.1761110695528037 0.1136158142780314 0 0.17120714075833399 0.1185794835274511 0 0.17286258380081651 0.1234445404839242 0 0.17286258380081651 0.1234445404839242 0 0.1761110695528037 0.1136158142780314 0 0.18645931467093699 0.1138810339724208 0 0.1761110695528037 0.1136158142780314 0 0.18645931467093699 0.1138810339724208 0 0.17569917016071479 0.10340784987232481 0 0.18679422490555 0.12776259585868099 0 0.17286258380081651 0.1234445404839242 0 0.18645931467093699 0.1138810339724208 0 0.19234561319900201 0.096390375206442419 0 0.173212435477473 0.09447928213736384 0 0.18501193659555029 0.10279160955068189 0 0.173212435477473 0.09447928213736384 0 0.17569917016071479 0.10340784987232481 0 0.18501193659555029 0.10279160955068189 0 0.1675419984628069 0.1078082727012669 0 0.173212435477473 0.09447928213736384 0 0.17569917016071479 0.10340784987232481 0 0.1675419984628069 0.1078082727012669 0 0.1761110695528037 0.1136158142780314 0 0.17569917016071479 0.10340784987232481 0 0.18645931467093699 0.1138810339724208 0 0.17569917016071479 0.10340784987232481 0 0.18501193659555029 0.10279160955068189 0 0.173212435477473 0.09447928213736384 0 0.17985073685297209 0.076665109976698065 0 0.16616722765202521 0.083598300500184297 0 0.19817663110335981 0.083436603179417868 0 0.173212435477473 0.09447928213736384 0 0.17985073685297209 0.076665109976698065 0 0.19817663110335981 0.083436603179417868 0 0.173212435477473 0.09447928213736384 0 0.18293163825279601 0.061823344367441663 0 0.16223957831690031 0.070098703972837753 0 0.19637691031527821 0.066554425702942982 0 0.18293163825279601 0.061823344367441663 0 0.17985073685297209 0.076665109976698065 0 0.18293163825279601 0.061823344367441663 0 0.17985073685297209 0.076665109976698065 0 0.16223957831690031 0.070098703972837753 0 0.18293163825279601 0.061823344367441663 0 0.17343595799423631 0.056907839637230229 0 0.16223957831690031 0.070098703972837753 0 0.17985073685297209 0.076665109976698065 0 0.16223957831690031 0.070098703972837753 0 0.16616722765202521 0.083598300500184297 0 0.15653123522308479 0.059176013737721182 0 0.16477470170546379 0.058775815362383868 0 0.16223957831690031 0.070098703972837753 0 0.15741158756395501 0.081131388732004039 0 0.16053696241246629 0.087507203900955788 0 0.16616722765202521 0.083598300500184297 0 0.16223957831690031 0.070098703972837753 0 0.15741158756395501 0.081131388732004039 0 0.16616722765202521 0.083598300500184297 0 0.1622214131247964 0.092172004918609801 0 0.16053696241246629 0.087507203900955788 0 0.16616722765202521 0.083598300500184297 0 0.15741158756395501 0.081131388732004039 0 0.1563476213090888 0.093127121453025027 0 0.16053696241246629 0.087507203900955788 0 0.1563476213090888 0.093127121453025027 0 0.1622214131247964 0.092172004918609801 0 0.16053696241246629 0.087507203900955788 0 0.173212435477473 0.09447928213736384 0 0.1622214131247964 0.092172004918609801 0 0.16616722765202521 0.083598300500184297 0 0.098989623412398753 0.48027134637678431 0 0.120594697935933 0.47538310632103542 0 0.10040063175771551 0.46136428907237498 0 0.098989623412398753 0.48027134637678431 0 0.10735207558787779 0.5 0 0.120594697935933 0.47538310632103542 0 0.098989623412398753 0.48027134637678431 0 0.10735207558787779 0.5 0 0.078769661057423113 0.5 0 0.10735207558787779 0.5 0 0.120594697935933 0.47538310632103542 0 0.1359344901183325 0.5 0 0.120594697935933 0.47538310632103542 0 0.1149323761702023 0.44112047939722732 0 0.10040063175771551 0.46136428907237498 0 0.1149323761702023 0.44112047939722732 0 0.10040063175771551 0.46136428907237498 0 0.08513832223455392 0.44078151570508128 0 0.10040063175771551 0.46136428907237498 0 0.079752202627146079 0.46584663480726812 0 0.08513832223455392 0.44078151570508128 0 0.079752202627146079 0.46584663480726812 0 0.08513832223455392 0.44078151570508128 0 0.059463253754538647 0.44186969979877938 0 0.079752202627146079 0.46584663480726812 0 0.054825250140753679 0.47093484989939088 0 0.059463253754538647 0.44186969979877938 0 0.098989623412398753 0.48027134637678431 0 0.079752202627146079 0.46584663480726812 0 0.078769661057423113 0.5 0 0.079752202627146079 0.46584663480726812 0 0.078769661057423113 0.5 0 0.054825250140753679 0.47093484989939088 0 0.098989623412398753 0.48027134637678431 0 0.10040063175771551 0.46136428907237498 0 0.079752202627146079 0.46584663480726812 0 0.078769661057423113 0.5 0 0.050187246526968432 0.50000000000000222 0 0.054825250140753679 0.47093484989939088 0 0.050187246526968432 0.50000000000000222 0 0.054825250140753679 0.47093484989939088 0 0.050187246526968432 0.50000000000000222 0 0.054825250140753679 0.47093484989939088 0 0.02933800569657315 0.47624864114652571 0 0.050187246526968432 0.50000000000000222 0 0.022422676245392459 0.5 0 0.02933800569657315 0.47624864114652571 0 0.022422676245392459 0.5 0 0.02933800569657315 0.47624864114652571 0 0.0055732685078482046 0.48392703948537602 0 -0.009244350279267571 0.47709912333590121 0 0.0055732685078482046 0.48392703948537602 0 0.0077042760624918723 0.46054059155872101 0 0.02933800569657315 0.47624864114652571 0 0.0055732685078482046 0.48392703948537602 0 0.0077042760624918723 0.46054059155872101 0 -0.0053418940361835698 0.5 0 0.022422676245392459 0.5 0 0.0055732685078482046 0.48392703948537602 0 -0.0067121436888493927 0.43981598621558782 0 0.0077042760624918723 0.46054059155872101 0 0.01339214011397017 0.43386125875182918 0 0.02933800569657315 0.47624864114652571 0 0.0077042760624918723 0.46054059155872101 0 0.032410918122267998 0.44707556128428638 0 0.0077042760624918723 0.46054059155872101 0 0.032410918122267998 0.44707556128428638 0 0.01339214011397017 0.43386125875182918 0 0.054825250140753679 0.47093484989939088 0 0.02933800569657315 0.47624864114652571 0 0.032410918122267998 0.44707556128428638 0 0.054825250140753679 0.47093484989939088 0 0.032410918122267998 0.44707556128428638 0 0.059463253754538647 0.44186969979877938 0 0.054825250140753679 0.47093484989939088 0 0.059463253754538647 0.44186969979877938 0 0.059463253754538647 0.44186969979877938 0 0.064101257368323339 0.41280454969816788 0 0.059463253754538647 0.44186969979877938 0 0.03670671239060154 0.41324047225191568 0 0.064101257368323339 0.41280454969816788 0 0.032410918122267998 0.44707556128428638 0 0.059463253754538647 0.44186969979877938 0 0.03670671239060154 0.41324047225191568 0 0.057229843403143119 0.40705163946010059 0 0.03670671239060154 0.41324047225191568 0 0.064101257368323339 0.41280454969816788 0 0.03670671239060154 0.41324047225191568 0 0.064101257368323339 0.41280454969816788 0 0.057229843403143119 0.40705163946010059 0 0.03670671239060154 0.41324047225191568 0 0.0456592882409717 0.40335202435254031 0 0.032410918122267998 0.44707556128428638 0 0.03670671239060154 0.41324047225191568 0 0.01339214011397017 0.43386125875182918 0 0.03670671239060154 0.41324047225191568 0 0.0093121674128798237 0.41367639480566509 0 0.0245436168070483 0.39369650511879561 0 0.03670671239060154 0.41324047225191568 0 0.0093121674128798237 0.41367639480566509 0 0.03670671239060154 0.41324047225191568 0 0.0093121674128798237 0.41367639480566509 0 0.01339214011397017 0.43386125875182918 0 -0.0067121436888493927 0.43981598621558782 0 0.0093121674128798237 0.41367639480566509 0 0.01339214011397017 0.43386125875182918 0 -0.004152701965286696 0.37973315498134158 0 0.018391723945099549 0.3754242380496427 0 -0.004152701965286696 0.37973315498134158 0 0.0074171616858030561 0.39178750004817647 0 0.018391723945099549 0.3754242380496427 0 -0.0110089977707257 0.39640720728543771 0 0.0093121674128798237 0.41367639480566509 0 0.0074171616858030561 0.39178750004817647 0 0.0093121674128798237 0.41367639480566509 0 0.0074171616858030561 0.39178750004817647 0 0.0245436168070483 0.39369650511879561 0 0.0245436168070483 0.39369650511879561 0 0.018391723945099549 0.3754242380496427 0 0.032880183622863941 0.37848946890410129 0 0.0074171616858030561 0.39178750004817647 0 0.0245436168070483 0.39369650511879561 0 0.018391723945099549 0.3754242380496427 0 0.032880183622863941 0.37848946890410129 0 0.040372955916282711 0.39402352652846839 0 0.04947063899846911 0.38183175838055028 0 0.0245436168070483 0.39369650511879561 0 0.032880183622863941 0.37848946890410129 0 0.040372955916282711 0.39402352652846839 0 0.032880183622863941 0.37848946890410129 0 0.04947063899846911 0.38183175838055028 0 0.042341277920357953 0.36593650141444151 0 0.03670671239060154 0.41324047225191568 0 0.040372955916282711 0.39402352652846839 0 0.0456592882409717 0.40335202435254031 0 0.03670671239060154 0.41324047225191568 0 0.0245436168070483 0.39369650511879561 0 0.040372955916282711 0.39402352652846839 0 0.040372955916282711 0.39402352652846839 0 0.0456592882409717 0.40335202435254031 0 0.054084003509622218 0.39430765446532062 0 0.057229843403143119 0.40705163946010059 0 0.0456592882409717 0.40335202435254031 0 0.054084003509622218 0.39430765446532062 0 0.054084003509622218 0.39430765446532062 0 0.062417331728367637 0.38579236897359892 0 0.066766545950553785 0.39610188640704908 0 0.057229843403143119 0.40705163946010059 0 0.066766545950553785 0.39610188640704908 0 0.057229843403143119 0.40705163946010059 0 0.054084003509622218 0.39430765446532062 0 0.066766545950553785 0.39610188640704908 0 0.040372955916282711 0.39402352652846839 0 0.054084003509622218 0.39430765446532062 0 0.04947063899846911 0.38183175838055028 0 0.054084003509622218 0.39430765446532062 0 0.04947063899846911 0.38183175838055028 0 0.062417331728367637 0.38579236897359892 0 0.04947063899846911 0.38183175838055028 0 0.062417331728367637 0.38579236897359892 0 0.064079136116105329 0.37226682084995938 0 0.08278207834071849 0.3777133371350393 0 0.066766545950553785 0.39610188640704908 0 0.070281739535042298 0.37407309176313808 0 0.062417331728367637 0.38579236897359892 0 0.066766545950553785 0.39610188640704908 0 0.070281739535042298 0.37407309176313808 0 0.08278207834071849 0.3777133371350393 0 0.075590439545967114 0.39461470201889948 0 0.066766545950553785 0.39610188640704908 0 0.066766545950553785 0.39610188640704908 0 0.070281739535042298 0.37407309176313808 0 0.08278207834071849 0.3777133371350393 0 0.066766545950553785 0.39610188640704908 0 0.062417331728367637 0.38579236897359892 0 0.070281739535042298 0.37407309176313808 0 0.064079136116105329 0.37226682084995938 0 0.062417331728367637 0.38579236897359892 0 0.064079136116105329 0.37226682084995938 0 0.08278207834071849 0.3777133371350393 0 0.070281739535042298 0.37407309176313808 0 0.08278207834071849 0.3777133371350393 0 0.081970773192164323 0.38834061577860163 0 0.086992023253798484 0.37893932250423967 0 0.08278207834071849 0.3777133371350393 0 0.081970773192164323 0.38834061577860163 0 0.075590439545967114 0.39461470201889948 0 0.081970773192164323 0.38834061577860163 0 0.086992023253798484 0.37893932250423967 0 0.083448170832182519 0.3988959255147132 0 0.086992023253798484 0.37893932250423967 0 0.083448170832182519 0.3988959255147132 0 0.08278207834071849 0.3777133371350393 0 0.086992023253798484 0.37893932250423967 0 0.092625117439054216 0.38057974564445679 0 0.086562135891927475 0.39420201419334883 0 0.092625117439054216 0.38057974564445679 0 0.086562135891927475 0.39420201419334883 0 0.094406444343157619 0.38821446412273042 0 0.092625117439054216 0.38057974564445679 0 0.086992023253798484 0.37893932250423967 0 0.086562135891927475 0.39420201419334883 0 0.092625117439054216 0.38057974564445679 0 0.086992023253798484 0.37893932250423967 0 0.08834368503437752 0.37132766875846612 0 0.086992023253798484 0.37893932250423967 0 0.08834368503437752 0.37132766875846612 0 0.08278207834071849 0.3777133371350393 0 0.086992023253798484 0.37893932250423967 0 0.08834368503437752 0.37132766875846612 0 0.092625117439054216 0.38057974564445679 0 0.086992023253798484 0.37893932250423967 0 0.086992023253798484 0.37893932250423967 0 0.086562135891927475 0.39420201419334883 0 0.083448170832182519 0.3988959255147132 0 0.091539214791988163 0.4028859300380031 0 0.090676157339020125 0.40901992150624528 0 0.097823304037306602 0.39864427315273859 0 0.08677879196657208 0.40353421296417052 0 0.09087860582505386 0.40034531252885791 0 0.087800543539375359 0.39840344616271622 0 0.08677879196657208 0.40353421296417052 0 0.091539214791988163 0.4028859300380031 0 0.09087860582505386 0.40034531252885791 0 0.08677879196657208 0.40353421296417052 0 0.087800543539375359 0.39840344616271622 0 0.083448170832182519 0.3988959255147132 0 0.08677879196657208 0.40353421296417052 0 0.091539214791988163 0.4028859300380031 0 0.090676157339020125 0.40901992150624528 0 0.091539214791988163 0.4028859300380031 0 0.09087860582505386 0.40034531252885791 0 0.097823304037306602 0.39864427315273859 0 0.09087860582505386 0.40034531252885791 0 0.092310319170800542 0.39531205672204339 0 0.097823304037306602 0.39864427315273859 0 0.092310319170800542 0.39531205672204339 0 0.086562135891927475 0.39420201419334883 0 0.094406444343157619 0.38821446412273042 0 0.09087860582505386 0.40034531252885791 0 0.092310319170800542 0.39531205672204339 0 0.087800543539375359 0.39840344616271622 0 0.092310319170800542 0.39531205672204339 0 0.086562135891927475 0.39420201419334883 0 0.087800543539375359 0.39840344616271622 0 0.086562135891927475 0.39420201419334883 0 0.087800543539375359 0.39840344616271622 0 0.083448170832182519 0.3988959255147132 0 0.081970773192164323 0.38834061577860163 0 0.083448170832182519 0.3988959255147132 0 0.075590439545967114 0.39461470201889948 0 0.083448170832182519 0.3988959255147132 0 0.07993876405413762 0.40425037417472892 0 0.075590439545967114 0.39461470201889948 0 0.08677879196657208 0.40353421296417052 0 0.07993876405413762 0.40425037417472892 0 0.090676157339020125 0.40901992150624528 0 0.08677879196657208 0.40353421296417052 0 0.083448170832182519 0.3988959255147132 0 0.07993876405413762 0.40425037417472892 0 0.07372107409058061 0.40577562428655672 0 0.066766545950553785 0.39610188640704908 0 0.064101257368323339 0.41280454969816788 0 0.07993876405413762 0.40425037417472892 0 0.07372107409058061 0.40577562428655672 0 0.075590439545967114 0.39461470201889948 0 0.057229843403143119 0.40705163946010059 0 0.066766545950553785 0.39610188640704908 0 0.064101257368323339 0.41280454969816788 0 0.07372107409058061 0.40577562428655672 0 0.075590439545967114 0.39461470201889948 0 0.066766545950553785 0.39610188640704908 0 0.066766545950553785 0.39610188640704908 0 0.064101257368323339 0.41280454969816788 0 0.07372107409058061 0.40577562428655672 0 0.064101257368323339 0.41280454969816788 0 0.092647192400565487 0.41235030536198403 0 0.08513832223455392 0.44078151570508128 0 0.059463253754538647 0.44186969979877938 0 0.064101257368323339 0.41280454969816788 0 0.08513832223455392 0.44078151570508128 0 0.064101257368323339 0.41280454969816788 0 0.092647192400565487 0.41235030536198403 0 0.064101257368323339 0.41280454969816788 0 0.092647192400565487 0.41235030536198403 0 0.07993876405413762 0.40425037417472892 0 0.07372107409058061 0.40577562428655672 0 0.092647192400565487 0.41235030536198403 0 0.07993876405413762 0.40425037417472892 0 0.092647192400565487 0.41235030536198403 0 0.090676157339020125 0.40901992150624528 0 0.092647192400565487 0.41235030536198403 0 0.1211931274328079 0.41189606102580167 0 0.1133497714293336 0.39604672892136539 0 0.092647192400565487 0.41235030536198403 0 0.1211931274328079 0.41189606102580167 0 0.1149323761702023 0.44112047939722732 0 0.08513832223455392 0.44078151570508128 0 0.092647192400565487 0.41235030536198403 0 0.1149323761702023 0.44112047939722732 0 0.092647192400565487 0.41235030536198403 0 0.1211931274328079 0.41189606102580167 0 0.1211931274328079 0.41189606102580167 0 0.1133497714293336 0.39604672892136539 0 0.13505896093539069 0.39933954775575992 0 0.1133497714293336 0.39604672892136539 0 0.13602338551964699 0.38307353633648561 0 0.1133497714293336 0.39604672892136539 0 0.1231702120666794 0.37711585491924099 0 0.13602338551964699 0.38307353633648561 0 0.1133497714293336 0.39604672892136539 0 0.1231702120666794 0.37711585491924099 0 0.1100280352738483 0.38303854269829729 0 0.1231702120666794 0.37711585491924099 0 0.1100280352738483 0.38303854269829729 0 0.11046171909093699 0.37085548416608571 0 0.1100280352738483 0.38303854269829729 0 0.10256666866897721 0.38893269516314322 0 0.097914292036012901 0.38212001536410828 0 0.1133497714293336 0.39604672892136539 0 0.1100280352738483 0.38303854269829729 0 0.10256666866897721 0.38893269516314322 0 0.1100280352738483 0.38303854269829729 0 0.1020214636322745 0.37653497822218568 0 0.11046171909093699 0.37085548416608571 0 0.1100280352738483 0.38303854269829729 0 0.1020214636322745 0.37653497822218568 0 0.097914292036012901 0.38212001536410828 0 0.092625117439054216 0.38057974564445679 0 0.1020214636322745 0.37653497822218568 0 0.097914292036012901 0.38212001536410828 0 0.092625117439054216 0.38057974564445679 0 0.097914292036012901 0.38212001536410828 0 0.10256666866897721 0.38893269516314322 0 0.097914292036012901 0.38212001536410828 0 0.094406444343157619 0.38821446412273042 0 0.10256666866897721 0.38893269516314322 0 0.094406444343157619 0.38821446412273042 0 0.096390881387982491 0.39206283017186888 0 0.092625117439054216 0.38057974564445679 0 0.097914292036012901 0.38212001536410828 0 0.094406444343157619 0.38821446412273042 0 0.090676157339020125 0.40901992150624528 0 0.1133497714293336 0.39604672892136539 0 0.097823304037306602 0.39864427315273859 0 0.092310319170800542 0.39531205672204339 0 0.094406444343157619 0.38821446412273042 0 0.096390881387982491 0.39206283017186888 0 0.090676157339020125 0.40901992150624528 0 0.1133497714293336 0.39604672892136539 0 0.10256666866897721 0.38893269516314322 0 0.096390881387982491 0.39206283017186888 0 0.097823304037306602 0.39864427315273859 0 0.092647192400565487 0.41235030536198403 0 0.090676157339020125 0.40901992150624528 0 0.1133497714293336 0.39604672892136539 0 0.092310319170800542 0.39531205672204339 0 0.096390881387982491 0.39206283017186888 0 0.097823304037306602 0.39864427315273859 0 0.1133497714293336 0.39604672892136539 0 0.10256666866897721 0.38893269516314322 0 0.097823304037306602 0.39864427315273859 0 0.10553469887950249 0.35158402202315481 0 0.092649508556274879 0.34708015491293998 0 0.08834368503437752 0.37132766875846612 0 0.10553469887950249 0.35158402202315481 0 0.099078154321520256 0.36608110323798021 0 0.10553469887950249 0.35158402202315481 0 0.099078154321520256 0.36608110323798021 0 0.1117209065786585 0.353727298913244 0 0.10553469887950249 0.35158402202315481 0 0.1117209065786585 0.353727298913244 0 0.10553469887950249 0.35158402202315481 0 0.1124628650967059 0.34363475664216858 0 0.10553469887950249 0.35158402202315481 0 0.092649508556274879 0.34708015491293998 0 0.10553469887950249 0.35158402202315481 0 0.10242167039714301 0.33947890069835007 0 0.092649508556274879 0.34708015491293998 0 0.10553469887950249 0.35158402202315481 0 0.08834368503437752 0.37132766875846612 0 0.10553469887950249 0.35158402202315481 0 0.099078154321520256 0.36608110323798021 0 0.08834368503437752 0.37132766875846612 0 0.099078154321520256 0.36608110323798021 0 0.11046171909093699 0.37085548416608571 0 0.1117209065786585 0.353727298913244 0 0.092625117439054216 0.38057974564445679 0 0.099078154321520256 0.36608110323798021 0 0.092625117439054216 0.38057974564445679 0 0.1020214636322745 0.37653497822218568 0 0.099078154321520256 0.36608110323798021 0 0.1020214636322745 0.37653497822218568 0 0.099078154321520256 0.36608110323798021 0 0.11046171909093699 0.37085548416608571 0 0.11046171909093699 0.37085548416608571 0 0.1117209065786585 0.353727298913244 0 0.13520895309430969 0.36191382133242461 0 0.1231702120666794 0.37711585491924099 0 0.11046171909093699 0.37085548416608571 0 0.13520895309430969 0.36191382133242461 0 0.11046171909093699 0.37085548416608571 0 0.1117209065786585 0.353727298913244 0 0.1117209065786585 0.353727298913244 0 0.1207278209520139 0.34931590305960097 0 0.13520895309430969 0.36191382133242461 0 0.1207278209520139 0.34931590305960097 0 0.1124628650967059 0.34363475664216858 0 0.12989112924335069 0.34523929895024419 0 0.1117209065786585 0.353727298913244 0 0.13520895309430969 0.36191382133242461 0 0.1117209065786585 0.353727298913244 0 0.1207278209520139 0.34931590305960097 0 0.1124628650967059 0.34363475664216858 0 0.10553469887950249 0.35158402202315481 0 0.1117209065786585 0.353727298913244 0 0.1124628650967059 0.34363475664216858 0 0.1117209065786585 0.353727298913244 0 0.1124628650967059 0.34363475664216858 0 0.1124628650967059 0.34363475664216858 0 0.12969807372079609 0.32384581205534968 0 0.13134304130898039 0.33590342820435343 0 0.10553469887950249 0.35158402202315481 0 0.1131344472912716 0.33449951319890231 0 0.1124628650967059 0.34363475664216858 0 0.1131344472912716 0.33449951319890231 0 0.1124628650967059 0.34363475664216858 0 0.12969807372079609 0.32384581205534968 0 0.1124628650967059 0.34363475664216858 0 0.12969807372079609 0.32384581205534968 0 0.1124628650967059 0.34363475664216858 0 0.13134304130898039 0.33590342820435343 0 0.12989112924335069 0.34523929895024419 0 0.1131344472912716 0.33449951319890231 0 0.1124628650967059 0.34363475664216858 0 0.1131344472912716 0.33449951319890231 0 0.12072369721426141 0.31744803452755083 0 0.1131344472912716 0.33449951319890231 0 0.12072369721426141 0.31744803452755083 0 0.114439492213305 0.31296806363420487 0 0.1131344472912716 0.33449951319890231 0 0.12072369721426141 0.31744803452755083 0 0.12969807372079609 0.32384581205534968 0 0.1131344472912716 0.33449951319890231 0 0.114439492213305 0.31296806363420487 0 0.1131344472912716 0.33449951319890231 0 0.114439492213305 0.31296806363420487 0 0.1072463830442611 0.3233373562374392 0 0.1229213244732969 0.31251041951747138 0 0.114439492213305 0.31296806363420487 0 0.1229213244732969 0.31251041951747138 0 0.12072369721426141 0.31744803452755083 0 0.114439492213305 0.31296806363420487 0 0.12072369721426141 0.31744803452755083 0 0.114439492213305 0.31296806363420487 0 0.1229213244732969 0.31251041951747138 0 0.12072369721426141 0.31744803452755083 0 0.1257561955931292 0.31235746175435047 0 0.1229213244732969 0.31251041951747138 0 0.12072369721426141 0.31744803452755083 0 0.114439492213305 0.31296806363420487 0 0.098554867071166868 0.3138251314256818 0 0.098554867071166868 0.3138251314256818 0 0.09560218781372061 0.33045264316931078 0 0.088730871063564393 0.32246898207018582 0 0.098554867071166868 0.3138251314256818 0 0.09560218781372061 0.33045264316931078 0 0.1072463830442611 0.3233373562374392 0 0.098554867071166868 0.3138251314256818 0 0.09560218781372061 0.33045264316931078 0 0.114439492213305 0.31296806363420487 0 0.1072463830442611 0.3233373562374392 0 0.098554867071166868 0.3138251314256818 0 0.114439492213305 0.31296806363420487 0 0.098554867071166868 0.3138251314256818 0 0.098982057705851625 0.31141947992219382 0 0.098554867071166868 0.3138251314256818 0 0.098982057705851625 0.31141947992219382 0 0.09560218781372061 0.33045264316931078 0 0.092649508556274879 0.34708015491293998 0 0.1131344472912716 0.33449951319890231 0 0.1072463830442611 0.3233373562374392 0 0.10242167039714301 0.33947890069835007 0 0.1072463830442611 0.3233373562374392 0 0.10242167039714301 0.33947890069835007 0 0.09560218781372061 0.33045264316931078 0 0.10242167039714301 0.33947890069835007 0 0.09560218781372061 0.33045264316931078 0 0.092649508556274879 0.34708015491293998 0 0.10553469887950249 0.35158402202315481 0 0.1131344472912716 0.33449951319890231 0 0.10242167039714301 0.33947890069835007 0 0.10553469887950249 0.35158402202315481 0 0.1131344472912716 0.33449951319890231 0 0.084837423824061203 0.33619286804468912 0 0.075540626909394989 0.3411170262604224 0 0.092649508556274879 0.34708015491293998 0 0.09560218781372061 0.33045264316931078 0 0.084837423824061203 0.33619286804468912 0 0.092649508556274879 0.34708015491293998 0 0.09560218781372061 0.33045264316931078 0 0.083348590061143479 0.33063255683887621 0 0.084837423824061203 0.33619286804468912 0 0.083348590061143479 0.33063255683887621 0 0.075421965857501078 0.32623064997173362 0 0.077046205779769533 0.33168195904190451 0 0.083348590061143479 0.33063255683887621 0 0.084837423824061203 0.33619286804468912 0 0.077046205779769533 0.33168195904190451 0 0.084837423824061203 0.33619286804468912 0 0.075540626909394989 0.3411170262604224 0 0.077046205779769533 0.33168195904190451 0 0.098554867071166868 0.3138251314256818 0 0.077417839308226821 0.31496559684687409 0 0.098554867071166868 0.3138251314256818 0 0.088730871063564393 0.32246898207018582 0 0.077417839308226821 0.31496559684687409 0 0.083348590061143479 0.33063255683887621 0 0.077417839308226821 0.31496559684687409 0 0.075421965857501078 0.32623064997173362 0 0.098554867071166868 0.3138251314256818 0 0.077417839308226821 0.31496559684687409 0 0.080391563281835526 0.31145556680808928 0 0.083348590061143479 0.33063255683887621 0 0.088730871063564393 0.32246898207018582 0 0.077417839308226821 0.31496559684687409 0 0.083348590061143479 0.33063255683887621 0 0.077417839308226821 0.31496559684687409 0 0.09560218781372061 0.33045264316931078 0 0.083348590061143479 0.33063255683887621 0 0.088730871063564393 0.32246898207018582 0 0.07107736735475742 0.31530770213708409 0 0.075421965857501078 0.32623064997173362 0 0.068219826783607537 0.33856543499392822 0 0.07107736735475742 0.31530770213708409 0 0.068219826783607537 0.33856543499392822 0 0.07107736735475742 0.31530770213708409 0 0.068219826783607537 0.33856543499392822 0 0.060603968119786418 0.32580243489303901 0 0.07107736735475742 0.31530770213708409 0 0.077417839308226821 0.31496559684687409 0 0.075421965857501078 0.32623064997173362 0 0.07107736735475742 0.31530770213708409 0 0.077417839308226821 0.31496559684687409 0 0.075540626909394989 0.3411170262604224 0 0.077046205779769533 0.33168195904190451 0 0.068219826783607537 0.33856543499392822 0 0.075540626909394989 0.3411170262604224 0 0.077046205779769533 0.33168195904190451 0 0.075540626909394989 0.3411170262604224 0 0.068219826783607537 0.33856543499392822 0 0.075421965857501078 0.32623064997173362 0 0.077046205779769533 0.33168195904190451 0 0.068219826783607537 0.33856543499392822 0 0.068219826783607537 0.33856543499392822 0 0.066149481449856676 0.35541612792194388 0 0.075540626909394989 0.3411170262604224 0 0.068219826783607537 0.33856543499392822 0 0.066149481449856676 0.35541612792194388 0 0.075540626909394989 0.3411170262604224 0 0.072911183222217846 0.35759505901178013 0 0.066149481449856676 0.35541612792194388 0 0.075540626909394989 0.3411170262604224 0 0.072911183222217846 0.35759505901178013 0 0.092649508556274879 0.34708015491293998 0 0.08834368503437752 0.37132766875846612 0 0.072911183222217846 0.35759505901178013 0 0.092649508556274879 0.34708015491293998 0 0.07867790418649849 0.36852402228139308 0 0.075540626909394989 0.3411170262604224 0 0.072911183222217846 0.35759505901178013 0 0.092649508556274879 0.34708015491293998 0 0.075540626909394989 0.3411170262604224 0 0.092649508556274879 0.34708015491293998 0 0.092649508556274879 0.34708015491293998 0 0.08834368503437752 0.37132766875846612 0 0.07867790418649849 0.36852402228139308 0 0.092625117439054216 0.38057974564445679 0 0.099078154321520256 0.36608110323798021 0 0.08834368503437752 0.37132766875846612 0 0.08278207834071849 0.3777133371350393 0 0.08834368503437752 0.37132766875846612 0 0.07867790418649849 0.36852402228139308 0 0.08278207834071849 0.3777133371350393 0 0.08834368503437752 0.37132766875846612 0 0.066149481449856676 0.35541612792194388 0 0.064079136116105329 0.37226682084995938 0 0.072911183222217846 0.35759505901178013 0 0.07867790418649849 0.36852402228139308 0 0.070281739535042298 0.37407309176313808 0 0.072911183222217846 0.35759505901178013 0 0.070281739535042298 0.37407309176313808 0 0.072911183222217846 0.35759505901178013 0 0.070281739535042298 0.37407309176313808 0 0.064079136116105329 0.37226682084995938 0 0.072911183222217846 0.35759505901178013 0 0.066149481449856676 0.35541612792194388 0 0.064079136116105329 0.37226682084995938 0 0.08278207834071849 0.3777133371350393 0 0.07867790418649849 0.36852402228139308 0 0.070281739535042298 0.37407309176313808 0 0.070281739535042298 0.37407309176313808 0 0.064079136116105329 0.37226682084995938 0 0.064079136116105329 0.37226682084995938 0 0.042341277920357953 0.36593650141444151 0 0.064079136116105329 0.37226682084995938 0 0.055821449796835919 0.36053293665489827 0 0.042341277920357953 0.36593650141444151 0 0.04947063899846911 0.38183175838055028 0 0.064079136116105329 0.37226682084995938 0 0.042341277920357953 0.36593650141444151 0 0.066149481449856676 0.35541612792194388 0 0.064079136116105329 0.37226682084995938 0 0.055821449796835919 0.36053293665489827 0 0.055821449796835919 0.36053293665489827 0 0.050715903701023413 0.3485122964332481 0 0.042341277920357953 0.36593650141444151 0 0.068219826783607537 0.33856543499392822 0 0.066149481449856676 0.35541612792194388 0 0.050715903701023413 0.3485122964332481 0 0.066149481449856676 0.35541612792194388 0 0.055821449796835919 0.36053293665489827 0 0.050715903701023413 0.3485122964332481 0 0.033067105035865491 0.34914707418258528 0 0.042341277920357953 0.36593650141444151 0 0.020603419724611081 0.35960618197892169 0 0.050715903701023413 0.3485122964332481 0 0.033067105035865491 0.34914707418258528 0 0.042341277920357953 0.36593650141444151 0 0.050715903701023413 0.3485122964332481 0 0.033067105035865491 0.34914707418258528 0 0.038898088953402493 0.33780862784318549 0 0.042341277920357953 0.36593650141444151 0 0.020603419724611081 0.35960618197892169 0 0.032880183622863941 0.37848946890410129 0 0.042341277920357953 0.36593650141444151 0 0.020603419724611081 0.35960618197892169 0 0.018391723945099549 0.3754242380496427 0 0.032880183622863941 0.37848946890410129 0 0.020603419724611081 0.35960618197892169 0 0.033067105035865491 0.34914707418258528 0 0.020603419724611081 0.35960618197892169 0 0.019697785169706241 0.34694497117951822 0 0.033067105035865491 0.34914707418258528 0 0.019697785169706241 0.34694497117951822 0 0.025899467920846658 0.3373374569211901 0 0.020603419724611081 0.35960618197892169 0 0.019697785169706241 0.34694497117951822 0 0.0070059418201399108 0.35030268606549758 0 0.020603419724611081 0.35960618197892169 0 0.0070059418201399108 0.35030268606549758 0 0.0068333652345219861 0.36530837290641099 0 0.019697785169706241 0.34694497117951822 0 0.0070059418201399108 0.35030268606549758 0 0.01324762055028663 0.33658340406508069 0 -0.0073813149625234654 0.34481589177368749 0 0.0070059418201399108 0.35030268606549758 0 0.0024282822111710472 0.33910479587071968 0 -0.0076815573519539151 0.36147560345665158 0 0.0070059418201399108 0.35030268606549758 0 0.0068333652345219861 0.36530837290641099 0 0.018391723945099549 0.3754242380496427 0 0.020603419724611081 0.35960618197892169 0 0.0068333652345219861 0.36530837290641099 0 -0.004152701965286696 0.37973315498134158 0 0.018391723945099549 0.3754242380496427 0 0.0068333652345219861 0.36530837290641099 0 0.01102741322616347 0.31757333278353639 0 0.0063722427405907469 0.32702457597325663 0 0.0195233335200563 0.32467512264036058 0 -0.0035724396684860449 0.31425574905281939 0 0.01102741322616347 0.31757333278353639 0 0.0063722427405907469 0.32702457597325663 0 -0.0035724396684860449 0.31425574905281939 0 0.01102741322616347 0.31757333278353639 0 0.0070249462827044092 0.30801659771184692 0 -0.0044207533956469149 0.32995505142702303 0 0.0063722427405907469 0.32702457597325663 0 0.0024282822111710472 0.33910479587071968 0 0.0063722427405907469 0.32702457597325663 0 0.0024282822111710472 0.33910479587071968 0 0.01324762055028663 0.33658340406508069 0 0.0070059418201399108 0.35030268606549758 0 0.0024282822111710472 0.33910479587071968 0 0.01324762055028663 0.33658340406508069 0 0.0063722427405907469 0.32702457597325663 0 0.01324762055028663 0.33658340406508069 0 0.0195233335200563 0.32467512264036058 0 0.01324762055028663 0.33658340406508069 0 0.025899467920846658 0.3373374569211901 0 0.0195233335200563 0.32467512264036058 0 0.019697785169706241 0.34694497117951822 0 0.01324762055028663 0.33658340406508069 0 0.025899467920846658 0.3373374569211901 0 0.025899467920846658 0.3373374569211901 0 0.0195233335200563 0.32467512264036058 0 0.032894899898596008 0.32625328695269412 0 0.0195233335200563 0.32467512264036058 0 0.027440878854786022 0.31766214415204269 0 0.032894899898596008 0.32625328695269412 0 0.01102741322616347 0.31757333278353639 0 0.0195233335200563 0.32467512264036058 0 0.019078578390581379 0.31173794653319159 0 0.0195233335200563 0.32467512264036058 0 0.027440878854786022 0.31766214415204269 0 0.019078578390581379 0.31173794653319159 0 0.027440878854786022 0.31766214415204269 0 0.049259123104771652 0.31648492314456239 0 0.027440878854786022 0.31766214415204269 0 0.032894899898596008 0.32625328695269412 0 0.049259123104771652 0.31648492314456239 0 0.027440878854786022 0.31766214415204269 0 0.049259123104771652 0.31648492314456239 0 0.038901766564202619 0.30806560177845849 0 0.032894899898596008 0.32625328695269412 0 0.050557363341101627 0.33240936097331147 0 0.049259123104771652 0.31648492314456239 0 0.032894899898596008 0.32625328695269412 0 0.050557363341101627 0.33240936097331147 0 0.050715903701023413 0.3485122964332481 0 0.038898088953402493 0.33780862784318549 0 0.050557363341101627 0.33240936097331147 0 0.032894899898596008 0.32625328695269412 0 0.038898088953402493 0.33780862784318549 0 0.050557363341101627 0.33240936097331147 0 0.033067105035865491 0.34914707418258528 0 0.025899467920846658 0.3373374569211901 0 0.038898088953402493 0.33780862784318549 0 0.025899467920846658 0.3373374569211901 0 0.032894899898596008 0.32625328695269412 0 0.038898088953402493 0.33780862784318549 0 0.068219826783607537 0.33856543499392822 0 0.050557363341101627 0.33240936097331147 0 0.068219826783607537 0.33856543499392822 0 0.050715903701023413 0.3485122964332481 0 0.050557363341101627 0.33240936097331147 0 0.068219826783607537 0.33856543499392822 0 0.050557363341101627 0.33240936097331147 0 0.060603968119786418 0.32580243489303901 0 0.07107736735475742 0.31530770213708409 0 0.049259123104771652 0.31648492314456239 0 0.060603968119786418 0.32580243489303901 0 0.07107736735475742 0.31530770213708409 0 0.049259123104771652 0.31648492314456239 0 0.062750972967852189 0.30773558414120422 0 0.07107736735475742 0.31530770213708409 0 0.049259123104771652 0.31648492314456239 0 0.050557363341101627 0.33240936097331147 0 0.049259123104771652 0.31648492314456239 0 0.060603968119786418 0.32580243489303901 0 0.049259123104771652 0.31648492314456239 0 0.055014770726554182 0.29956141817080928 0 0.038901766564202619 0.30806560177845849 0 0.049259123104771652 0.31648492314456239 0 0.055014770726554182 0.29956141817080928 0 0.062750972967852189 0.30773558414120422 0 0.047944579461646458 0.28782767099246648 0 0.04947243157758989 0.27574138148886002 0 0.064531461160362569 0.28092431281800062 0 0.055014770726554182 0.29956141817080928 0 0.047944579461646458 0.28782767099246648 0 0.064531461160362569 0.28092431281800062 0 0.055014770726554182 0.29956141817080928 0 0.047944579461646458 0.28782767099246648 0 0.037718352128415053 0.29642467020159119 0 0.037718352128415053 0.29642467020159119 0 0.0244930880839643 0.29260648370445719 0 0.035953984915318801 0.27988488441267628 0 0.047944579461646458 0.28782767099246648 0 0.037718352128415053 0.29642467020159119 0 0.035953984915318801 0.27988488441267628 0 0.055014770726554182 0.29956141817080928 0 0.037718352128415053 0.29642467020159119 0 0.038901766564202619 0.30806560177845849 0 0.037718352128415053 0.29642467020159119 0 0.038901766564202619 0.30806560177845849 0 0.026861401316226961 0.30482196825609043 0 0.027440878854786022 0.31766214415204269 0 0.026861401316226961 0.30482196825609043 0 0.019078578390581379 0.31173794653319159 0 0.027440878854786022 0.31766214415204269 0 0.038901766564202619 0.30806560177845849 0 0.026861401316226961 0.30482196825609043 0 0.026861401316226961 0.30482196825609043 0 0.019078578390581379 0.31173794653319159 0 0.01466457222625731 0.30027965368030718 0 0.026861401316226961 0.30482196825609043 0 0.0244930880839643 0.29260648370445719 0 0.01466457222625731 0.30027965368030718 0 0.037718352128415053 0.29642467020159119 0 0.026861401316226961 0.30482196825609043 0 0.0244930880839643 0.29260648370445719 0 0.0244930880839643 0.29260648370445719 0 0.021865791507954639 0.27997552138171222 0 0.035953984915318801 0.27988488441267628 0 0.0244930880839643 0.29260648370445719 0 0.010575814004216909 0.28704730418367591 0 0.021865791507954639 0.27997552138171222 0 0.0244930880839643 0.29260648370445719 0 0.010575814004216909 0.28704730418367591 0 0.01466457222625731 0.30027965368030718 0 -0.00035778642331400859 0.29671542626749992 0 0.010575814004216909 0.28704730418367591 0 0.01466457222625731 0.30027965368030718 0 -0.0018174004218267539 0.28107513133150891 0 -0.00035778642331400859 0.29671542626749992 0 0.010575814004216909 0.28704730418367591 0 -0.00035778642331400859 0.29671542626749992 0 -0.0035724396684860449 0.31425574905281939 0 0.0070249462827044092 0.30801659771184692 0 -0.00035778642331400859 0.29671542626749992 0 0.0070249462827044092 0.30801659771184692 0 0.01466457222625731 0.30027965368030718 0 0.01102741322616347 0.31757333278353639 0 0.019078578390581379 0.31173794653319159 0 0.0070249462827044092 0.30801659771184692 0 0.019078578390581379 0.31173794653319159 0 0.0070249462827044092 0.30801659771184692 0 0.01466457222625731 0.30027965368030718 0 0.0098433085545792456 0.25159142850186728 0 0.01076359965838513 0.26801542043569021 0 0.02017640883122513 0.25384844174363852 0 -0.0025019221426154608 0.25448127945916882 0 0.0098433085545792456 0.25159142850186728 0 0.01076359965838513 0.26801542043569021 0 -0.0018174004218267539 0.28107513133150891 0 0.010575814004216909 0.28704730418367591 0 0.01076359965838513 0.26801542043569021 0 0.010575814004216909 0.28704730418367591 0 0.01076359965838513 0.26801542043569021 0 0.021865791507954639 0.27997552138171222 0 0.01076359965838513 0.26801542043569021 0 0.021865791507954639 0.27997552138171222 0 0.028207143443917001 0.2724915908974519 0 0.01076359965838513 0.26801542043569021 0 0.028207143443917001 0.2724915908974519 0 0.025223920749031261 0.26320056438536471 0 0.021865791507954639 0.27997552138171222 0 0.028207143443917001 0.2724915908974519 0 0.035953984915318801 0.27988488441267628 0 0.028207143443917001 0.2724915908974519 0 0.025223920749031261 0.26320056438536471 0 0.035160513825057582 0.26597390070547061 0 0.025223920749031261 0.26320056438536471 0 0.031811937986571448 0.25567346814457209 0 0.035160513825057582 0.26597390070547061 0 0.01076359965838513 0.26801542043569021 0 0.025223920749031261 0.26320056438536471 0 0.02017640883122513 0.25384844174363852 0 0.026731698772315429 0.2461293443832899 0 0.02017640883122513 0.25384844174363852 0 0.031811937986571448 0.25567346814457209 0 0.025223920749031261 0.26320056438536471 0 0.02017640883122513 0.25384844174363852 0 0.031811937986571448 0.25567346814457209 0 0.039750545832275663 0.24699096511268431 0 0.031811937986571448 0.25567346814457209 0 0.04183863381438252 0.25925904672490818 0 0.031811937986571448 0.25567346814457209 0 0.04183863381438252 0.25925904672490818 0 0.035160513825057582 0.26597390070547061 0 0.04183863381438252 0.25925904672490818 0 0.035160513825057582 0.26597390070547061 0 0.044359696885532728 0.26787906383142052 0 0.039750545832275663 0.24699096511268431 0 0.04183863381438252 0.25925904672490818 0 0.054568928560610103 0.26095294535136132 0 0.028207143443917001 0.2724915908974519 0 0.035953984915318801 0.27988488441267628 0 0.035160513825057582 0.26597390070547061 0 0.035953984915318801 0.27988488441267628 0 0.035160513825057582 0.26597390070547061 0 0.044359696885532728 0.26787906383142052 0 0.035953984915318801 0.27988488441267628 0 0.044359696885532728 0.26787906383142052 0 0.04947243157758989 0.27574138148886002 0 0.047944579461646458 0.28782767099246648 0 0.035953984915318801 0.27988488441267628 0 0.04947243157758989 0.27574138148886002 0 0.056400187642633257 0.25944434473408118 0 0.064531461160362569 0.28092431281800062 0 0.04947243157758989 0.27574138148886002 0 0.054568928560610103 0.26095294535136132 0 0.064531461160362569 0.28092431281800062 0 0.056400187642633257 0.25944434473408118 0 0.054568928560610103 0.26095294535136132 0 0.064531461160362569 0.28092431281800062 0 0.044359696885532728 0.26787906383142052 0 0.04947243157758989 0.27574138148886002 0 0.054568928560610103 0.26095294535136132 0 0.039750545832275663 0.24699096511268431 0 0.056400187642633257 0.25944434473408118 0 0.054568928560610103 0.26095294535136132 0 0.039750545832275663 0.24699096511268431 0 0.054568928560610103 0.26095294535136132 0 0.04183863381438252 0.25925904672490818 0 0.044359696885532728 0.26787906383142052 0 0.054568928560610103 0.26095294535136132 0 0.056400187642633257 0.25944434473408118 0 0.078640590914060185 0.2535391572384193 0 0.068196228594373381 0.26710005637789502 0 0.070927320206298244 0.2427563080948795 0 0.056400187642633257 0.25944434473408118 0 0.078640590914060185 0.2535391572384193 0 0.078640590914060185 0.2535391572384193 0 0.080341896695992315 0.26668715858082542 0 0.068196228594373381 0.26710005637789502 0 0.078640590914060185 0.2535391572384193 0 0.091894427373696796 0.25385570070267199 0 0.080341896695992315 0.26668715858082542 0 0.091894427373696796 0.25385570070267199 0 0.080341896695992315 0.26668715858082542 0 0.093585726287692156 0.24754823953959759 0 0.078640590914060185 0.2535391572384193 0 0.091894427373696796 0.25385570070267199 0 0.093585726287692156 0.24754823953959759 0 0.091894427373696796 0.25385570070267199 0 0.091894427373696796 0.25385570070267199 0 0.084831188996290302 0.28019705371979509 0 0.10310159109344071 0.27394251767453259 0 0.091894427373696796 0.25385570070267199 0 0.084831188996290302 0.28019705371979509 0 0.080341896695992315 0.26668715858082542 0 0.084831188996290302 0.28019705371979509 0 0.076622738675891658 0.28429223884126842 0 0.091894427373696796 0.25385570070267199 0 0.080341896695992315 0.26668715858082542 0 0.084831188996290302 0.28019705371979509 0 0.080341896695992315 0.26668715858082542 0 0.068789366018287806 0.27951861645897857 0 0.076622738675891658 0.28429223884126842 0 0.056400187642633257 0.25944434473408118 0 0.068196228594373381 0.26710005637789502 0 0.064531461160362569 0.28092431281800062 0 0.080341896695992315 0.26668715858082542 0 0.068789366018287806 0.27951861645897857 0 0.080341896695992315 0.26668715858082542 0 0.068196228594373381 0.26710005637789502 0 0.068789366018287806 0.27951861645897857 0 0.068196228594373381 0.26710005637789502 0 0.064531461160362569 0.28092431281800062 0 0.068789366018287806 0.27951861645897857 0 0.055014770726554182 0.29956141817080928 0 0.064531461160362569 0.28092431281800062 0 0.072662734678092894 0.30240428090191951 0 0.064531461160362569 0.28092431281800062 0 0.073815075707718253 0.29302529251674392 0 0.072662734678092894 0.30240428090191951 0 0.064531461160362569 0.28092431281800062 0 0.068789366018287806 0.27951861645897857 0 0.073815075707718253 0.29302529251674392 0 0.064531461160362569 0.28092431281800062 0 0.072662734678092894 0.30240428090191951 0 0.073815075707718253 0.29302529251674392 0 0.076622738675891658 0.28429223884126842 0 0.079648798916033658 0.2900829688740541 0 0.073815075707718253 0.29302529251674392 0 0.080078847132202605 0.29703869706086211 0 0.079648798916033658 0.2900829688740541 0 0.068789366018287806 0.27951861645897857 0 0.073815075707718253 0.29302529251674392 0 0.076622738675891658 0.28429223884126842 0 0.055014770726554182 0.29956141817080928 0 0.062750972967852189 0.30773558414120422 0 0.072662734678092894 0.30240428090191951 0 0.07107736735475742 0.31530770213708409 0 0.062750972967852189 0.30773558414120422 0 0.072662734678092894 0.30240428090191951 0 0.073815075707718253 0.29302529251674392 0 0.072662734678092894 0.30240428090191951 0 0.072662734678092894 0.30240428090191951 0 0.078735956706540128 0.30504383866066759 0 0.080078847132202605 0.29703869706086211 0 0.073815075707718253 0.29302529251674392 0 0.072662734678092894 0.30240428090191951 0 0.080078847132202605 0.29703869706086211 0 0.077417839308226821 0.31496559684687409 0 0.072662734678092894 0.30240428090191951 0 0.07107736735475742 0.31530770213708409 0 0.077417839308226821 0.31496559684687409 0 0.072662734678092894 0.30240428090191951 0 0.077417839308226821 0.31496559684687409 0 0.072662734678092894 0.30240428090191951 0 0.078735956706540128 0.30504383866066759 0 0.07107736735475742 0.31530770213708409 0 0.072662734678092894 0.30240428090191951 0 0.080391563281835526 0.31145556680808928 0 0.091986222475716431 0.30806429291516091 0 0.090016401844011509 0.2955569935046779 0 0.078735956706540128 0.30504383866066759 0 0.080391563281835526 0.31145556680808928 0 0.090016401844011509 0.2955569935046779 0 0.091986222475716431 0.30806429291516091 0 0.090016401844011509 0.2955569935046779 0 0.098982057705851625 0.31141947992219382 0 0.098554867071166868 0.3138251314256818 0 0.080391563281835526 0.31145556680808928 0 0.091986222475716431 0.30806429291516091 0 0.080391563281835526 0.31145556680808928 0 0.090016401844011509 0.2955569935046779 0 0.077417839308226821 0.31496559684687409 0 0.078735956706540128 0.30504383866066759 0 0.080391563281835526 0.31145556680808928 0 0.078735956706540128 0.30504383866066759 0 0.080078847132202605 0.29703869706086211 0 0.090016401844011509 0.2955569935046779 0 0.084831188996290302 0.28019705371979509 0 0.090016401844011509 0.2955569935046779 0 0.10310159109344071 0.27394251767453259 0 0.084831188996290302 0.28019705371979509 0 0.076622738675891658 0.28429223884126842 0 0.079648798916033658 0.2900829688740541 0 0.084831188996290302 0.28019705371979509 0 0.079648798916033658 0.2900829688740541 0 0.085721058012537016 0.29249486944300412 0 0.080078847132202605 0.29703869706086211 0 0.085721058012537016 0.29249486944300412 0 0.090016401844011509 0.2955569935046779 0 0.080078847132202605 0.29703869706086211 0 0.079648798916033658 0.2900829688740541 0 0.085721058012537016 0.29249486944300412 0 0.084831188996290302 0.28019705371979509 0 0.085721058012537016 0.29249486944300412 0 0.090016401844011509 0.2955569935046779 0 0.085721058012537016 0.29249486944300412 0 0.090016401844011509 0.2955569935046779 0 0.090016401844011509 0.2955569935046779 0 0.10310159109344071 0.27394251767453259 0 0.090016401844011509 0.2955569935046779 0 0.1077671220093208 0.28531716982923022 0 0.1160425712147338 0.29494155555955009 0 0.090016401844011509 0.2955569935046779 0 0.1077671220093208 0.28531716982923022 0 0.10310159109344071 0.27394251767453259 0 0.114439492213305 0.31296806363420487 0 0.090016401844011509 0.2955569935046779 0 0.098982057705851625 0.31141947992219382 0 0.114439492213305 0.31296806363420487 0 0.090016401844011509 0.2955569935046779 0 0.114439492213305 0.31296806363420487 0 0.090016401844011509 0.2955569935046779 0 0.1160425712147338 0.29494155555955009 0 0.098554867071166868 0.3138251314256818 0 0.091986222475716431 0.30806429291516091 0 0.098982057705851625 0.31141947992219382 0 0.114439492213305 0.31296806363420487 0 0.1160425712147338 0.29494155555955009 0 0.114439492213305 0.31296806363420487 0 0.1192587392905229 0.30547581235017401 0 0.1160425712147338 0.29494155555955009 0 0.1224815290757103 0.3021652219985913 0 0.1192587392905229 0.30547581235017401 0 0.1160425712147338 0.29494155555955009 0 0.1224815290757103 0.3021652219985913 0 0.1160425712147338 0.29494155555955009 0 0.1284754792673701 0.29800293448574777 0 0.1229213244732969 0.31251041951747138 0 0.114439492213305 0.31296806363420487 0 0.12073804085684151 0.30953813211208819 0 0.1192587392905229 0.30547581235017401 0 0.1227583539298318 0.30673945967227212 0 0.12073804085684151 0.30953813211208819 0 0.1227583539298318 0.30673945967227212 0 0.1240333370258451 0.31001195675573862 0 0.12680672878929691 0.30579162084166939 0 0.1224815290757103 0.3021652219985913 0 0.1227583539298318 0.30673945967227212 0 0.12680672878929691 0.30579162084166939 0 0.1224815290757103 0.3021652219985913 0 0.1192587392905229 0.30547581235017401 0 0.1227583539298318 0.30673945967227212 0 0.1227583539298318 0.30673945967227212 0 0.1240333370258451 0.31001195675573862 0 0.12073804085684151 0.30953813211208819 0 0.1229213244732969 0.31251041951747138 0 0.1240333370258451 0.31001195675573862 0 0.1229213244732969 0.31251041951747138 0 0.1240333370258451 0.31001195675573862 0 0.1257561955931292 0.31235746175435047 0 0.1229213244732969 0.31251041951747138 0 0.1257561955931292 0.31235746175435047 0 0.1229213244732969 0.31251041951747138 0 0.1240333370258451 0.31001195675573862 0 0.12073804085684151 0.30953813211208819 0 0.114439492213305 0.31296806363420487 0 0.1192587392905229 0.30547581235017401 0 0.12073804085684151 0.30953813211208819 0 0.1160425712147338 0.29494155555955009 0 0.1173666928647554 0.27693009885431169 0 0.1160425712147338 0.29494155555955009 0 0.1232229081041521 0.28632561716752769 0 0.1173666928647554 0.27693009885431169 0 0.1077671220093208 0.28531716982923022 0 0.1160425712147338 0.29494155555955009 0 0.1173666928647554 0.27693009885431169 0 0.1160425712147338 0.29494155555955009 0 0.1232229081041521 0.28632561716752769 0 0.1284754792673701 0.29800293448574777 0 0.1232229081041521 0.28632561716752769 0 0.12344820699444869 0.27011849762712459 0 0.1232229081041521 0.28632561716752769 0 0.1173666928647554 0.27693009885431169 0 0.12344820699444869 0.27011849762712459 0 0.1173666928647554 0.27693009885431169 0 0.11549539416146851 0.27073241351044469 0 0.10310159109344071 0.27394251767453259 0 0.1077671220093208 0.28531716982923022 0 0.1173666928647554 0.27693009885431169 0 0.10310159109344071 0.27394251767453259 0 0.11549539416146851 0.27073241351044469 0 0.1180650856932295 0.26193853988581012 0 0.10310159109344071 0.27394251767453259 0 0.1173666928647554 0.27693009885431169 0 0.11549539416146851 0.27073241351044469 0 0.12344820699444869 0.27011849762712459 0 0.11549539416146851 0.27073241351044469 0 0.12344820699444869 0.27011849762712459 0 0.1180650856932295 0.26193853988581012 0 0.1180650856932295 0.26193853988581012 0 0.11618678034287309 0.25232804184438928 0 0.10310159109344071 0.27394251767453259 0 0.12344820699444869 0.27011849762712459 0 0.1180650856932295 0.26193853988581012 0 0.1236735058847456 0.25391137808672171 0 0.12344820699444869 0.27011849762712459 0 0.1236735058847456 0.25391137808672171 0 0.11618678034287309 0.25232804184438928 0 0.10310159109344071 0.27394251767453259 0 0.1180650856932295 0.26193853988581012 0 0.1236735058847456 0.25391137808672171 0 0.11618678034287309 0.25232804184438928 0 0.1236735058847456 0.25391137808672171 0 0.11618678034287309 0.25232804184438928 0 0.096935413098827208 0.248256650780113 0 0.11618678034287309 0.25232804184438928 0 0.096935413098827208 0.248256650780113 0 0.091894427373696796 0.25385570070267199 0 0.10310159109344071 0.27394251767453259 0 0.096935413098827208 0.248256650780113 0 0.11618678034287309 0.25232804184438928 0 0.10310159109344071 0.27394251767453259 0 0.096935413098827208 0.248256650780113 0 0.091894427373696796 0.25385570070267199 0 0.14983131456301299 0.27291454426042328 0 0.1451465959822851 0.28555228724544252 0 0.16331870603402091 0.28524362020892752 0 0.14983131456301299 0.27291454426042328 0 0.1338959904973947 0.27821030830648907 0 0.1451465959822851 0.28555228724544252 0 0.14908989007764259 0.25928658277620548 0 0.1361700002602077 0.26477417037123091 0 0.15804309435604849 0.25809851181280902 0 0.1361700002602077 0.26477417037123091 0 0.15804309435604849 0.25809851181280902 0 0.14983131456301299 0.27291454426042328 0 0.1361700002602077 0.26477417037123091 0 0.15804309435604849 0.25809851181280902 0 0.15083290089686921 0.24749494986470669 0 0.14908989007764259 0.25928658277620548 0 0.15804309435604849 0.25809851181280902 0 0.15083290089686921 0.24749494986470669 0 0.14908989007764259 0.25928658277620548 0 0.1404410137384193 0.25174185577515618 0 0.1236735058847456 0.25391137808672171 0 0.14908989007764259 0.25928658277620548 0 0.12344820699444869 0.27011849762712459 0 0.1236735058847456 0.25391137808672171 0 0.1361700002602077 0.26477417037123091 0 0.13816775809442031 0.24627451237299089 0 0.1236735058847456 0.25391137808672171 0 0.1404410137384193 0.25174185577515618 0 0.1236735058847456 0.25391137808672171 0 0.14908989007764259 0.25928658277620548 0 0.1404410137384193 0.25174185577515618 0 0.1236735058847456 0.25391137808672171 0 0.14908989007764259 0.25928658277620548 0 0.1361700002602077 0.26477417037123091 0 0.12344820699444869 0.27011849762712459 0 0.1361700002602077 0.26477417037123091 0 0.1338959904973947 0.27821030830648907 0 0.1232229081041521 0.28632561716752769 0 0.12344820699444869 0.27011849762712459 0 0.1338959904973947 0.27821030830648907 0 0.14983131456301299 0.27291454426042328 0 0.1361700002602077 0.26477417037123091 0 0.1338959904973947 0.27821030830648907 0 0.1232229081041521 0.28632561716752769 0 0.1338959904973947 0.27821030830648907 0 0.13544987274572209 0.29052717266746908 0 0.1232229081041521 0.28632561716752769 0 0.13544987274572209 0.29052717266746908 0 0.1284754792673701 0.29800293448574777 0 0.1338959904973947 0.27821030830648907 0 0.13544987274572209 0.29052717266746908 0 0.1451465959822851 0.28555228724544252 0 0.13184871453959679 0.30607678183993142 0 0.1284754792673701 0.29800293448574777 0 0.14650838987740861 0.30454471613213863 0 0.13184871453959679 0.30607678183993142 0 0.14650838987740861 0.30454471613213863 0 0.12969807372079609 0.32384581205534968 0 0.13544987274572209 0.29052717266746908 0 0.1284754792673701 0.29800293448574777 0 0.14650838987740861 0.30454471613213863 0 0.1240333370258451 0.31001195675573862 0 0.1257561955931292 0.31235746175435047 0 0.12680672878929691 0.30579162084166939 0 0.1257561955931292 0.31235746175435047 0 0.12680672878929691 0.30579162084166939 0 0.13184871453959679 0.30607678183993142 0 0.12680672878929691 0.30579162084166939 0 0.13184871453959679 0.30607678183993142 0 0.1284754792673701 0.29800293448574777 0 0.1224815290757103 0.3021652219985913 0 0.12680672878929691 0.30579162084166939 0 0.1284754792673701 0.29800293448574777 0 0.14650838987740861 0.30454471613213863 0 0.16285310828024299 0.30633749153134943 0 0.15734462439530239 0.32321905585269012 0 0.14650838987740861 0.30454471613213863 0 0.16331870603402091 0.28524362020892752 0 0.13544987274572209 0.29052717266746908 0 0.14650838987740861 0.30454471613213863 0 0.1451465959822851 0.28555228724544252 0 0.14650838987740861 0.30454471613213863 0 0.1451465959822851 0.28555228724544252 0 0.16331870603402091 0.28524362020892752 0 0.14650838987740861 0.30454471613213863 0 0.16331870603402091 0.28524362020892752 0 0.16285310828024299 0.30633749153134943 0 0.16331870603402091 0.28524362020892752 0 0.16285310828024299 0.30633749153134943 0 0.17798520296720541 0.30297873556175359 0 0.16285310828024299 0.30633749153134943 0 0.17798520296720541 0.30297873556175359 0 0.16910861812727801 0.31570132990123723 0 0.17798520296720541 0.30297873556175359 0 0.20028598689657831 0.31288069796424939 0 0.18154839831714081 0.31733231322748667 0 0.17798520296720541 0.30297873556175359 0 0.18154839831714081 0.31733231322748667 0 0.16910861812727801 0.31570132990123723 0 0.17798520296720541 0.30297873556175359 0 0.18263207890293279 0.28472636878115792 0 0.194035988862299 0.29434277881456028 0 0.16331870603402091 0.28524362020892752 0 0.17798520296720541 0.30297873556175359 0 0.18263207890293279 0.28472636878115792 0 0.18263207890293279 0.28472636878115792 0 0.18012902219063329 0.26594252428571641 0 0.1976914744605055 0.27512418503483188 0 0.16331870603402091 0.28524362020892752 0 0.18263207890293279 0.28472636878115792 0 0.18012902219063329 0.26594252428571641 0 0.18012902219063329 0.26594252428571641 0 0.16388774452565291 0.26956071536609899 0 0.17037631798023881 0.26147140984722128 0 0.16331870603402091 0.28524362020892752 0 0.18012902219063329 0.26594252428571641 0 0.16388774452565291 0.26956071536609899 0 0.14983131456301299 0.27291454426042328 0 0.16331870603402091 0.28524362020892752 0 0.16388774452565291 0.26956071536609899 0 0.16331870603402091 0.28524362020892752 0 0.18012902219063329 0.26594252428571641 0 0.14983131456301299 0.27291454426042328 0 0.16388774452565291 0.26956071536609899 0 0.15804309435604849 0.25809851181280902 0 0.16497149506014561 0.2462181629185704 0 0.15804309435604849 0.25809851181280902 0 0.1799161884518892 0.25142285325438662 0 0.15804309435604849 0.25809851181280902 0 0.17037631798023881 0.26147140984722128 0 0.1799161884518892 0.25142285325438662 0 0.15804309435604849 0.25809851181280902 0 0.1799161884518892 0.25142285325438662 0 0.15083290089686921 0.24749494986470669 0 0.16497149506014561 0.2462181629185704 0 0.15804309435604849 0.25809851181280902 0 0.16388774452565291 0.26956071536609899 0 0.15804309435604849 0.25809851181280902 0 0.17037631798023881 0.26147140984722128 0 0.18012902219063329 0.26594252428571641 0 0.1799161884518892 0.25142285325438662 0 0.1976914744605055 0.27512418503483188 0 0.18012902219063329 0.26594252428571641 0 0.17037631798023881 0.26147140984722128 0 0.1799161884518892 0.25142285325438662 0 0.19469835001167721 0.25826014872392622 0 0.1976914744605055 0.27512418503483188 0 0.20325367937174829 0.26056913862715692 0 0.1979320577625657 0.2459244179793294 0 0.1799161884518892 0.25142285325438662 0 0.19469835001167721 0.25826014872392622 0 0.1799161884518892 0.25142285325438662 0 0.1976914744605055 0.27512418503483188 0 0.1799161884518892 0.25142285325438662 0 0.19469835001167721 0.25826014872392622 0 0.1976914744605055 0.27512418503483188 0 0.1979320577625657 0.2459244179793294 0 0.19469835001167721 0.25826014872392622 0 0.20325367937174829 0.26056913862715692 0 0.21435764254204259 0.28114119105928242 0 0.20325367937174829 0.26056913862715692 0 0.21961221279842669 0.26378068571318242 0 0.1976914744605055 0.27512418503483188 0 0.21435764254204259 0.28114119105928242 0 0.20325367937174829 0.26056913862715692 0 0.21594792707324209 0.24042598270427171 0 0.20325367937174829 0.26056913862715692 0 0.21961221279842669 0.26378068571318242 0 0.21961221279842669 0.26378068571318242 0 0.23567479271649619 0.25018030840336758 0 0.23488043435743239 0.26557491775447378 0 0.21594792707324209 0.24042598270427171 0 0.21961221279842669 0.26378068571318242 0 0.23567479271649619 0.25018030840336758 0 0.21961221279842669 0.26378068571318242 0 0.23488043435743239 0.26557491775447378 0 0.23353436925157109 0.28209754750907567 0 0.21435764254204259 0.28114119105928242 0 0.21961221279842669 0.26378068571318242 0 0.23353436925157109 0.28209754750907567 0 0.23353436925157109 0.28209754750907567 0 0.25160197803401829 0.26536957820287072 0 0.23488043435743239 0.26557491775447378 0 0.23353436925157109 0.28209754750907567 0 0.25160197803401829 0.26536957820287072 0 0.23353436925157109 0.28209754750907567 0 0.25860234729198561 0.28247495121507987 0 0.25160197803401829 0.26536957820287072 0 0.23567479271649619 0.25018030840336758 0 0.23488043435743239 0.26557491775447378 0 0.25160197803401829 0.26536957820287072 0 0.23567479271649619 0.25018030840336758 0 0.25160197803401829 0.26536957820287072 0 0.25228557980028771 0.24505571941488249 0 0.24277106137384219 0.29976017212907752 0 0.23353436925157109 0.28209754750907567 0 0.25860234729198561 0.28247495121507987 0 0.21435764254204259 0.28114119105928242 0 0.23353436925157109 0.28209754750907567 0 0.21546676046912111 0.29882551681527758 0 0.23353436925157109 0.28209754750907567 0 0.21546676046912111 0.29882551681527758 0 0.24277106137384219 0.29976017212907752 0 0.23353436925157109 0.28209754750907567 0 0.21546676046912111 0.29882551681527758 0 0.24277106137384219 0.29976017212907752 0 0.21546676046912111 0.29882551681527758 0 0.2333519152582296 0.32267334617767718 0 0.21546676046912111 0.29882551681527758 0 0.2333519152582296 0.32267334617767718 0 0.21546676046912111 0.29882551681527758 0 0.20028598689657831 0.31288069796424939 0 0.21352259143579849 0.32031209271198569 0 0.21546676046912111 0.29882551681527758 0 0.194035988862299 0.29434277881456028 0 0.20028598689657831 0.31288069796424939 0 0.21546676046912111 0.29882551681527758 0 0.20028598689657831 0.31288069796424939 0 0.1976914744605055 0.27512418503483188 0 0.21546676046912111 0.29882551681527758 0 0.1976914744605055 0.27512418503483188 0 0.21435764254204259 0.28114119105928242 0 0.21546676046912111 0.29882551681527758 0 0.1976914744605055 0.27512418503483188 0 0.21546676046912111 0.29882551681527758 0 0.194035988862299 0.29434277881456028 0 0.18263207890293279 0.28472636878115792 0 0.1976914744605055 0.27512418503483188 0 0.194035988862299 0.29434277881456028 0 0.17798520296720541 0.30297873556175359 0 0.194035988862299 0.29434277881456028 0 0.20028598689657831 0.31288069796424939 0 0.20028598689657831 0.31288069796424939 0 0.1851052133240326 0.3269358791132182 0 0.20145210914240419 0.32723255625464481 0 0.20028598689657831 0.31288069796424939 0 0.1851052133240326 0.3269358791132182 0 0.20028598689657831 0.31288069796424939 0 0.18154839831714081 0.31733231322748667 0 0.1851052133240326 0.3269358791132182 0 0.20145210914240419 0.32723255625464481 0 0.19353825599687999 0.33736583519416369 0 0.1851052133240326 0.3269358791132182 0 0.19353825599687999 0.33736583519416369 0 0.21256081070480379 0.33738820623113491 0 0.20215733095421881 0.35147691235300671 0 0.20145210914240419 0.32723255625464481 0 0.19353825599687999 0.33736583519416369 0 0.21256081070480379 0.33738820623113491 0 0.20145210914240419 0.32723255625464481 0 0.21256081070480379 0.33738820623113491 0 0.21352259143579849 0.32031209271198569 0 0.20145210914240419 0.32723255625464481 0 0.20028598689657831 0.31288069796424939 0 0.21352259143579849 0.32031209271198569 0 0.21546676046912111 0.29882551681527758 0 0.21352259143579849 0.32031209271198569 0 0.2333519152582296 0.32267334617767718 0 0.21256081070480379 0.33738820623113491 0 0.21352259143579849 0.32031209271198569 0 0.2333519152582296 0.32267334617767718 0 0.21256081070480379 0.33738820623113491 0 0.2333519152582296 0.32267334617767718 0 0.22970744426309711 0.35308511433277129 0 0.2333519152582296 0.32267334617767718 0 0.25123707004733847 0.3465211755400765 0 0.25492843802079129 0.3193392969160237 0 0.2333519152582296 0.32267334617767718 0 0.22970744426309711 0.35308511433277129 0 0.25123707004733847 0.3465211755400765 0 0.2333519152582296 0.32267334617767718 0 0.25123707004733847 0.3465211755400765 0 0.24277106137384219 0.29976017212907752 0 0.2333519152582296 0.32267334617767718 0 0.25492843802079129 0.3193392969160237 0 0.24906673386565459 0.3728275233579369 0 0.22970744426309711 0.35308511433277129 0 0.23469579038803229 0.38096843812415437 0 0.24906673386565459 0.3728275233579369 0 0.22970744426309711 0.35308511433277129 0 0.25123707004733847 0.3465211755400765 0 0.22970744426309711 0.35308511433277129 0 0.21137274243071369 0.36447197868861131 0 0.23469579038803229 0.38096843812415437 0 0.21256081070480379 0.33738820623113491 0 0.22970744426309711 0.35308511433277129 0 0.2139495820882083 0.35160555290138112 0 0.22970744426309711 0.35308511433277129 0 0.21137274243071369 0.36447197868861131 0 0.2139495820882083 0.35160555290138112 0 0.21137274243071369 0.36447197868861131 0 0.2139495820882083 0.35160555290138112 0 0.20215733095421881 0.35147691235300671 0 0.21256081070480379 0.33738820623113491 0 0.2139495820882083 0.35160555290138112 0 0.20215733095421881 0.35147691235300671 0 0.19353825599687999 0.33736583519416369 0 0.20215733095421881 0.35147691235300671 0 0.1876267870584486 0.35354754795496118 0 0.21137274243071369 0.36447197868861131 0 0.20215733095421881 0.35147691235300671 0 0.19578825785637041 0.36105965259607448 0 0.1876267870584486 0.35354754795496118 0 0.19578825785637041 0.36105965259607448 0 0.18456755905027031 0.35529795060153829 0 0.20215733095421881 0.35147691235300671 0 0.1876267870584486 0.35354754795496118 0 0.19578825785637041 0.36105965259607448 0 0.18456755905027031 0.35529795060153829 0 0.1932168697882008 0.38050387338225522 0 0.19578825785637041 0.36105965259607448 0 0.18456755905027031 0.35529795060153829 0 0.1932168697882008 0.38050387338225522 0 0.21137274243071369 0.36447197868861131 0 0.19578825785637041 0.36105965259607448 0 0.1932168697882008 0.38050387338225522 0 0.16279863238896841 0.36775350695079428 0 0.18456755905027031 0.35529795060153829 0 0.16886015034431101 0.37364260774026958 0 0.18456755905027031 0.35529795060153829 0 0.1932168697882008 0.38050387338225522 0 0.16886015034431101 0.37364260774026958 0 0.16279863238896841 0.36775350695079428 0 0.18456755905027031 0.35529795060153829 0 0.16279863238896841 0.36775350695079428 0 0.16964877997891459 0.35563477840271229 0 0.18456755905027031 0.35529795060153829 0 0.16886015034431101 0.37364260774026958 0 0.16279863238896841 0.36775350695079428 0 0.16279863238896841 0.36775350695079428 0 0.15088532559326129 0.35617906883597128 0 0.1586969996099607 0.37010034375160589 0 0.16279863238896841 0.36775350695079428 0 0.15088532559326129 0.35617906883597128 0 0.16886015034431101 0.37364260774026958 0 0.1586969996099607 0.37010034375160589 0 0.16886015034431101 0.37364260774026958 0 0.1586969996099607 0.37010034375160589 0 0.16279863238896841 0.36775350695079428 0 0.1586969996099607 0.37010034375160589 0 0.16279863238896841 0.36775350695079428 0 0.1622349223819668 0.35328229661665422 0 0.1689940060944525 0.34620535944186182 0 0.1544101478732402 0.34146289693725551 0 0.16279863238896841 0.36775350695079428 0 0.1622349223819668 0.35328229661665422 0 0.15088532559326129 0.35617906883597128 0 0.1622349223819668 0.35328229661665422 0 0.16964877997891459 0.35563477840271229 0 0.1689940060944525 0.34620535944186182 0 0.16279863238896841 0.36775350695079428 0 0.1622349223819668 0.35328229661665422 0 0.16964877997891459 0.35563477840271229 0 0.1876267870584486 0.35354754795496118 0 0.18456755905027031 0.35529795060153829 0 0.17525697027060941 0.32816492359697508 0 0.1689940060944525 0.34620535944186182 0 0.18456755905027031 0.35529795060153829 0 0.17333075352268931 0.34099156368153222 0 0.16964877997891459 0.35563477840271229 0 0.1689940060944525 0.34620535944186182 0 0.18456755905027031 0.35529795060153829 0 0.1876267870584486 0.35354754795496118 0 0.18456755905027031 0.35529795060153829 0 0.18456755905027031 0.35529795060153829 0 0.17525697027060941 0.32816492359697508 0 0.17333075352268931 0.34099156368153222 0 0.19353825599687999 0.33736583519416369 0 0.17525697027060941 0.32816492359697508 0 0.1851052133240326 0.3269358791132182 0 0.18456755905027031 0.35529795060153829 0 0.17525697027060941 0.32816492359697508 0 0.19353825599687999 0.33736583519416369 0 0.1876267870584486 0.35354754795496118 0 0.17525697027060941 0.32816492359697508 0 0.17525697027060941 0.32816492359697508 0 0.18154839831714081 0.31733231322748667 0 0.1851052133240326 0.3269358791132182 0 0.17525697027060941 0.32816492359697508 0 0.18154839831714081 0.31733231322748667 0 0.16910861812727801 0.31570132990123723 0 0.16285310828024299 0.30633749153134943 0 0.16910861812727801 0.31570132990123723 0 0.15734462439530239 0.32321905585269012 0 0.16910861812727801 0.31570132990123723 0 0.1665536728671537 0.32534583260916389 0 0.15734462439530239 0.32321905585269012 0 0.17525697027060941 0.32816492359697508 0 0.16910861812727801 0.31570132990123723 0 0.1665536728671537 0.32534583260916389 0 0.1665536728671537 0.32534583260916389 0 0.15734462439530239 0.32321905585269012 0 0.16450447867542481 0.33429802108575318 0 0.15734462439530239 0.32321905585269012 0 0.16450447867542481 0.33429802108575318 0 0.1544101478732402 0.34146289693725551 0 0.1689940060944525 0.34620535944186182 0 0.17333075352268931 0.34099156368153222 0 0.16450447867542481 0.33429802108575318 0 0.17525697027060941 0.32816492359697508 0 0.17333075352268931 0.34099156368153222 0 0.16450447867542481 0.33429802108575318 0 0.17525697027060941 0.32816492359697508 0 0.1665536728671537 0.32534583260916389 0 0.16450447867542481 0.33429802108575318 0 0.1689940060944525 0.34620535944186182 0 0.16450447867542481 0.33429802108575318 0 0.1544101478732402 0.34146289693725551 0 0.15734462439530239 0.32321905585269012 0 0.1544101478732402 0.34146289693725551 0 0.1420541107970181 0.3326543544963026 0 0.1544101478732402 0.34146289693725551 0 0.1420541107970181 0.3326543544963026 0 0.1544101478732402 0.34146289693725551 0 0.1420541107970181 0.3326543544963026 0 0.1421074723658636 0.34613610094172209 0 0.14650838987740861 0.30454471613213863 0 0.15734462439530239 0.32321905585269012 0 0.14417306363776841 0.31987150248465729 0 0.15734462439530239 0.32321905585269012 0 0.1420541107970181 0.3326543544963026 0 0.14417306363776841 0.31987150248465729 0 0.14650838987740861 0.30454471613213863 0 0.12969807372079609 0.32384581205534968 0 0.1257561955931292 0.31235746175435047 0 0.13184871453959679 0.30607678183993142 0 0.12969807372079609 0.32384581205534968 0 0.14650838987740861 0.30454471613213863 0 0.14417306363776841 0.31987150248465729 0 0.12969807372079609 0.32384581205534968 0 0.1420541107970181 0.3326543544963026 0 0.14417306363776841 0.31987150248465729 0 0.12969807372079609 0.32384581205534968 0 0.12072369721426141 0.31744803452755083 0 0.12969807372079609 0.32384581205534968 0 0.12072369721426141 0.31744803452755083 0 0.1257561955931292 0.31235746175435047 0 0.12969807372079609 0.32384581205534968 0 0.13134304130898039 0.33590342820435343 0 0.12989112924335069 0.34523929895024419 0 0.1421074723658636 0.34613610094172209 0 0.1420541107970181 0.3326543544963026 0 0.13134304130898039 0.33590342820435343 0 0.1421074723658636 0.34613610094172209 0 0.1420541107970181 0.3326543544963026 0 0.12969807372079609 0.32384581205534968 0 0.1420541107970181 0.3326543544963026 0 0.12969807372079609 0.32384581205534968 0 0.13134304130898039 0.33590342820435343 0 0.12989112924335069 0.34523929895024419 0 0.13520895309430969 0.36191382133242461 0 0.1421074723658636 0.34613610094172209 0 0.1207278209520139 0.34931590305960097 0 0.12989112924335069 0.34523929895024419 0 0.13520895309430969 0.36191382133242461 0 0.1231702120666794 0.37711585491924099 0 0.13520895309430969 0.36191382133242461 0 0.13602338551964699 0.38307353633648561 0 0.1586969996099607 0.37010034375160589 0 0.13520895309430969 0.36191382133242461 0 0.1586969996099607 0.37010034375160589 0 0.13520895309430969 0.36191382133242461 0 0.13602338551964699 0.38307353633648561 0 0.1586969996099607 0.37010034375160589 0 0.13520895309430969 0.36191382133242461 0 0.15088532559326129 0.35617906883597128 0 0.13520895309430969 0.36191382133242461 0 0.15088532559326129 0.35617906883597128 0 0.1421074723658636 0.34613610094172209 0 0.1544101478732402 0.34146289693725551 0 0.15088532559326129 0.35617906883597128 0 0.1421074723658636 0.34613610094172209 0 0.1622349223819668 0.35328229661665422 0 0.1544101478732402 0.34146289693725551 0 0.15088532559326129 0.35617906883597128 0 0.15498945783011439 0.39423959580552692 0 0.13505896093539069 0.39933954775575992 0 0.14973906246505031 0.41144181668961938 0 0.15498945783011439 0.39423959580552692 0 0.13602338551964699 0.38307353633648561 0 0.13505896093539069 0.39933954775575992 0 0.1586969996099607 0.37010034375160589 0 0.13602338551964699 0.38307353633648561 0 0.1586969996099607 0.37010034375160589 0 0.13602338551964699 0.38307353633648561 0 0.15791762923408709 0.38179747901598199 0 0.15498945783011439 0.39423959580552692 0 0.13602338551964699 0.38307353633648561 0 0.15791762923408709 0.38179747901598199 0 0.1133497714293336 0.39604672892136539 0 0.13602338551964699 0.38307353633648561 0 0.13505896093539069 0.39933954775575992 0 0.1211931274328079 0.41189606102580167 0 0.14973906246505031 0.41144181668961938 0 0.1211931274328079 0.41189606102580167 0 0.14404750895340171 0.4331773852553481 0 0.14973906246505031 0.41144181668961938 0 0.1211931274328079 0.41189606102580167 0 0.13505896093539069 0.39933954775575992 0 0.14973906246505031 0.41144181668961938 0 0.1149323761702023 0.44112047939722732 0 0.1211931274328079 0.41189606102580167 0 0.14404750895340171 0.4331773852553481 0 0.14404750895340171 0.4331773852553481 0 0.14973906246505031 0.41144181668961938 0 0.16433306146151189 0.42699390738963638 0 0.14973906246505031 0.41144181668961938 0 0.16433306146151189 0.42699390738963638 0 0.17828499749729271 0.41098757235343719 0 0.14973906246505031 0.41144181668961938 0 0.17828499749729271 0.41098757235343719 0 0.16433306146151189 0.42699390738963638 0 0.1856481210177674 0.43440957937423941 0 0.16394561737404739 0.4449531832755379 0 0.14404750895340171 0.4331773852553481 0 0.16433306146151189 0.42699390738963638 0 0.16394561737404739 0.4449531832755379 0 0.1856481210177674 0.43440957937423941 0 0.17828499749729271 0.41098757235343719 0 0.19756294091608501 0.42524979407792157 0 0.16433306146151189 0.42699390738963638 0 0.1856481210177674 0.43440957937423941 0 0.17828499749729271 0.41098757235343719 0 0.17828499749729271 0.41098757235343719 0 0.17101815286640609 0.38793131144601739 0 0.18536316543521769 0.38967620195162372 0 0.15498945783011439 0.39423959580552692 0 0.17828499749729271 0.41098757235343719 0 0.17101815286640609 0.38793131144601739 0 0.15498945783011439 0.39423959580552692 0 0.14973906246505031 0.41144181668961938 0 0.17828499749729271 0.41098757235343719 0 0.15498945783011439 0.39423959580552692 0 0.15791762923408709 0.38179747901598199 0 0.17101815286640609 0.38793131144601739 0 0.16886015034431101 0.37364260774026958 0 0.1586969996099607 0.37010034375160589 0 0.15791762923408709 0.38179747901598199 0 0.16886015034431101 0.37364260774026958 0 0.15791762923408709 0.38179747901598199 0 0.17101815286640609 0.38793131144601739 0 0.16886015034431101 0.37364260774026958 0 0.18536316543521769 0.38967620195162372 0 0.16886015034431101 0.37364260774026958 0 0.18536316543521769 0.38967620195162372 0 0.1931696617153236 0.38211544347419901 0 0.16886015034431101 0.37364260774026958 0 0.1932168697882008 0.38050387338225522 0 0.1931696617153236 0.38211544347419901 0 0.16886015034431101 0.37364260774026958 0 0.1931696617153236 0.38211544347419901 0 0.16886015034431101 0.37364260774026958 0 0.17101815286640609 0.38793131144601739 0 0.18536316543521769 0.38967620195162372 0 0.1932168697882008 0.38050387338225522 0 0.1931696617153236 0.38211544347419901 0 0.20186618052612951 0.40570979616297248 0 0.1932168697882008 0.38050387338225522 0 0.20186618052612951 0.40570979616297248 0 0.21362103518600309 0.3920487477193787 0 0.1932168697882008 0.38050387338225522 0 0.20186618052612951 0.40570979616297248 0 0.18536316543521769 0.38967620195162372 0 0.1931696617153236 0.38211544347419901 0 0.20186618052612951 0.40570979616297248 0 0.17828499749729271 0.41098757235343719 0 0.18536316543521769 0.38967620195162372 0 0.20186618052612951 0.40570979616297248 0 0.18536316543521769 0.38967620195162372 0 0.20186618052612951 0.40570979616297248 0 0.20186618052612951 0.40570979616297248 0 0.21362103518600309 0.3920487477193787 0 0.20683093252953511 0.41053332801725262 0 0.21362103518600309 0.3920487477193787 0 0.23374369545340781 0.41010507194102669 0 0.20683093252953511 0.41053332801725262 0 0.21137274243071369 0.36447197868861131 0 0.1932168697882008 0.38050387338225522 0 0.21362103518600309 0.3920487477193787 0 0.21137274243071369 0.36447197868861131 0 0.21362103518600309 0.3920487477193787 0 0.23469579038803229 0.38096843812415437 0 0.23469579038803229 0.38096843812415437 0 0.23374369545340781 0.41010507194102669 0 0.21362103518600309 0.3920487477193787 0 0.23469579038803229 0.38096843812415437 0 0.23374369545340781 0.41010507194102669 0 0.24721523039562421 0.39573710693806541 0 0.23469579038803229 0.38096843812415437 0 0.23374369545340781 0.41010507194102669 0 0.24721523039562421 0.39573710693806541 0 0.24605190422735071 0.40990921448819462 0 0.23374369545340781 0.41010507194102669 0 0.24906673386565459 0.3728275233579369 0 0.24721523039562421 0.39573710693806541 0 0.23469579038803229 0.38096843812415437 0 0.24765136388433051 0.43096895477275582 0 0.2333613117276222 0.42180702958291411 0 0.25437802854831199 0.41427739263410152 0 0.24765136388433051 0.43096895477275582 0 0.2333613117276222 0.42180702958291411 0 0.2329020118060369 0.4358628271099112 0 0.24605190422735071 0.40990921448819462 0 0.2333613117276222 0.42180702958291411 0 0.25437802854831199 0.41427739263410152 0 0.2333613117276222 0.42180702958291411 0 0.25437802854831199 0.41427739263410152 0 0.24605190422735071 0.40990921448819462 0 0.23374369545340781 0.41010507194102669 0 0.24605190422735071 0.40990921448819462 0 0.2333613117276222 0.42180702958291411 0 0.23374369545340781 0.41010507194102669 0 0.23374369545340781 0.41010507194102669 0 0.20683093252953511 0.41053332801725262 0 0.2333613117276222 0.42180702958291411 0 0.23374369545340781 0.41010507194102669 0 0.22245608773180309 0.42571403267167068 0 0.23374369545340781 0.41010507194102669 0 0.22245608773180309 0.42571403267167068 0 0.20683093252953511 0.41053332801725262 0 0.2333613117276222 0.42180702958291411 0 0.23374369545340781 0.41010507194102669 0 0.2333613117276222 0.42180702958291411 0 0.22245608773180309 0.42571403267167068 0 0.2329020118060369 0.4358628271099112 0 0.2333613117276222 0.42180702958291411 0 0.2329020118060369 0.4358628271099112 0 0.2333613117276222 0.42180702958291411 0 0.22245608773180309 0.42571403267167068 0 0.22245608773180309 0.42571403267167068 0 0.2329020118060369 0.4358628271099112 0 0.22245608773180309 0.42571403267167068 0 0.2329020118060369 0.4358628271099112 0 0.21848014210442421 0.43606017663581731 0 0.22245608773180309 0.42571403267167068 0 0.21848014210442421 0.43606017663581731 0 0.21267240488098799 0.42921922239837618 0 0.21267240488098799 0.42921922239837618 0 0.19756294091608501 0.42524979407792157 0 0.20437824865484069 0.44109926824630452 0 0.21848014210442421 0.43606017663581731 0 0.21267240488098799 0.42921922239837618 0 0.20437824865484069 0.44109926824630452 0 0.22245608773180309 0.42571403267167068 0 0.21267240488098799 0.42921922239837618 0 0.22245608773180309 0.42571403267167068 0 0.20683093252953511 0.41053332801725262 0 0.22245608773180309 0.42571403267167068 0 0.21267240488098799 0.42921922239837618 0 0.20683093252953511 0.41053332801725262 0 0.21267240488098799 0.42921922239837618 0 0.20683093252953511 0.41053332801725262 0 0.19756294091608501 0.42524979407792157 0 0.20186618052612951 0.40570979616297248 0 0.20683093252953511 0.41053332801725262 0 0.20186618052612951 0.40570979616297248 0 0.20683093252953511 0.41053332801725262 0 0.20255786402074069 0.4077255083141561 0 0.17828499749729271 0.41098757235343719 0 0.20683093252953511 0.41053332801725262 0 0.20255786402074069 0.4077255083141561 0 0.17828499749729271 0.41098757235343719 0 0.20186618052612951 0.40570979616297248 0 0.20255786402074069 0.4077255083141561 0 0.17828499749729271 0.41098757235343719 0 0.20683093252953511 0.41053332801725262 0 0.17828499749729271 0.41098757235343719 0 0.20683093252953511 0.41053332801725262 0 0.19756294091608501 0.42524979407792157 0 0.20186618052612951 0.40570979616297248 0 0.20255786402074069 0.4077255083141561 0 0.1856481210177674 0.43440957937423941 0 0.19756294091608501 0.42524979407792157 0 0.20437824865484069 0.44109926824630452 0 0.1856481210177674 0.43440957937423941 0 0.20437824865484069 0.44109926824630452 0 0.18623239295626701 0.45816033834035669 0 0.2073701418876788 0.45918287469934121 0 0.20437824865484069 0.44109926824630452 0 0.18623239295626701 0.45816033834035669 0 0.2073701418876788 0.45918287469934121 0 0.19838079151835911 0.47459954797683279 0 0.18623239295626701 0.45816033834035669 0 0.2073701418876788 0.45918287469934121 0 0.21242473423288111 0.47125410645033899 0 0.19838079151835911 0.47459954797683279 0 0.2073701418876788 0.45918287469934121 0 0.21999195744845099 0.4484055327528248 0 0.22239675111992219 0.46365599124068752 0 0.2073701418876788 0.45918287469934121 0 0.22239675111992219 0.46365599124068752 0 0.21242473423288111 0.47125410645033899 0 0.2073701418876788 0.45918287469934121 0 0.20437824865484069 0.44109926824630452 0 0.21999195744845099 0.4484055327528248 0 0.21848014210442421 0.43606017663581731 0 0.20437824865484069 0.44109926824630452 0 0.21999195744845099 0.4484055327528248 0 0.2329020118060369 0.4358628271099112 0 0.21848014210442421 0.43606017663581731 0 0.21999195744845099 0.4484055327528248 0 0.2329020118060369 0.4358628271099112 0 0.232286732433203 0.45469201013518151 0 0.2329020118060369 0.4358628271099112 0 0.21999195744845099 0.4484055327528248 0 0.232286732433203 0.45469201013518151 0 0.21999195744845099 0.4484055327528248 0 0.22239675111992219 0.46365599124068752 0 0.232286732433203 0.45469201013518151 0 0.22239675111992219 0.46365599124068752 0 0.232286732433203 0.45469201013518151 0 0.23167145306036949 0.47352119316045171 0 0.232286732433203 0.45469201013518151 0 0.23167145306036949 0.47352119316045171 0 0.232286732433203 0.45469201013518151 0 0.2430091351866541 0.46064119664999709 0 0.24763494452690171 0.45017668815216172 0 0.2430091351866541 0.46064119664999709 0 0.23167145306036949 0.47352119316045171 0 0.25371656675819149 0.46703569596440547 0 0.2430091351866541 0.46064119664999709 0 0.24763494452690171 0.45017668815216172 0 0.25371656675819149 0.46703569596440547 0 0.232286732433203 0.45469201013518151 0 0.2430091351866541 0.46064119664999709 0 0.23167145306036949 0.47352119316045171 0 0.2430091351866541 0.46064119664999709 0 0.25371656675819149 0.46703569596440547 0 0.2329020118060369 0.4358628271099112 0 0.232286732433203 0.45469201013518151 0 0.24763494452690171 0.45017668815216172 0 0.24765136388433051 0.43096895477275582 0 0.2329020118060369 0.4358628271099112 0 0.24763494452690171 0.45017668815216172 0 0.2329020118060369 0.4358628271099112 0 0.24763494452690171 0.45017668815216172 0 0.23739884482217269 0.48819490293434958 0 0.25385927439361372 0.48348289115000292 0 0.25026414824015059 0.5 0 0.23739884482217269 0.48819490293434958 0 0.2216817337096961 0.5 0 0.25026414824015059 0.5 0 0.23167145306036949 0.47352119316045171 0 0.25371656675819149 0.46703569596440547 0 0.23739884482217269 0.48819490293434958 0 0.2428607950616623 0.47895730176848872 0 0.25385927439361372 0.48348289115000292 0 0.2428607950616623 0.47895730176848872 0 0.23167145306036949 0.47352119316045171 0 0.25371656675819149 0.46703569596440547 0 0.23739884482217269 0.48819490293434958 0 0.2428607950616623 0.47895730176848872 0 0.23146640225941209 0.47979629229620391 0 0.2428607950616623 0.47895730176848872 0 0.23146640225941209 0.47979629229620391 0 0.23167145306036949 0.47352119316045171 0 0.23146640225941209 0.47979629229620391 0 0.23167145306036949 0.47352119316045171 0 0.23146640225941209 0.47979629229620391 0 0.23167145306036949 0.47352119316045171 0 0.22248988380950691 0.47622233784257961 0 0.23167145306036949 0.47352119316045171 0 0.22248988380950691 0.47622233784257961 0 0.22239675111992219 0.46365599124068752 0 0.23167145306036949 0.47352119316045171 0 0.22248988380950691 0.47622233784257961 0 0.22239675111992219 0.46365599124068752 0 0.22248988380950691 0.47622233784257961 0 0.21242473423288111 0.47125410645033899 0 0.22248988380950691 0.47622233784257961 0 0.2242607152685013 0.48693293239140278 0 0.2120561962863643 0.48483482077685902 0 0.23146640225941209 0.47979629229620391 0 0.22248988380950691 0.47622233784257961 0 0.2242607152685013 0.48693293239140278 0 0.23739884482217269 0.48819490293434958 0 0.2242607152685013 0.48693293239140278 0 0.2216817337096961 0.5 0 0.2242607152685013 0.48693293239140278 0 0.2216817337096961 0.5 0 0.2120561962863643 0.48483482077685902 0 0.23739884482217269 0.48819490293434958 0 0.23146640225941209 0.47979629229620391 0 0.2242607152685013 0.48693293239140278 0 0.2216817337096961 0.5 0 0.2120561962863643 0.48483482077685902 0 0.19309931917924161 0.5 0 0.22248988380950691 0.47622233784257961 0 0.2120561962863643 0.48483482077685902 0 0.21242473423288111 0.47125410645033899 0 0.2120561962863643 0.48483482077685902 0 0.21242473423288111 0.47125410645033899 0 0.19838079151835911 0.47459954797683279 0 0.19838079151835911 0.47459954797683279 0 0.1807187009896159 0.48097116283071389 0 0.18623239295626701 0.45816033834035669 0 0.2120561962863643 0.48483482077685902 0 0.19838079151835911 0.47459954797683279 0 0.19309931917924161 0.5 0 0.19838079151835911 0.47459954797683279 0 0.19309931917924161 0.5 0 0.1807187009896159 0.48097116283071389 0 0.19309931917924161 0.5 0 0.1645169046487871 0.5 0 0.1807187009896159 0.48097116283071389 0 0.1645169046487871 0.5 0 0.16136409664542439 0.47209592783638021 0 0.1807187009896159 0.48097116283071389 0 0.16136409664542439 0.47209592783638021 0 0.1807187009896159 0.48097116283071389 0 0.18623239295626701 0.45816033834035669 0 0.1856481210177674 0.43440957937423941 0 0.18623239295626701 0.45816033834035669 0 0.16394561737404739 0.4449531832755379 0 0.16136409664542439 0.47209592783638021 0 0.18623239295626701 0.45816033834035669 0 0.16394561737404739 0.4449531832755379 0 0.16136409664542439 0.47209592783638021 0 0.16394561737404739 0.4449531832755379 0 0.1409250866227367 0.4568235939163473 0 0.120594697935933 0.47538310632103542 0 0.1149323761702023 0.44112047939722732 0 0.1409250866227367 0.4568235939163473 0 0.14404750895340171 0.4331773852553481 0 0.16394561737404739 0.4449531832755379 0 0.1409250866227367 0.4568235939163473 0 0.1149323761702023 0.44112047939722732 0 0.14404750895340171 0.4331773852553481 0 0.1409250866227367 0.4568235939163473 0 0.120594697935933 0.47538310632103542 0 0.1409250866227367 0.4568235939163473 0 0.14238363801094689 0.48012882863687562 0 0.120594697935933 0.47538310632103542 0 0.1359344901183325 0.5 0 0.14238363801094689 0.48012882863687562 0 0.1645169046487871 0.5 0 0.1359344901183325 0.5 0 0.14238363801094689 0.48012882863687562 0 0.1645169046487871 0.5 0 0.16136409664542439 0.47209592783638021 0 0.14238363801094689 0.48012882863687562 0 0.16136409664542439 0.47209592783638021 0 0.1409250866227367 0.4568235939163473 0 0.14238363801094689 0.48012882863687562 0 0.35263353251455148 0.48453386533818532 0 0.35177322465691202 0.46490071649740122 0 0.33741772641368761 0.47808396427611533 0 0.35263353251455148 0.48453386533818532 0 0.36924735528911801 0.47747473959766079 0 0.35177322465691202 0.46490071649740122 0 0.35263353251455148 0.48453386533818532 0 0.36276436442475729 0.49999999999999861 0 0.33675227394567309 0.5 0 0.36276436442475729 0.49999999999999861 0 0.36924735528911801 0.47747473959766079 0 0.35263353251455148 0.48453386533818532 0 0.36276436442475729 0.49999999999999861 0 0.36924735528911801 0.47747473959766079 0 0.36924735528911801 0.47747473959766079 0 0.36419816957733819 0.45813840325437821 0 0.37573034615347878 0.4549494791953233 0 0.36924735528911801 0.47747473959766079 0 0.37573034615347878 0.4549494791953233 0 0.36924735528911801 0.47747473959766079 0 0.36419816957733819 0.45813840325437821 0 0.35177322465691202 0.46490071649740122 0 0.36838176425700347 0.44611279217014621 0 0.36463177854720069 0.4278599005968684 0 0.38142481575133591 0.44581259120767952 0 0.36838176425700347 0.44611279217014621 0 0.35585815753017908 0.44725428881135959 0 0.36463177854720069 0.4278599005968684 0 0.36419816957733819 0.45813840325437821 0 0.36838176425700347 0.44611279217014621 0 0.37573034615347878 0.4549494791953233 0 0.36419816957733819 0.45813840325437821 0 0.36838176425700347 0.44611279217014621 0 0.35585815753017908 0.44725428881135959 0 0.35585815753017908 0.44725428881135959 0 0.34461381058804141 0.43966546888544339 0 0.36463177854720069 0.4278599005968684 0 0.35585815753017908 0.44725428881135959 0 0.34437956818393051 0.45212979946711729 0 0.34461381058804141 0.43966546888544339 0 0.36419816957733819 0.45813840325437821 0 0.35585815753017908 0.44725428881135959 0 0.35177322465691202 0.46490071649740122 0 0.35585815753017908 0.44725428881135959 0 0.34437956818393051 0.45212979946711729 0 0.35177322465691202 0.46490071649740122 0 0.34437956818393051 0.45212979946711729 0 0.35177322465691202 0.46490071649740122 0 0.33805987486497058 0.46064392213197669 0 0.33805987486497058 0.46064392213197669 0 0.33159277327954922 0.44818460100940521 0 0.32238623714828102 0.4710613922013791 0 0.35177322465691202 0.46490071649740122 0 0.33805987486497058 0.46064392213197669 0 0.33741772641368761 0.47808396427611533 0 0.33805987486497058 0.46064392213197669 0 0.32238623714828102 0.4710613922013791 0 0.34437956818393051 0.45212979946711729 0 0.33805987486497058 0.46064392213197669 0 0.33159277327954922 0.44818460100940521 0 0.34461381058804141 0.43966546888544339 0 0.33159277327954922 0.44818460100940521 0 0.34079930941081737 0.42530780981743149 0 0.34437956818393051 0.45212979946711729 0 0.34461381058804141 0.43966546888544339 0 0.33159277327954922 0.44818460100940521 0 0.33159277327954922 0.44818460100940521 0 0.31437901089809378 0.44306163699383738 0 0.32611620001777469 0.43290755632087558 0 0.33159277327954922 0.44818460100940521 0 0.31437901089809378 0.44306163699383738 0 0.31659407065343798 0.45663845365693689 0 0.33159277327954922 0.44818460100940521 0 0.31659407065343798 0.45663845365693689 0 0.32238623714828102 0.4710613922013791 0 0.33159277327954922 0.44818460100940521 0 0.32238623714828102 0.4710613922013791 0 0.31659407065343798 0.45663845365693689 0 0.32238623714828102 0.4710613922013791 0 0.30800160840874952 0.46688988584595398 0 0.32238623714828102 0.4710613922013791 0 0.33741772641368761 0.47808396427611533 0 0.31656321030743467 0.485530696100689 0 0.32238623714828102 0.4710613922013791 0 0.30773158979180099 0.48080159118857529 0 0.30800160840874952 0.46688988584595398 0 0.32238623714828102 0.4710613922013791 0 0.30773158979180099 0.48080159118857529 0 0.32238623714828102 0.4710613922013791 0 0.31656321030743467 0.485530696100689 0 0.32238623714828102 0.4710613922013791 0 0.31656321030743467 0.485530696100689 0 0.30773158979180099 0.48080159118857529 0 0.33805987486497058 0.46064392213197669 0 0.32238623714828102 0.4710613922013791 0 0.33741772641368761 0.47808396427611533 0 0.33741772641368761 0.47808396427611533 0 0.33675227394567309 0.5 0 0.31656321030743467 0.485530696100689 0 0.35263353251455148 0.48453386533818532 0 0.33741772641368761 0.47808396427611533 0 0.33675227394567309 0.5 0 0.33675227394567309 0.5 0 0.31656321030743467 0.485530696100689 0 0.31074018346658888 0.49999999999999911 0 0.31656321030743467 0.485530696100689 0 0.31074018346658888 0.49999999999999911 0 0.30891448178010772 0.50000000000000044 0 0.298916950075095 0.49999999999999772 0 0.29307694243532117 0.49054179017577149 0 0.30891448178010772 0.50000000000000044 0 0.30740528155625058 0.4913748154930071 0 0.29307694243532117 0.49054179017577149 0 0.31656321030743467 0.485530696100689 0 0.31074018346658888 0.49999999999999911 0 0.30740528155625058 0.4913748154930071 0 0.31074018346658888 0.49999999999999911 0 0.30891448178010772 0.50000000000000044 0 0.30740528155625058 0.4913748154930071 0 0.30891448178010772 0.50000000000000044 0 0.29307694243532117 0.49054179017577149 0 0.31656321030743467 0.485530696100689 0 0.30740528155625058 0.4913748154930071 0 0.30773158979180099 0.48080159118857529 0 0.30740528155625058 0.4913748154930071 0 0.30773158979180099 0.48080159118857529 0 0.29307694243532117 0.49054179017577149 0 0.30773158979180099 0.48080159118857529 0 0.29307694243532117 0.49054179017577149 0 0.30773158979180099 0.48080159118857529 0 0.29351309617917232 0.47246468886106407 0 0.29307694243532117 0.49054179017577149 0 0.30773158979180099 0.48080159118857529 0 0.29351309617917232 0.47246468886106407 0 0.30800160840874952 0.46688988584595398 0 0.29351309617917232 0.47246468886106407 0 0.29307694243532117 0.49054179017577149 0 0.28296799755401658 0.48450470829660858 0 0.29351309617917232 0.47246468886106407 0 0.28296799755401658 0.48450470829660858 0 0.2799811084350915 0.47011171815254882 0 0.298916950075095 0.49999999999999772 0 0.29076407851719988 0.49207903322535163 0 0.27884656277060521 0.50000000000000056 0 0.298916950075095 0.49999999999999772 0 0.29307694243532117 0.49054179017577149 0 0.29076407851719988 0.49207903322535163 0 0.298916950075095 0.49999999999999772 0 0.29076407851719988 0.49207903322535163 0 0.29307694243532117 0.49054179017577149 0 0.29076407851719988 0.49207903322535163 0 0.29307694243532117 0.49054179017577149 0 0.28296799755401658 0.48450470829660858 0 0.29076407851719988 0.49207903322535163 0 0.28296799755401658 0.48450470829660858 0 0.29307694243532117 0.49054179017577149 0 0.29076407851719988 0.49207903322535163 0 0.28296799755401658 0.48450470829660858 0 0.29076407851719988 0.49207903322535163 0 0.27884656277060521 0.50000000000000056 0 0.29076407851719988 0.49207903322535163 0 0.28296799755401658 0.48450470829660858 0 0.27884656277060521 0.50000000000000056 0 0.28296799755401658 0.48450470829660858 0 0.27884656277060521 0.50000000000000056 0 0.26747467245141021 0.48889352270297098 0 0.28296799755401658 0.48450470829660858 0 0.26236787724776778 0.46449054919441091 0 0.28296799755401658 0.48450470829660858 0 0.2799811084350915 0.47011171815254882 0 0.26236787724776778 0.46449054919441091 0 0.28296799755401658 0.48450470829660858 0 0.26834228215610367 0.47577020213050758 0 0.28296799755401658 0.48450470829660858 0 0.26834228215610367 0.47577020213050758 0 0.26236787724776778 0.46449054919441091 0 0.28296799755401658 0.48450470829660858 0 0.26747467245141021 0.48889352270297098 0 0.26834228215610367 0.47577020213050758 0 0.26747467245141021 0.48889352270297098 0 0.26834228215610367 0.47577020213050758 0 0.25385927439361372 0.48348289115000292 0 0.26834228215610367 0.47577020213050758 0 0.25385927439361372 0.48348289115000292 0 0.25371656675819149 0.46703569596440547 0 0.2428607950616623 0.47895730176848872 0 0.25385927439361372 0.48348289115000292 0 0.25371656675819149 0.46703569596440547 0 0.26834228215610367 0.47577020213050758 0 0.25371656675819149 0.46703569596440547 0 0.26834228215610367 0.47577020213050758 0 0.25371656675819149 0.46703569596440547 0 0.26236787724776778 0.46449054919441091 0 0.27884656277060521 0.50000000000000056 0 0.26747467245141021 0.48889352270297098 0 0.25026414824015059 0.5 0 0.26747467245141021 0.48889352270297098 0 0.25385927439361372 0.48348289115000292 0 0.25026414824015059 0.5 0 0.24765136388433051 0.43096895477275582 0 0.24763494452690171 0.45017668815216172 0 0.25802953253853861 0.43894708795555132 0 0.24763494452690171 0.45017668815216172 0 0.25802953253853861 0.43894708795555132 0 0.26589253051782608 0.44951464117675238 0 0.25802953253853861 0.43894708795555132 0 0.26589253051782608 0.44951464117675238 0 0.2687793441528597 0.43550702705802341 0 0.24763494452690171 0.45017668815216172 0 0.25371656675819149 0.46703569596440547 0 0.26236787724776778 0.46449054919441091 0 0.24763494452690171 0.45017668815216172 0 0.26236787724776778 0.46449054919441091 0 0.24763494452690171 0.45017668815216172 0 0.26236787724776778 0.46449054919441091 0 0.26589253051782608 0.44951464117675238 0 0.25371656675819149 0.46703569596440547 0 0.26236787724776778 0.46449054919441091 0 0.26236787724776778 0.46449054919441091 0 0.2810754627594107 0.45898692625811061 0 0.2799811084350915 0.47011171815254882 0 0.26236787724776778 0.46449054919441091 0 0.2810754627594107 0.45898692625811061 0 0.26236787724776778 0.46449054919441091 0 0.2810754627594107 0.45898692625811061 0 0.26589253051782608 0.44951464117675238 0 0.26589253051782608 0.44951464117675238 0 0.28388171269880719 0.4407207540709126 0 0.2687793441528597 0.43550702705802341 0 0.2810754627594107 0.45898692625811061 0 0.26589253051782608 0.44951464117675238 0 0.28388171269880719 0.4407207540709126 0 0.2810754627594107 0.45898692625811061 0 0.28388171269880719 0.4407207540709126 0 0.29978304827105501 0.45348330332181508 0 0.28388171269880719 0.4407207540709126 0 0.29978304827105501 0.45348330332181508 0 0.30028938528573579 0.43857153769225121 0 0.2810754627594107 0.45898692625811061 0 0.29978304827105501 0.45348330332181508 0 0.29351309617917232 0.47246468886106407 0 0.2810754627594107 0.45898692625811061 0 0.29978304827105501 0.45348330332181508 0 0.29351309617917232 0.47246468886106407 0 0.2799811084350915 0.47011171815254882 0 0.2810754627594107 0.45898692625811061 0 0.29351309617917232 0.47246468886106407 0 0.29978304827105501 0.45348330332181508 0 0.30800160840874952 0.46688988584595398 0 0.31659407065343798 0.45663845365693689 0 0.29978304827105501 0.45348330332181508 0 0.30800160840874952 0.46688988584595398 0 0.31437901089809378 0.44306163699383738 0 0.31659407065343798 0.45663845365693689 0 0.29978304827105501 0.45348330332181508 0 0.31437901089809378 0.44306163699383738 0 0.29978304827105501 0.45348330332181508 0 0.30028938528573579 0.43857153769225121 0 0.30028938528573579 0.43857153769225121 0 0.31189858788101021 0.42858436996174032 0 0.29146136303079051 0.42305039101841507 0 0.31437901089809378 0.44306163699383738 0 0.30028938528573579 0.43857153769225121 0 0.31189858788101021 0.42858436996174032 0 0.31045655902317681 0.41104557720030938 0 0.29146136303079051 0.42305039101841507 0 0.29641146218969228 0.39921811873647811 0 0.31189858788101021 0.42858436996174032 0 0.31045655902317681 0.41104557720030938 0 0.29146136303079051 0.42305039101841507 0 0.29146136303079051 0.42305039101841507 0 0.27539474536900221 0.40674775568528981 0 0.29641146218969228 0.39921811873647811 0 0.28388171269880719 0.4407207540709126 0 0.30028938528573579 0.43857153769225121 0 0.29146136303079051 0.42305039101841507 0 0.28388171269880719 0.4407207540709126 0 0.29146136303079051 0.42305039101841507 0 0.27430936847227089 0.42258950882829321 0 0.28388171269880719 0.4407207540709126 0 0.2687793441528597 0.43550702705802341 0 0.27430936847227089 0.42258950882829321 0 0.2687793441528597 0.43550702705802341 0 0.27430936847227089 0.42258950882829321 0 0.26056565798547709 0.42808372931418809 0 0.27430936847227089 0.42258950882829321 0 0.27539474536900221 0.40674775568528981 0 0.25437802854831199 0.41427739263410152 0 0.29146136303079051 0.42305039101841507 0 0.27430936847227089 0.42258950882829321 0 0.27539474536900221 0.40674775568528981 0 0.27430936847227089 0.42258950882829321 0 0.25437802854831199 0.41427739263410152 0 0.26056565798547709 0.42808372931418809 0 0.27539474536900221 0.40674775568528981 0 0.25437802854831199 0.41427739263410152 0 0.27539474536900221 0.40674775568528981 0 0.25437802854831199 0.41427739263410152 0 0.25709251036073549 0.40339115401114589 0 0.24605190422735071 0.40990921448819462 0 0.25437802854831199 0.41427739263410152 0 0.25709251036073549 0.40339115401114589 0 0.24765136388433051 0.43096895477275582 0 0.25437802854831199 0.41427739263410152 0 0.26056565798547709 0.42808372931418809 0 0.24765136388433051 0.43096895477275582 0 0.25802953253853861 0.43894708795555132 0 0.26056565798547709 0.42808372931418809 0 0.25802953253853861 0.43894708795555132 0 0.2687793441528597 0.43550702705802341 0 0.26056565798547709 0.42808372931418809 0 0.24906673386565459 0.3728275233579369 0 0.24721523039562421 0.39573710693806541 0 0.26242264326338849 0.39028430031007771 0 0.24906673386565459 0.3728275233579369 0 0.26242264326338849 0.39028430031007771 0 0.26912222483644732 0.37036900490247582 0 0.27539474536900221 0.40674775568528981 0 0.26242264326338849 0.39028430031007771 0 0.25709251036073549 0.40339115401114589 0 0.24721523039562421 0.39573710693806541 0 0.26242264326338849 0.39028430031007771 0 0.25709251036073549 0.40339115401114589 0 0.24721523039562421 0.39573710693806541 0 0.24605190422735071 0.40990921448819462 0 0.25709251036073549 0.40339115401114589 0 0.27539474536900221 0.40674775568528981 0 0.26242264326338849 0.39028430031007771 0 0.28024205830397603 0.38718183146385399 0 0.26242264326338849 0.39028430031007771 0 0.28024205830397603 0.38718183146385399 0 0.26912222483644732 0.37036900490247582 0 0.28024205830397603 0.38718183146385399 0 0.29859933615750228 0.36942499615694813 0 0.26912222483644732 0.37036900490247582 0 0.28024205830397603 0.38718183146385399 0 0.29641146218969228 0.39921811873647811 0 0.29859933615750228 0.36942499615694813 0 0.27539474536900221 0.40674775568528981 0 0.28024205830397603 0.38718183146385399 0 0.29641146218969228 0.39921811873647811 0 0.27539474536900221 0.40674775568528981 0 0.29641146218969228 0.39921811873647811 0 0.31045655902317681 0.41104557720030938 0 0.29641146218969228 0.39921811873647811 0 0.31340449840776452 0.39254322692856453 0 0.32452388937576682 0.37888512501611449 0 0.31340449840776452 0.39254322692856453 0 0.29859933615750228 0.36942499615694813 0 0.29641146218969228 0.39921811873647811 0 0.31340449840776452 0.39254322692856453 0 0.29859933615750228 0.36942499615694813 0 0.32452388937576682 0.37888512501611449 0 0.32734184943432809 0.39212044161363602 0 0.31340449840776452 0.39254322692856453 0 0.32452388937576682 0.37888512501611449 0 0.3388356827672015 0.38662753761772889 0 0.34573226237957461 0.37312807417649441 0 0.32452388937576682 0.37888512501611449 0 0.3388356827672015 0.38662753761772889 0 0.32734184943432809 0.39212044161363602 0 0.33805198864213171 0.3980126546463022 0 0.33588402123602668 0.40988838543241313 0 0.35000584554208558 0.40243101862545771 0 0.3388356827672015 0.38662753761772889 0 0.33805198864213171 0.3980126546463022 0 0.34460009444509132 0.3931576701710261 0 0.33805198864213171 0.3980126546463022 0 0.32429460055346482 0.40459654183633242 0 0.32734184943432809 0.39212044161363602 0 0.3388356827672015 0.38662753761772889 0 0.33805198864213171 0.3980126546463022 0 0.32734184943432809 0.39212044161363602 0 0.33805198864213171 0.3980126546463022 0 0.32429460055346482 0.40459654183633242 0 0.33588402123602668 0.40988838543241313 0 0.31045655902317681 0.41104557720030938 0 0.32429460055346482 0.40459654183633242 0 0.31340449840776452 0.39254322692856453 0 0.32429460055346482 0.40459654183633242 0 0.32734184943432809 0.39212044161363602 0 0.31340449840776452 0.39254322692856453 0 0.31045655902317681 0.41104557720030938 0 0.32429460055346482 0.40459654183633242 0 0.32490821302037842 0.41872170676151699 0 0.31189858788101021 0.42858436996174032 0 0.31045655902317681 0.41104557720030938 0 0.32490821302037842 0.41872170676151699 0 0.31437901089809378 0.44306163699383738 0 0.31189858788101021 0.42858436996174032 0 0.32611620001777469 0.43290755632087558 0 0.31189858788101021 0.42858436996174032 0 0.32490821302037842 0.41872170676151699 0 0.32611620001777469 0.43290755632087558 0 0.33159277327954922 0.44818460100940521 0 0.34079930941081737 0.42530780981743149 0 0.32490821302037842 0.41872170676151699 0 0.32611620001777469 0.43290755632087558 0 0.34079930941081737 0.42530780981743149 0 0.33159277327954922 0.44818460100940521 0 0.32611620001777469 0.43290755632087558 0 0.34079930941081737 0.42530780981743149 0 0.32490821302037842 0.41872170676151699 0 0.34079930941081737 0.42530780981743149 0 0.33588402123602668 0.40988838543241313 0 0.34079930941081737 0.42530780981743149 0 0.33588402123602668 0.40988838543241313 0 0.34711443429297151 0.40961571984782658 0 0.32429460055346482 0.40459654183633242 0 0.32490821302037842 0.41872170676151699 0 0.33588402123602668 0.40988838543241313 0 0.33588402123602668 0.40988838543241313 0 0.34711443429297151 0.40961571984782658 0 0.35000584554208558 0.40243101862545771 0 0.34711443429297151 0.40961571984782658 0 0.36463177854720069 0.4278599005968684 0 0.34079930941081737 0.42530780981743149 0 0.34711443429297151 0.40961571984782658 0 0.34079930941081737 0.42530780981743149 0 0.34711443429297151 0.40961571984782658 0 0.36463177854720069 0.4278599005968684 0 0.34711443429297151 0.40961571984782658 0 0.36463177854720069 0.4278599005968684 0 0.36261790937557281 0.4101390269745252 0 0.34711443429297151 0.40961571984782658 0 0.36261790937557281 0.4101390269745252 0 0.35000584554208558 0.40243101862545771 0 0.34461381058804141 0.43966546888544339 0 0.34079930941081737 0.42530780981743149 0 0.36463177854720069 0.4278599005968684 0 0.36463177854720069 0.4278599005968684 0 0.38142481575133591 0.44581259120767952 0 0.36261790937557281 0.4101390269745252 0 0.3778444041610059 0.40476536124192658 0 0.37852145236075629 0.41790184693331289 0 0.36463177854720069 0.4278599005968684 0 0.36261790937557281 0.4101390269745252 0 0.37852145236075629 0.41790184693331289 0 0.36261790937557281 0.4101390269745252 0 0.36793439230779978 0.39790872209021072 0 0.3778444041610059 0.40476536124192658 0 0.36793439230779978 0.39790872209021072 0 0.37676126040215629 0.39293508852692138 0 0.3778444041610059 0.40476536124192658 0 0.36261790937557281 0.4101390269745252 0 0.35994445602005809 0.40044892248968628 0 0.36793439230779978 0.39790872209021072 0 0.35994445602005809 0.40044892248968628 0 0.36101505542954698 0.39288454710505782 0 0.36793439230779978 0.39790872209021072 0 0.36101505542954698 0.39288454710505782 0 0.36793439230779978 0.39790872209021072 0 0.36919253405863539 0.38557830258550052 0 0.36793439230779978 0.39790872209021072 0 0.36919253405863539 0.38557830258550052 0 0.37676126040215629 0.39293508852692138 0 0.36919253405863539 0.38557830258550052 0 0.36803116156928739 0.36942225538611612 0 0.38075288233243909 0.38064476876247322 0 0.36919253405863539 0.38557830258550052 0 0.35921238167335379 0.37955422743348388 0 0.36803116156928739 0.36942225538611612 0 0.36101505542954698 0.39288454710505782 0 0.36919253405863539 0.38557830258550052 0 0.35921238167335379 0.37955422743348388 0 0.35921238167335379 0.37955422743348388 0 0.34877142692360003 0.38657392394477458 0 0.35000584554208558 0.40243101862545771 0 0.3388356827672015 0.38662753761772889 0 0.34877142692360003 0.38657392394477458 0 0.34573226237957461 0.37312807417649441 0 0.35921238167335379 0.37955422743348388 0 0.34877142692360003 0.38657392394477458 0 0.34573226237957461 0.37312807417649441 0 0.3388356827672015 0.38662753761772889 0 0.34877142692360003 0.38657392394477458 0 0.34460009444509132 0.3931576701710261 0 0.36101505542954698 0.39288454710505782 0 0.35921238167335379 0.37955422743348388 0 0.35000584554208558 0.40243101862545771 0 0.33805198864213171 0.3980126546463022 0 0.34460009444509132 0.3931576701710261 0 0.35000584554208558 0.40243101862545771 0 0.35921238167335379 0.37955422743348388 0 0.35000584554208558 0.40243101862545771 0 0.34877142692360003 0.38657392394477458 0 0.34460009444509132 0.3931576701710261 0 0.35000584554208558 0.40243101862545771 0 0.34711443429297151 0.40961571984782658 0 0.35000584554208558 0.40243101862545771 0 0.35994445602005809 0.40044892248968628 0 0.36101505542954698 0.39288454710505782 0 0.35000584554208558 0.40243101862545771 0 0.36261790937557281 0.4101390269745252 0 0.35994445602005809 0.40044892248968628 0 0.35000584554208558 0.40243101862545771 0 0.35420794182566417 0.35829190835133551 0 0.34933082325767573 0.3357649356601049 0 0.33443286300411179 0.34223477427353283 0 0.35420794182566417 0.35829190835133551 0 0.34573226237957461 0.37312807417649441 0 0.3328110528178625 0.35914002236564829 0 0.35921238167335379 0.37955422743348388 0 0.34573226237957461 0.37312807417649441 0 0.35679593686196998 0.37009911633685738 0 0.35420794182566417 0.35829190835133551 0 0.34573226237957461 0.37312807417649441 0 0.35679593686196998 0.37009911633685738 0 0.35420794182566417 0.35829190835133551 0 0.35679593686196998 0.37009911633685738 0 0.36803116156928739 0.36942225538611612 0 0.35420794182566417 0.35829190835133551 0 0.36803116156928739 0.36942225538611612 0 0.37354710525157903 0.35525478630147561 0 0.35921238167335379 0.37955422743348388 0 0.35679593686196998 0.37009911633685738 0 0.36803116156928739 0.36942225538611612 0 0.35420794182566417 0.35829190835133551 0 0.37075274963375437 0.33661090018486822 0 0.35420794182566417 0.35829190835133551 0 0.37177296341951033 0.3472924882984631 0 0.37075274963375437 0.33661090018486822 0 0.35420794182566417 0.35829190835133551 0 0.37354710525157903 0.35525478630147561 0 0.37177296341951033 0.3472924882984631 0 0.37177296341951033 0.3472924882984631 0 0.37075274963375437 0.33661090018486822 0 0.37916756420124281 0.33952429156259423 0 0.35420794182566417 0.35829190835133551 0 0.37075274963375437 0.33661090018486822 0 0.35898526490394672 0.33590980734385573 0 0.36728365076825331 0.32732578968792669 0 0.35335115903438558 0.32155550283504331 0 0.35898526490394672 0.33590980734385573 0 0.37075274963375437 0.33661090018486822 0 0.36728365076825331 0.32732578968792669 0 0.35898526490394672 0.33590980734385573 0 0.36728365076825331 0.32732578968792669 0 0.38211761589798471 0.30153908245482391 0 0.36728365076825331 0.32732578968792669 0 0.35335115903438558 0.32155550283504331 0 0.36007421842239812 0.3052171711321639 0 0.35335115903438558 0.32155550283504331 0 0.34084879989302902 0.32454775409617648 0 0.33772023080970048 0.30607486465371597 0 0.35335115903438558 0.32155550283504331 0 0.34933082325767573 0.3357649356601049 0 0.34084879989302902 0.32454775409617648 0 0.35420794182566417 0.35829190835133551 0 0.35898526490394672 0.33590980734385573 0 0.34933082325767573 0.3357649356601049 0 0.35335115903438558 0.32155550283504331 0 0.35898526490394672 0.33590980734385573 0 0.34933082325767573 0.3357649356601049 0 0.34933082325767573 0.3357649356601049 0 0.33443286300411179 0.34223477427353283 0 0.34084879989302902 0.32454775409617648 0 0.33443286300411179 0.34223477427353283 0 0.34084879989302902 0.32454775409617648 0 0.31390902291294059 0.32911412819340291 0 0.34084879989302902 0.32454775409617648 0 0.3167463763934148 0.30914120332369471 0 0.34084879989302902 0.32454775409617648 0 0.3167463763934148 0.30914120332369471 0 0.33772023080970048 0.30607486465371597 0 0.34084879989302902 0.32454775409617648 0 0.31390902291294059 0.32911412819340291 0 0.3167463763934148 0.30914120332369471 0 0.33443286300411179 0.34223477427353283 0 0.31390902291294059 0.32911412819340291 0 0.31548953731749918 0.34654989697452859 0 0.31548953731749918 0.34654989697452859 0 0.3328110528178625 0.35914002236564829 0 0.31785595391715771 0.36350001012830979 0 0.33443286300411179 0.34223477427353283 0 0.31548953731749918 0.34654989697452859 0 0.3328110528178625 0.35914002236564829 0 0.35420794182566417 0.35829190835133551 0 0.33443286300411179 0.34223477427353283 0 0.3328110528178625 0.35914002236564829 0 0.32452388937576682 0.37888512501611449 0 0.34573226237957461 0.37312807417649441 0 0.3328110528178625 0.35914002236564829 0 0.32452388937576682 0.37888512501611449 0 0.3328110528178625 0.35914002236564829 0 0.31785595391715771 0.36350001012830979 0 0.32452388937576682 0.37888512501611449 0 0.31785595391715771 0.36350001012830979 0 0.29859933615750228 0.36942499615694813 0 0.31548953731749918 0.34654989697452859 0 0.31785595391715771 0.36350001012830979 0 0.29859933615750228 0.36942499615694813 0 0.31548953731749918 0.34654989697452859 0 0.29859933615750228 0.36942499615694813 0 0.29840112212138831 0.34175689685124561 0 0.29859933615750228 0.36942499615694813 0 0.28152693287688901 0.34914886946705359 0 0.29840112212138831 0.34175689685124561 0 0.29859933615750228 0.36942499615694813 0 0.28152693287688901 0.34914886946705359 0 0.26912222483644732 0.37036900490247582 0 0.28152693287688901 0.34914886946705359 0 0.26912222483644732 0.37036900490247582 0 0.25123707004733847 0.3465211755400765 0 0.26912222483644732 0.37036900490247582 0 0.25123707004733847 0.3465211755400765 0 0.24906673386565459 0.3728275233579369 0 0.26912222483644732 0.37036900490247582 0 0.25123707004733847 0.3465211755400765 0 0.25492843802079129 0.3193392969160237 0 0.2692947974380035 0.33224665654751318 0 0.27253286511921371 0.31379017153851652 0 0.25123707004733847 0.3465211755400765 0 0.25492843802079129 0.3193392969160237 0 0.2692947974380035 0.33224665654751318 0 0.28152693287688901 0.34914886946705359 0 0.2692947974380035 0.33224665654751318 0 0.28879342328066182 0.3265450113760906 0 0.28152693287688901 0.34914886946705359 0 0.25123707004733847 0.3465211755400765 0 0.2692947974380035 0.33224665654751318 0 0.2692947974380035 0.33224665654751318 0 0.27253286511921371 0.31379017153851652 0 0.28879342328066182 0.3265450113760906 0 0.28879342328066182 0.3265450113760906 0 0.30061244055726821 0.31553375457862631 0 0.28687942292666913 0.30890064949219448 0 0.27253286511921371 0.31379017153851652 0 0.28879342328066182 0.3265450113760906 0 0.28687942292666913 0.30890064949219448 0 0.28152693287688901 0.34914886946705359 0 0.28879342328066182 0.3265450113760906 0 0.29840112212138831 0.34175689685124561 0 0.31390902291294059 0.32911412819340291 0 0.31548953731749918 0.34654989697452859 0 0.29840112212138831 0.34175689685124561 0 0.31390902291294059 0.32911412819340291 0 0.28879342328066182 0.3265450113760906 0 0.29840112212138831 0.34175689685124561 0 0.31390902291294059 0.32911412819340291 0 0.28879342328066182 0.3265450113760906 0 0.30061244055726821 0.31553375457862631 0 0.31390902291294059 0.32911412819340291 0 0.30061244055726821 0.31553375457862631 0 0.3167463763934148 0.30914120332369471 0 0.30061244055726821 0.31553375457862631 0 0.29922054819278859 0.30682756498643138 0 0.3167463763934148 0.30914120332369471 0 0.29922054819278859 0.30682756498643138 0 0.29264395289380252 0.29373465255121001 0 0.3167463763934148 0.30914120332369471 0 0.29264395289380252 0.29373465255121001 0 0.31552629759105882 0.29051132363791959 0 0.3167463763934148 0.30914120332369471 0 0.29264395289380252 0.29373465255121001 0 0.3167463763934148 0.30914120332369471 0 0.29982442495552281 0.28792827139510291 0 0.31859263318456132 0.27524135118184151 0 0.29982442495552281 0.28792827139510291 0 0.31859263318456132 0.27524135118184151 0 0.31552629759105882 0.29051132363791959 0 0.29264395289380252 0.29373465255121001 0 0.31552629759105882 0.29051132363791959 0 0.29982442495552281 0.28792827139510291 0 0.29264395289380252 0.29373465255121001 0 0.31552629759105882 0.29051132363791959 0 0.29982442495552281 0.28792827139510291 0 0.2894272360339637 0.28338158311276418 0 0.30186368785238837 0.27836278256432839 0 0.29264395289380252 0.29373465255121001 0 0.27466790479536951 0.28224415253068619 0 0.2894272360339637 0.28338158311276418 0 0.29264395289380252 0.29373465255121001 0 0.27466790479536951 0.28224415253068619 0 0.29264395289380252 0.29373465255121001 0 0.27714962142968042 0.29591726658229323 0 0.27466790479536951 0.28224415253068619 0 0.29982442495552281 0.28792827139510291 0 0.2894272360339637 0.28338158311276418 0 0.29264395289380252 0.29373465255121001 0 0.29264395289380252 0.29373465255121001 0 0.27714962142968042 0.29591726658229323 0 0.30061244055726821 0.31553375457862631 0 0.29922054819278859 0.30682756498643138 0 0.28687942292666913 0.30890064949219448 0 0.29922054819278859 0.30682756498643138 0 0.29264395289380252 0.29373465255121001 0 0.28687942292666913 0.30890064949219448 0 0.29264395289380252 0.29373465255121001 0 0.28687942292666913 0.30890064949219448 0 0.27714962142968042 0.29591726658229323 0 0.27253286511921371 0.31379017153851652 0 0.27714962142968042 0.29591726658229323 0 0.26165528996555859 0.29809988061337878 0 0.27253286511921371 0.31379017153851652 0 0.28687942292666913 0.30890064949219448 0 0.27714962142968042 0.29591726658229323 0 0.27714962142968042 0.29591726658229323 0 0.26165528996555859 0.29809988061337878 0 0.27466790479536951 0.28224415253068619 0 0.26847573866720958 0.29042982873589201 0 0.25860234729198561 0.28247495121507987 0 0.27714962142968042 0.29591726658229323 0 0.26847573866720958 0.29042982873589201 0 0.26165528996555859 0.29809988061337878 0 0.27714962142968042 0.29591726658229323 0 0.27466790479536951 0.28224415253068619 0 0.26847573866720958 0.29042982873589201 0 0.26847573866720958 0.29042982873589201 0 0.25860234729198561 0.28247495121507987 0 0.26165528996555859 0.29809988061337878 0 0.24277106137384219 0.29976017212907752 0 0.25860234729198561 0.28247495121507987 0 0.26165528996555859 0.29809988061337878 0 0.24277106137384219 0.29976017212907752 0 0.25492843802079129 0.3193392969160237 0 0.26165528996555859 0.29809988061337878 0 0.25492843802079129 0.3193392969160237 0 0.27253286511921371 0.31379017153851652 0 0.26165528996555859 0.29809988061337878 0 0.26379261821783018 0.25387857302967709 0 0.25160197803401829 0.26536957820287072 0 0.25228557980028771 0.24505571941488249 0 0.26477647787107539 0.26538390517369392 0 0.26379261821783018 0.25387857302967709 0 0.25160197803401829 0.26536957820287072 0 0.25860234729198561 0.28247495121507987 0 0.26477647787107539 0.26538390517369392 0 0.25160197803401829 0.26536957820287072 0 0.25860234729198561 0.28247495121507987 0 0.26477647787107539 0.26538390517369392 0 0.27129225843105031 0.27210275059554712 0 0.27129225843105031 0.27210275059554712 0 0.28098887933128952 0.27795137743792347 0 0.27742568286553132 0.25245936662035179 0 0.27466790479536951 0.28224415253068619 0 0.25860234729198561 0.28247495121507987 0 0.27129225843105031 0.27210275059554712 0 0.27466790479536951 0.28224415253068619 0 0.27129225843105031 0.27210275059554712 0 0.28098887933128952 0.27795137743792347 0 0.28098887933128952 0.27795137743792347 0 0.27742568286553132 0.25245936662035179 0 0.26477647787107539 0.26538390517369392 0 0.27129225843105031 0.27210275059554712 0 0.27742568286553132 0.25245936662035179 0 0.26477647787107539 0.26538390517369392 0 0.26379261821783018 0.25387857302967709 0 0.27742568286553132 0.25245936662035179 0 0.27742568286553132 0.25245936662035179 0 0.28575198675006191 0.25497151312730859 0 0.28536460644446371 0.2641358368636727 0 0.28098887933128952 0.27795137743792347 0 0.27742568286553132 0.25245936662035179 0 0.28536460644446371 0.2641358368636727 0 0.28575198675006191 0.25497151312730859 0 0.28536460644446371 0.2641358368636727 0 0.29650975124110968 0.26194045844531672 0 0.28575198675006191 0.25497151312730859 0 0.29650975124110968 0.26194045844531672 0 0.2926517107920979 0.249430929912732 0 0.2894272360339637 0.28338158311276418 0 0.28098887933128952 0.27795137743792347 0 0.2878314974919346 0.27235069877623402 0 0.2894272360339637 0.28338158311276418 0 0.27466790479536951 0.28224415253068619 0 0.28098887933128952 0.27795137743792347 0 0.28098887933128952 0.27795137743792347 0 0.28536460644446371 0.2641358368636727 0 0.2878314974919346 0.27235069877623402 0 0.29650975124110968 0.26194045844531672 0 0.2878314974919346 0.27235069877623402 0 0.29530632706243448 0.27471294486334918 0 0.28536460644446371 0.2641358368636727 0 0.29650975124110968 0.26194045844531672 0 0.2878314974919346 0.27235069877623402 0 0.2894272360339637 0.28338158311276418 0 0.2878314974919346 0.27235069877623402 0 0.29530632706243448 0.27471294486334918 0 0.2894272360339637 0.28338158311276418 0 0.29530632706243448 0.27471294486334918 0 0.30186368785238837 0.27836278256432839 0 0.29982442495552281 0.28792827139510291 0 0.30186368785238837 0.27836278256432839 0 0.31859263318456132 0.27524135118184151 0 0.30186368785238837 0.27836278256432839 0 0.30616781802545961 0.27054976226858451 0 0.31859263318456132 0.27524135118184151 0 0.29530632706243448 0.27471294486334918 0 0.30186368785238837 0.27836278256432839 0 0.30616781802545961 0.27054976226858451 0 0.29650975124110968 0.26194045844531672 0 0.29530632706243448 0.27471294486334918 0 0.30616781802545961 0.27054976226858451 0 0.29650975124110968 0.26194045844531672 0 0.30616781802545961 0.27054976226858451 0 0.31789304795525969 0.2578095908594587 0 0.29650975124110968 0.26194045844531672 0 0.31789304795525969 0.2578095908594587 0 0.30650170760013912 0.24788415124371929 0 0.29650975124110968 0.26194045844531672 0 0.30650170760013912 0.24788415124371929 0 0.2926517107920979 0.249430929912732 0 0.31789304795525969 0.2578095908594587 0 0.33736084141359968 0.26255443096858 0 0.31859263318456132 0.27524135118184151 0 0.31789304795525969 0.2578095908594587 0 0.33736084141359968 0.26255443096858 0 0.33846220346171901 0.24395801859327129 0 0.33736084141359968 0.26255443096858 0 0.33840864228831541 0.28728799472463162 0 0.35075862861413809 0.27251258119398369 0 0.33736084141359968 0.26255443096858 0 0.31859263318456132 0.27524135118184151 0 0.33840864228831541 0.28728799472463162 0 0.33736084141359968 0.26255443096858 0 0.31859263318456132 0.27524135118184151 0 0.30616781802545961 0.27054976226858451 0 0.31789304795525969 0.2578095908594587 0 0.31859263318456132 0.27524135118184151 0 0.31552629759105882 0.29051132363791959 0 0.33840864228831541 0.28728799472463162 0 0.31859263318456132 0.27524135118184151 0 0.31552629759105882 0.29051132363791959 0 0.33840864228831541 0.28728799472463162 0 0.31552629759105882 0.29051132363791959 0 0.3167463763934148 0.30914120332369471 0 0.33772023080970048 0.30607486465371597 0 0.31552629759105882 0.29051132363791959 0 0.33772023080970048 0.30607486465371597 0 0.33840864228831541 0.28728799472463162 0 0.33840864228831541 0.28728799472463162 0 0.36129098698557199 0.28406466581134371 0 0.33840864228831541 0.28728799472463162 0 0.36007421842239812 0.3052171711321639 0 0.36129098698557199 0.28406466581134371 0 0.33840864228831541 0.28728799472463162 0 0.36129098698557199 0.28406466581134371 0 0.35075862861413809 0.27251258119398369 0 0.35335115903438558 0.32155550283504331 0 0.33772023080970048 0.30607486465371597 0 0.36007421842239812 0.3052171711321639 0 0.33772023080970048 0.30607486465371597 0 0.33840864228831541 0.28728799472463162 0 0.36007421842239812 0.3052171711321639 0 0.36728365076825331 0.32732578968792669 0 0.36007421842239812 0.3052171711321639 0 0.38211761589798471 0.30153908245482391 0 0.36007421842239812 0.3052171711321639 0 0.37191403824719582 0.2929155640740968 0 0.38211761589798471 0.30153908245482391 0 0.36007421842239812 0.3052171711321639 0 0.36129098698557199 0.28406466581134371 0 0.37191403824719582 0.2929155640740968 0 0.36129098698557199 0.28406466581134371 0 0.37191403824719582 0.2929155640740968 0 0.38417333168282858 0.28084133689805568 0 0.36129098698557199 0.28406466581134371 0 0.38417333168282858 0.28084133689805568 0 0.37021433734279191 0.26820137568399899 0 0.35819190299349718 0.2587903453929371 0 0.35075862861413809 0.27251258119398369 0 0.36129098698557199 0.28406466581134371 0 0.37021433734279191 0.26820137568399899 0 0.38417333168282858 0.28084133689805568 0 0.36129098698557199 0.28406466581134371 0 0.37021433734279191 0.26820137568399899 0 0.35075862861413809 0.27251258119398369 0 0.37021433734279191 0.26820137568399899 0 0.36874933774716429 0.25296957264615838 0 0.38187402553364369 0.25804985058048252 0 0.36874933774716429 0.25296957264615838 0 0.35819190299349718 0.2587903453929371 0 0.35612904964263831 0.24986751075531891 0 0.37021433734279191 0.26820137568399899 0 0.36874933774716429 0.25296957264615838 0 0.35819190299349718 0.2587903453929371 0 0.33736084141359968 0.26255443096858 0 0.35819190299349718 0.2587903453929371 0 0.35612904964263831 0.24986751075531891 0 0.33736084141359968 0.26255443096858 0 0.35612904964263831 0.24986751075531891 0 0.33736084141359968 0.26255443096858 0 0.35819190299349718 0.2587903453929371 0 0.35075862861413809 0.27251258119398369 0 0.33736084141359968 0.26255443096858 0 0.33846220346171901 0.24395801859327129 0 0.35612904964263831 0.24986751075531891 0 0.35819190299349718 0.2587903453929371 0 0.35612904964263831 0.24986751075531891 0 0.3969515810277161 0.27575237522172091 0 0.39426159173175729 0.26012305549639231 0 0.38549497346374761 0.26859359877612998 0 0.39426159173175729 0.26012305549639231 0 0.39341303873121242 0.24678323011617179 0 0.41178554615744761 0.24996566798861811 0 0.3969515810277161 0.27575237522172091 0 0.41178554615744761 0.24996566798861811 0 0.3969515810277161 0.27575237522172091 0 0.39426159173175729 0.26012305549639231 0 0.41178554615744761 0.24996566798861811 0 0.39426159173175729 0.26012305549639231 0 0.38187402553364369 0.25804985058048252 0 0.38549497346374761 0.26859359877612998 0 0.39426159173175729 0.26012305549639231 0 0.38187402553364369 0.25804985058048252 0 0.39341303873121242 0.24678323011617179 0 0.38187402553364369 0.25804985058048252 0 0.39341303873121242 0.24678323011617179 0 0.38022180276064033 0.24544879843473291 0 0.36874933774716429 0.25296957264615838 0 0.38187402553364369 0.25804985058048252 0 0.38022180276064033 0.24544879843473291 0 0.37021433734279191 0.26820137568399899 0 0.38187402553364369 0.25804985058048252 0 0.38549497346374761 0.26859359877612998 0 0.37021433734279191 0.26820137568399899 0 0.38549497346374761 0.26859359877612998 0 0.38417333168282858 0.28084133689805568 0 0.3969515810277161 0.27575237522172091 0 0.38549497346374761 0.26859359877612998 0 0.38417333168282858 0.28084133689805568 0 0.37191403824719582 0.2929155640740968 0 0.38417333168282858 0.28084133689805568 0 0.38211761589798471 0.30153908245482391 0 0.3969515810277161 0.27575237522172091 0 0.38211761589798471 0.30153908245482391 0 0.3969515810277161 0.27575237522172091 0 0.38417333168282858 0.28084133689805568 0 0.38211761589798471 0.30153908245482391 0 0.40384236524993511 0.29324888385193337 0 0.38729755744184469 0.31492989201840083 0 0.40384236524993511 0.29324888385193337 0 0.40851534428922009 0.30574697400966538 0 0.38729755744184469 0.31492989201840083 0 0.38211761589798471 0.30153908245482391 0 0.40384236524993511 0.29324888385193337 0 0.38729755744184469 0.31492989201840083 0 0.3969515810277161 0.27575237522172091 0 0.38211761589798471 0.30153908245482391 0 0.40384236524993511 0.29324888385193337 0 0.40384236524993511 0.29324888385193337 0 0.40851534428922009 0.30574697400966538 0 0.42331157130638769 0.28350191130559182 0 0.40851534428922009 0.30574697400966538 0 0.42331157130638769 0.28350191130559182 0 0.40384236524993511 0.29324888385193337 0 0.42038717305802542 0.27156787568546598 0 0.40851534428922009 0.30574697400966538 0 0.41882541923252342 0.29993655188726048 0 0.42331157130638769 0.28350191130559182 0 0.40384236524993511 0.29324888385193337 0 0.42331157130638769 0.28350191130559182 0 0.42038717305802542 0.27156787568546598 0 0.40851534428922009 0.30574697400966538 0 0.41882541923252342 0.29993655188726048 0 0.42416774644586541 0.31049676923931629 0 0.40851534428922009 0.30574697400966538 0 0.42416774644586541 0.31049676923931629 0 0.41279408208842461 0.31826487729832598 0 0.42416774644586541 0.31049676923931629 0 0.42823918796953458 0.30468397784608431 0 0.43240205854650299 0.31030579899941257 0 0.41882541923252342 0.29993655188726048 0 0.42416774644586541 0.31049676923931629 0 0.42823918796953458 0.30468397784608431 0 0.41882541923252342 0.29993655188726048 0 0.42823918796953458 0.30468397784608431 0 0.43008593096923181 0.29783461418037432 0 0.43008593096923181 0.29783461418037432 0 0.43571478465354968 0.30484615492405781 0 0.44220775995059852 0.29612257560143679 0 0.42823918796953458 0.30468397784608431 0 0.43008593096923181 0.29783461418037432 0 0.43571478465354968 0.30484615492405781 0 0.43571478465354968 0.30484615492405781 0 0.43240205854650299 0.31030579899941257 0 0.43768921171831449 0.31311854737984218 0 0.42823918796953458 0.30468397784608431 0 0.43571478465354968 0.30484615492405781 0 0.43240205854650299 0.31030579899941257 0 0.41882541923252342 0.29993655188726048 0 0.42331157130638769 0.28350191130559182 0 0.42614347169094802 0.29264598487750348 0 0.42331157130638769 0.28350191130559182 0 0.42614347169094802 0.29264598487750348 0 0.4322875895340087 0.28887626054718613 0 0.43008593096923181 0.29783461418037432 0 0.42614347169094802 0.29264598487750348 0 0.4322875895340087 0.28887626054718613 0 0.41882541923252342 0.29993655188726048 0 0.43008593096923181 0.29783461418037432 0 0.42614347169094802 0.29264598487750348 0 0.43008593096923181 0.29783461418037432 0 0.4322875895340087 0.28887626054718613 0 0.44220775995059852 0.29612257560143679 0 0.4322875895340087 0.28887626054718613 0 0.4352554266818886 0.27867223595171042 0 0.43997790783114921 0.2842963260594169 0 0.42331157130638769 0.28350191130559182 0 0.4322875895340087 0.28887626054718613 0 0.4352554266818886 0.27867223595171042 0 0.42331157130638769 0.28350191130559182 0 0.43810779832355479 0.26125684860151771 0 0.42331157130638769 0.28350191130559182 0 0.4352554266818886 0.27867223595171042 0 0.43810779832355479 0.26125684860151771 0 0.42331157130638769 0.28350191130559182 0 0.42038717305802542 0.27156787568546598 0 0.43810779832355479 0.26125684860151771 0 0.3969515810277161 0.27575237522172091 0 0.42038717305802542 0.27156787568546598 0 0.41178554615744761 0.24996566798861811 0 0.3969515810277161 0.27575237522172091 0 0.40384236524993511 0.29324888385193337 0 0.42038717305802542 0.27156787568546598 0 0.42038717305802542 0.27156787568546598 0 0.42411942459969248 0.25491393605039792 0 0.41178554615744761 0.24996566798861811 0 0.42411942459969248 0.25491393605039792 0 0.42737299831718117 0.24823533300850881 0 0.41178554615744761 0.24996566798861811 0 0.42411942459969248 0.25491393605039792 0 0.43693198086611568 0.24988686751899869 0 0.42737299831718117 0.24823533300850881 0 0.42038717305802542 0.27156787568546598 0 0.43693198086611568 0.24988686751899869 0 0.42038717305802542 0.27156787568546598 0 0.42411942459969248 0.25491393605039792 0 0.43693198086611568 0.24988686751899869 0 0.42038717305802542 0.27156787568546598 0 0.43810779832355479 0.26125684860151771 0 0.43693198086611568 0.24988686751899869 0 0.44497368486995031 0.25093448219240683 0 0.43810779832355479 0.26125684860151771 0 0.4518695412960802 0.25998392795554021 0 0.44497368486995031 0.25093448219240683 0 0.43810779832355479 0.26125684860151771 0 0.43693198086611568 0.24988686751899869 0 0.44497368486995031 0.25093448219240683 0 0.43810779832355479 0.26125684860151771 0 0.43810779832355479 0.26125684860151771 0 0.4518695412960802 0.25998392795554021 0 0.45119094484161371 0.27048453174625109 0 0.4352554266818886 0.27867223595171042 0 0.43810779832355479 0.26125684860151771 0 0.44259226641434218 0.27542983324483972 0 0.4352554266818886 0.27867223595171042 0 0.44259226641434218 0.27542983324483972 0 0.43997790783114921 0.2842963260594169 0 0.44259226641434218 0.27542983324483972 0 0.45168578561965572 0.28225530855821912 0 0.43997790783114921 0.2842963260594169 0 0.43810779832355479 0.26125684860151771 0 0.44259226641434218 0.27542983324483972 0 0.45119094484161371 0.27048453174625109 0 0.43810779832355479 0.26125684860151771 0 0.45119094484161371 0.27048453174625109 0 0.44259226641434218 0.27542983324483972 0 0.45119094484161371 0.27048453174625109 0 0.45168578561965572 0.28225530855821912 0 0.45119094484161371 0.27048453174625109 0 0.46427409135967262 0.27971221489098452 0 0.46175834215700717 0.26395226468230598 0 0.45119094484161371 0.27048453174625109 0 0.46427409135967262 0.27971221489098452 0 0.45119094484161371 0.27048453174625109 0 0.46427409135967262 0.27971221489098452 0 0.45168578561965572 0.28225530855821912 0 0.44497368486995031 0.25093448219240683 0 0.46331693628827503 0.25329151255521942 0 0.44497368486995031 0.25093448219240683 0 0.4518695412960802 0.25998392795554021 0 0.46331693628827503 0.25329151255521942 0 0.4518695412960802 0.25998392795554021 0 0.45119094484161371 0.27048453174625109 0 0.46175834215700717 0.26395226468230598 0 0.4518695412960802 0.25998392795554021 0 0.46175834215700717 0.26395226468230598 0 0.46331693628827503 0.25329151255521942 0 0.46331693628827503 0.25329151255521942 0 0.4816601877065998 0.25564854291803202 0 0.47378110348746472 0.2443580390247613 0 0.46175834215700717 0.26395226468230598 0 0.46331693628827503 0.25329151255521942 0 0.4816601877065998 0.25564854291803202 0 0.46331693628827503 0.25329151255521942 0 0.4816601877065998 0.25564854291803202 0 0.46427409135967262 0.27971221489098452 0 0.46175834215700717 0.26395226468230598 0 0.4816601877065998 0.25564854291803202 0 0.46427409135967262 0.27971221489098452 0 0.4816601877065998 0.25564854291803202 0 0.46427409135967262 0.27971221489098452 0 0.4816601877065998 0.25564854291803202 0 0.48561426494922189 0.27342692851974942 0 0.48561426494922189 0.27342692851974942 0 0.50000000000000089 0.25800513136781161 0 0.5 0.28145760583016632 0 0.4816601877065998 0.25564854291803202 0 0.50000000000000089 0.25800513136781161 0 0.4816601877065998 0.25564854291803202 0 0.50000000000000089 0.25800513136781161 0 0.49083009385330129 0.24295669943955281 0 0.4816601877065998 0.25564854291803202 0 0.48561426494922189 0.27342692851974942 0 0.50000000000000089 0.25800513136781161 0 0.48494941868880931 0.30728637089136701 0 0.49999999999999972 0.30491008029252109 0 0.48213704567983612 0.29231114759175292 0 0.49999999999999972 0.30491008029252109 0 0.48213704567983612 0.29231114759175292 0 0.48561426494922189 0.27342692851974942 0 0.5 0.28145760583016632 0 0.48213704567983612 0.29231114759175292 0 0.49999999999999972 0.30491008029252109 0 0.5 0.28145760583016632 0 0.48213704567983612 0.29231114759175292 0 0.46427409135967262 0.27971221489098452 0 0.48213704567983612 0.29231114759175292 0 0.4671607197386935 0.29275480188868369 0 0.46427409135967262 0.27971221489098452 0 0.48213704567983612 0.29231114759175292 0 0.46427409135967262 0.27971221489098452 0 0.48561426494922189 0.27342692851974942 0 0.48213704567983612 0.29231114759175292 0 0.48213704567983612 0.29231114759175292 0 0.46812539047268958 0.30521070931430527 0 0.4671607197386935 0.29275480188868369 0 0.48494941868880931 0.30728637089136701 0 0.48213704567983612 0.29231114759175292 0 0.46812539047268958 0.30521070931430527 0 0.48494941868880931 0.30728637089136701 0 0.46812539047268958 0.30521070931430527 0 0.47711955666153588 0.32035771418304021 0 0.46812539047268958 0.30521070931430527 0 0.4671607197386935 0.29275480188868369 0 0.4541063514425755 0.29378513575769222 0 0.46812539047268958 0.30521070931430527 0 0.45419274978489199 0.30814487493241011 0 0.4541063514425755 0.29378513575769222 0 0.46812539047268958 0.30521070931430527 0 0.45419274978489199 0.30814487493241011 0 0.4582334275311416 0.31974325174936408 0 0.46427409135967262 0.27971221489098452 0 0.4671607197386935 0.29275480188868369 0 0.4541063514425755 0.29378513575769222 0 0.46427409135967262 0.27971221489098452 0 0.4541063514425755 0.29378513575769222 0 0.46427409135967262 0.27971221489098452 0 0.4541063514425755 0.29378513575769222 0 0.45168578561965572 0.28225530855821912 0 0.4541063514425755 0.29378513575769222 0 0.45168578561965572 0.28225530855821912 0 0.44220775995059852 0.29612257560143679 0 0.4322875895340087 0.28887626054718613 0 0.44220775995059852 0.29612257560143679 0 0.43997790783114921 0.2842963260594169 0 0.45168578561965572 0.28225530855821912 0 0.44220775995059852 0.29612257560143679 0 0.43997790783114921 0.2842963260594169 0 0.45419274978489199 0.30814487493241011 0 0.44393861152547931 0.30785805662440058 0 0.44655996795257391 0.31412722121628822 0 0.45419274978489199 0.30814487493241011 0 0.4541063514425755 0.29378513575769222 0 0.44393861152547931 0.30785805662440058 0 0.4541063514425755 0.29378513575769222 0 0.44220775995059852 0.29612257560143679 0 0.44393861152547931 0.30785805662440058 0 0.4541063514425755 0.29378513575769222 0 0.44393861152547931 0.30785805662440058 0 0.43571478465354968 0.30484615492405781 0 0.44220775995059852 0.29612257560143679 0 0.44393861152547931 0.30785805662440058 0 0.44393861152547931 0.30785805662440058 0 0.43768921171831449 0.31311854737984218 0 0.44655996795257391 0.31412722121628822 0 0.43571478465354968 0.30484615492405781 0 0.44393861152547931 0.30785805662440058 0 0.43768921171831449 0.31311854737984218 0 0.43934729840074732 0.31912878931568739 0 0.4582334275311416 0.31974325174936408 0 0.43768921171831449 0.31311854737984218 0 0.43934729840074732 0.31912878931568739 0 0.43934729840074732 0.31912878931568739 0 0.44655996795257391 0.31412722121628822 0 0.4582334275311416 0.31974325174936408 0 0.43768921171831449 0.31311854737984218 0 0.43934729840074732 0.31912878931568739 0 0.44655996795257391 0.31412722121628822 0 0.43934729840074732 0.31912878931568739 0 0.45092344307030119 0.32989854801887503 0 0.4582334275311416 0.31974325174936408 0 0.45419274978489199 0.30814487493241011 0 0.44655996795257391 0.31412722121628822 0 0.4582334275311416 0.31974325174936408 0 0.43934729840074732 0.31912878931568739 0 0.44573705249887802 0.34229040592304311 0 0.43934729840074732 0.31912878931568739 0 0.45092344307030119 0.32989854801887503 0 0.44573705249887802 0.34229040592304311 0 0.43934729840074732 0.31912878931568739 0 0.44122147426602898 0.33571837718198139 0 0.44573705249887802 0.34229040592304311 0 0.45092344307030119 0.32989854801887503 0 0.44573705249887802 0.34229040592304311 0 0.4606464370217111 0.33605418451451852 0 0.44573705249887802 0.34229040592304311 0 0.4606464370217111 0.33605418451451852 0 0.46153332874528302 0.35203560779863352 0 0.45092344307030119 0.32989854801887503 0 0.4606464370217111 0.33605418451451852 0 0.4582334275311416 0.31974325174936408 0 0.4606464370217111 0.33605418451451852 0 0.4582334275311416 0.31974325174936408 0 0.47711955666153588 0.32035771418304021 0 0.4582334275311416 0.31974325174936408 0 0.47711955666153588 0.32035771418304021 0 0.46812539047268958 0.30521070931430527 0 0.4582334275311416 0.31974325174936408 0 0.47711955666153588 0.32035771418304021 0 0.4606464370217111 0.33605418451451852 0 0.47711955666153588 0.32035771418304021 0 0.47641756548364622 0.34643440558137301 0 0.47711955666153588 0.32035771418304021 0 0.5 0.33369577547335788 0 0.47641756548364622 0.34643440558137301 0 0.48494941868880931 0.30728637089136701 0 0.49999999999999972 0.30491008029252109 0 0.5 0.33369577547335788 0 0.48494941868880931 0.30728637089136701 0 0.47711955666153588 0.32035771418304021 0 0.5 0.33369577547335788 0 0.50000000000000044 0.362481470654195 0 0.47273878212517251 0.3699470204438336 0 0.49080477345692741 0.3842552974624206 0 0.50000000000000044 0.362481470654195 0 0.49080477345692741 0.3842552974624206 0 0.5 0.33369577547335788 0 0.50000000000000044 0.362481470654195 0 0.47641756548364622 0.34643440558137301 0 0.47641756548364622 0.34643440558137301 0 0.47273878212517251 0.3699470204438336 0 0.46153332874528302 0.35203560779863352 0 0.50000000000000044 0.362481470654195 0 0.47641756548364622 0.34643440558137301 0 0.47273878212517251 0.3699470204438336 0 0.47273878212517251 0.3699470204438336 0 0.46153332874528302 0.35203560779863352 0 0.45212680659700688 0.36545202253039921 0 0.47273878212517251 0.3699470204438336 0 0.45212680659700688 0.36545202253039921 0 0.45851656069513591 0.38861363913775537 0 0.4606464370217111 0.33605418451451852 0 0.47641756548364622 0.34643440558137301 0 0.46153332874528302 0.35203560779863352 0 0.44573705249887802 0.34229040592304311 0 0.46153332874528302 0.35203560779863352 0 0.45212680659700688 0.36545202253039921 0 0.44573705249887802 0.34229040592304311 0 0.45212680659700688 0.36545202253039921 0 0.44122147426602898 0.33571837718198139 0 0.44573705249887802 0.34229040592304311 0 0.43346082076316189 0.35813933516301 0 0.44573705249887802 0.34229040592304311 0 0.45212680659700688 0.36545202253039921 0 0.43346082076316189 0.35813933516301 0 0.45212680659700688 0.36545202253039921 0 0.43346082076316189 0.35813933516301 0 0.436432690174969 0.38004053338515248 0 0.43346082076316189 0.35813933516301 0 0.41664092021138338 0.38003342468833928 0 0.436432690174969 0.38004053338515248 0 0.40816574423196322 0.36508572249851839 0 0.3981556282037948 0.37864622915171592 0 0.41664092021138338 0.38003342468833928 0 0.40816574423196322 0.36508572249851839 0 0.43346082076316189 0.35813933516301 0 0.41664092021138338 0.38003342468833928 0 0.40816574423196322 0.36508572249851839 0 0.41682470336711519 0.34695300325002632 0 0.43346082076316189 0.35813933516301 0 0.44122147426602898 0.33571837718198139 0 0.41682470336711519 0.34695300325002632 0 0.43346082076316189 0.35813933516301 0 0.44122147426602898 0.33571837718198139 0 0.41682470336711519 0.34695300325002632 0 0.44122147426602898 0.33571837718198139 0 0.41682470336711519 0.34695300325002632 0 0.42434076954953209 0.33060218849746531 0 0.43934729840074732 0.31912878931568739 0 0.44122147426602898 0.33571837718198139 0 0.42434076954953209 0.33060218849746531 0 0.43934729840074732 0.31912878931568739 0 0.41279408208842461 0.31826487729832598 0 0.42416774644586541 0.31049676923931629 0 0.43934729840074732 0.31912878931568739 0 0.41279408208842461 0.31826487729832598 0 0.43934729840074732 0.31912878931568739 0 0.42434076954953209 0.33060218849746531 0 0.41279408208842461 0.31826487729832598 0 0.43240205854650299 0.31030579899941257 0 0.43768921171831449 0.31311854737984218 0 0.43934729840074732 0.31912878931568739 0 0.42416774644586541 0.31049676923931629 0 0.43240205854650299 0.31030579899941257 0 0.43934729840074732 0.31912878931568739 0 0.42434076954953209 0.33060218849746531 0 0.41279408208842461 0.31826487729832598 0 0.41115207493842659 0.33129070492279528 0 0.41279408208842461 0.31826487729832598 0 0.41115207493842659 0.33129070492279528 0 0.40040221683456101 0.32585542794876998 0 0.41682470336711519 0.34695300325002632 0 0.42434076954953209 0.33060218849746531 0 0.41115207493842659 0.33129070492279528 0 0.41682470336711519 0.34695300325002632 0 0.41115207493842659 0.33129070492279528 0 0.40139860285250012 0.33477802761938907 0 0.40139860285250012 0.33477802761938907 0 0.3886484617327095 0.33820137204577072 0 0.39242793246820129 0.35818762931807119 0 0.41115207493842659 0.33129070492279528 0 0.40139860285250012 0.33477802761938907 0 0.40040221683456101 0.32585542794876998 0 0.40139860285250012 0.33477802761938907 0 0.39054692246911871 0.32681832290673868 0 0.3886484617327095 0.33820137204577072 0 0.40139860285250012 0.33477802761938907 0 0.40040221683456101 0.32585542794876998 0 0.39054692246911871 0.32681832290673868 0 0.41279408208842461 0.31826487729832598 0 0.38729755744184469 0.31492989201840083 0 0.38624086577610189 0.31740096528096401 0 0.40851534428922009 0.30574697400966538 0 0.41279408208842461 0.31826487729832598 0 0.38729755744184469 0.31492989201840083 0 0.41279408208842461 0.31826487729832598 0 0.40040221683456101 0.32585542794876998 0 0.38624086577610189 0.31740096528096401 0 0.41279408208842461 0.31826487729832598 0 0.38624086577610189 0.31740096528096401 0 0.40040221683456101 0.32585542794876998 0 0.38624086577610189 0.31740096528096401 0 0.39054692246911871 0.32681832290673868 0 0.37075274963375437 0.33661090018486822 0 0.38729755744184469 0.31492989201840083 0 0.38624086577610189 0.31740096528096401 0 0.36728365076825331 0.32732578968792669 0 0.38211761589798471 0.30153908245482391 0 0.38729755744184469 0.31492989201840083 0 0.37075274963375437 0.33661090018486822 0 0.36728365076825331 0.32732578968792669 0 0.38729755744184469 0.31492989201840083 0 0.37075274963375437 0.33661090018486822 0 0.38729755744184469 0.31492989201840083 0 0.38624086577610189 0.31740096528096401 0 0.39054692246911871 0.32681832290673868 0 0.38294498724815712 0.33108274223001782 0 0.37075274963375437 0.33661090018486822 0 0.38624086577610189 0.31740096528096401 0 0.38294498724815712 0.33108274223001782 0 0.3886484617327095 0.33820137204577072 0 0.37916756420124281 0.33952429156259423 0 0.38118945618531141 0.34678055509204192 0 0.3886484617327095 0.33820137204577072 0 0.38294498724815712 0.33108274223001782 0 0.37916756420124281 0.33952429156259423 0 0.39054692246911871 0.32681832290673868 0 0.3886484617327095 0.33820137204577072 0 0.38294498724815712 0.33108274223001782 0 0.37075274963375437 0.33661090018486822 0 0.38294498724815712 0.33108274223001782 0 0.37916756420124281 0.33952429156259423 0 0.37354710525157903 0.35525478630147561 0 0.37177296341951033 0.3472924882984631 0 0.38118945618531141 0.34678055509204192 0 0.3886484617327095 0.33820137204577072 0 0.38118945618531141 0.34678055509204192 0 0.39242793246820129 0.35818762931807119 0 0.37354710525157903 0.35525478630147561 0 0.38118945618531141 0.34678055509204192 0 0.39242793246820129 0.35818762931807119 0 0.37177296341951033 0.3472924882984631 0 0.37916756420124281 0.33952429156259423 0 0.38118945618531141 0.34678055509204192 0 0.36803116156928739 0.36942225538611612 0 0.39242793246820129 0.35818762931807119 0 0.39242793246820129 0.35818762931807119 0 0.3981556282037948 0.37864622915171592 0 0.38075288233243909 0.38064476876247322 0 0.36803116156928739 0.36942225538611612 0 0.37354710525157903 0.35525478630147561 0 0.39242793246820129 0.35818762931807119 0 0.36803116156928739 0.36942225538611612 0 0.39242793246820129 0.35818762931807119 0 0.38075288233243909 0.38064476876247322 0 0.40816574423196322 0.36508572249851839 0 0.39242793246820129 0.35818762931807119 0 0.3981556282037948 0.37864622915171592 0 0.41682470336711519 0.34695300325002632 0 0.39242793246820129 0.35818762931807119 0 0.41682470336711519 0.34695300325002632 0 0.40139860285250012 0.33477802761938907 0 0.39242793246820129 0.35818762931807119 0 0.40816574423196322 0.36508572249851839 0 0.41682470336711519 0.34695300325002632 0 0.39242793246820129 0.35818762931807119 0 0.40478213211268521 0.39173312544381561 0 0.38808208915090142 0.39577828795449621 0 0.40226417138088072 0.40786460721820839 0 0.38808208915090142 0.39577828795449621 0 0.38849695109854909 0.41000870573238118 0 0.40226417138088072 0.40786460721820839 0 0.40478213211268521 0.39173312544381561 0 0.3981556282037948 0.37864622915171592 0 0.38808208915090142 0.39577828795449621 0 0.3981556282037948 0.37864622915171592 0 0.38075288233243909 0.38064476876247322 0 0.38808208915090142 0.39577828795449621 0 0.38075288233243909 0.38064476876247322 0 0.37676126040215629 0.39293508852692138 0 0.38808208915090142 0.39577828795449621 0 0.36919253405863539 0.38557830258550052 0 0.38075288233243909 0.38064476876247322 0 0.37676126040215629 0.39293508852692138 0 0.37676126040215629 0.39293508852692138 0 0.38808208915090142 0.39577828795449621 0 0.3778444041610059 0.40476536124192658 0 0.38808208915090142 0.39577828795449621 0 0.3778444041610059 0.40476536124192658 0 0.38849695109854909 0.41000870573238118 0 0.3778444041610059 0.40476536124192658 0 0.37852145236075629 0.41790184693331289 0 0.38849695109854909 0.41000870573238118 0 0.37852145236075629 0.41790184693331289 0 0.38849695109854909 0.41000870573238118 0 0.39279626830548142 0.42222842583587938 0 0.36463177854720069 0.4278599005968684 0 0.38325321760986791 0.43165716147925542 0 0.38142481575133591 0.44581259120767952 0 0.36463177854720069 0.4278599005968684 0 0.37852145236075629 0.41790184693331289 0 0.38325321760986791 0.43165716147925542 0 0.37852145236075629 0.41790184693331289 0 0.38325321760986791 0.43165716147925542 0 0.39279626830548142 0.42222842583587938 0 0.39698477208761201 0.43591708602239321 0 0.40757505447969589 0.42444525221820539 0 0.41415743811931849 0.44058663112512031 0 0.38325321760986791 0.43165716147925542 0 0.39698477208761201 0.43591708602239321 0 0.39279626830548142 0.42222842583587938 0 0.39698477208761201 0.43591708602239321 0 0.39279626830548142 0.42222842583587938 0 0.40757505447969589 0.42444525221820539 0 0.39279626830548142 0.42222842583587938 0 0.40226417138088072 0.40786460721820839 0 0.40757505447969589 0.42444525221820539 0 0.38849695109854909 0.41000870573238118 0 0.39279626830548142 0.42222842583587938 0 0.40226417138088072 0.40786460721820839 0 0.41641961383093767 0.41337880348837408 0 0.40757505447969589 0.42444525221820539 0 0.42436649845940028 0.42676878602477641 0 0.40226417138088072 0.40786460721820839 0 0.41641961383093767 0.41337880348837408 0 0.40757505447969589 0.42444525221820539 0 0.40757505447969589 0.42444525221820539 0 0.42436649845940028 0.42676878602477641 0 0.41415743811931849 0.44058663112512031 0 0.42436649845940028 0.42676878602477641 0 0.44142355005256018 0.42428308162900702 0 0.43507412138509532 0.44485603312354638 0 0.42436649845940028 0.42676878602477641 0 0.43507412138509532 0.44485603312354638 0 0.41415743811931849 0.44058663112512031 0 0.42436649845940028 0.42676878602477641 0 0.43170095578419682 0.41123467743069841 0 0.44142355005256018 0.42428308162900702 0 0.41641961383093767 0.41337880348837408 0 0.43170095578419682 0.41123467743069841 0 0.42089456405986297 0.39729042679337662 0 0.41641961383093767 0.41337880348837408 0 0.42436649845940028 0.42676878602477641 0 0.43170095578419682 0.41123467743069841 0 0.43170095578419682 0.41123467743069841 0 0.42089456405986297 0.39729042679337662 0 0.43877810676687262 0.39646734549044399 0 0.42089456405986297 0.39729042679337662 0 0.436432690174969 0.38004053338515248 0 0.43877810676687262 0.39646734549044399 0 0.40226417138088072 0.40786460721820839 0 0.41641961383093767 0.41337880348837408 0 0.42089456405986297 0.39729042679337662 0 0.40478213211268521 0.39173312544381561 0 0.40226417138088072 0.40786460721820839 0 0.42089456405986297 0.39729042679337662 0 0.40478213211268521 0.39173312544381561 0 0.42089456405986297 0.39729042679337662 0 0.41664092021138338 0.38003342468833928 0 0.40478213211268521 0.39173312544381561 0 0.3981556282037948 0.37864622915171592 0 0.41664092021138338 0.38003342468833928 0 0.42089456405986297 0.39729042679337662 0 0.41664092021138338 0.38003342468833928 0 0.436432690174969 0.38004053338515248 0 0.45212680659700688 0.36545202253039921 0 0.436432690174969 0.38004053338515248 0 0.45851656069513591 0.38861363913775537 0 0.436432690174969 0.38004053338515248 0 0.43877810676687262 0.39646734549044399 0 0.45851656069513591 0.38861363913775537 0 0.50000000000000044 0.362481470654195 0 0.49080477345692741 0.3842552974624206 0 0.5 0.43925793850917949 0 0.43877810676687262 0.39646734549044399 0 0.45851656069513591 0.38861363913775537 0 0.44832340153554728 0.40921962115821248 0 0.43170095578419682 0.41123467743069841 0 0.43877810676687262 0.39646734549044399 0 0.44832340153554728 0.40921962115821248 0 0.45851656069513591 0.38861363913775537 0 0.464906314793265 0.41177525574511159 0 0.44832340153554728 0.40921962115821248 0 0.45851656069513591 0.38861363913775537 0 0.47520912814767169 0.39049767148420511 0 0.464906314793265 0.41177525574511159 0 0.45851656069513591 0.38861363913775537 0 0.464906314793265 0.41177525574511159 0 0.45212680659700688 0.36545202253039921 0 0.45851656069513591 0.38861363913775537 0 0.47273878212517251 0.3699470204438336 0 0.45851656069513591 0.38861363913775537 0 0.47520912814767169 0.39049767148420511 0 0.47273878212517251 0.3699470204438336 0 0.47520912814767169 0.39049767148420511 0 0.49080477345692741 0.3842552974624206 0 0.47520912814767169 0.39049767148420511 0 0.48160954691385399 0.40602912427064591 0 0.464906314793265 0.41177525574511159 0 0.47520912814767169 0.39049767148420511 0 0.48160954691385399 0.40602912427064591 0 0.49080477345692741 0.3842552974624206 0 0.48160954691385399 0.40602912427064591 0 0.49080477345692741 0.3842552974624206 0 0.48160954691385399 0.40602912427064591 0 0.47241432037078052 0.42780295107887129 0 0.5 0.43925793850917949 0 0.48160954691385399 0.40602912427064591 0 0.49080477345692741 0.3842552974624206 0 0.5 0.43925793850917949 0 0.48160954691385399 0.40602912427064591 0 0.47241432037078052 0.42780295107887129 0 0.464906314793265 0.41177525574511159 0 0.48160954691385399 0.40602912427064591 0 0.47241432037078052 0.42780295107887129 0 0.47241432037078052 0.42780295107887129 0 0.45590024256237588 0.42236374395615822 0 0.45497128813127108 0.43730014704240522 0 0.47241432037078052 0.42780295107887129 0 0.45497128813127108 0.43730014704240522 0 0.47067114260215948 0.44575004245748451 0 0.47241432037078052 0.42780295107887129 0 0.45590024256237588 0.42236374395615822 0 0.464906314793265 0.41177525574511159 0 0.45590024256237588 0.42236374395615822 0 0.464906314793265 0.41177525574511159 0 0.44832340153554728 0.40921962115821248 0 0.43170095578419682 0.41123467743069841 0 0.44832340153554728 0.40921962115821248 0 0.44142355005256018 0.42428308162900702 0 0.45590024256237588 0.42236374395615822 0 0.44832340153554728 0.40921962115821248 0 0.44142355005256018 0.42428308162900702 0 0.45497128813127108 0.43730014704240522 0 0.44142355005256018 0.42428308162900702 0 0.43507412138509532 0.44485603312354638 0 0.45590024256237588 0.42236374395615822 0 0.45497128813127108 0.43730014704240522 0 0.44142355005256018 0.42428308162900702 0 0.45497128813127108 0.43730014704240522 0 0.45441578411101952 0.4534099849103721 0 0.43507412138509532 0.44485603312354638 0 0.45441578411101952 0.4534099849103721 0 0.47182343074397942 0.4681690644047547 0 0.43953893769259222 0.47097463752366958 0 0.45441578411101952 0.4534099849103721 0 0.43953893769259222 0.47097463752366958 0 0.43507412138509532 0.44485603312354638 0 0.45441578411101952 0.4534099849103721 0 0.47067114260215948 0.44575004245748451 0 0.47182343074397942 0.4681690644047547 0 0.45497128813127108 0.43730014704240522 0 0.45441578411101952 0.4534099849103721 0 0.47067114260215948 0.44575004245748451 0 0.47067114260215948 0.44575004245748451 0 0.47182343074397942 0.4681690644047547 0 0.5 0.43925793850917949 0 0.47241432037078052 0.42780295107887129 0 0.47067114260215948 0.44575004245748451 0 0.5 0.43925793850917949 0 0.47182343074397942 0.4681690644047547 0 0.5 0.5 0 0.4394030505264927 0.5 0 0.47182343074397942 0.4681690644047547 0 0.5 0.43925793850917949 0 0.5 0.5 0 0.47182343074397942 0.4681690644047547 0 0.43953893769259222 0.47097463752366958 0 0.4394030505264927 0.5 0 0.4394030505264927 0.5 0 0.41501089015960629 0.48171797242930159 0 0.39512223985068601 0.5 0 0.41501089015960629 0.48171797242930159 0 0.39821785295547107 0.46376528181849053 0 0.43953893769259222 0.47097463752366958 0 0.4394030505264927 0.5 0 0.41501089015960629 0.48171797242930159 0 0.43953893769259222 0.47097463752366958 0 0.41501089015960629 0.48171797242930159 0 0.41755336710615581 0.45867842276018539 0 0.43953893769259222 0.47097463752366958 0 0.43507412138509532 0.44485603312354638 0 0.41755336710615581 0.45867842276018539 0 0.43507412138509532 0.44485603312354638 0 0.41415743811931849 0.44058663112512031 0 0.41755336710615581 0.45867842276018539 0 0.41415743811931849 0.44058663112512031 0 0.41755336710615581 0.45867842276018539 0 0.40166764920397868 0.44895200258677381 0 0.41501089015960629 0.48171797242930159 0 0.41755336710615581 0.45867842276018539 0 0.39821785295547107 0.46376528181849053 0 0.41755336710615581 0.45867842276018539 0 0.39821785295547107 0.46376528181849053 0 0.40166764920397868 0.44895200258677381 0 0.39821785295547107 0.46376528181849053 0 0.40166764920397868 0.44895200258677381 0 0.38142481575133591 0.44581259120767952 0 0.39698477208761201 0.43591708602239321 0 0.41415743811931849 0.44058663112512031 0 0.40166764920397868 0.44895200258677381 0 0.39698477208761201 0.43591708602239321 0 0.40166764920397868 0.44895200258677381 0 0.38142481575133591 0.44581259120767952 0 0.38325321760986791 0.43165716147925542 0 0.39698477208761201 0.43591708602239321 0 0.38142481575133591 0.44581259120767952 0 0.36838176425700347 0.44611279217014621 0 0.38142481575133591 0.44581259120767952 0 0.37573034615347878 0.4549494791953233 0 0.39821785295547107 0.46376528181849053 0 0.38142481575133591 0.44581259120767952 0 0.39821785295547107 0.46376528181849053 0 0.38142481575133591 0.44581259120767952 0 0.37573034615347878 0.4549494791953233 0 0.36924735528911801 0.47747473959766079 0 0.37573034615347878 0.4549494791953233 0 0.38435120802201223 0.469438512768449 0 0.39821785295547107 0.46376528181849053 0 0.37573034615347878 0.4549494791953233 0 0.38435120802201223 0.469438512768449 0 0.36276436442475729 0.49999999999999861 0 0.36924735528911801 0.47747473959766079 0 0.39512223985068601 0.5 0 0.36924735528911801 0.47747473959766079 0 0.38435120802201223 0.469438512768449 0 0.39426891043744849 0.48012767083106739 0 0.36924735528911801 0.47747473959766079 0 0.39512223985068601 0.5 0 0.39426891043744849 0.48012767083106739 0 0.41501089015960629 0.48171797242930159 0 0.39512223985068601 0.5 0 0.39426891043744849 0.48012767083106739 0 0.41501089015960629 0.48171797242930159 0 0.39821785295547107 0.46376528181849053 0 0.39426891043744849 0.48012767083106739 0 0.39821785295547107 0.46376528181849053 0 0.38435120802201223 0.469438512768449 0 0.39426891043744849 0.48012767083106739 0 0.33110678204813748 0.084783011930172819 0 0.32675598356811891 0.070825912535659091 0 0.32715130407628429 0.079413330717302166 0 0.33110678204813748 0.084783011930172819 0 0.32715130407628429 0.079413330717302166 0 0.32753123871348439 0.086631691663710542 0 0.33110678204813748 0.084783011930172819 0 0.32753123871348439 0.086631691663710542 0 0.33090681967473468 0.0920673997320475 0 0.32670487899190342 0.090095754969371389 0 0.32753123871348439 0.086631691663710542 0 0.33110678204813748 0.084783011930172819 0 0.33090681967473468 0.0920673997320475 0 0.33110678204813748 0.084783011930172819 0 0.33090681967473468 0.0920673997320475 0 0.32753123871348439 0.086631691663710542 0 0.33090681967473468 0.0920673997320475 0 0.32753123871348439 0.086631691663710542 0 0.33110678204813748 0.084783011930172819 0 0.33090681967473468 0.0920673997320475 0 0.33696777619469181 0.090703107786720735 0 0.33090681967473468 0.0920673997320475 0 0.33696777619469181 0.090703107786720735 0 0.34132368635506011 0.09754151028515845 0 0.33110678204813748 0.084783011930172819 0 0.33696777619469181 0.090703107786720735 0 0.34490084194841242 0.088806608566311604 0 0.33696777619469181 0.090703107786720735 0 0.34132368635506011 0.09754151028515845 0 0.34490084194841242 0.088806608566311604 0 0.33110678204813748 0.084783011930172819 0 0.32675598356811891 0.070825912535659091 0 0.33179069717802873 0.059868809597856773 0 0.33110678204813748 0.084783011930172819 0 0.34173977203340622 0.070880704732958821 0 0.33179069717802873 0.059868809597856773 0 0.33110678204813748 0.084783011930172819 0 0.33179069717802873 0.059868809597856773 0 0.33110678204813748 0.084783011930172819 0 0.34173977203340622 0.070880704732958821 0 0.35745094649220299 0.071162166551879583 0 0.34173977203340622 0.070880704732958821 0 0.33179069717802873 0.059868809597856773 0 0.34225749269469202 0.060087190794138823 0 0.31492192797011959 0.066326881045735336 0 0.31689605830029138 0.085213534464027629 0 0.30940759786231781 0.082651348667852023 0 0.31492192797011959 0.066326881045735336 0 0.32753123871348439 0.086631691663710542 0 0.32675598356811891 0.070825912535659091 0 0.32374058694119279 0.074918087228511995 0 0.32715130407628429 0.079413330717302166 0 0.32374058694119279 0.074918087228511995 0 0.31492192797011959 0.066326881045735336 0 0.32753123871348439 0.086631691663710542 0 0.32675598356811891 0.070825912535659091 0 0.32374058694119279 0.074918087228511995 0 0.32087623774181362 0.069036600389162275 0 0.32675598356811891 0.070825912535659091 0 0.32389747121798651 0.063740432063731214 0 0.33179069717802873 0.059868809597856773 0 0.32675598356811891 0.070825912535659091 0 0.32087623774181362 0.069036600389162275 0 0.32389747121798651 0.063740432063731214 0 0.32087623774181362 0.069036600389162275 0 0.32389747121798651 0.063740432063731214 0 0.31921392866789872 0.065800597707454861 0 0.32389747121798651 0.063740432063731214 0 0.31921392866789872 0.065800597707454861 0 0.31840299332675948 0.062980244567313798 0 0.32374058694119279 0.074918087228511995 0 0.32087623774181362 0.069036600389162275 0 0.31492192797011959 0.066326881045735336 0 0.31921392866789872 0.065800597707454861 0 0.31840299332675948 0.062980244567313798 0 0.31492192797011959 0.066326881045735336 0 0.31840299332675948 0.062980244567313798 0 0.31492192797011959 0.066326881045735336 0 0.32087623774181362 0.069036600389162275 0 0.31921392866789872 0.065800597707454861 0 0.31492192797011959 0.066326881045735336 0 0.31492192797011959 0.066326881045735336 0 0.31689605830029138 0.085213534464027629 0 0.32753123871348439 0.086631691663710542 0 0.32374058694119279 0.074918087228511995 0 0.32715130407628429 0.079413330717302166 0 0.32753123871348439 0.086631691663710542 0 0.31689605830029138 0.085213534464027629 0 0.32753123871348439 0.086631691663710542 0 0.32385958112277963 0.088530065796292329 0 0.32452187645661312 0.093153862685436351 0 0.32670487899190342 0.090095754969371389 0 0.32385958112277963 0.088530065796292329 0 0.33090681967473468 0.0920673997320475 0 0.32452187645661312 0.093153862685436351 0 0.32670487899190342 0.090095754969371389 0 0.32753123871348439 0.086631691663710542 0 0.32385958112277963 0.088530065796292329 0 0.32670487899190342 0.090095754969371389 0 0.32753123871348439 0.086631691663710542 0 0.32385958112277963 0.088530065796292329 0 0.32452187645661312 0.093153862685436351 0 0.32385958112277963 0.088530065796292329 0 0.31775346622195982 0.093426853668317753 0 0.31689605830029138 0.085213534464027629 0 0.32385958112277963 0.088530065796292329 0 0.31775346622195982 0.093426853668317753 0 0.31689605830029138 0.085213534464027629 0 0.31775346622195982 0.093426853668317753 0 0.30790253791108713 0.093714365942257988 0 0.31775346622195982 0.093426853668317753 0 0.31621496298373308 0.1004990735895869 0 0.32310170253270931 0.1016644709277096 0 0.33090681967473468 0.0920673997320475 0 0.32310170253270931 0.1016644709277096 0 0.33009325198820572 0.12170468814269871 0 0.31775346622195982 0.093426853668317753 0 0.31621496298373308 0.1004990735895869 0 0.30790253791108713 0.093714365942257988 0 0.31621496298373308 0.1004990735895869 0 0.31865238557243419 0.10981911695590189 0 0.30598277209576302 0.11082692802618591 0 0.31621496298373308 0.1004990735895869 0 0.32310170253270931 0.1016644709277096 0 0.31865238557243419 0.10981911695590189 0 0.33090681967473468 0.0920673997320475 0 0.32452187645661312 0.093153862685436351 0 0.32310170253270931 0.1016644709277096 0 0.32452187645661312 0.093153862685436351 0 0.31775346622195982 0.093426853668317753 0 0.32310170253270931 0.1016644709277096 0 0.32310170253270931 0.1016644709277096 0 0.31865238557243419 0.10981911695590189 0 0.33009325198820572 0.12170468814269871 0 0.31724038980345759 0.1176146338546214 0 0.33009325198820572 0.12170468814269871 0 0.31423314955742743 0.12810780229369911 0 0.31724038980345759 0.1176146338546214 0 0.31865238557243419 0.10981911695590189 0 0.30598277209576302 0.11082692802618591 0 0.31724038980345759 0.1176146338546214 0 0.31865238557243419 0.10981911695590189 0 0.33009325198820572 0.12170468814269871 0 0.33009325198820572 0.12170468814269871 0 0.34482278765160079 0.1144763243820098 0 0.34310262455073592 0.13724462637335511 0 0.33090681967473468 0.0920673997320475 0 0.33009325198820572 0.12170468814269871 0 0.34482278765160079 0.1144763243820098 0 0.33090681967473468 0.0920673997320475 0 0.33009325198820572 0.12170468814269871 0 0.33090681967473468 0.0920673997320475 0 0.34482278765160079 0.1144763243820098 0 0.33090681967473468 0.0920673997320475 0 0.34132368635506011 0.09754151028515845 0 0.34482278765160079 0.1144763243820098 0 0.34132368635506011 0.09754151028515845 0 0.34902020630585923 0.10165411095870371 0 0.34490084194841242 0.088806608566311604 0 0.34132368635506011 0.09754151028515845 0 0.34902020630585923 0.10165411095870371 0 0.34482278765160079 0.1144763243820098 0 0.34902020630585923 0.10165411095870371 0 0.34482278765160079 0.1144763243820098 0 0.36249773418420977 0.10103465739288239 0 0.34902020630585923 0.10165411095870371 0 0.36249773418420977 0.10103465739288239 0 0.34490084194841242 0.088806608566311604 0 0.34482278765160079 0.1144763243820098 0 0.36929241064131518 0.1227378079441438 0 0.35873875562846508 0.13688524903197319 0 0.34482278765160079 0.1144763243820098 0 0.36929241064131518 0.1227378079441438 0 0.36249773418420977 0.10103465739288239 0 0.36929241064131518 0.1227378079441438 0 0.36249773418420977 0.10103465739288239 0 0.36929241064131518 0.1227378079441438 0 0.36249773418420977 0.10103465739288239 0 0.38301829976201879 0.099719525933377698 0 0.36249773418420977 0.10103465739288239 0 0.36869615977996029 0.087842441088126305 0 0.38301829976201879 0.099719525933377698 0 0.36249773418420977 0.10103465739288239 0 0.36869615977996029 0.087842441088126305 0 0.35570305772710442 0.079331506841621088 0 0.36869615977996029 0.087842441088126305 0 0.36906995493766531 0.075598271723323673 0 0.37970449975279158 0.082113922961407404 0 0.36869615977996029 0.087842441088126305 0 0.35570305772710442 0.079331506841621088 0 0.36906995493766531 0.075598271723323673 0 0.33110678204813748 0.084783011930172819 0 0.35570305772710442 0.079331506841621088 0 0.34490084194841242 0.088806608566311604 0 0.33110678204813748 0.084783011930172819 0 0.35570305772710442 0.079331506841621088 0 0.35745094649220299 0.071162166551879583 0 0.36249773418420977 0.10103465739288239 0 0.35570305772710442 0.079331506841621088 0 0.36249773418420977 0.10103465739288239 0 0.35570305772710442 0.079331506841621088 0 0.34490084194841242 0.088806608566311604 0 0.34173977203340622 0.070880704732958821 0 0.34926038648758639 0.064442132153650286 0 0.35745094649220299 0.071162166551879583 0 0.33110678204813748 0.084783011930172819 0 0.35745094649220299 0.071162166551879583 0 0.34173977203340622 0.070880704732958821 0 0.34926038648758639 0.064442132153650286 0 0.34225749269469202 0.060087190794138823 0 0.34926038648758639 0.064442132153650286 0 0.35745094649220299 0.071162166551879583 0 0.3611715984621201 0.059373065287672423 0 0.35745094649220299 0.071162166551879583 0 0.36906995493766531 0.075598271723323673 0 0.38379511093626728 0.057541321173583987 0 0.35745094649220299 0.071162166551879583 0 0.3611715984621201 0.059373065287672423 0 0.38379511093626728 0.057541321173583987 0 0.35745094649220299 0.071162166551879583 0 0.38379511093626728 0.057541321173583987 0 0.35570305772710442 0.079331506841621088 0 0.35745094649220299 0.071162166551879583 0 0.36906995493766531 0.075598271723323673 0 0.36565622954904797 0.048450786066199077 0 0.3611715984621201 0.059373065287672423 0 0.38379511093626728 0.057541321173583987 0 0.36565622954904797 0.048450786066199077 0 0.37011291645613009 0.029222562933862072 0 0.38893363346979709 0.036634666085778513 0 0.36565622954904797 0.048450786066199077 0 0.34726288744975692 0.041290367821911263 0 0.37011291645613009 0.029222562933862072 0 0.34726288744975692 0.041290367821911263 0 0.37011291645613009 0.029222562933862072 0 0.34726288744975692 0.041290367821911263 0 0.34969531884549582 0.05526892049304917 0 0.34069620169517972 0.050293979194499377 0 0.36565622954904797 0.048450786066199077 0 0.3611715984621201 0.059373065287672423 0 0.34969531884549582 0.05526892049304917 0 0.36565622954904797 0.048450786066199077 0 0.34726288744975692 0.041290367821911263 0 0.34969531884549582 0.05526892049304917 0 0.34969531884549582 0.05526892049304917 0 0.34225749269469202 0.060087190794138823 0 0.34069620169517972 0.050293979194499377 0 0.34926038648758639 0.064442132153650286 0 0.34969531884549582 0.05526892049304917 0 0.34225749269469202 0.060087190794138823 0 0.34926038648758639 0.064442132153650286 0 0.3611715984621201 0.059373065287672423 0 0.34969531884549582 0.05526892049304917 0 0.36728282949097618 0.01293150501411711 0 0.3753603645270458 -0.002239530512207313 0 0.35157472876919432 -0.0023507353374160019 0 0.36728282949097618 0.01293150501411711 0 0.37011291645613009 0.029222562933862072 0 0.3464031922400076 0.022870469940533891 0 0.34726288744975692 0.041290367821911263 0 0.37011291645613009 0.029222562933862072 0 0.3464031922400076 0.022870469940533891 0 0.36728282949097618 0.01293150501411711 0 0.3464031922400076 0.022870469940533891 0 0.35157472876919432 -0.0023507353374160019 0 0.3464031922400076 0.022870469940533891 0 0.33315852743782193 0.010040404933224979 0 0.35157472876919432 -0.0023507353374160019 0 0.3464031922400076 0.022870469940533891 0 0.33315852743782193 0.010040404933224979 0 0.3324746123079253 0.034954607265540887 0 0.33315852743782193 0.010040404933224979 0 0.3324746123079253 0.034954607265540887 0 0.33315852743782193 0.010040404933224979 0 0.32247113650671849 0.02269653962674727 0 0.3324746123079253 0.034954607265540887 0 0.32247113650671849 0.02269653962674727 0 0.3324746123079253 0.034954607265540887 0 0.32025611889711297 0.032814247035517538 0 0.32247113650671849 0.02269653962674727 0 0.32025611889711297 0.032814247035517538 0 0.31216272247360283 0.027165950705521451 0 0.32247113650671849 0.02269653962674727 0 0.31242232571985462 0.01316997623739919 0 0.31216272247360283 0.027165950705521451 0 0.33315852743782193 0.010040404933224979 0 0.32247113650671849 0.02269653962674727 0 0.31242232571985462 0.01316997623739919 0 0.33315852743782193 0.010040404933224979 0 0.31242232571985462 0.01316997623739919 0 0.31771646865388548 -0.00077699712902725804 0 0.33179069717802873 0.059868809597856773 0 0.34069620169517972 0.050293979194499377 0 0.3324746123079253 0.034954607265540887 0 0.33179069717802873 0.059868809597856773 0 0.3324746123079253 0.034954607265540887 0 0.33179069717802873 0.059868809597856773 0 0.3324746123079253 0.034954607265540887 0 0.32202457787518041 0.053383495969606932 0 0.33179069717802873 0.059868809597856773 0 0.34225749269469202 0.060087190794138823 0 0.34069620169517972 0.050293979194499377 0 0.34726288744975692 0.041290367821911263 0 0.34069620169517972 0.050293979194499377 0 0.3324746123079253 0.034954607265540887 0 0.34726288744975692 0.041290367821911263 0 0.3464031922400076 0.022870469940533891 0 0.3324746123079253 0.034954607265540887 0 0.3324746123079253 0.034954607265540887 0 0.3189335790187402 0.043819716921624667 0 0.32202457787518041 0.053383495969606932 0 0.3324746123079253 0.034954607265540887 0 0.32025611889711297 0.032814247035517538 0 0.3189335790187402 0.043819716921624667 0 0.32025611889711297 0.032814247035517538 0 0.31181173235977361 0.036672530931615301 0 0.31216272247360283 0.027165950705521451 0 0.32025611889711297 0.032814247035517538 0 0.3189335790187402 0.043819716921624667 0 0.31181173235977361 0.036672530931615301 0 0.3189335790187402 0.043819716921624667 0 0.32202457787518041 0.053383495969606932 0 0.30275232706404398 0.04673013648741503 0 0.31840299332675948 0.062980244567313798 0 0.32202457787518041 0.053383495969606932 0 0.30275232706404398 0.04673013648741503 0 0.32389747121798651 0.063740432063731214 0 0.33179069717802873 0.059868809597856773 0 0.32202457787518041 0.053383495969606932 0 0.32389747121798651 0.063740432063731214 0 0.31840299332675948 0.062980244567313798 0 0.32202457787518041 0.053383495969606932 0 0.31492192797011959 0.066326881045735336 0 0.30275232706404398 0.04673013648741503 0 0.29599060851766668 0.063970480392243914 0 0.31492192797011959 0.066326881045735336 0 0.30275232706404398 0.04673013648741503 0 0.31840299332675948 0.062980244567313798 0 0.31492192797011959 0.066326881045735336 0 0.30275232706404398 0.04673013648741503 0 0.3189335790187402 0.043819716921624667 0 0.31181173235977361 0.036672530931615301 0 0.30275232706404398 0.04673013648741503 0 0.30371085236028439 0.032286036633861849 0 0.30275232706404398 0.04673013648741503 0 0.29058272615796771 0.027133391929095179 0 0.31181173235977361 0.036672530931615301 0 0.30371085236028439 0.032286036633861849 0 0.31216272247360283 0.027165950705521451 0 0.31181173235977361 0.036672530931615301 0 0.30371085236028439 0.032286036633861849 0 0.30275232706404398 0.04673013648741503 0 0.30275232706404398 0.04673013648741503 0 0.29162884931225919 0.040952702218459723 0 0.28886455303798497 0.051361065060802978 0 0.30275232706404398 0.04673013648741503 0 0.29058272615796771 0.027133391929095179 0 0.30275232706404398 0.04673013648741503 0 0.29162884931225919 0.040952702218459723 0 0.29058272615796771 0.027133391929095179 0 0.29162884931225919 0.040952702218459723 0 0.2870688499366264 0.034813823145407201 0 0.29058272615796771 0.027133391929095179 0 0.2870688499366264 0.034813823145407201 0 0.28387949455818262 0.043023915433536661 0 0.28047526043661419 0.034588578107352247 0 0.2870688499366264 0.034813823145407201 0 0.2824670455499525 0.027692054869846251 0 0.28047526043661419 0.034588578107352247 0 0.29162884931225919 0.040952702218459723 0 0.2870688499366264 0.034813823145407201 0 0.28387949455818262 0.043023915433536661 0 0.29162884931225919 0.040952702218459723 0 0.28387949455818262 0.043023915433536661 0 0.28886455303798497 0.051361065060802978 0 0.30275232706404398 0.04673013648741503 0 0.28886455303798497 0.051361065060802978 0 0.29599060851766668 0.063970480392243914 0 0.28886455303798497 0.051361065060802978 0 0.27580763827609789 0.072460775628698598 0 0.28387949455818262 0.043023915433536661 0 0.28886455303798497 0.051361065060802978 0 0.27503097146649591 0.053333837686429908 0 0.30011675037384311 0.0062944628968193304 0 0.31242232571985462 0.01316997623739919 0 0.31771646865388548 -0.00077699712902725804 0 0.30011675037384311 0.0062944628968193304 0 0.31242232571985462 0.01316997623739919 0 0.30379907541711049 0.021209963680539401 0 0.30011675037384311 0.0062944628968193304 0 0.30379907541711049 0.021209963680539401 0 0.29058272615796771 0.027133391929095179 0 0.31242232571985462 0.01316997623739919 0 0.30379907541711049 0.021209963680539401 0 0.31216272247360283 0.027165950705521451 0 0.30371085236028439 0.032286036633861849 0 0.30379907541711049 0.021209963680539401 0 0.31216272247360283 0.027165950705521451 0 0.30371085236028439 0.032286036633861849 0 0.30379907541711049 0.021209963680539401 0 0.29058272615796771 0.027133391929095179 0 0.30011675037384311 0.0062944628968193304 0 0.29058272615796771 0.027133391929095179 0 0.28651695288024381 0.020586265119386809 0 0.30011675037384311 0.0062944628968193304 0 0.29058272615796771 0.027133391929095179 0 0.2870688499366264 0.034813823145407201 0 0.29058272615796771 0.027133391929095179 0 0.2870688499366264 0.034813823145407201 0 0.29058272615796771 0.027133391929095179 0 0.2824670455499525 0.027692054869846251 0 0.29058272615796771 0.027133391929095179 0 0.2824670455499525 0.027692054869846251 0 0.28651695288024381 0.020586265119386809 0 0.29058272615796771 0.027133391929095179 0 0.28651695288024381 0.020586265119386809 0 0.2824670455499525 0.027692054869846251 0 0.28651695288024381 0.020586265119386809 0 0.27647954409878112 0.020174070113966939 0 0.28651695288024381 0.020586265119386809 0 0.28174613359509598 0.010471439282808959 0 0.27647954409878112 0.020174070113966939 0 0.30011675037384311 0.0062944628968193304 0 0.28651695288024381 0.020586265119386809 0 0.28174613359509598 0.010471439282808959 0 0.30011675037384311 0.0062944628968193304 0 0.28174613359509598 0.010471439282808959 0 0.28479156006787321 0.00036456994129905441 0 0.28174613359509598 0.010471439282808959 0 0.28479156006787321 0.00036456994129905441 0 0.2720842441624623 -7.180092166394724e-05 0 0.28174613359509598 0.010471439282808959 0 0.26725043043280389 0.01022411297281222 0 0.2720842441624623 -7.180092166394724e-05 0 0.28174613359509598 0.010471439282808959 0 0.26725043043280389 0.01022411297281222 0 0.27647954409878112 0.020174070113966939 0 0.26716873300170318 0.020758845394569601 0 0.27647954409878112 0.020174070113966939 0 0.27364859534101738 0.029012588163790251 0 0.26725043043280389 0.01022411297281222 0 0.26716873300170318 0.020758845394569601 0 0.27647954409878112 0.020174070113966939 0 0.2824670455499525 0.027692054869846251 0 0.27364859534101738 0.029012588163790251 0 0.28047526043661419 0.034588578107352247 0 0.2824670455499525 0.027692054869846251 0 0.27647954409878112 0.020174070113966939 0 0.27364859534101738 0.029012588163790251 0 0.27364859534101738 0.029012588163790251 0 0.26568353681722873 0.02740131545943161 0 0.26850301582060809 0.035229625515151103 0 0.26716873300170318 0.020758845394569601 0 0.27364859534101738 0.029012588163790251 0 0.26568353681722873 0.02740131545943161 0 0.26725043043280389 0.01022411297281222 0 0.25002232248928719 0.01717386052955492 0 0.25803749237434409 0.02098540971743652 0 0.26568353681722873 0.02740131545943161 0 0.25803749237434409 0.02098540971743652 0 0.26005297657354193 0.032405348366505791 0 0.25063870453790149 0.029346383652999689 0 0.25803749237434409 0.02098540971743652 0 0.26005297657354193 0.032405348366505791 0 0.25063870453790149 0.029346383652999689 0 0.25002232248928719 0.01717386052955492 0 0.25803749237434409 0.02098540971743652 0 0.25002232248928719 0.01717386052955492 0 0.25803749237434409 0.02098540971743652 0 0.26725043043280389 0.01022411297281222 0 0.26716873300170318 0.020758845394569601 0 0.25803749237434409 0.02098540971743652 0 0.26716873300170318 0.020758845394569601 0 0.26568353681722873 0.02740131545943161 0 0.25803749237434409 0.02098540971743652 0 0.26725043043280389 0.01022411297281222 0 0.25002232248928719 0.01717386052955492 0 0.26725043043280389 0.01022411297281222 0 0.25002232248928719 0.01717386052955492 0 0.25666829317726342 0.0030971832143192272 0 0.24383330556498831 0.002616746942265157 0 0.25002232248928719 0.01717386052955492 0 0.25666829317726342 0.0030971832143192272 0 0.26725043043280389 0.01022411297281222 0 0.25666829317726342 0.0030971832143192272 0 0.2720842441624623 -7.180092166394724e-05 0 0.27503097146649591 0.053333837686429908 0 0.26178888915756271 0.058084393917657968 0 0.27580763827609789 0.072460775628698598 0 0.28886455303798497 0.051361065060802978 0 0.27503097146649591 0.053333837686429908 0 0.27580763827609789 0.072460775628698598 0 0.27503097146649591 0.053333837686429908 0 0.2651396084197265 0.043463642753985073 0 0.26178888915756271 0.058084393917657968 0 0.28387949455818262 0.043023915433536661 0 0.27504771320668209 0.039764206702693462 0 0.28047526043661419 0.034588578107352247 0 0.28387949455818262 0.043023915433536661 0 0.27503097146649591 0.053333837686429908 0 0.27504771320668209 0.039764206702693462 0 0.27364859534101738 0.029012588163790251 0 0.27504771320668209 0.039764206702693462 0 0.28047526043661419 0.034588578107352247 0 0.27364859534101738 0.029012588163790251 0 0.27504771320668209 0.039764206702693462 0 0.26850301582060809 0.035229625515151103 0 0.27504771320668209 0.039764206702693462 0 0.26850301582060809 0.035229625515151103 0 0.2651396084197265 0.043463642753985073 0 0.27503097146649591 0.053333837686429908 0 0.27504771320668209 0.039764206702693462 0 0.2651396084197265 0.043463642753985073 0 0.26568353681722873 0.02740131545943161 0 0.26850301582060809 0.035229625515151103 0 0.26005297657354193 0.032405348366505791 0 0.2651396084197265 0.043463642753985073 0 0.26005297657354193 0.032405348366505791 0 0.2531827473692414 0.03809197300851979 0 0.26850301582060809 0.035229625515151103 0 0.2651396084197265 0.043463642753985073 0 0.26005297657354193 0.032405348366505791 0 0.25063870453790149 0.029346383652999689 0 0.26005297657354193 0.032405348366505791 0 0.2531827473692414 0.03809197300851979 0 0.2651396084197265 0.043463642753985073 0 0.2531827473692414 0.03809197300851979 0 0.25201310757198142 0.047924820611042862 0 0.2651396084197265 0.043463642753985073 0 0.25201310757198142 0.047924820611042862 0 0.26178888915756271 0.058084393917657968 0 0.2481050223551334 0.061351245263525929 0 0.25201310757198142 0.047924820611042862 0 0.26178888915756271 0.058084393917657968 0 0.2481050223551334 0.061351245263525929 0 0.26178888915756271 0.058084393917657968 0 0.25768453749212161 0.072224708755609601 0 0.26178888915756271 0.058084393917657968 0 0.25768453749212161 0.072224708755609601 0 0.27580763827609789 0.072460775628698598 0 0.24380715394402469 0.073544394264870264 0 0.25768453749212161 0.072224708755609601 0 0.25208268704043379 0.084684593158753041 0 0.25768453749212161 0.072224708755609601 0 0.26275072351421069 0.093560486196594322 0 0.25208268704043379 0.084684593158753041 0 0.25768453749212161 0.072224708755609601 0 0.26275072351421069 0.093560486196594322 0 0.27580763827609789 0.072460775628698598 0 0.24341297724124619 0.09226928902641815 0 0.26275072351421069 0.093560486196594322 0 0.25208268704043379 0.084684593158753041 0 0.26275072351421069 0.093560486196594322 0 0.27580763827609789 0.072460775628698598 0 0.28029126451005471 0.09962020643140021 0 0.26275072351421069 0.093560486196594322 0 0.27580763827609789 0.072460775628698598 0 0.28886455303798497 0.051361065060802978 0 0.27580763827609789 0.072460775628698598 0 0.29599060851766668 0.063970480392243914 0 0.27580763827609789 0.072460775628698598 0 0.29599060851766668 0.063970480392243914 0 0.29760659624008712 0.082973543738567662 0 0.27580763827609789 0.072460775628698598 0 0.29760659624008712 0.082973543738567662 0 0.28029126451005471 0.09962020643140021 0 0.29760659624008712 0.082973543738567662 0 0.28029126451005471 0.09962020643140021 0 0.29760659624008712 0.082973543738567662 0 0.30790253791108713 0.093714365942257988 0 0.29509544314694203 0.10004270145037041 0 0.29760659624008712 0.082973543738567662 0 0.30790253791108713 0.093714365942257988 0 0.30940759786231781 0.082651348667852023 0 0.31689605830029138 0.085213534464027629 0 0.30790253791108713 0.093714365942257988 0 0.30940759786231781 0.082651348667852023 0 0.31492192797011959 0.066326881045735336 0 0.29760659624008712 0.082973543738567662 0 0.30940759786231781 0.082651348667852023 0 0.31492192797011959 0.066326881045735336 0 0.29599060851766668 0.063970480392243914 0 0.29760659624008712 0.082973543738567662 0 0.31492192797011959 0.066326881045735336 0 0.29760659624008712 0.082973543738567662 0 0.31724038980345759 0.1176146338546214 0 0.30598277209576302 0.11082692802618591 0 0.31423314955742743 0.12810780229369911 0 0.30598277209576302 0.11082692802618591 0 0.29272003595572499 0.12362526711729491 0 0.31423314955742743 0.12810780229369911 0 0.30790253791108713 0.093714365942257988 0 0.30598277209576302 0.11082692802618591 0 0.29509544314694203 0.10004270145037041 0 0.31621496298373308 0.1004990735895869 0 0.30790253791108713 0.093714365942257988 0 0.30598277209576302 0.11082692802618591 0 0.30598277209576302 0.11082692802618591 0 0.29509544314694203 0.10004270145037041 0 0.28369404497771822 0.11307846311344021 0 0.29760659624008712 0.082973543738567662 0 0.29509544314694203 0.10004270145037041 0 0.28029126451005471 0.09962020643140021 0 0.29509544314694203 0.10004270145037041 0 0.28369404497771822 0.11307846311344021 0 0.28029126451005471 0.09962020643140021 0 0.29272003595572499 0.12362526711729491 0 0.27120692235402272 0.1191427319408907 0 0.30598277209576302 0.11082692802618591 0 0.29272003595572499 0.12362526711729491 0 0.28369404497771822 0.11307846311344021 0 0.29272003595572499 0.12362526711729491 0 0.28369404497771822 0.11307846311344021 0 0.27120692235402272 0.1191427319408907 0 0.27120692235402272 0.1191427319408907 0 0.28029126451005471 0.09962020643140021 0 0.26297593278002229 0.1162668691242328 0 0.28369404497771822 0.11307846311344021 0 0.27120692235402272 0.1191427319408907 0 0.28029126451005471 0.09962020643140021 0 0.26275072351421069 0.093560486196594322 0 0.28029126451005471 0.09962020643140021 0 0.26297593278002229 0.1162668691242328 0 0.28029126451005471 0.09962020643140021 0 0.26297593278002229 0.1162668691242328 0 0.24969380875232 0.1146601967644879 0 0.26275072351421069 0.093560486196594322 0 0.24969380875232 0.1146601967644879 0 0.26275072351421069 0.093560486196594322 0 0.26297593278002229 0.1162668691242328 0 0.24969380875232 0.1146601967644879 0 0.24341297724124619 0.09226928902641815 0 0.26275072351421069 0.093560486196594322 0 0.24969380875232 0.1146601967644879 0 0.27120692235402272 0.1191427319408907 0 0.24969380875232 0.1146601967644879 0 0.27120692235402272 0.1191427319408907 0 0.26297593278002229 0.1162668691242328 0 0.24969380875232 0.1146601967644879 0 0.27120692235402272 0.1191427319408907 0 0.25600550264511829 0.1257557650968337 0 0.25639534680445358 0.13692403842137879 0 0.26626962358148842 0.13214560816566159 0 0.2659214718474342 0.14718598352287671 0 0.25600550264511829 0.1257557650968337 0 0.25639534680445358 0.13692403842137879 0 0.26626962358148842 0.13214560816566159 0 0.27120692235402272 0.1191427319408907 0 0.25600550264511829 0.1257557650968337 0 0.26626962358148842 0.13214560816566159 0 0.27120692235402272 0.1191427319408907 0 0.26626962358148842 0.13214560816566159 0 0.28070664172689741 0.13588195392878211 0 0.26626962358148842 0.13214560816566159 0 0.28070664172689741 0.13588195392878211 0 0.2659214718474342 0.14718598352287671 0 0.28070664172689741 0.13588195392878211 0 0.2659214718474342 0.14718598352287671 0 0.28710147836910688 0.1548085592063089 0 0.2659214718474342 0.14718598352287671 0 0.2591009052782921 0.16359052562278589 0 0.28710147836910688 0.1548085592063089 0 0.2466207162892457 0.15590337365697499 0 0.2659214718474342 0.14718598352287671 0 0.2591009052782921 0.16359052562278589 0 0.2466207162892457 0.15590337365697499 0 0.25639534680445358 0.13692403842137879 0 0.2466207162892457 0.15590337365697499 0 0.25639534680445358 0.13692403842137879 0 0.2659214718474342 0.14718598352287671 0 0.2466207162892457 0.15590337365697499 0 0.2591009052782921 0.16359052562278589 0 0.25007346677225739 0.1737250408490377 0 0.2591009052782921 0.16359052562278589 0 0.2580936334585805 0.18014770108339709 0 0.27061858186576149 0.17892814045302399 0 0.24128462716362961 0.18445528132269509 0 0.2580936334585805 0.18014770108339709 0 0.25649420310475318 0.19190509029764649 0 0.2591009052782921 0.16359052562278589 0 0.25007346677225739 0.1737250408490377 0 0.2580936334585805 0.18014770108339709 0 0.2580936334585805 0.18014770108339709 0 0.27061858186576149 0.17892814045302399 0 0.25649420310475318 0.19190509029764649 0 0.27061858186576149 0.17892814045302399 0 0.25649420310475318 0.19190509029764649 0 0.28513684151427271 0.1914628697852705 0 0.2591009052782921 0.16359052562278589 0 0.27061858186576149 0.17892814045302399 0 0.28710147836910688 0.1548085592063089 0 0.2591009052782921 0.16359052562278589 0 0.28710147836910688 0.1548085592063089 0 0.27061858186576149 0.17892814045302399 0 0.29918943320686048 0.17383626895047499 0 0.28710147836910688 0.1548085592063089 0 0.27061858186576149 0.17892814045302399 0 0.29918943320686048 0.17383626895047499 0 0.28513684151427271 0.1914628697852705 0 0.29918943320686048 0.17383626895047499 0 0.31377947992379229 0.19102064927289439 0 0.32108322062380418 0.17580980831703691 0 0.29918943320686048 0.17383626895047499 0 0.28513684151427271 0.1914628697852705 0 0.31377947992379229 0.19102064927289439 0 0.29918943320686048 0.17383626895047499 0 0.30937625671269342 0.1627739459985266 0 0.28710147836910688 0.1548085592063089 0 0.29918943320686048 0.17383626895047499 0 0.30937625671269342 0.1627739459985266 0 0.32108322062380418 0.17580980831703691 0 0.30937625671269342 0.1627739459985266 0 0.28710147836910688 0.1548085592063089 0 0.31510205145992137 0.14602659278983199 0 0.29797267141381562 0.13769003506718339 0 0.28710147836910688 0.1548085592063089 0 0.31510205145992137 0.14602659278983199 0 0.28710147836910688 0.1548085592063089 0 0.31510205145992137 0.14602659278983199 0 0.29797267141381562 0.13769003506718339 0 0.31423314955742743 0.12810780229369911 0 0.31510205145992137 0.14602659278983199 0 0.29272003595572499 0.12362526711729491 0 0.31423314955742743 0.12810780229369911 0 0.29272003595572499 0.12362526711729491 0 0.29797267141381562 0.13769003506718339 0 0.31423314955742743 0.12810780229369911 0 0.29272003595572499 0.12362526711729491 0 0.28070664172689741 0.13588195392878211 0 0.29797267141381562 0.13769003506718339 0 0.29272003595572499 0.12362526711729491 0 0.27120692235402272 0.1191427319408907 0 0.28070664172689741 0.13588195392878211 0 0.28070664172689741 0.13588195392878211 0 0.29797267141381562 0.13769003506718339 0 0.28710147836910688 0.1548085592063089 0 0.27742568286553132 0.25245936662035179 0 0.27386248639977312 0.22696735580278041 0 0.27742568286553132 0.25245936662035179 0 0.28024956339981782 0.24186032032597171 0 0.27386248639977312 0.22696735580278041 0 0.27742568286553132 0.25245936662035179 0 0.2654511878380556 0.24143259320917301 0 0.27386248639977312 0.22696735580278041 0 0.27742568286553132 0.25245936662035179 0 0.28575198675006191 0.25497151312730859 0 0.28024956339981782 0.24186032032597171 0 0.26379261821783018 0.25387857302967709 0 0.27742568286553132 0.25245936662035179 0 0.2654511878380556 0.24143259320917301 0 0.25228557980028771 0.24505571941488249 0 0.2654511878380556 0.24143259320917301 0 0.25988957190685602 0.2288019511781732 0 0.26379261821783018 0.25387857302967709 0 0.25228557980028771 0.24505571941488249 0 0.2654511878380556 0.24143259320917301 0 0.24808779473519629 0.2159556975898955 0 0.25988957190685602 0.2288019511781732 0 0.26147325337277211 0.2156911685935208 0 0.25988957190685602 0.2288019511781732 0 0.27386248639977312 0.22696735580278041 0 0.26147325337277211 0.2156911685935208 0 0.2654511878380556 0.24143259320917301 0 0.25988957190685602 0.2288019511781732 0 0.27386248639977312 0.22696735580278041 0 0.28024956339981782 0.24186032032597171 0 0.27386248639977312 0.22696735580278041 0 0.2861880135576953 0.22884378380454329 0 0.27386248639977312 0.22696735580278041 0 0.26147325337277211 0.2156911685935208 0 0.27029928993401492 0.2014753449852088 0 0.27386248639977312 0.22696735580278041 0 0.27029928993401492 0.2014753449852088 0 0.28802159495452839 0.2146671509577566 0 0.27386248639977312 0.22696735580278041 0 0.27029928993401492 0.2014753449852088 0 0.24808779473519629 0.2159556975898955 0 0.26147325337277211 0.2156911685935208 0 0.25586911737187018 0.20564961163218251 0 0.26147325337277211 0.2156911685935208 0 0.25586911737187018 0.20564961163218251 0 0.27029928993401492 0.2014753449852088 0 0.25586911737187018 0.20564961163218251 0 0.25649420310475318 0.19190509029764649 0 0.27029928993401492 0.2014753449852088 0 0.24427503268031461 0.20400899313591381 0 0.25586911737187018 0.20564961163218251 0 0.25649420310475318 0.19190509029764649 0 0.25649420310475318 0.19190509029764649 0 0.28513684151427271 0.1914628697852705 0 0.25649420310475318 0.19190509029764649 0 0.27029928993401492 0.2014753449852088 0 0.28513684151427271 0.1914628697852705 0 0.27029928993401492 0.2014753449852088 0 0.28513684151427271 0.1914628697852705 0 0.28802159495452839 0.2146671509577566 0 0.28513684151427271 0.1914628697852705 0 0.30743210368295559 0.21116125031716471 0 0.31377947992379229 0.19102064927289439 0 0.28513684151427271 0.1914628697852705 0 0.31377947992379229 0.19102064927289439 0 0.28513684151427271 0.1914628697852705 0 0.30743210368295559 0.21116125031716471 0 0.28802159495452839 0.2146671509577566 0 0.28802159495452839 0.2146671509577566 0 0.2861880135576953 0.22884378380454329 0 0.30261840947666208 0.23188030813166469 0 0.28024956339981782 0.24186032032597171 0 0.2861880135576953 0.22884378380454329 0 0.30261840947666208 0.23188030813166469 0 0.27386248639977312 0.22696735580278041 0 0.28802159495452839 0.2146671509577566 0 0.2861880135576953 0.22884378380454329 0 0.30743210368295559 0.21116125031716471 0 0.30261840947666208 0.23188030813166469 0 0.32498725555350649 0.22190029593735769 0 0.30743210368295559 0.21116125031716471 0 0.28802159495452839 0.2146671509577566 0 0.30261840947666208 0.23188030813166469 0 0.30261840947666208 0.23188030813166469 0 0.30650170760013912 0.24788415124371929 0 0.2926517107920979 0.249430929912732 0 0.30261840947666208 0.23188030813166469 0 0.30650170760013912 0.24788415124371929 0 0.31944769444548832 0.2400216146434743 0 0.28024956339981782 0.24186032032597171 0 0.30261840947666208 0.23188030813166469 0 0.2926517107920979 0.249430929912732 0 0.28024956339981782 0.24186032032597171 0 0.30261840947666208 0.23188030813166469 0 0.28575198675006191 0.25497151312730859 0 0.28024956339981782 0.24186032032597171 0 0.2926517107920979 0.249430929912732 0 0.31789304795525969 0.2578095908594587 0 0.33846220346171901 0.24395801859327129 0 0.31944769444548832 0.2400216146434743 0 0.33846220346171901 0.24395801859327129 0 0.31944769444548832 0.2400216146434743 0 0.32498725555350649 0.22190029593735769 0 0.31789304795525969 0.2578095908594587 0 0.30650170760013912 0.24788415124371929 0 0.31944769444548832 0.2400216146434743 0 0.30261840947666208 0.23188030813166469 0 0.31944769444548832 0.2400216146434743 0 0.32498725555350649 0.22190029593735769 0 0.30261840947666208 0.23188030813166469 0 0.32498725555350649 0.22190029593735769 0 0.32498725555350649 0.22190029593735769 0 0.34735610163035152 0.21192028374305191 0 0.35174257563649508 0.2308938972491853 0 0.33846220346171901 0.24395801859327129 0 0.32498725555350649 0.22190029593735769 0 0.35174257563649508 0.2308938972491853 0 0.32498725555350649 0.22190029593735769 0 0.3289090517857266 0.20512952554091449 0 0.34735610163035152 0.21192028374305191 0 0.32498725555350649 0.22190029593735769 0 0.34735610163035152 0.21192028374305191 0 0.30743210368295559 0.21116125031716471 0 0.32498725555350649 0.22190029593735769 0 0.3289090517857266 0.20512952554091449 0 0.31377947992379229 0.19102064927289439 0 0.34242211833331182 0.19057842876051939 0 0.30743210368295559 0.21116125031716471 0 0.3289090517857266 0.20512952554091449 0 0.31377947992379229 0.19102064927289439 0 0.3289090517857266 0.20512952554091449 0 0.34242211833331182 0.19057842876051939 0 0.34735610163035152 0.21192028374305191 0 0.3289090517857266 0.20512952554091449 0 0.31377947992379229 0.19102064927289439 0 0.34242211833331182 0.19057842876051939 0 0.34242211833331182 0.19057842876051939 0 0.34735610163035152 0.21192028374305191 0 0.34242211833331182 0.19057842876051939 0 0.36853562336372819 0.19017525614040651 0 0.35871305366771128 0.2068533026643822 0 0.34242211833331182 0.19057842876051939 0 0.35871305366771128 0.2068533026643822 0 0.34735610163035152 0.21192028374305191 0 0.34242211833331182 0.19057842876051939 0 0.36853562336372819 0.19017525614040651 0 0.36853562336372819 0.19017525614040651 0 0.36914619322011422 0.20679899193559489 0 0.38077064847089992 0.2082353685791109 0 0.36853562336372819 0.19017525614040651 0 0.36914619322011422 0.20679899193559489 0 0.35871305366771128 0.2068533026643822 0 0.36914619322011422 0.20679899193559489 0 0.36856544737811747 0.22193204035847991 0 0.38077064847089992 0.2082353685791109 0 0.36914619322011422 0.20679899193559489 0 0.35871305366771128 0.2068533026643822 0 0.36856544737811747 0.22193204035847991 0 0.35715752034055698 0.21862781101559539 0 0.35871305366771128 0.2068533026643822 0 0.36856544737811747 0.22193204035847991 0 0.35715752034055698 0.21862781101559539 0 0.35871305366771128 0.2068533026643822 0 0.34735610163035152 0.21192028374305191 0 0.35871305366771128 0.2068533026643822 0 0.34735610163035152 0.21192028374305191 0 0.34735610163035152 0.21192028374305191 0 0.35174257563649508 0.2308938972491853 0 0.35715752034055698 0.21862781101559539 0 0.35174257563649508 0.2308938972491853 0 0.36856544737811747 0.22193204035847991 0 0.35715752034055698 0.21862781101559539 0 0.34735610163035152 0.21192028374305191 0 0.35174257563649508 0.2308938972491853 0 0.35174257563649508 0.2308938972491853 0 0.36856544737811747 0.22193204035847991 0 0.37106722047793989 0.2397696165287235 0 0.35174257563649508 0.2308938972491853 0 0.37106722047793989 0.2397696165287235 0 0.35612904964263831 0.24986751075531891 0 0.36874933774716429 0.25296957264615838 0 0.37106722047793989 0.2397696165287235 0 0.38022180276064033 0.24544879843473291 0 0.36874933774716429 0.25296957264615838 0 0.37106722047793989 0.2397696165287235 0 0.35612904964263831 0.24986751075531891 0 0.37106722047793989 0.2397696165287235 0 0.35612904964263831 0.24986751075531891 0 0.33846220346171901 0.24395801859327129 0 0.35174257563649508 0.2308938972491853 0 0.35612904964263831 0.24986751075531891 0 0.35174257563649508 0.2308938972491853 0 0.35612904964263831 0.24986751075531891 0 0.32967841950996091 0.1521016503559747 0 0.34310262455073592 0.13724462637335511 0 0.31510205145992137 0.14602659278983199 0 0.34310262455073592 0.13724462637335511 0 0.31510205145992137 0.14602659278983199 0 0.32967841950996091 0.1521016503559747 0 0.33970067716556279 0.1530217302564055 0 0.34310262455073592 0.13724462637335511 0 0.33009325198820572 0.12170468814269871 0 0.34310262455073592 0.13724462637335511 0 0.31510205145992137 0.14602659278983199 0 0.33009325198820572 0.12170468814269871 0 0.31423314955742743 0.12810780229369911 0 0.31510205145992137 0.14602659278983199 0 0.32967841950996091 0.1521016503559747 0 0.31510205145992137 0.14602659278983199 0 0.32440509990377409 0.16338850072898001 0 0.30937625671269342 0.1627739459985266 0 0.31510205145992137 0.14602659278983199 0 0.32440509990377409 0.16338850072898001 0 0.30937625671269342 0.1627739459985266 0 0.32440509990377409 0.16338850072898001 0 0.32108322062380418 0.17580980831703691 0 0.31377947992379229 0.19102064927289439 0 0.34242211833331182 0.19057842876051939 0 0.32108322062380418 0.17580980831703691 0 0.34242211833331182 0.19057842876051939 0 0.32108322062380418 0.17580980831703691 0 0.33900225983555798 0.17578589304933831 0 0.34242211833331182 0.19057842876051939 0 0.33900225983555798 0.17578589304933831 0 0.32440509990377409 0.16338850072898001 0 0.32108322062380418 0.17580980831703691 0 0.33900225983555798 0.17578589304933831 0 0.32967841950996091 0.1521016503559747 0 0.32440509990377409 0.16338850072898001 0 0.33965498408157729 0.16390288441514081 0 0.32440509990377409 0.16338850072898001 0 0.33900225983555798 0.17578589304933831 0 0.33965498408157729 0.16390288441514081 0 0.33900225983555798 0.17578589304933831 0 0.33965498408157729 0.16390288441514081 0 0.34779545192554812 0.17154608653106809 0 0.33970067716556279 0.1530217302564055 0 0.33965498408157729 0.16390288441514081 0 0.3505511034114358 0.15977302028026369 0 0.32967841950996091 0.1521016503559747 0 0.33970067716556279 0.1530217302564055 0 0.33965498408157729 0.16390288441514081 0 0.3505511034114358 0.15977302028026369 0 0.34779545192554812 0.17154608653106809 0 0.35955759809757082 0.17592662543834431 0 0.33965498408157729 0.16390288441514081 0 0.3505511034114358 0.15977302028026369 0 0.34779545192554812 0.17154608653106809 0 0.34242211833331182 0.19057842876051939 0 0.36853562336372819 0.19017525614040651 0 0.35146261031114329 0.18080245798393529 0 0.34242211833331182 0.19057842876051939 0 0.33900225983555798 0.17578589304933831 0 0.35146261031114329 0.18080245798393529 0 0.33900225983555798 0.17578589304933831 0 0.34779545192554812 0.17154608653106809 0 0.35146261031114329 0.18080245798393529 0 0.34779545192554812 0.17154608653106809 0 0.35146261031114329 0.18080245798393529 0 0.35955759809757082 0.17592662543834431 0 0.36853562336372819 0.19017525614040651 0 0.35955759809757082 0.17592662543834431 0 0.37454655446549773 0.17396994131058 0 0.36853562336372819 0.19017525614040651 0 0.35146261031114329 0.18080245798393529 0 0.35955759809757082 0.17592662543834431 0 0.35955759809757082 0.17592662543834431 0 0.37454655446549773 0.17396994131058 0 0.37242033160235949 0.16712853482011991 0 0.3505511034114358 0.15977302028026369 0 0.35955759809757082 0.17592662543834431 0 0.37075246981648308 0.1586635380145075 0 0.35955759809757082 0.17592662543834431 0 0.37242033160235949 0.16712853482011991 0 0.37075246981648308 0.1586635380145075 0 0.35955759809757082 0.17592662543834431 0 0.37075246981648308 0.1586635380145075 0 0.3505511034114358 0.15977302028026369 0 0.37075246981648308 0.1586635380145075 0 0.37242033160235949 0.16712853482011991 0 0.37075246981648308 0.1586635380145075 0 0.37738170894334372 0.16196072334646219 0 0.37075246981648308 0.1586635380145075 0 0.35789388213199191 0.1487313443759061 0 0.37735314937896369 0.14848493916988589 0 0.35789388213199191 0.1487313443759061 0 0.37608708709842048 0.14444095849540531 0 0.37075246981648308 0.1586635380145075 0 0.37735314937896369 0.14848493916988589 0 0.36596680235271001 0.14148731051602889 0 0.35789388213199191 0.1487313443759061 0 0.37608708709842048 0.14444095849540531 0 0.35789388213199191 0.1487313443759061 0 0.37608708709842048 0.14444095849540531 0 0.37735314937896369 0.14848493916988589 0 0.3505511034114358 0.15977302028026369 0 0.37075246981648308 0.1586635380145075 0 0.35789388213199191 0.1487313443759061 0 0.36596680235271001 0.14148731051602889 0 0.35789388213199191 0.1487313443759061 0 0.35873875562846508 0.13688524903197319 0 0.34310262455073592 0.13724462637335511 0 0.35789388213199191 0.1487313443759061 0 0.35873875562846508 0.13688524903197319 0 0.33970067716556279 0.1530217302564055 0 0.35789388213199191 0.1487313443759061 0 0.33970067716556279 0.1530217302564055 0 0.3505511034114358 0.15977302028026369 0 0.35789388213199191 0.1487313443759061 0 0.33970067716556279 0.1530217302564055 0 0.34310262455073592 0.13724462637335511 0 0.35789388213199191 0.1487313443759061 0 0.34482278765160079 0.1144763243820098 0 0.35873875562846508 0.13688524903197319 0 0.34482278765160079 0.1144763243820098 0 0.34310262455073592 0.13724462637335511 0 0.35873875562846508 0.13688524903197319 0 0.36929241064131518 0.1227378079441438 0 0.36596680235271001 0.14148731051602889 0 0.35873875562846508 0.13688524903197319 0 0.36929241064131518 0.1227378079441438 0 0.36596680235271001 0.14148731051602889 0 0.37608708709842048 0.14444095849540531 0 0.36929241064131518 0.1227378079441438 0 0.37608708709842048 0.14444095849540531 0 0.38067763983078928 0.14335839812943679 0 0.3943693005704017 0.1222451292809804 0 0.36929241064131518 0.1227378079441438 0 0.38067763983078928 0.14335839812943679 0 0.37608708709842048 0.14444095849540531 0 0.36929241064131518 0.1227378079441438 0 0.38067763983078928 0.14335839812943679 0 0.3943693005704017 0.1222451292809804 0 0.38067763983078928 0.14335839812943679 0 0.40786482802453078 0.1369470193442166 0 0.3943693005704017 0.1222451292809804 0 0.38067763983078928 0.14335839812943679 0 0.40786482802453078 0.1369470193442166 0 0.39598753346520682 0.1465156966852755 0 0.38067763983078928 0.14335839812943679 0 0.40786482802453078 0.1369470193442166 0 0.39598753346520682 0.1465156966852755 0 0.40403216908565931 0.15683577867344761 0 0.40786482802453078 0.1369470193442166 0 0.39598753346520682 0.1465156966852755 0 0.38777268424866368 0.15069742855876761 0 0.40403216908565931 0.15683577867344761 0 0.38777268424866368 0.15069742855876761 0 0.38037435467059438 0.15813509303732831 0 0.40403216908565931 0.15683577867344761 0 0.38777268424866368 0.15069742855876761 0 0.38192281691359659 0.14846067082460959 0 0.38188779419597058 0.1513019174403489 0 0.38777268424866368 0.15069742855876761 0 0.38188779419597058 0.1513019174403489 0 0.38037435467059438 0.15813509303732831 0 0.39598753346520682 0.1465156966852755 0 0.38777268424866368 0.15069742855876761 0 0.38067763983078928 0.14335839812943679 0 0.38777268424866368 0.15069742855876761 0 0.38067763983078928 0.14335839812943679 0 0.38192281691359659 0.14846067082460959 0 0.38067763983078928 0.14335839812943679 0 0.37735314937896369 0.14848493916988589 0 0.38067763983078928 0.14335839812943679 0 0.38192281691359659 0.14846067082460959 0 0.37735314937896369 0.14848493916988589 0 0.38067763983078928 0.14335839812943679 0 0.37608708709842048 0.14444095849540531 0 0.37735314937896369 0.14848493916988589 0 0.37608708709842048 0.14444095849540531 0 0.37735314937896369 0.14848493916988589 0 0.38067763983078928 0.14335839812943679 0 0.37608708709842048 0.14444095849540531 0 0.38188779419597058 0.1513019174403489 0 0.37735314937896369 0.14848493916988589 0 0.38037435467059438 0.15813509303732831 0 0.37735314937896369 0.14848493916988589 0 0.38037435467059438 0.15813509303732831 0 0.37075246981648308 0.1586635380145075 0 0.37735314937896369 0.14848493916988589 0 0.38037435467059438 0.15813509303732831 0 0.38192281691359659 0.14846067082460959 0 0.38188779419597058 0.1513019174403489 0 0.37735314937896369 0.14848493916988589 0 0.38037435467059438 0.15813509303732831 0 0.38107867410583801 0.16038478819731999 0 0.40403216908565931 0.15683577867344761 0 0.37075246981648308 0.1586635380145075 0 0.38037435467059438 0.15813509303732831 0 0.37075246981648308 0.1586635380145075 0 0.38037435467059438 0.15813509303732831 0 0.37738170894334372 0.16196072334646219 0 0.38037435467059438 0.15813509303732831 0 0.38107867410583801 0.16038478819731999 0 0.38107867410583801 0.16038478819731999 0 0.37738170894334372 0.16196072334646219 0 0.37829101373192858 0.16609375041020141 0 0.38037435467059438 0.15813509303732831 0 0.38107867410583801 0.16038478819731999 0 0.37738170894334372 0.16196072334646219 0 0.38107867410583801 0.16038478819731999 0 0.37829101373192858 0.16609375041020141 0 0.38288317362865948 0.16896857321551911 0 0.37454655446549773 0.17396994131058 0 0.37242033160235949 0.16712853482011991 0 0.37829101373192858 0.16609375041020141 0 0.37454655446549773 0.17396994131058 0 0.37829101373192858 0.16609375041020141 0 0.38288317362865948 0.16896857321551911 0 0.37242033160235949 0.16712853482011991 0 0.37738170894334372 0.16196072334646219 0 0.37829101373192858 0.16609375041020141 0 0.38107867410583801 0.16038478819731999 0 0.38288317362865948 0.16896857321551911 0 0.39214035750990678 0.17156628643677291 0 0.36853562336372819 0.19017525614040651 0 0.38255096747238732 0.17889042812471459 0 0.39464912839414462 0.18977208352029451 0 0.36853562336372819 0.19017525614040651 0 0.37454655446549773 0.17396994131058 0 0.38255096747238732 0.17889042812471459 0 0.38255096747238732 0.17889042812471459 0 0.39214035750990678 0.17156628643677291 0 0.39464912839414462 0.18977208352029451 0 0.37454655446549773 0.17396994131058 0 0.38288317362865948 0.16896857321551911 0 0.38255096747238732 0.17889042812471459 0 0.38288317362865948 0.16896857321551911 0 0.38255096747238732 0.17889042812471459 0 0.39214035750990678 0.17156628643677291 0 0.39214035750990678 0.17156628643677291 0 0.41047319434806828 0.17392643751179271 0 0.39464912839414462 0.18977208352029451 0 0.38107867410583801 0.16038478819731999 0 0.40403216908565931 0.15683577867344761 0 0.39214035750990678 0.17156628643677291 0 0.40403216908565931 0.15683577867344761 0 0.39214035750990678 0.17156628643677291 0 0.41047319434806828 0.17392643751179271 0 0.38037435467059438 0.15813509303732831 0 0.40403216908565931 0.15683577867344761 0 0.40403216908565931 0.15683577867344761 0 0.41047319434806828 0.17392643751179271 0 0.42768998350072412 0.15553646430956511 0 0.41047319434806828 0.17392643751179271 0 0.39464912839414462 0.18977208352029451 0 0.42076263342456099 0.18936891090018251 0 0.41047319434806828 0.17392643751179271 0 0.43359092863740922 0.17437013694177439 0 0.42076263342456099 0.18936891090018251 0 0.43359092863740922 0.17437013694177439 0 0.42076263342456099 0.18936891090018251 0 0.44687613845497748 0.18896573828007329 0 0.41047319434806828 0.17392643751179271 0 0.43359092863740922 0.17437013694177439 0 0.42768998350072412 0.15553646430956511 0 0.43359092863740922 0.17437013694177439 0 0.42768998350072412 0.15553646430956511 0 0.44426793100637441 0.16300251437417379 0 0.42768998350072412 0.15553646430956511 0 0.43505201621827261 0.13053564055899741 0 0.40786482802453078 0.1369470193442166 0 0.43505201621827261 0.13053564055899741 0 0.40786482802453078 0.1369470193442166 0 0.41871642365310591 0.11560486525236791 0 0.43505201621827261 0.13053564055899741 0 0.40786482802453078 0.1369470193442166 0 0.40403216908565931 0.15683577867344761 0 0.42768998350072412 0.15553646430956511 0 0.40786482802453078 0.1369470193442166 0 0.40403216908565931 0.15683577867344761 0 0.42768998350072412 0.15553646430956511 0 0.39341303873121242 0.24678323011617179 0 0.38600539131324157 0.2296717223021284 0 0.40487522962822542 0.23010864165139081 0 0.39341303873121242 0.24678323011617179 0 0.40487522962822542 0.23010864165139081 0 0.41178554615744761 0.24996566798861811 0 0.37106722047793989 0.2397696165287235 0 0.38022180276064033 0.24544879843473291 0 0.38600539131324157 0.2296717223021284 0 0.39341303873121242 0.24678323011617179 0 0.38022180276064033 0.24544879843473291 0 0.38600539131324157 0.2296717223021284 0 0.37106722047793989 0.2397696165287235 0 0.38600539131324157 0.2296717223021284 0 0.36856544737811747 0.22193204035847991 0 0.37106722047793989 0.2397696165287235 0 0.38600539131324157 0.2296717223021284 0 0.36856544737811747 0.22193204035847991 0 0.38600539131324157 0.2296717223021284 0 0.38077064847089992 0.2082353685791109 0 0.38600539131324157 0.2296717223021284 0 0.40487522962822542 0.23010864165139081 0 0.39812438914041198 0.2119620577077877 0 0.40487522962822542 0.23010864165139081 0 0.39812438914041198 0.2119620577077877 0 0.41458662541835178 0.21447632051995921 0 0.39812438914041198 0.2119620577077877 0 0.38077064847089992 0.2082353685791109 0 0.39464912839414462 0.18977208352029451 0 0.38600539131324157 0.2296717223021284 0 0.39812438914041198 0.2119620577077877 0 0.38077064847089992 0.2082353685791109 0 0.36853562336372819 0.19017525614040651 0 0.39464912839414462 0.18977208352029451 0 0.36853562336372819 0.19017525614040651 0 0.38077064847089992 0.2082353685791109 0 0.39464912839414462 0.18977208352029451 0 0.39812438914041198 0.2119620577077877 0 0.39464912839414462 0.18977208352029451 0 0.4112285654590202 0.202402731933882 0 0.4112285654590202 0.202402731933882 0 0.42076263342456099 0.18936891090018251 0 0.42802005091763168 0.2064342870211863 0 0.39464912839414462 0.18977208352029451 0 0.4112285654590202 0.202402731933882 0 0.42076263342456099 0.18936891090018251 0 0.39464912839414462 0.18977208352029451 0 0.42076263342456099 0.18936891090018251 0 0.42076263342456099 0.18936891090018251 0 0.44687613845497748 0.18896573828007329 0 0.42076263342456099 0.18936891090018251 0 0.43427807480352049 0.19579029743096379 0 0.44687613845497748 0.18896573828007329 0 0.42076263342456099 0.18936891090018251 0 0.43427807480352049 0.19579029743096379 0 0.42802005091763168 0.2064342870211863 0 0.42802005091763168 0.2064342870211863 0 0.44145347641691107 0.19839225352241269 0 0.43427807480352049 0.19579029743096379 0 0.42802005091763168 0.2064342870211863 0 0.44145347641691107 0.19839225352241269 0 0.42661951128717901 0.22417896075551519 0 0.44145347641691107 0.19839225352241269 0 0.42802005091763168 0.2064342870211863 0 0.42661951128717901 0.22417896075551519 0 0.44145347641691107 0.19839225352241269 0 0.42661951128717901 0.22417896075551519 0 0.44183862115478378 0.21201533645025131 0 0.44145347641691107 0.19839225352241269 0 0.42802005091763168 0.2064342870211863 0 0.41458662541835178 0.21447632051995921 0 0.42661951128717901 0.22417896075551519 0 0.4112285654590202 0.202402731933882 0 0.42802005091763168 0.2064342870211863 0 0.41458662541835178 0.21447632051995921 0 0.39812438914041198 0.2119620577077877 0 0.4112285654590202 0.202402731933882 0 0.41458662541835178 0.21447632051995921 0 0.42802005091763168 0.2064342870211863 0 0.41458662541835178 0.21447632051995921 0 0.40487522962822542 0.23010864165139081 0 0.41458662541835178 0.21447632051995921 0 0.42661951128717901 0.22417896075551519 0 0.42661951128717901 0.22417896075551519 0 0.43911430156745551 0.22996276778906929 0 0.44547853610492238 0.21870672270082839 0 0.42661951128717901 0.22417896075551519 0 0.42858383526649563 0.23893905343671321 0 0.43911430156745551 0.22996276778906929 0 0.42661951128717901 0.22417896075551519 0 0.42858383526649563 0.23893905343671321 0 0.41178554615744761 0.24996566798861811 0 0.42858383526649563 0.23893905343671321 0 0.42737299831718117 0.24823533300850881 0 0.41178554615744761 0.24996566798861811 0 0.42858383526649563 0.23893905343671321 0 0.441333682256834 0.24169477390961819 0 0.43911430156745551 0.22996276778906929 0 0.42858383526649563 0.23893905343671321 0 0.43693198086611568 0.24988686751899869 0 0.42737299831718117 0.24823533300850881 0 0.42858383526649563 0.23893905343671321 0 0.43693198086611568 0.24988686751899869 0 0.441333682256834 0.24169477390961819 0 0.40487522962822542 0.23010864165139081 0 0.42661951128717901 0.22417896075551519 0 0.41178554615744761 0.24996566798861811 0 0.42661951128717901 0.22417896075551519 0 0.41178554615744761 0.24996566798861811 0 0.44497368486995031 0.25093448219240683 0 0.46331693628827503 0.25329151255521942 0 0.45640798310942332 0.23374383750852551 0 0.46331693628827503 0.25329151255521942 0 0.45640798310942332 0.23374383750852551 0 0.47378110348746472 0.2443580390247613 0 0.44497368486995031 0.25093448219240683 0 0.441333682256834 0.24169477390961819 0 0.45640798310942332 0.23374383750852551 0 0.441333682256834 0.24169477390961819 0 0.43911430156745551 0.22996276778906929 0 0.45640798310942332 0.23374383750852551 0 0.44497368486995031 0.25093448219240683 0 0.45640798310942332 0.23374383750852551 0 0.44497368486995031 0.25093448219240683 0 0.43693198086611568 0.24988686751899869 0 0.441333682256834 0.24169477390961819 0 0.43911430156745551 0.22996276778906929 0 0.45640798310942332 0.23374383750852551 0 0.44547853610492238 0.21870672270082839 0 0.45640798310942332 0.23374383750852551 0 0.45607036047230681 0.21820008938410751 0 0.44547853610492238 0.21870672270082839 0 0.45640798310942332 0.23374383750852551 0 0.46784228134889683 0.21655319282464461 0 0.4772461259401557 0.23107150337917631 0 0.45640798310942332 0.23374383750852551 0 0.46784228134889683 0.21655319282464461 0 0.45640798310942332 0.23374383750852551 0 0.46784228134889683 0.21655319282464461 0 0.45607036047230681 0.21820008938410751 0 0.46784228134889683 0.21655319282464461 0 0.45380296081012339 0.2067834088222491 0 0.46532983621603469 0.1992831650932548 0 0.46784228134889683 0.21655319282464461 0 0.45380296081012339 0.2067834088222491 0 0.45607036047230681 0.21820008938410751 0 0.45380296081012339 0.2067834088222491 0 0.45607036047230681 0.21820008938410751 0 0.44547853610492238 0.21870672270082839 0 0.42661951128717901 0.22417896075551519 0 0.44547853610492238 0.21870672270082839 0 0.44183862115478378 0.21201533645025131 0 0.45380296081012339 0.2067834088222491 0 0.44547853610492238 0.21870672270082839 0 0.44183862115478378 0.21201533645025131 0 0.45380296081012339 0.2067834088222491 0 0.44183862115478378 0.21201533645025131 0 0.44145347641691107 0.19839225352241269 0 0.45380296081012339 0.2067834088222491 0 0.44145347641691107 0.19839225352241269 0 0.45451477539979429 0.1983152402258252 0 0.44145347641691107 0.19839225352241269 0 0.44687613845497748 0.18896573828007329 0 0.45747282815610862 0.1888021334653843 0 0.44145347641691107 0.19839225352241269 0 0.45747282815610862 0.1888021334653843 0 0.44145347641691107 0.19839225352241269 0 0.45747282815610862 0.1888021334653843 0 0.45451477539979429 0.1983152402258252 0 0.44145347641691107 0.19839225352241269 0 0.44687613845497748 0.18896573828007329 0 0.43427807480352049 0.19579029743096379 0 0.44145347641691107 0.19839225352241269 0 0.44687613845497748 0.18896573828007329 0 0.44687613845497748 0.18896573828007329 0 0.45747282815610862 0.1888021334653843 0 0.45747282815610862 0.1888021334653843 0 0.46532983621603469 0.1992831650932548 0 0.47451570900704843 0.18853900437111171 0 0.45747282815610862 0.1888021334653843 0 0.47451570900704843 0.18853900437111171 0 0.45747282815610862 0.1888021334653843 0 0.45451477539979429 0.1983152402258252 0 0.46532983621603469 0.1992831650932548 0 0.45380296081012339 0.2067834088222491 0 0.45451477539979429 0.1983152402258252 0 0.46532983621603469 0.1992831650932548 0 0.46532983621603469 0.1992831650932548 0 0.47451570900704843 0.18853900437111171 0 0.47927657958837028 0.19936254814076371 0 0.47451570900704843 0.18853900437111171 0 0.47927657958837028 0.19936254814076371 0 0.48662582975594992 0.19230603539292121 0 0.48662582975594992 0.19230603539292121 0 0.5 0.2009771830070132 0 0.49173435995425852 0.18334790984776059 0 0.48662582975594992 0.19230603539292121 0 0.5 0.2009771830070132 0 0.48868882280681009 0.2038300275232329 0 0.47927657958837028 0.19936254814076371 0 0.48662582975594992 0.19230603539292121 0 0.48868882280681009 0.2038300275232329 0 0.5 0.2009771830070132 0 0.48868882280681009 0.2038300275232329 0 0.48676428987928227 0.2167410373439938 0 0.5 0.2009771830070132 0 0.48676428987928227 0.2167410373439938 0 0.50000000000000155 0.23026485596107271 0 0.47927657958837028 0.19936254814076371 0 0.48868882280681009 0.2038300275232329 0 0.48676428987928227 0.2167410373439938 0 0.46784228134889683 0.21655319282464461 0 0.47927657958837028 0.19936254814076371 0 0.48676428987928227 0.2167410373439938 0 0.46784228134889683 0.21655319282464461 0 0.47927657958837028 0.19936254814076371 0 0.46784228134889683 0.21655319282464461 0 0.46532983621603469 0.1992831650932548 0 0.47927657958837028 0.19936254814076371 0 0.46784228134889683 0.21655319282464461 0 0.48676428987928227 0.2167410373439938 0 0.4772461259401557 0.23107150337917631 0 0.48676428987928227 0.2167410373439938 0 0.4772461259401557 0.23107150337917631 0 0.48841902910403301 0.22836032934566811 0 0.48676428987928227 0.2167410373439938 0 0.50000000000000155 0.23026485596107271 0 0.48841902910403301 0.22836032934566811 0 0.50000000000000155 0.23026485596107271 0 0.48841902910403301 0.22836032934566811 0 0.49083009385330129 0.24295669943955281 0 0.4772461259401557 0.23107150337917631 0 0.48841902910403301 0.22836032934566811 0 0.49083009385330129 0.24295669943955281 0 0.50000000000000089 0.25800513136781161 0 0.50000000000000155 0.23026485596107271 0 0.49083009385330129 0.24295669943955281 0 0.50000000000000155 0.23026485596107271 0 0.49083009385330129 0.24295669943955281 0 0.4816601877065998 0.25564854291803202 0 0.49083009385330129 0.24295669943955281 0 0.45640798310942332 0.23374383750852551 0 0.4772461259401557 0.23107150337917631 0 0.47378110348746472 0.2443580390247613 0 0.4816601877065998 0.25564854291803202 0 0.49083009385330129 0.24295669943955281 0 0.47378110348746472 0.2443580390247613 0 0.4772461259401557 0.23107150337917631 0 0.49083009385330129 0.24295669943955281 0 0.47378110348746472 0.2443580390247613 0 0.45147320845049482 0.14537983003568461 0 0.46059342599644443 0.16512021385214451 0 0.4743107135379101 0.14127468942421489 0 0.46059342599644443 0.16512021385214451 0 0.4743107135379101 0.14127468942421489 0 0.45147320845049482 0.14537983003568461 0 0.4743107135379101 0.14127468942421489 0 0.46223920441201422 0.12412426177377819 0 0.43505201621827261 0.13053564055899741 0 0.45147320845049482 0.14537983003568461 0 0.46223920441201422 0.12412426177377819 0 0.43505201621827261 0.13053564055899741 0 0.46223920441201422 0.12412426177377819 0 0.42768998350072412 0.15553646430956511 0 0.45147320845049482 0.14537983003568461 0 0.44426793100637441 0.16300251437417379 0 0.42768998350072412 0.15553646430956511 0 0.43505201621827261 0.13053564055899741 0 0.45147320845049482 0.14537983003568461 0 0.44426793100637441 0.16300251437417379 0 0.44633210602380158 0.1728646508620417 0 0.46059342599644443 0.16512021385214451 0 0.45147320845049482 0.14537983003568461 0 0.44426793100637441 0.16300251437417379 0 0.46059342599644443 0.16512021385214451 0 0.43359092863740922 0.17437013694177439 0 0.44426793100637441 0.16300251437417379 0 0.44633210602380158 0.1728646508620417 0 0.44687613845497748 0.18896573828007329 0 0.44633210602380158 0.1728646508620417 0 0.46059342599644443 0.16512021385214451 0 0.43359092863740922 0.17437013694177439 0 0.44687613845497748 0.18896573828007329 0 0.44633210602380158 0.1728646508620417 0 0.45747282815610862 0.1888021334653843 0 0.47451570900704843 0.18853900437111171 0 0.47307697730735238 0.17946057794025991 0 0.44687613845497748 0.18896573828007329 0 0.46059342599644443 0.16512021385214451 0 0.44687613845497748 0.18896573828007329 0 0.46128196467772881 0.17876760773798681 0 0.46059342599644443 0.16512021385214451 0 0.44687613845497748 0.18896573828007329 0 0.45747282815610862 0.1888021334653843 0 0.46128196467772881 0.17876760773798681 0 0.46128196467772881 0.17876760773798681 0 0.46757977172783172 0.17170322168690871 0 0.47307697730735238 0.17946057794025991 0 0.45747282815610862 0.1888021334653843 0 0.46128196467772881 0.17876760773798681 0 0.47307697730735238 0.17946057794025991 0 0.45747282815610862 0.1888021334653843 0 0.47307697730735238 0.17946057794025991 0 0.46128196467772881 0.17876760773798681 0 0.46059342599644443 0.16512021385214451 0 0.46757977172783172 0.17170322168690871 0 0.46059342599644443 0.16512021385214451 0 0.46757977172783172 0.17170322168690871 0 0.47536671892980142 0.16346448721724369 0 0.46757977172783172 0.17170322168690871 0 0.47536671892980142 0.16346448721724369 0 0.47307697730735238 0.17946057794025991 0 0.47536671892980142 0.16346448721724369 0 0.47307697730735238 0.17946057794025991 0 0.48868112645859602 0.17011902241513521 0 0.47536671892980142 0.16346448721724369 0 0.48868112645859602 0.17011902241513521 0 0.4876493294717224 0.15368001615446161 0 0.46059342599644443 0.16512021385214451 0 0.47536671892980142 0.16346448721724369 0 0.4743107135379101 0.14127468942421489 0 0.47307697730735238 0.17946057794025991 0 0.48868112645859602 0.17011902241513521 0 0.47307697730735238 0.17946057794025991 0 0.48336484355674653 0.18164779837077971 0 0.48868112645859602 0.17011902241513521 0 0.47451570900704843 0.18853900437111171 0 0.48662582975594992 0.19230603539292121 0 0.48336484355674653 0.18164779837077971 0 0.47451570900704843 0.18853900437111171 0 0.47307697730735238 0.17946057794025991 0 0.48336484355674653 0.18164779837077971 0 0.5 0.2009771830070132 0 0.49173435995425852 0.18334790984776059 0 0.5 0.1716895100529536 0 0.48662582975594992 0.19230603539292121 0 0.48336484355674653 0.18164779837077971 0 0.49173435995425852 0.18334790984776059 0 0.48336484355674653 0.18164779837077971 0 0.49173435995425852 0.18334790984776059 0 0.48868112645859602 0.17011902241513521 0 0.49173435995425852 0.18334790984776059 0 0.48868112645859602 0.17011902241513521 0 0.5 0.1716895100529536 0 0.48868112645859602 0.17011902241513521 0 0.5 0.1716895100529536 0 0.4876493294717224 0.15368001615446161 0 0.5 0.1716895100529536 0 0.4876493294717224 0.15368001615446161 0 0.5 0.1424018370988942 0 0.4876493294717224 0.15368001615446161 0 0.5 0.1424018370988942 0 0.48753741790402638 0.13313055071832819 0 0.47536671892980142 0.16346448721724369 0 0.4876493294717224 0.15368001615446161 0 0.4743107135379101 0.14127468942421489 0 0.4876493294717224 0.15368001615446161 0 0.4743107135379101 0.14127468942421489 0 0.48753741790402638 0.13313055071832819 0 0.4743107135379101 0.14127468942421489 0 0.48753741790402638 0.13313055071832819 0 0.46223920441201422 0.12412426177377819 0 0.5 0.1424018370988942 0 0.48753741790402638 0.13313055071832819 0 0.5 0.1131141641448349 0 0.48942639260575582 0.11771288298855891 0 0.5 0.1131141641448349 0 0.48586542263211369 0.1006679886595719 0 0.48753741790402638 0.13313055071832819 0 0.48942639260575582 0.11771288298855891 0 0.5 0.1131141641448349 0 0.5 0.1131141641448349 0 0.48586542263211369 0.1006679886595719 0 0.5 0.083826491190775454 0 0.48942639260575582 0.11771288298855891 0 0.48586542263211369 0.1006679886595719 0 0.47318495674998218 0.10897224777476 0 0.48586542263211369 0.1006679886595719 0 0.47318495674998218 0.10897224777476 0 0.47035283423632263 0.093502340535330158 0 0.48942639260575582 0.11771288298855891 0 0.46223920441201422 0.12412426177377819 0 0.48942639260575582 0.11771288298855891 0 0.47318495674998218 0.10897224777476 0 0.46223920441201422 0.12412426177377819 0 0.48753741790402638 0.13313055071832819 0 0.48942639260575582 0.11771288298855891 0 0.46223920441201422 0.12412426177377819 0 0.48666031398303172 0.069581576328270708 0 0.5 0.083826491190775454 0 0.49999999999999423 0.054538818236716018 0 0.48586542263211369 0.1006679886595719 0 0.5 0.083826491190775454 0 0.4829470632115942 0.083914642292617012 0 0.48666031398303172 0.069581576328270708 0 0.5 0.083826491190775454 0 0.4829470632115942 0.083914642292617012 0 0.48586542263211369 0.1006679886595719 0 0.47035283423632263 0.093502340535330158 0 0.4829470632115942 0.083914642292617012 0 0.47035283423632263 0.093502340535330158 0 0.4829470632115942 0.083914642292617012 0 0.47185674520650278 0.071994814749136826 0 0.48666031398303172 0.069581576328270708 0 0.47185674520650278 0.071994814749136826 0 0.479668401882692 0.053302600547307351 0 0.48666031398303172 0.069581576328270708 0 0.4829470632115942 0.083914642292617012 0 0.47185674520650278 0.071994814749136826 0 0.47185674520650278 0.071994814749136826 0 0.44789218430387351 0.083441434887983335 0 0.45873862449018082 0.051487102685673969 0 0.44789218430387351 0.083441434887983335 0 0.43544428278923569 0.058905322735609181 0 0.45873862449018082 0.051487102685673969 0 0.47035283423632263 0.093502340535330158 0 0.47185674520650278 0.071994814749136826 0 0.44789218430387351 0.083441434887983335 0 0.47318495674998218 0.10897224777476 0 0.46223920441201422 0.12412426177377819 0 0.45723911086882391 0.1085289477312814 0 0.47035283423632263 0.093502340535330158 0 0.44789218430387351 0.083441434887983335 0 0.45723911086882391 0.1085289477312814 0 0.47318495674998218 0.10897224777476 0 0.47035283423632263 0.093502340535330158 0 0.45723911086882391 0.1085289477312814 0 0.44789218430387351 0.083441434887983335 0 0.44104277615735588 0.1050597577747009 0 0.42590865963806129 0.097709784122788843 0 0.44789218430387351 0.083441434887983335 0 0.45723911086882391 0.1085289477312814 0 0.44104277615735588 0.1050597577747009 0 0.43505201621827261 0.13053564055899741 0 0.46223920441201422 0.12412426177377819 0 0.45723911086882391 0.1085289477312814 0 0.43505201621827261 0.13053564055899741 0 0.45723911086882391 0.1085289477312814 0 0.44104277615735588 0.1050597577747009 0 0.43505201621827261 0.13053564055899741 0 0.44104277615735588 0.1050597577747009 0 0.41871642365310591 0.11560486525236791 0 0.40786482802453078 0.1369470193442166 0 0.41871642365310591 0.11560486525236791 0 0.3943693005704017 0.1222451292809804 0 0.41871642365310591 0.11560486525236791 0 0.40806096131001302 0.1011318604325233 0 0.3943693005704017 0.1222451292809804 0 0.41871642365310591 0.11560486525236791 0 0.40806096131001302 0.1011318604325233 0 0.42590865963806129 0.097709784122788843 0 0.44104277615735588 0.1050597577747009 0 0.41871642365310591 0.11560486525236791 0 0.42590865963806129 0.097709784122788843 0 0.44789218430387351 0.083441434887983335 0 0.42590865963806129 0.097709784122788843 0 0.42175262204962438 0.080018591584066212 0 0.42175262204962438 0.080018591584066212 0 0.43544428278923569 0.058905322735609181 0 0.44789218430387351 0.083441434887983335 0 0.42175262204962438 0.080018591584066212 0 0.43544428278923569 0.058905322735609181 0 0.41009135886811687 0.064264172172047981 0 0.42175262204962438 0.080018591584066212 0 0.43544428278923569 0.058905322735609181 0 0.41009135886811687 0.064264172172047981 0 0.42175262204962438 0.080018591584066212 0 0.39932550318512539 0.080935149571692067 0 0.40806096131001302 0.1011318604325233 0 0.42175262204962438 0.080018591584066212 0 0.40806096131001302 0.1011318604325233 0 0.42175262204962438 0.080018591584066212 0 0.39932550318512539 0.080935149571692067 0 0.40806096131001302 0.1011318604325233 0 0.42590865963806129 0.097709784122788843 0 0.42175262204962438 0.080018591584066212 0 0.41009135886811687 0.064264172172047981 0 0.39932550318512539 0.080935149571692067 0 0.38379511093626728 0.057541321173583987 0 0.36906995493766531 0.075598271723323673 0 0.37970449975279158 0.082113922961407404 0 0.38379511093626728 0.057541321173583987 0 0.39932550318512539 0.080935149571692067 0 0.37970449975279158 0.082113922961407404 0 0.38379511093626728 0.057541321173583987 0 0.39932550318512539 0.080935149571692067 0 0.37970449975279158 0.082113922961407404 0 0.38301829976201879 0.099719525933377698 0 0.36869615977996029 0.087842441088126305 0 0.37970449975279158 0.082113922961407404 0 0.38301829976201879 0.099719525933377698 0 0.36929241064131518 0.1227378079441438 0 0.38301829976201879 0.099719525933377698 0 0.3943693005704017 0.1222451292809804 0 0.40806096131001302 0.1011318604325233 0 0.3943693005704017 0.1222451292809804 0 0.40806096131001302 0.1011318604325233 0 0.38301829976201879 0.099719525933377698 0 0.3943693005704017 0.1222451292809804 0 0.40806096131001302 0.1011318604325233 0 0.39932550318512539 0.080935149571692067 0 0.38301829976201879 0.099719525933377698 0 0.39296294546250338 0.017154758045812891 0 0.38893363346979709 0.036634666085778513 0 0.41093532303450292 0.023518092499924662 0 0.39296294546250338 0.017154758045812891 0 0.41581297446887672 0.0050869531577636962 0 0.39296294546250338 0.017154758045812891 0 0.41581297446887672 0.0050869531577636962 0 0.39490932262264011 -0.0054305835501937518 0 0.36728282949097618 0.01293150501411711 0 0.39296294546250338 0.017154758045812891 0 0.3753603645270458 -0.002239530512207313 0 0.39296294546250338 0.017154758045812891 0 0.39490932262264011 -0.0054305835501937518 0 0.3753603645270458 -0.002239530512207313 0 0.37011291645613009 0.029222562933862072 0 0.39296294546250338 0.017154758045812891 0 0.37011291645613009 0.029222562933862072 0 0.39296294546250338 0.017154758045812891 0 0.38893363346979709 0.036634666085778513 0 0.36728282949097618 0.01293150501411711 0 0.37011291645613009 0.029222562933862072 0 0.39296294546250338 0.017154758045812891 0 0.36565622954904797 0.048450786066199077 0 0.38893363346979709 0.036634666085778513 0 0.38379511093626728 0.057541321173583987 0 0.38379511093626728 0.057541321173583987 0 0.41013927538033162 0.043920475795288419 0 0.41009135886811687 0.064264172172047981 0 0.38379511093626728 0.057541321173583987 0 0.41013927538033162 0.043920475795288419 0 0.38893363346979709 0.036634666085778513 0 0.41013927538033162 0.043920475795288419 0 0.41093532303450292 0.023518092499924662 0 0.38893363346979709 0.036634666085778513 0 0.38379511093626728 0.057541321173583987 0 0.41013927538033162 0.043920475795288419 0 0.41013927538033162 0.043920475795288419 0 0.43648343982439591 0.030299630416992809 0 0.41093532303450292 0.023518092499924662 0 0.41009135886811687 0.064264172172047981 0 0.41013927538033162 0.043920475795288419 0 0.43544428278923569 0.058905322735609181 0 0.41013927538033162 0.043920475795288419 0 0.43648343982439591 0.030299630416992809 0 0.41013927538033162 0.043920475795288419 0 0.43544428278923569 0.058905322735609181 0 0.43648343982439591 0.030299630416992809 0 0.43648343982439591 0.030299630416992809 0 0.41093532303450292 0.023518092499924662 0 0.42754049421977203 0.01497009747005815 0 0.43648343982439591 0.030299630416992809 0 0.42754049421977203 0.01497009747005815 0 0.44487090903384952 0.01423525699983501 0 0.41093532303450292 0.023518092499924662 0 0.41581297446887672 0.0050869531577636962 0 0.42754049421977203 0.01497009747005815 0 0.39296294546250338 0.017154758045812891 0 0.41093532303450292 0.023518092499924662 0 0.41581297446887672 0.0050869531577636962 0 0.42959982473723479 0.0017105542757745861 0 0.42754049421977203 0.01497009747005815 0 0.44487090903384952 0.01423525699983501 0 0.41581297446887672 0.0050869531577636962 0 0.42959982473723479 0.0017105542757745861 0 0.42754049421977203 0.01497009747005815 0 0.42959982473723479 0.0017105542757745861 0 0.44487090903384952 0.01423525699983501 0 0.4422630663340108 -0.0047019040667098536 0 0.46021967293112381 0.0046004669216276163 0 0.45647555219520741 0.011729600809480109 0 0.4422630663340108 -0.0047019040667098536 0 0.44487090903384952 0.01423525699983501 0 0.45647555219520741 0.011729600809480109 0 0.4422630663340108 -0.0047019040667098536 0 0.43648343982439591 0.030299630416992809 0 0.46358537836246688 0.01551025709475698 0 0.43648343982439591 0.030299630416992809 0 0.46358537836246688 0.01551025709475698 0 0.449135943528847 0.037792053887152191 0 0.43648343982439591 0.030299630416992809 0 0.44487090903384952 0.01423525699983501 0 0.46358537836246688 0.01551025709475698 0 0.45965909639974972 0.03061711368990324 0 0.46358537836246688 0.01551025709475698 0 0.449135943528847 0.037792053887152191 0 0.46358537836246688 0.01551025709475698 0 0.449135943528847 0.037792053887152191 0 0.45965909639974972 0.03061711368990324 0 0.46688330494249047 0.02676181730752504 0 0.46462802605498171 0.018889954986285779 0 0.46688330494249047 0.02676181730752504 0 0.46462802605498171 0.018889954986285779 0 0.47041053786744491 0.019040952013854012 0 0.45965909639974972 0.03061711368990324 0 0.46462802605498171 0.018889954986285779 0 0.46358537836246688 0.01551025709475698 0 0.46462802605498171 0.018889954986285779 0 0.46358537836246688 0.01551025709475698 0 0.46462802605498171 0.018889954986285779 0 0.46358537836246688 0.01551025709475698 0 0.47041053786744491 0.019040952013854012 0 0.44487090903384952 0.01423525699983501 0 0.46358537836246688 0.01551025709475698 0 0.45647555219520741 0.011729600809480109 0 0.46021967293112381 0.0046004669216276163 0 0.47646145617731089 0.0096296114292879278 0 0.46460724578838358 -0.012987046164557949 0 0.46358537836246688 0.01551025709475698 0 0.46688128335349982 0.0104277963547412 0 0.46021967293112381 0.0046004669216276163 0 0.47319131211630527 0.011320389161652809 0 0.46358537836246688 0.01551025709475698 0 0.46688128335349982 0.0104277963547412 0 0.47319131211630527 0.011320389161652809 0 0.46358537836246688 0.01551025709475698 0 0.46688128335349982 0.0104277963547412 0 0.46021967293112381 0.0046004669216276163 0 0.46688128335349982 0.0104277963547412 0 0.46021967293112381 0.0046004669216276163 0 0.47319131211630527 0.011320389161652809 0 0.46358537836246688 0.01551025709475698 0 0.46021967293112381 0.0046004669216276163 0 0.46358537836246688 0.01551025709475698 0 0.47319131211630527 0.011320389161652809 0 0.46358537836246688 0.01551025709475698 0 0.46021967293112381 0.0046004669216276163 0 0.45647555219520741 0.011729600809480109 0 0.43544428278923569 0.058905322735609181 0 0.449135943528847 0.037792053887152191 0 0.43544428278923569 0.058905322735609181 0 0.449135943528847 0.037792053887152191 0 0.45873862449018082 0.051487102685673969 0 0.43544428278923569 0.058905322735609181 0 0.43648343982439591 0.030299630416992809 0 0.449135943528847 0.037792053887152191 0 0.45965909639974972 0.03061711368990324 0 0.449135943528847 0.037792053887152191 0 0.45873862449018082 0.051487102685673969 0 0.45965909639974972 0.03061711368990324 0 0.45873862449018082 0.051487102685673969 0 0.47017326965223333 0.038204735160315348 0 0.45965909639974972 0.03061711368990324 0 0.46688330494249047 0.02676181730752504 0 0.47017326965223333 0.038204735160315348 0 0.47185674520650278 0.071994814749136826 0 0.45873862449018082 0.051487102685673969 0 0.479668401882692 0.053302600547307351 0 0.45873862449018082 0.051487102685673969 0 0.479668401882692 0.053302600547307351 0 0.47017326965223333 0.038204735160315348 0 0.479668401882692 0.053302600547307351 0 0.47017326965223333 0.038204735160315348 0 0.48944843442537661 0.034407477738248343 0 0.47017326965223333 0.038204735160315348 0 0.48944843442537661 0.034407477738248343 0 0.4750716761945481 0.026817274529616311 0 0.48944843442537661 0.034407477738248343 0 0.49999999999999423 0.054538818236716018 0 0.48944843442537661 0.034407477738248343 0 0.49999999999999423 0.054538818236716018 0 0.50000000000000344 0.025208556675715081 0 0.48666031398303172 0.069581576328270708 0 0.479668401882692 0.053302600547307351 0 0.49999999999999423 0.054538818236716018 0 0.479668401882692 0.053302600547307351 0 0.48944843442537661 0.034407477738248343 0 0.49999999999999423 0.054538818236716018 0 0.46021967293112381 0.0046004669216276163 0 0.47319131211630527 0.011320389161652809 0 0.47646145617731089 0.0096296114292879278 0 0.47889686885076438 0.01427613723977761 0 0.47646145617731089 0.0096296114292879278 0 0.46358537836246688 0.01551025709475698 0 0.47319131211630527 0.011320389161652809 0 0.47041053786744491 0.019040952013854012 0 0.47889686885076438 0.01427613723977761 0 0.47319131211630527 0.011320389161652809 0 0.47041053786744491 0.019040952013854012 0 0.47319131211630527 0.011320389161652809 0 0.47646145617731089 0.0096296114292879278 0 0.47889686885076438 0.01427613723977761 0 0.47319131211630527 0.011320389161652809 0 0.47646145617731089 0.0096296114292879278 0 0.47889686885076438 0.01427613723977761 0 0.47319131211630527 0.011320389161652809 0 0.47889686885076438 0.01427613723977761 0 0.47041053786744491 0.019040952013854012 0 0.4750716761945481 0.026817274529616311 0 0.48944843442537661 0.034407477738248343 0 0.47889686885076438 0.01427613723977761 0 0.4750716761945481 0.026817274529616311 0 0.48944843442537661 0.034407477738248343 0 0.47889686885076438 0.01427613723977761 0 0.46688330494249047 0.02676181730752504 0 0.47041053786744491 0.019040952013854012 0 0.4750716761945481 0.026817274529616311 0 0.46688330494249047 0.02676181730752504 0 0.47017326965223333 0.038204735160315348 0 0.4750716761945481 0.026817274529616311 0 0.47889686885076438 0.01427613723977761 0 0.50000000000000344 0.025208556675715081 0 0.48944843442537661 0.034407477738248343 0 0.47889686885076438 0.01427613723977761 0 0.50000000000000344 0.025208556675715081 0 0.47646145617731089 0.0096296114292879278 0 0.49999999999999822 -0.002540630922477811 0 0.47853388744714898 -0.0069682460959904456 0 0.47646145617731089 0.0096296114292879278 0 0.49999999999999822 -0.002540630922477811 0 0.47889686885076438 0.01427613723977761 0 0.50000000000000344 0.025208556675715081 0 0.49999999999999822 -0.002540630922477811 0 0.47889686885076438 0.01427613723977761 0 0.47646145617731089 0.0096296114292879278 0 0.49999999999999822 -0.002540630922477811 0 0.49999999999999822 -0.002540630922477811 0 0.47853388744714898 -0.0069682460959904456 0 0.48597513841658802 -0.018196437468284709 0 0.47646145617731089 0.0096296114292879278 0 0.46460724578838358 -0.012987046164557949 0 0.47646145617731089 0.0096296114292879278 0 0.47853388744714898 -0.0069682460959904456 0 0.46460724578838358 -0.012987046164557949 0 0.47853388744714898 -0.0069682460959904456 0 0.47401285400354243 -0.020052730173707099 0 0.48597513841658802 -0.018196437468284709 0 0.47853388744714898 -0.0069682460959904456 0 0.47401285400354243 -0.020052730173707099 0 0.46460724578838358 -0.012987046164557949 0 0.47401285400354243 -0.020052730173707099 0 0.48597513841658802 -0.018196437468284709 0 0.48002306938842648 -0.034940126112794123 0 0.47401285400354243 -0.020052730173707099 0 0.48002306938842648 -0.034940126112794123 0 0.46666536629872252 -0.02848072132024447 0 0.5 -0.02863508656465041 0 0.48597513841658802 -0.018196437468284709 0 0.48002306938842648 -0.034940126112794123 0 0.49999999999999822 -0.002540630922477811 0 0.5 -0.02863508656465041 0 0.48597513841658802 -0.018196437468284709 0 0.5 -0.02863508656465041 0 0.5 -0.054729542206823023 0 0.48002306938842648 -0.034940126112794123 0 0.5 -0.054729542206823023 0 0.47431951727910832 -0.052711660426816222 0 0.48002306938842648 -0.034940126112794123 0 0.5 -0.054729542206823023 0 0.47431951727910832 -0.052711660426816222 0 0.47834424896325262 -0.068207531670666927 0 0.47431951727910832 -0.052711660426816222 0 0.47834424896325262 -0.068207531670666927 0 0.46387241906120469 -0.063025139353023327 0 0.47431951727910832 -0.052711660426816222 0 0.48002306938842648 -0.034940126112794123 0 0.46576962608298839 -0.041289822303095358 0 0.48002306938842648 -0.034940126112794123 0 0.46576962608298839 -0.041289822303095358 0 0.46666536629872252 -0.02848072132024447 0 0.46576962608298839 -0.041289822303095358 0 0.46020846909201713 -0.037521549594986221 0 0.46666536629872252 -0.02848072132024447 0 0.46576962608298839 -0.041289822303095358 0 0.45564584858690249 -0.044711950998202091 0 0.45790774017877772 -0.054077800914494573 0 0.46576962608298839 -0.041289822303095358 0 0.45564584858690249 -0.044711950998202091 0 0.46020846909201713 -0.037521549594986221 0 0.45564584858690249 -0.044711950998202091 0 0.46020846909201713 -0.037521549594986221 0 0.45275303539945472 -0.03560370375840298 0 0.46020846909201713 -0.037521549594986221 0 0.45275303539945472 -0.03560370375840298 0 0.46666536629872252 -0.02848072132024447 0 0.47431951727910832 -0.052711660426816222 0 0.46576962608298839 -0.041289822303095358 0 0.45790774017877772 -0.054077800914494573 0 0.47431951727910832 -0.052711660426816222 0 0.45790774017877772 -0.054077800914494573 0 0.46387241906120469 -0.063025139353023327 0 0.45790774017877772 -0.054077800914494573 0 0.46387241906120469 -0.063025139353023327 0 0.45031657052948848 -0.06645487765265258 0 0.44099418322892597 -0.057718135494764483 0 0.44740267979632531 -0.03694526802263378 0 0.45564584858690249 -0.044711950998202091 0 0.45790774017877772 -0.054077800914494573 0 0.44099418322892597 -0.057718135494764483 0 0.45790774017877772 -0.054077800914494573 0 0.44099418322892597 -0.057718135494764483 0 0.45031657052948848 -0.06645487765265258 0 0.44052076511401572 -0.050706106954222209 0 0.44099418322892597 -0.057718135494764483 0 0.44740267979632531 -0.03694526802263378 0 0.44052076511401572 -0.050706106954222209 0 0.43959553745592023 -0.045911694106791537 0 0.43722596203870961 -0.051559979451696387 0 0.44052076511401572 -0.050706106954222209 0 0.43951361479779988 -0.056095499382071923 0 0.43715384320465978 -0.05432622661621779 0 0.44052076511401572 -0.050706106954222209 0 0.43715384320465978 -0.05432622661621779 0 0.43722596203870961 -0.051559979451696387 0 0.44052076511401572 -0.050706106954222209 0 0.43951361479779988 -0.056095499382071923 0 0.44099418322892597 -0.057718135494764483 0 0.43951361479779988 -0.056095499382071923 0 0.43758710110408761 -0.05784614936474379 0 0.43715384320465978 -0.05432622661621779 0 0.43951361479779988 -0.056095499382071923 0 0.43758710110408761 -0.05784614936474379 0 0.44099418322892597 -0.057718135494764483 0 0.44099418322892597 -0.057718135494764483 0 0.45275303539945472 -0.03560370375840298 0 0.44740267979632531 -0.03694526802263378 0 0.44099418322892597 -0.057718135494764483 0 0.45275303539945472 -0.03560370375840298 0 0.45564584858690249 -0.044711950998202091 0 0.44099418322892597 -0.057718135494764483 0 0.45275303539945472 -0.03560370375840298 0 0.44052076511401572 -0.050706106954222209 0 0.44740267979632531 -0.03694526802263378 0 0.43959553745592023 -0.045911694106791537 0 0.44740267979632531 -0.03694526802263378 0 0.43959553745592023 -0.045911694106791537 0 0.43946437554906548 -0.03856605959691578 0 0.43959553745592023 -0.045911694106791537 0 0.43946437554906548 -0.03856605959691578 0 0.43506186501516741 -0.0423635157051101 0 0.43946437554906548 -0.03856605959691578 0 0.44083086492745899 -0.032269914736827048 0 0.43443093055045551 -0.035339905413216438 0 0.44740267979632531 -0.03694526802263378 0 0.44083086492745899 -0.032269914736827048 0 0.44429016126760262 -0.02497078818911341 0 0.44740267979632531 -0.03694526802263378 0 0.43946437554906548 -0.03856605959691578 0 0.44083086492745899 -0.032269914736827048 0 0.45275303539945472 -0.03560370375840298 0 0.44740267979632531 -0.03694526802263378 0 0.45381117636372448 -0.016172400550503101 0 0.44740267979632531 -0.03694526802263378 0 0.45381117636372448 -0.016172400550503101 0 0.44740267979632531 -0.03694526802263378 0 0.44429016126760262 -0.02497078818911341 0 0.45381117636372448 -0.016172400550503101 0 0.44083086492745899 -0.032269914736827048 0 0.44429016126760262 -0.02497078818911341 0 0.43488794644631062 -0.02528078619796599 0 0.44429016126760262 -0.02497078818911341 0 0.43991176202970922 -0.017026030811867911 0 0.45381117636372448 -0.016172400550503101 0 0.44429016126760262 -0.02497078818911341 0 0.43991176202970922 -0.017026030811867911 0 0.43488794644631062 -0.02528078619796599 0 0.46021967293112381 0.0046004669216276163 0 0.4422630663340108 -0.0047019040667098536 0 0.46021967293112381 0.0046004669216276163 0 0.4422630663340108 -0.0047019040667098536 0 0.45381117636372448 -0.016172400550503101 0 0.43991176202970922 -0.017026030811867911 0 0.4422630663340108 -0.0047019040667098536 0 0.45381117636372448 -0.016172400550503101 0 0.46021967293112381 0.0046004669216276163 0 0.46460724578838358 -0.012987046164557949 0 0.45381117636372448 -0.016172400550503101 0 0.46021967293112381 0.0046004669216276163 0 0.45381117636372448 -0.016172400550503101 0 0.45275303539945472 -0.03560370375840298 0 0.46460724578838358 -0.012987046164557949 0 0.45381117636372448 -0.016172400550503101 0 0.45275303539945472 -0.03560370375840298 0 0.46460724578838358 -0.012987046164557949 0 0.45275303539945472 -0.03560370375840298 0 0.46460724578838358 -0.012987046164557949 0 0.46666536629872252 -0.02848072132024447 0 0.47401285400354243 -0.020052730173707099 0 0.46460724578838358 -0.012987046164557949 0 0.46666536629872252 -0.02848072132024447 0 0.48271308261450419 -0.1140446154385273 0 0.46770785044197799 -0.125513236056432 0 0.5 -0.13301290913334091 0 0.48271308261450419 -0.1140446154385273 0 0.46575287221559308 -0.10756248733645089 0 0.46770785044197799 -0.125513236056432 0 0.48271308261450419 -0.1140446154385273 0 0.5 -0.1069184534911682 0 0.5 -0.13301290913334091 0 0.5 -0.1069184534911682 0 0.48010469041495019 -0.097215991175244376 0 0.5 -0.080823997848995632 0 0.48271308261450419 -0.1140446154385273 0 0.5 -0.1069184534911682 0 0.48010469041495019 -0.097215991175244376 0 0.48271308261450419 -0.1140446154385273 0 0.48010469041495019 -0.097215991175244376 0 0.46575287221559308 -0.10756248733645089 0 0.48010469041495019 -0.097215991175244376 0 0.46120210396249811 -0.091435634993322218 0 0.46575287221559308 -0.10756248733645089 0 0.48010469041495019 -0.097215991175244376 0 0.47538834410178799 -0.082918990020906927 0 0.46120210396249811 -0.091435634993322218 0 0.48010469041495019 -0.097215991175244376 0 0.47538834410178799 -0.082918990020906927 0 0.5 -0.080823997848995632 0 0.5 -0.054729542206823023 0 0.5 -0.080823997848995632 0 0.47834424896325262 -0.068207531670666927 0 0.47538834410178799 -0.082918990020906927 0 0.5 -0.080823997848995632 0 0.47834424896325262 -0.068207531670666927 0 0.47538834410178799 -0.082918990020906927 0 0.47834424896325262 -0.068207531670666927 0 0.46232456624901042 -0.075453062668442664 0 0.47834424896325262 -0.068207531670666927 0 0.46387241906120469 -0.063025139353023327 0 0.46232456624901042 -0.075453062668442664 0 0.46232456624901042 -0.075453062668442664 0 0.45031657052948848 -0.06645487765265258 0 0.44853843184137959 -0.080864156870868634 0 0.46387241906120469 -0.063025139353023327 0 0.46232456624901042 -0.075453062668442664 0 0.45031657052948848 -0.06645487765265258 0 0.45031657052948848 -0.06645487765265258 0 0.43532311163423859 -0.086326696479696069 0 0.45031657052948848 -0.06645487765265258 0 0.43889578044896249 -0.072959738607672436 0 0.43532311163423859 -0.086326696479696069 0 0.45031657052948848 -0.06645487765265258 0 0.44853843184137959 -0.080864156870868634 0 0.43532311163423859 -0.086326696479696069 0 0.44099418322892597 -0.057718135494764483 0 0.45031657052948848 -0.06645487765265258 0 0.43889578044896249 -0.072959738607672436 0 0.44853843184137959 -0.080864156870868634 0 0.44301582967448272 -0.088504235678022861 0 0.43532311163423859 -0.086326696479696069 0 0.44301582967448272 -0.088504235678022861 0 0.4403518330287236 -0.09377568886620867 0 0.43532311163423859 -0.086326696479696069 0 0.44301582967448272 -0.088504235678022861 0 0.44784994219358892 -0.093050400495318097 0 0.4403518330287236 -0.09377568886620867 0 0.44853843184137959 -0.080864156870868634 0 0.44301582967448272 -0.088504235678022861 0 0.44784994219358892 -0.093050400495318097 0 0.44853843184137959 -0.080864156870868634 0 0.44784994219358892 -0.093050400495318097 0 0.46120210396249811 -0.091435634993322218 0 0.47538834410178799 -0.082918990020906927 0 0.46232456624901042 -0.075453062668442664 0 0.46120210396249811 -0.091435634993322218 0 0.46232456624901042 -0.075453062668442664 0 0.44853843184137959 -0.080864156870868634 0 0.46120210396249811 -0.091435634993322218 0 0.46120210396249811 -0.091435634993322218 0 0.46575287221559308 -0.10756248733645089 0 0.45329939843300171 -0.1033468034245566 0 0.46575287221559308 -0.10756248733645089 0 0.45329939843300171 -0.1033468034245566 0 0.45480778488788959 -0.1162471941364618 0 0.44784994219358892 -0.093050400495318097 0 0.46120210396249811 -0.091435634993322218 0 0.45329939843300171 -0.1033468034245566 0 0.44784994219358892 -0.093050400495318097 0 0.45329939843300171 -0.1033468034245566 0 0.4428240660824736 -0.101831721121091 0 0.4403518330287236 -0.09377568886620867 0 0.4428240660824736 -0.101831721121091 0 0.43344614978074819 -0.10050276906886239 0 0.44784994219358892 -0.093050400495318097 0 0.4403518330287236 -0.09377568886620867 0 0.4428240660824736 -0.101831721121091 0 0.4428240660824736 -0.101831721121091 0 0.43673690200515652 -0.1089353193365426 0 0.43344614978074819 -0.10050276906886239 0 0.4428240660824736 -0.101831721121091 0 0.44481911008674407 -0.1116789176086628 0 0.43673690200515652 -0.1089353193365426 0 0.45329939843300171 -0.1033468034245566 0 0.4428240660824736 -0.101831721121091 0 0.44481911008674407 -0.1116789176086628 0 0.45329939843300171 -0.1033468034245566 0 0.44481911008674407 -0.1116789176086628 0 0.45480778488788959 -0.1162471941364618 0 0.44481911008674407 -0.1116789176086628 0 0.44413539188490669 -0.1211722855947488 0 0.45480778488788959 -0.1162471941364618 0 0.44481911008674407 -0.1116789176086628 0 0.43874653503439409 -0.11591087607650211 0 0.43673690200515652 -0.1089353193365426 0 0.44481911008674407 -0.1116789176086628 0 0.43874653503439409 -0.11591087607650211 0 0.44413539188490669 -0.1211722855947488 0 0.43874653503439409 -0.11591087607650211 0 0.44413539188490669 -0.1211722855947488 0 0.43503295817135279 -0.12198269533632081 0 0.44413539188490669 -0.1211722855947488 0 0.43503295817135279 -0.12198269533632081 0 0.43938202007872162 -0.12895672564213301 0 0.44413539188490669 -0.1211722855947488 0 0.45480778488788959 -0.1162471941364618 0 0.45162710275900469 -0.1296606788713969 0 0.46575287221559308 -0.10756248733645089 0 0.45480778488788959 -0.1162471941364618 0 0.46770785044197799 -0.125513236056432 0 0.45480778488788959 -0.1162471941364618 0 0.46770785044197799 -0.125513236056432 0 0.45162710275900469 -0.1296606788713969 0 0.41719040423266812 -0.1034536765399381 0 0.42032965273898881 -0.1061985153067396 0 0.40533619384373909 -0.12607033413378321 0 0.41719040423266812 -0.1034536765399381 0 0.40525280316865309 -0.1097080469193875 0 0.40533619384373909 -0.12607033413378321 0 0.41872096395110298 -0.1202207506010656 0 0.42032965273898881 -0.1061985153067396 0 0.40533619384373909 -0.12607033413378321 0 0.41719040423266812 -0.1034536765399381 0 0.40533619384373909 -0.12607033413378321 0 0.42032965273898881 -0.1061985153067396 0 0.40533619384373909 -0.12607033413378321 0 0.41872096395110298 -0.1202207506010656 0 0.40533619384373909 -0.12607033413378321 0 0.41523998180273902 -0.12791649865929711 0 0.41872096395110298 -0.1202207506010656 0 0.42519118766132968 -0.114008730553155 0 0.42032965273898881 -0.1061985153067396 0 0.41872096395110298 -0.1202207506010656 0 0.42697885102370903 -0.1211993388057796 0 0.42519118766132968 -0.114008730553155 0 0.41872096395110298 -0.1202207506010656 0 0.42697885102370903 -0.1211993388057796 0 0.42252482061961988 -0.12745043777918089 0 0.42697885102370903 -0.1211993388057796 0 0.43503295817135279 -0.12198269533632081 0 0.43013357272441433 -0.12862847271597691 0 0.42697885102370903 -0.1211993388057796 0 0.43503295817135279 -0.12198269533632081 0 0.43182192556139182 -0.1147100177658489 0 0.43874653503439409 -0.11591087607650211 0 0.43503295817135279 -0.12198269533632081 0 0.43182192556139182 -0.1147100177658489 0 0.43874653503439409 -0.11591087607650211 0 0.43182192556139182 -0.1147100177658489 0 0.43673690200515652 -0.1089353193365426 0 0.43182192556139182 -0.1147100177658489 0 0.42936186333789372 -0.1086827134896894 0 0.43673690200515652 -0.1089353193365426 0 0.43182192556139182 -0.1147100177658489 0 0.42519118766132968 -0.114008730553155 0 0.42936186333789372 -0.1086827134896894 0 0.42519118766132968 -0.114008730553155 0 0.42936186333789372 -0.1086827134896894 0 0.42032965273898881 -0.1061985153067396 0 0.42697885102370903 -0.1211993388057796 0 0.43182192556139182 -0.1147100177658489 0 0.42519118766132968 -0.114008730553155 0 0.41719040423266812 -0.1034536765399381 0 0.42032965273898881 -0.1061985153067396 0 0.43532311163423859 -0.086326696479696069 0 0.42032965273898881 -0.1061985153067396 0 0.43532311163423859 -0.086326696479696069 0 0.43344614978074819 -0.10050276906886239 0 0.42032965273898881 -0.1061985153067396 0 0.43532311163423859 -0.086326696479696069 0 0.42936186333789372 -0.1086827134896894 0 0.43344614978074819 -0.10050276906886239 0 0.42032965273898881 -0.1061985153067396 0 0.42936186333789372 -0.1086827134896894 0 0.43673690200515652 -0.1089353193365426 0 0.43344614978074819 -0.10050276906886239 0 0.41719040423266812 -0.1034536765399381 0 0.41202285462645122 -0.088486133747168488 0 0.40525280316865309 -0.1097080469193875 0 0.41202285462645122 -0.088486133747168488 0 0.41579171212166027 -0.07124962732662371 0 0.39910947368672961 -0.077436215328196278 0 0.41202285462645122 -0.088486133747168488 0 0.43168956328162322 -0.069570026575891453 0 0.41719040423266812 -0.1034536765399381 0 0.41202285462645122 -0.088486133747168488 0 0.42904461462159699 -0.080837018946093075 0 0.41719040423266812 -0.1034536765399381 0 0.42904461462159699 -0.080837018946093075 0 0.41202285462645122 -0.088486133747168488 0 0.42904461462159699 -0.080837018946093075 0 0.43168956328162322 -0.069570026575891453 0 0.41719040423266812 -0.1034536765399381 0 0.43532311163423859 -0.086326696479696069 0 0.42904461462159699 -0.080837018946093075 0 0.4403518330287236 -0.09377568886620867 0 0.43344614978074819 -0.10050276906886239 0 0.43532311163423859 -0.086326696479696069 0 0.43889578044896249 -0.072959738607672436 0 0.43532311163423859 -0.086326696479696069 0 0.42904461462159699 -0.080837018946093075 0 0.44099418322892597 -0.057718135494764483 0 0.42904461462159699 -0.080837018946093075 0 0.44099418322892597 -0.057718135494764483 0 0.43889578044896249 -0.072959738607672436 0 0.42904461462159699 -0.080837018946093075 0 0.44099418322892597 -0.057718135494764483 0 0.42904461462159699 -0.080837018946093075 0 0.43168956328162322 -0.069570026575891453 0 0.43168956328162322 -0.069570026575891453 0 0.41579171212166027 -0.07124962732662371 0 0.4316727231862173 -0.062038889477620242 0 0.44099418322892597 -0.057718135494764483 0 0.43168956328162322 -0.069570026575891453 0 0.4316727231862173 -0.062038889477620242 0 0.41579171212166027 -0.07124962732662371 0 0.4316727231862173 -0.062038889477620242 0 0.4046129519338848 -0.058556382951007048 0 0.41202285462645122 -0.088486133747168488 0 0.43168956328162322 -0.069570026575891453 0 0.41579171212166027 -0.07124962732662371 0 0.41579171212166027 -0.07124962732662371 0 0.39910947368672961 -0.077436215328196278 0 0.4046129519338848 -0.058556382951007048 0 0.39910947368672961 -0.077436215328196278 0 0.38266702029011079 -0.069584589852629386 0 0.4046129519338848 -0.058556382951007048 0 0.39910947368672961 -0.077436215328196278 0 0.38266702029011079 -0.069584589852629386 0 0.38336154674462591 -0.084320215053997061 0 0.38266702029011079 -0.069584589852629386 0 0.38336154674462591 -0.084320215053997061 0 0.36730885022169701 -0.078027563565833929 0 0.38336154674462591 -0.084320215053997061 0 0.38253559560800299 -0.096404818490796365 0 0.37074559077415842 -0.092579114707896898 0 0.38336154674462591 -0.084320215053997061 0 0.39379268204641849 -0.091279798404613421 0 0.38253559560800299 -0.096404818490796365 0 0.39910947368672961 -0.077436215328196278 0 0.38336154674462591 -0.084320215053997061 0 0.39379268204641849 -0.091279798404613421 0 0.41202285462645122 -0.088486133747168488 0 0.39910947368672961 -0.077436215328196278 0 0.39379268204641849 -0.091279798404613421 0 0.41202285462645122 -0.088486133747168488 0 0.39379268204641849 -0.091279798404613421 0 0.39235614597127899 -0.10740224091844559 0 0.41202285462645122 -0.088486133747168488 0 0.39235614597127899 -0.10740224091844559 0 0.41202285462645122 -0.088486133747168488 0 0.39235614597127899 -0.10740224091844559 0 0.40525280316865309 -0.1097080469193875 0 0.39235614597127899 -0.10740224091844559 0 0.38253559560800299 -0.096404818490796365 0 0.37242201250353291 -0.1064427233690288 0 0.39379268204641849 -0.091279798404613421 0 0.39235614597127899 -0.10740224091844559 0 0.38253559560800299 -0.096404818490796365 0 0.38253559560800299 -0.096404818490796365 0 0.37074559077415842 -0.092579114707896898 0 0.37242201250353291 -0.1064427233690288 0 0.39235614597127899 -0.10740224091844559 0 0.37242201250353291 -0.1064427233690288 0 0.37268943731610737 -0.1263183480897232 0 0.39235614597127899 -0.10740224091844559 0 0.39436998035166659 -0.1196443801233277 0 0.37268943731610737 -0.1263183480897232 0 0.39235614597127899 -0.10740224091844559 0 0.37268943731610737 -0.1263183480897232 0 0.39436998035166659 -0.1196443801233277 0 0.37268943731610737 -0.1263183480897232 0 0.39621532145855459 -0.1287229305552991 0 0.39436998035166659 -0.1196443801233277 0 0.40525280316865309 -0.1097080469193875 0 0.40533619384373909 -0.12607033413378321 0 0.39235614597127899 -0.10740224091844559 0 0.39436998035166659 -0.1196443801233277 0 0.40525280316865309 -0.1097080469193875 0 0.39436998035166659 -0.1196443801233277 0 0.40533619384373909 -0.12607033413378321 0 0.39621532145855459 -0.1287229305552991 0 0.40634985313978439 -0.023306646043384619 0 0.42430645973689762 -0.01400427505504722 0 0.40634985313978439 -0.023306646043384619 0 0.42430645973689762 -0.01400427505504722 0 0.4228093183824343 -0.030307905817174591 0 0.41581297446887672 0.0050869531577636962 0 0.41034465249204971 -0.0094136378727154753 0 0.39490932262264011 -0.0054305835501937518 0 0.41581297446887672 0.0050869531577636962 0 0.41034465249204971 -0.0094136378727154753 0 0.42430645973689762 -0.01400427505504722 0 0.40634985313978439 -0.023306646043384619 0 0.41034465249204971 -0.0094136378727154753 0 0.42430645973689762 -0.01400427505504722 0 0.43991176202970922 -0.017026030811867911 0 0.4422630663340108 -0.0047019040667098536 0 0.42430645973689762 -0.01400427505504722 0 0.41581297446887672 0.0050869531577636962 0 0.42959982473723479 0.0017105542757745861 0 0.42430645973689762 -0.01400427505504722 0 0.42959982473723479 0.0017105542757745861 0 0.4422630663340108 -0.0047019040667098536 0 0.42430645973689762 -0.01400427505504722 0 0.4422630663340108 -0.0047019040667098536 0 0.42430645973689762 -0.01400427505504722 0 0.43991176202970922 -0.017026030811867911 0 0.42430645973689762 -0.01400427505504722 0 0.43488794644631062 -0.02528078619796599 0 0.42430645973689762 -0.01400427505504722 0 0.4228093183824343 -0.030307905817174591 0 0.43488794644631062 -0.02528078619796599 0 0.44083086492745899 -0.032269914736827048 0 0.43488794644631062 -0.02528078619796599 0 0.43443093055045551 -0.035339905413216438 0 0.4228093183824343 -0.030307905817174591 0 0.43488794644631062 -0.02528078619796599 0 0.43443093055045551 -0.035339905413216438 0 0.43946437554906548 -0.03856605959691578 0 0.43443093055045551 -0.035339905413216438 0 0.43506186501516741 -0.0423635157051101 0 0.43959553745592023 -0.045911694106791537 0 0.43506186501516741 -0.0423635157051101 0 0.43430295452468198 -0.047200646318383138 0 0.43506186501516741 -0.0423635157051101 0 0.42749294657531328 -0.043089674891661801 0 0.43430295452468198 -0.047200646318383138 0 0.43443093055045551 -0.035339905413216438 0 0.43506186501516741 -0.0423635157051101 0 0.42749294657531328 -0.043089674891661801 0 0.4228093183824343 -0.030307905817174591 0 0.43443093055045551 -0.035339905413216438 0 0.42749294657531328 -0.043089674891661801 0 0.43758710110408761 -0.05784614936474379 0 0.44099418322892597 -0.057718135494764483 0 0.4316727231862173 -0.062038889477620242 0 0.4316727231862173 -0.062038889477620242 0 0.43525351786128441 -0.05696616990526622 0 0.43282209831206148 -0.052783454639306199 0 0.43758710110408761 -0.05784614936474379 0 0.4316727231862173 -0.062038889477620242 0 0.43525351786128441 -0.05696616990526622 0 0.43525351786128441 -0.05696616990526622 0 0.43282209831206148 -0.052783454639306199 0 0.43715384320465978 -0.05432622661621779 0 0.43758710110408761 -0.05784614936474379 0 0.43525351786128441 -0.05696616990526622 0 0.43715384320465978 -0.05432622661621779 0 0.42749294657531328 -0.043089674891661801 0 0.43282209831206148 -0.052783454639306199 0 0.43430295452468198 -0.047200646318383138 0 0.43282209831206148 -0.052783454639306199 0 0.43715384320465978 -0.05432622661621779 0 0.43722596203870961 -0.051559979451696387 0 0.43282209831206148 -0.052783454639306199 0 0.43722596203870961 -0.051559979451696387 0 0.43430295452468198 -0.047200646318383138 0 0.43959553745592023 -0.045911694106791537 0 0.43722596203870961 -0.051559979451696387 0 0.43430295452468198 -0.047200646318383138 0 0.42749294657531328 -0.043089674891661801 0 0.43282209831206148 -0.052783454639306199 0 0.42159584527325678 -0.051546124701995467 0 0.4316727231862173 -0.062038889477620242 0 0.43282209831206148 -0.052783454639306199 0 0.42159584527325678 -0.051546124701995467 0 0.4316727231862173 -0.062038889477620242 0 0.4046129519338848 -0.058556382951007048 0 0.42159584527325678 -0.051546124701995467 0 0.41137850635880691 -0.041262221550382013 0 0.4046129519338848 -0.058556382951007048 0 0.4316727231862173 -0.062038889477620242 0 0.42159584527325678 -0.051546124701995467 0 0.4046129519338848 -0.058556382951007048 0 0.42749294657531328 -0.043089674891661801 0 0.42159584527325678 -0.051546124701995467 0 0.41137850635880691 -0.041262221550382013 0 0.4228093183824343 -0.030307905817174591 0 0.42749294657531328 -0.043089674891661801 0 0.41137850635880691 -0.041262221550382013 0 0.40634985313978439 -0.023306646043384619 0 0.4228093183824343 -0.030307905817174591 0 0.41137850635880691 -0.041262221550382013 0 0.40634985313978439 -0.023306646043384619 0 0.41137850635880691 -0.041262221550382013 0 0.39263795945577329 -0.04313896800191909 0 0.4046129519338848 -0.058556382951007048 0 0.37755318068155241 -0.055073876424393861 0 0.41137850635880691 -0.041262221550382013 0 0.39263795945577329 -0.04313896800191909 0 0.4046129519338848 -0.058556382951007048 0 0.39263795945577329 -0.04313896800191909 0 0.4046129519338848 -0.058556382951007048 0 0.37755318068155241 -0.055073876424393861 0 0.38266702029011079 -0.069584589852629386 0 0.4046129519338848 -0.058556382951007048 0 0.37755318068155241 -0.055073876424393861 0 0.39263795945577329 -0.04313896800191909 0 0.3885343900287509 -0.02593549977816087 0 0.36951389972898541 -0.03876343483797106 0 0.39263795945577329 -0.04313896800191909 0 0.37755318068155241 -0.055073876424393861 0 0.36951389972898541 -0.03876343483797106 0 0.3885343900287509 -0.02593549977816087 0 0.36951389972898541 -0.03876343483797106 0 0.3885343900287509 -0.02593549977816087 0 0.38297128969477762 -0.012939257040746671 0 0.3671991890843837 -0.020702254478002551 0 0.3885343900287509 -0.02593549977816087 0 0.3671991890843837 -0.020702254478002551 0 0.36951389972898541 -0.03876343483797106 0 0.40634985313978439 -0.023306646043384619 0 0.39263795945577329 -0.04313896800191909 0 0.3885343900287509 -0.02593549977816087 0 0.40634985313978439 -0.023306646043384619 0 0.3885343900287509 -0.02593549977816087 0 0.39490932262264011 -0.0054305835501937518 0 0.40634985313978439 -0.023306646043384619 0 0.41034465249204971 -0.0094136378727154753 0 0.39490932262264011 -0.0054305835501937518 0 0.38297128969477762 -0.012939257040746671 0 0.3753603645270458 -0.002239530512207313 0 0.3671991890843837 -0.020702254478002551 0 0.39490932262264011 -0.0054305835501937518 0 0.38297128969477762 -0.012939257040746671 0 0.3753603645270458 -0.002239530512207313 0 0.3885343900287509 -0.02593549977816087 0 0.39490932262264011 -0.0054305835501937518 0 0.38297128969477762 -0.012939257040746671 0 0.3753603645270458 -0.002239530512207313 0 0.3671991890843837 -0.020702254478002551 0 0.35157472876919432 -0.0023507353374160019 0 0.3671991890843837 -0.020702254478002551 0 0.34753532717003649 -0.0247455229762003 0 0.35157472876919432 -0.0023507353374160019 0 0.3671991890843837 -0.020702254478002551 0 0.34753532717003649 -0.0247455229762003 0 0.35594287762267679 -0.03497285234975385 0 0.33315852743782193 0.010040404933224979 0 0.35157472876919432 -0.0023507353374160019 0 0.32989637931282628 -0.01573591803784969 0 0.34753532717003649 -0.0247455229762003 0 0.35157472876919432 -0.0023507353374160019 0 0.32989637931282628 -0.01573591803784969 0 0.34753532717003649 -0.0247455229762003 0 0.32989637931282628 -0.01573591803784969 0 0.33231886336130367 -0.039031795463044708 0 0.32989637931282628 -0.01573591803784969 0 0.3191847988055968 -0.035383395167731202 0 0.30965077458972001 -0.014544466135455941 0 0.32989637931282628 -0.01573591803784969 0 0.3191847988055968 -0.035383395167731202 0 0.33231886336130367 -0.039031795463044708 0 0.3191847988055968 -0.035383395167731202 0 0.30965077458972001 -0.014544466135455941 0 0.33315852743782193 0.010040404933224979 0 0.32989637931282628 -0.01573591803784969 0 0.31771646865388548 -0.00077699712902725804 0 0.32989637931282628 -0.01573591803784969 0 0.31771646865388548 -0.00077699712902725804 0 0.30965077458972001 -0.014544466135455941 0 0.31944855508089498 -0.052627800473393258 0 0.32907703333467397 -0.055440361350194971 0 0.32451134911790219 -0.069114376778301151 0 0.31944855508089498 -0.052627800473393258 0 0.33231886336130367 -0.039031795463044708 0 0.32907703333467397 -0.055440361350194971 0 0.31944855508089498 -0.052627800473393258 0 0.3191847988055968 -0.035383395167731202 0 0.33231886336130367 -0.039031795463044708 0 0.31944855508089498 -0.052627800473393258 0 0.3191847988055968 -0.035383395167731202 0 0.30351139917522968 -0.047605980831655723 0 0.34753532717003649 -0.0247455229762003 0 0.33231886336130367 -0.039031795463044708 0 0.34497256270075882 -0.039061679558814337 0 0.33231886336130367 -0.039031795463044708 0 0.33645910178852889 -0.049785199124958962 0 0.34497256270075882 -0.039061679558814337 0 0.33645910178852889 -0.049785199124958962 0 0.33750237927356103 -0.06035287333804118 0 0.35049340942921969 -0.05159136989778098 0 0.33231886336130367 -0.039031795463044708 0 0.33645910178852889 -0.049785199124958962 0 0.32907703333467397 -0.055440361350194971 0 0.33645910178852889 -0.049785199124958962 0 0.35049340942921969 -0.05159136989778098 0 0.33645910178852889 -0.049785199124958962 0 0.32907703333467397 -0.055440361350194971 0 0.33750237927356103 -0.06035287333804118 0 0.32907703333467397 -0.055440361350194971 0 0.33750237927356103 -0.06035287333804118 0 0.32451134911790219 -0.069114376778301151 0 0.33750237927356103 -0.06035287333804118 0 0.35049340942921969 -0.05159136989778098 0 0.33750237927356103 -0.06035287333804118 0 0.35049340942921969 -0.05159136989778098 0 0.34846002332589188 -0.062833544888777876 0 0.35049340942921969 -0.05159136989778098 0 0.36405611847217501 -0.06409328579234827 0 0.34846002332589188 -0.062833544888777876 0 0.35049340942921969 -0.05159136989778098 0 0.35594287762267679 -0.03497285234975385 0 0.36951389972898541 -0.03876343483797106 0 0.35049340942921969 -0.05159136989778098 0 0.34497256270075882 -0.039061679558814337 0 0.35594287762267679 -0.03497285234975385 0 0.34753532717003649 -0.0247455229762003 0 0.34497256270075882 -0.039061679558814337 0 0.35594287762267679 -0.03497285234975385 0 0.33645910178852889 -0.049785199124958962 0 0.35049340942921969 -0.05159136989778098 0 0.34497256270075882 -0.039061679558814337 0 0.3671991890843837 -0.020702254478002551 0 0.35594287762267679 -0.03497285234975385 0 0.36951389972898541 -0.03876343483797106 0 0.35049340942921969 -0.05159136989778098 0 0.36951389972898541 -0.03876343483797106 0 0.37755318068155241 -0.055073876424393861 0 0.35049340942921969 -0.05159136989778098 0 0.37755318068155241 -0.055073876424393861 0 0.35049340942921969 -0.05159136989778098 0 0.36951389972898541 -0.03876343483797106 0 0.37755318068155241 -0.055073876424393861 0 0.35049340942921969 -0.05159136989778098 0 0.36405611847217501 -0.06409328579234827 0 0.38266702029011079 -0.069584589852629386 0 0.37755318068155241 -0.055073876424393861 0 0.36405611847217501 -0.06409328579234827 0 0.38266702029011079 -0.069584589852629386 0 0.36405611847217501 -0.06409328579234827 0 0.36730885022169701 -0.078027563565833929 0 0.36405611847217501 -0.06409328579234827 0 0.36730885022169701 -0.078027563565833929 0 0.35373778889675173 -0.071073963779923477 0 0.38336154674462591 -0.084320215053997061 0 0.36730885022169701 -0.078027563565833929 0 0.37074559077415842 -0.092579114707896898 0 0.37074559077415842 -0.092579114707896898 0 0.35803470825394712 -0.08819335794368427 0 0.36091748061687751 -0.10039347943814469 0 0.36730885022169701 -0.078027563565833929 0 0.37074559077415842 -0.092579114707896898 0 0.35803470825394712 -0.08819335794368427 0 0.36730885022169701 -0.078027563565833929 0 0.35657913710927602 -0.080044701003360724 0 0.35803470825394712 -0.08819335794368427 0 0.35657913710927602 -0.080044701003360724 0 0.35803470825394712 -0.08819335794368427 0 0.34723520106470851 -0.082883918724001263 0 0.35803470825394712 -0.08819335794368427 0 0.34723520106470851 -0.082883918724001263 0 0.34798892474337118 -0.096806840184253368 0 0.34723520106470851 -0.082883918724001263 0 0.35373778889675173 -0.071073963779923477 0 0.33953070294273963 -0.072711709740376551 0 0.34846002332589188 -0.062833544888777876 0 0.35373778889675173 -0.071073963779923477 0 0.33953070294273963 -0.072711709740376551 0 0.36405611847217501 -0.06409328579234827 0 0.34846002332589188 -0.062833544888777876 0 0.35373778889675173 -0.071073963779923477 0 0.36730885022169701 -0.078027563565833929 0 0.35657913710927602 -0.080044701003360724 0 0.35373778889675173 -0.071073963779923477 0 0.35657913710927602 -0.080044701003360724 0 0.34723520106470851 -0.082883918724001263 0 0.35373778889675173 -0.071073963779923477 0 0.36289495369814018 -0.1124381002571426 0 0.37242201250353291 -0.1064427233690288 0 0.37268943731610737 -0.1263183480897232 0 0.3605201391719039 -0.12305363662058651 0 0.34527159411365699 -0.12351596818300831 0 0.37268943731610737 -0.1263183480897232 0 0.3605201391719039 -0.12305363662058651 0 0.36289495369814018 -0.1124381002571426 0 0.37268943731610737 -0.1263183480897232 0 0.36289495369814018 -0.1124381002571426 0 0.37242201250353291 -0.1064427233690288 0 0.36091748061687751 -0.10039347943814469 0 0.37074559077415842 -0.092579114707896898 0 0.37242201250353291 -0.1064427233690288 0 0.36091748061687751 -0.10039347943814469 0 0.35803470825394712 -0.08819335794368427 0 0.36091748061687751 -0.10039347943814469 0 0.34798892474337118 -0.096806840184253368 0 0.34798892474337118 -0.096806840184253368 0 0.34406442164289253 -0.1092746253760766 0 0.35390758242266379 -0.107870529981105 0 0.36289495369814018 -0.1124381002571426 0 0.36091748061687751 -0.10039347943814469 0 0.35390758242266379 -0.107870529981105 0 0.36091748061687751 -0.10039347943814469 0 0.34798892474337118 -0.096806840184253368 0 0.35390758242266379 -0.107870529981105 0 0.3605201391719039 -0.12305363662058651 0 0.34406442164289253 -0.1092746253760766 0 0.33675969879613471 -0.11730921652045161 0 0.3605201391719039 -0.12305363662058651 0 0.34527159411365699 -0.12351596818300831 0 0.33675969879613471 -0.11730921652045161 0 0.3605201391719039 -0.12305363662058651 0 0.34406442164289253 -0.1092746253760766 0 0.35390758242266379 -0.107870529981105 0 0.34527159411365699 -0.12351596818300831 0 0.37268943731610737 -0.1263183480897232 0 0.3605201391719039 -0.12305363662058651 0 0.33675969879613471 -0.11730921652045161 0 0.3605201391719039 -0.12305363662058651 0 0.36289495369814018 -0.1124381002571426 0 0.35390758242266379 -0.107870529981105 0 0.34527159411365699 -0.12351596818300831 0 0.31785375091120649 -0.1207135882762928 0 0.33138587350739762 -0.1301175814932593 0 0.34527159411365699 -0.12351596818300831 0 0.33675969879613471 -0.11730921652045161 0 0.31785375091120649 -0.1207135882762928 0 0.34527159411365699 -0.12351596818300831 0 0.31785375091120649 -0.1207135882762928 0 0.34406442164289253 -0.1092746253760766 0 0.33675969879613471 -0.11730921652045161 0 0.33045567402175979 -0.1063965559266232 0 0.33752256469124797 -0.1022711487107658 0 0.3300753269930316 -0.095051033292756104 0 0.33574869652436629 -0.086367468693812302 0 0.34798892474337118 -0.096806840184253368 0 0.33752256469124797 -0.1022711487107658 0 0.33574869652436629 -0.086367468693812302 0 0.34406442164289253 -0.1092746253760766 0 0.33045567402175979 -0.1063965559266232 0 0.33752256469124797 -0.1022711487107658 0 0.34798892474337118 -0.096806840184253368 0 0.34406442164289253 -0.1092746253760766 0 0.33752256469124797 -0.1022711487107658 0 0.33045567402175979 -0.1063965559266232 0 0.33752256469124797 -0.1022711487107658 0 0.3300753269930316 -0.095051033292756104 0 0.3300753269930316 -0.095051033292756104 0 0.3224661294159395 -0.1021002551090912 0 0.31964550995713448 -0.08510313260477971 0 0.33045567402175979 -0.1063965559266232 0 0.3224661294159395 -0.1021002551090912 0 0.31299925842036558 -0.11156479642031659 0 0.3224661294159395 -0.1021002551090912 0 0.31299925842036558 -0.11156479642031659 0 0.30312310889973559 -0.1004032202082915 0 0.33045567402175979 -0.1063965559266232 0 0.3300753269930316 -0.095051033292756104 0 0.3224661294159395 -0.1021002551090912 0 0.33675969879613471 -0.11730921652045161 0 0.31299925842036558 -0.11156479642031659 0 0.33675969879613471 -0.11730921652045161 0 0.31299925842036558 -0.11156479642031659 0 0.31785375091120649 -0.1207135882762928 0 0.33675969879613471 -0.11730921652045161 0 0.33045567402175979 -0.1063965559266232 0 0.31299925842036558 -0.11156479642031659 0 0.33032928171764919 -0.077818675255597103 0 0.33953070294273963 -0.072711709740376551 0 0.32451134911790219 -0.069114376778301151 0 0.33750237927356103 -0.06035287333804118 0 0.33953070294273963 -0.072711709740376551 0 0.32451134911790219 -0.069114376778301151 0 0.33750237927356103 -0.06035287333804118 0 0.32451134911790219 -0.069114376778301151 0 0.33750237927356103 -0.06035287333804118 0 0.34846002332589188 -0.062833544888777876 0 0.33953070294273963 -0.072711709740376551 0 0.3300753269930316 -0.095051033292756104 0 0.33574869652436629 -0.086367468693812302 0 0.31964550995713448 -0.08510313260477971 0 0.34723520106470851 -0.082883918724001263 0 0.33953070294273963 -0.072711709740376551 0 0.33574869652436629 -0.086367468693812302 0 0.33032928171764919 -0.077818675255597103 0 0.33574869652436629 -0.086367468693812302 0 0.31964550995713448 -0.08510313260477971 0 0.34723520106470851 -0.082883918724001263 0 0.34798892474337118 -0.096806840184253368 0 0.33574869652436629 -0.086367468693812302 0 0.33032928171764919 -0.077818675255597103 0 0.33953070294273963 -0.072711709740376551 0 0.33574869652436629 -0.086367468693812302 0 0.3224661294159395 -0.1021002551090912 0 0.31964550995713448 -0.08510313260477971 0 0.30159403048869488 -0.085578206477991525 0 0.31944855508089498 -0.052627800473393258 0 0.32451134911790219 -0.069114376778301151 0 0.31213815096583702 -0.072815036204054009 0 0.33032928171764919 -0.077818675255597103 0 0.31964550995713448 -0.08510313260477971 0 0.32451134911790219 -0.069114376778301151 0 0.31964550995713448 -0.08510313260477971 0 0.32451134911790219 -0.069114376778301151 0 0.31213815096583702 -0.072815036204054009 0 0.31944855508089498 -0.052627800473393258 0 0.3016398566509062 -0.064420475564326354 0 0.31213815096583702 -0.072815036204054009 0 0.3016398566509062 -0.064420475564326354 0 0.31213815096583702 -0.072815036204054009 0 0.30159403048869488 -0.085578206477991525 0 0.31964550995713448 -0.08510313260477971 0 0.31213815096583702 -0.072815036204054009 0 0.30159403048869488 -0.085578206477991525 0 0.30159403048869488 -0.085578206477991525 0 0.2807219315614502 -0.0690561578468918 0 0.2806163989389408 -0.081721221084189277 0 0.30159403048869488 -0.085578206477991525 0 0.2895483002679215 -0.092117564775024918 0 0.2806163989389408 -0.081721221084189277 0 0.30159403048869488 -0.085578206477991525 0 0.2895483002679215 -0.092117564775024918 0 0.29551448933306829 -0.096867543655381264 0 0.3016398566509062 -0.064420475564326354 0 0.2807219315614502 -0.0690561578468918 0 0.29121006014543133 -0.055891681929733233 0 0.3016398566509062 -0.064420475564326354 0 0.30159403048869488 -0.085578206477991525 0 0.2807219315614502 -0.0690561578468918 0 0.30159403048869488 -0.085578206477991525 0 0.2807219315614502 -0.0690561578468918 0 0.31299925842036558 -0.11156479642031659 0 0.30503230920486429 -0.1223871894364415 0 0.29593284795246899 -0.1106448543467408 0 0.30503230920486429 -0.1223871894364415 0 0.29593284795246899 -0.1106448543467408 0 0.29323656632005141 -0.1206514893314227 0 0.31299925842036558 -0.11156479642031659 0 0.31785375091120649 -0.1207135882762928 0 0.30503230920486429 -0.1223871894364415 0 0.3224661294159395 -0.1021002551090912 0 0.30159403048869488 -0.085578206477991525 0 0.30312310889973559 -0.1004032202082915 0 0.3224661294159395 -0.1021002551090912 0 0.30159403048869488 -0.085578206477991525 0 0.31299925842036558 -0.11156479642031659 0 0.30312310889973559 -0.1004032202082915 0 0.28923881804459661 -0.10582037632018119 0 0.31299925842036558 -0.11156479642031659 0 0.28923881804459661 -0.10582037632018119 0 0.31299925842036558 -0.11156479642031659 0 0.28923881804459661 -0.10582037632018119 0 0.29593284795246899 -0.1106448543467408 0 0.30159403048869488 -0.085578206477991525 0 0.30312310889973559 -0.1004032202082915 0 0.29551448933306829 -0.096867543655381264 0 0.2895483002679215 -0.092117564775024918 0 0.28923881804459661 -0.10582037632018119 0 0.26616479236946111 -0.089190613473879271 0 0.2895483002679215 -0.092117564775024918 0 0.29551448933306829 -0.096867543655381264 0 0.28923881804459661 -0.10582037632018119 0 0.30312310889973559 -0.1004032202082915 0 0.29551448933306829 -0.096867543655381264 0 0.28923881804459661 -0.10582037632018119 0 0.28923881804459661 -0.10582037632018119 0 0.27450660794032161 -0.102258657660762 0 0.28923881804459661 -0.10582037632018119 0 0.28005717184422102 -0.1109320146207812 0 0.27450660794032161 -0.102258657660762 0 0.28923881804459661 -0.10582037632018119 0 0.29593284795246899 -0.1106448543467408 0 0.28923881804459661 -0.10582037632018119 0 0.29593284795246899 -0.1106448543467408 0 0.28803740832311819 -0.1137682410835721 0 0.29593284795246899 -0.1106448543467408 0 0.28803740832311819 -0.1137682410835721 0 0.29323656632005141 -0.1206514893314227 0 0.28803740832311819 -0.1137682410835721 0 0.28060982011316049 -0.1218029184798453 0 0.28005717184422102 -0.1109320146207812 0 0.28923881804459661 -0.10582037632018119 0 0.28803740832311819 -0.1137682410835721 0 0.28005717184422102 -0.1109320146207812 0 0.28803740832311819 -0.1137682410835721 0 0.29323656632005141 -0.1206514893314227 0 0.28060982011316049 -0.1218029184798453 0 0.28060982011316049 -0.1218029184798453 0 0.26789320479990791 -0.1110098795595453 0 0.25901014890428448 -0.12325311030784 0 0.28060982011316049 -0.1218029184798453 0 0.28005717184422102 -0.1109320146207812 0 0.26789320479990791 -0.1110098795595453 0 0.28923881804459661 -0.10582037632018119 0 0.26616479236946111 -0.089190613473879271 0 0.28923881804459661 -0.10582037632018119 0 0.27450660794032161 -0.102258657660762 0 0.26616479236946111 -0.089190613473879271 0 0.26789320479990791 -0.1110098795595453 0 0.27450660794032161 -0.102258657660762 0 0.25977439783604661 -0.098696939001342188 0 0.28005717184422102 -0.1109320146207812 0 0.26789320479990791 -0.1110098795595453 0 0.27450660794032161 -0.102258657660762 0 0.27450660794032161 -0.102258657660762 0 0.25977439783604661 -0.098696939001342188 0 0.26616479236946111 -0.089190613473879271 0 0.27450660794032161 -0.102258657660762 0 0.25977439783604661 -0.098696939001342188 0 0.25977439783604661 -0.098696939001342188 0 0.26616479236946111 -0.089190613473879271 0 0.24273446717886829 -0.10130070599717041 0 0.26616479236946111 -0.089190613473879271 0 0.24273446717886829 -0.10130070599717041 0 0.25977439783604661 -0.098696939001342188 0 0.25280604854845029 -0.1109597930453238 0 0.24273446717886829 -0.10130070599717041 0 0.26789320479990791 -0.1110098795595453 0 0.25977439783604661 -0.098696939001342188 0 0.25280604854845029 -0.1109597930453238 0 0.26789320479990791 -0.1110098795595453 0 0.25280604854845029 -0.1109597930453238 0 0.25901014890428448 -0.12325311030784 0 0.26663873457373749 -0.073408975789008096 0 0.2807219315614502 -0.0690561578468918 0 0.25984983263420558 -0.052534109215792067 0 0.26663873457373749 -0.073408975789008096 0 0.2807219315614502 -0.0690561578468918 0 0.2806163989389408 -0.081721221084189277 0 0.2895483002679215 -0.092117564775024918 0 0.2806163989389408 -0.081721221084189277 0 0.26616479236946111 -0.089190613473879271 0 0.26663873457373749 -0.073408975789008096 0 0.2806163989389408 -0.081721221084189277 0 0.26616479236946111 -0.089190613473879271 0 0.2806163989389408 -0.081721221084189277 0 0.26616479236946111 -0.089190613473879271 0 0.26616479236946111 -0.089190613473879271 0 0.24584071736462981 -0.07454277732428756 0 0.24273446717886829 -0.10130070599717041 0 0.26616479236946111 -0.089190613473879271 0 0.24584071736462981 -0.07454277732428756 0 0.26663873457373749 -0.073408975789008096 0 0.26616479236946111 -0.089190613473879271 0 0.24584071736462981 -0.07454277732428756 0 0.26663873457373749 -0.073408975789008096 0 0.25984983263420558 -0.052534109215792067 0 0.24584071736462981 -0.07454277732428756 0 0.25984983263420558 -0.052534109215792067 0 0.27930649656334711 -0.052325230346537847 0 0.2773397175382456 -0.036233010132743902 0 0.2807219315614502 -0.0690561578468918 0 0.25984983263420558 -0.052534109215792067 0 0.2807219315614502 -0.0690561578468918 0 0.25984983263420558 -0.052534109215792067 0 0.27930649656334711 -0.052325230346537847 0 0.25984983263420558 -0.052534109215792067 0 0.2773397175382456 -0.036233010132743902 0 0.26350675883432639 -0.027234691361218331 0 0.25984983263420558 -0.052534109215792067 0 0.2512375238987517 -0.031481176853805547 0 0.26350675883432639 -0.027234691361218331 0 0.25984983263420558 -0.052534109215792067 0 0.2512375238987517 -0.031481176853805547 0 0.2389777337069609 -0.036012060584692328 0 0.2512375238987517 -0.031481176853805547 0 0.25316046145237819 -0.019959361608505002 0 0.26350675883432639 -0.027234691361218331 0 0.25316046145237819 -0.019959361608505002 0 0.26350675883432639 -0.027234691361218331 0 0.26202117759149252 -0.01117954221854825 0 0.25666829317726342 0.0030971832143192272 0 0.26202117759149252 -0.01117954221854825 0 0.24869902982916139 -0.0078216830558482473 0 0.25316046145237819 -0.019959361608505002 0 0.26202117759149252 -0.01117954221854825 0 0.24869902982916139 -0.0078216830558482473 0 0.25666829317726342 0.0030971832143192272 0 0.26202117759149252 -0.01117954221854825 0 0.2720842441624623 -7.180092166394724e-05 0 0.26202117759149252 -0.01117954221854825 0 0.2720842441624623 -7.180092166394724e-05 0 0.27801359295631117 -0.014938451104217499 0 0.28479156006787321 0.00036456994129905441 0 0.2720842441624623 -7.180092166394724e-05 0 0.27801359295631117 -0.014938451104217499 0 0.2773397175382456 -0.036233010132743902 0 0.26350675883432639 -0.027234691361218331 0 0.27801359295631117 -0.014938451104217499 0 0.26350675883432639 -0.027234691361218331 0 0.26202117759149252 -0.01117954221854825 0 0.27801359295631117 -0.014938451104217499 0 0.2773397175382456 -0.036233010132743902 0 0.27801359295631117 -0.014938451104217499 0 0.29604378767218897 -0.029118364462934261 0 0.27801359295631117 -0.014938451104217499 0 0.29604378767218897 -0.029118364462934261 0 0.29373561386399671 -0.0090726828094811213 0 0.28479156006787321 0.00036456994129905441 0 0.27801359295631117 -0.014938451104217499 0 0.29373561386399671 -0.0090726828094811213 0 0.30011675037384311 0.0062944628968193304 0 0.28479156006787321 0.00036456994129905441 0 0.29373561386399671 -0.0090726828094811213 0 0.30011675037384311 0.0062944628968193304 0 0.31771646865388548 -0.00077699712902725804 0 0.30965077458972001 -0.014544466135455941 0 0.30011675037384311 0.0062944628968193304 0 0.30965077458972001 -0.014544466135455941 0 0.30011675037384311 0.0062944628968193304 0 0.29373561386399671 -0.0090726828094811213 0 0.30965077458972001 -0.014544466135455941 0 0.29604378767218897 -0.029118364462934261 0 0.29373561386399671 -0.0090726828094811213 0 0.30965077458972001 -0.014544466135455941 0 0.3191847988055968 -0.035383395167731202 0 0.29604378767218897 -0.029118364462934261 0 0.30965077458972001 -0.014544466135455941 0 0.3191847988055968 -0.035383395167731202 0 0.29604378767218897 -0.029118364462934261 0 0.30351139917522968 -0.047605980831655723 0 0.3016398566509062 -0.064420475564326354 0 0.30351139917522968 -0.047605980831655723 0 0.29121006014543133 -0.055891681929733233 0 0.31944855508089498 -0.052627800473393258 0 0.3016398566509062 -0.064420475564326354 0 0.30351139917522968 -0.047605980831655723 0 0.2807219315614502 -0.0690561578468918 0 0.27930649656334711 -0.052325230346537847 0 0.29121006014543133 -0.055891681929733233 0 0.30351139917522968 -0.047605980831655723 0 0.29121006014543133 -0.055891681929733233 0 0.28896295969041158 -0.044519420535996147 0 0.27930649656334711 -0.052325230346537847 0 0.29121006014543133 -0.055891681929733233 0 0.28896295969041158 -0.044519420535996147 0 0.27930649656334711 -0.052325230346537847 0 0.2773397175382456 -0.036233010132743902 0 0.28896295969041158 -0.044519420535996147 0 0.29604378767218897 -0.029118364462934261 0 0.30351139917522968 -0.047605980831655723 0 0.28896295969041158 -0.044519420535996147 0 0.2773397175382456 -0.036233010132743902 0 0.29604378767218897 -0.029118364462934261 0 0.28896295969041158 -0.044519420535996147 0 0.29141555609059239 -0.21748954412427601 0 0.29539105772074042 -0.20066655033491501 0 0.27606646282189878 -0.21925360089621321 0 0.29539105772074042 -0.20066655033491501 0 0.27463327162915641 -0.2156750126418806 0 0.27692419498465148 -0.19698453593488249 0 0.29539105772074042 -0.20066655033491501 0 0.27606646282189878 -0.21925360089621321 0 0.27463327162915641 -0.2156750126418806 0 0.29539105772074042 -0.20066655033491501 0 0.27606646282189878 -0.21925360089621321 0 0.29539105772074042 -0.20066655033491501 0 0.27692419498465148 -0.19698453593488249 0 0.28963161890864891 -0.1835502334496811 0 0.29539105772074042 -0.20066655033491501 0 0.28963161890864891 -0.1835502334496811 0 0.31471565261958212 -0.1820794997736169 0 0.29539105772074042 -0.20066655033491501 0 0.31471565261958212 -0.1820794997736169 0 0.32185084079399789 -0.20990741035376709 0 0.29539105772074042 -0.20066655033491501 0 0.31471565261958212 -0.1820794997736169 0 0.29539105772074042 -0.20066655033491501 0 0.30483971903528811 -0.21903342750634899 0 0.32185084079399789 -0.20990741035376709 0 0.29141555609059239 -0.21748954412427601 0 0.29539105772074042 -0.20066655033491501 0 0.30483971903528811 -0.21903342750634899 0 0.30483971903528811 -0.21903342750634899 0 0.29592870100372243 -0.23005320579088481 0 0.31278636253022091 -0.2380913383386552 0 0.29141555609059239 -0.21748954412427601 0 0.30483971903528811 -0.21903342750634899 0 0.29592870100372243 -0.23005320579088481 0 0.29242578560315741 -0.24850859449249901 0 0.29592870100372243 -0.23005320579088481 0 0.31278636253022091 -0.2380913383386552 0 0.29242578560315741 -0.24850859449249901 0 0.28546524816450902 -0.2347125539156987 0 0.29592870100372243 -0.23005320579088481 0 0.29242578560315741 -0.24850859449249901 0 0.27772468105459869 -0.24128461935704909 0 0.2738748952615514 -0.25549390792807158 0 0.29242578560315741 -0.24850859449249901 0 0.28546524816450902 -0.2347125539156987 0 0.27772468105459869 -0.24128461935704909 0 0.29141555609059239 -0.21748954412427601 0 0.29592870100372243 -0.23005320579088481 0 0.28524245890740219 -0.22517863416102929 0 0.28546524816450902 -0.2347125539156987 0 0.28524245890740219 -0.22517863416102929 0 0.27622600472696313 -0.23137071230473019 0 0.28546524816450902 -0.2347125539156987 0 0.29592870100372243 -0.23005320579088481 0 0.28524245890740219 -0.22517863416102929 0 0.29141555609059239 -0.21748954412427601 0 0.28524245890740219 -0.22517863416102929 0 0.27606646282189878 -0.21925360089621321 0 0.27606646282189878 -0.21925360089621321 0 0.2567418679230562 -0.23784065145751021 0 0.27606646282189878 -0.21925360089621321 0 0.27622600472696313 -0.23137071230473019 0 0.2567418679230562 -0.23784065145751021 0 0.28524245890740219 -0.22517863416102929 0 0.27606646282189878 -0.21925360089621321 0 0.27622600472696313 -0.23137071230473019 0 0.27606646282189878 -0.21925360089621321 0 0.26478653578593631 -0.22100242904077541 0 0.26005056363321122 -0.2274695870156602 0 0.27772468105459869 -0.24128461935704909 0 0.2567418679230562 -0.23784065145751021 0 0.2738748952615514 -0.25549390792807158 0 0.27622600472696313 -0.23137071230473019 0 0.27772468105459869 -0.24128461935704909 0 0.2567418679230562 -0.23784065145751021 0 0.28546524816450902 -0.2347125539156987 0 0.27622600472696313 -0.23137071230473019 0 0.27772468105459869 -0.24128461935704909 0 0.2567418679230562 -0.23784065145751021 0 0.2738748952615514 -0.25549390792807158 0 0.2567418679230562 -0.23784065145751021 0 0.25900969032513188 -0.25853262373145808 0 0.24362378005441829 -0.25045807312964968 0 0.2567418679230562 -0.23784065145751021 0 0.25185425576643949 -0.23280463130621301 0 0.24282335052033741 -0.23831744091350771 0 0.2567418679230562 -0.23784065145751021 0 0.25185425576643949 -0.23280463130621301 0 0.2567418679230562 -0.23784065145751021 0 0.24362378005441829 -0.25045807312964968 0 0.27606646282189878 -0.21925360089621321 0 0.2567418679230562 -0.23784065145751021 0 0.26005056363321122 -0.2274695870156602 0 0.25863373963075692 -0.22309733365168499 0 0.26478653578593631 -0.22100242904077541 0 0.24698681653261151 -0.2185554892514483 0 0.25863373963075692 -0.22309733365168499 0 0.26478653578593631 -0.22100242904077541 0 0.26005056363321122 -0.2274695870156602 0 0.26005056363321122 -0.2274695870156602 0 0.25185425576643949 -0.23280463130621301 0 0.25263315601073222 -0.22577967530411799 0 0.2567418679230562 -0.23784065145751021 0 0.26005056363321122 -0.2274695870156602 0 0.25185425576643949 -0.23280463130621301 0 0.25185425576643949 -0.23280463130621301 0 0.25263315601073222 -0.22577967530411799 0 0.24604137489327599 -0.22903064662998959 0 0.25863373963075692 -0.22309733365168499 0 0.25263315601073222 -0.22577967530411799 0 0.24698681653261151 -0.2185554892514483 0 0.25863373963075692 -0.22309733365168499 0 0.26005056363321122 -0.2274695870156602 0 0.25263315601073222 -0.22577967530411799 0 0.26077429823893528 -0.20465826655482641 0 0.27463327162915641 -0.2156750126418806 0 0.24698681653261151 -0.2185554892514483 0 0.26478653578593631 -0.22100242904077541 0 0.27463327162915641 -0.2156750126418806 0 0.24698681653261151 -0.2185554892514483 0 0.27463327162915641 -0.2156750126418806 0 0.24698681653261151 -0.2185554892514483 0 0.26077429823893528 -0.20465826655482641 0 0.24968031544965991 -0.20669020366769289 0 0.24698681653261151 -0.2185554892514483 0 0.27606646282189878 -0.21925360089621321 0 0.26478653578593631 -0.22100242904077541 0 0.27463327162915641 -0.2156750126418806 0 0.26077429823893528 -0.20465826655482641 0 0.27463327162915641 -0.2156750126418806 0 0.27692419498465148 -0.19698453593488249 0 0.26077429823893528 -0.20465826655482641 0 0.27692419498465148 -0.19698453593488249 0 0.26437707647828118 -0.19217261228669019 0 0.27692419498465148 -0.19698453593488249 0 0.27252316103947399 -0.18308246815163759 0 0.28963161890864891 -0.1835502334496811 0 0.27692419498465148 -0.19698453593488249 0 0.26437707647828118 -0.19217261228669019 0 0.27252316103947399 -0.18308246815163759 0 0.26437707647828118 -0.19217261228669019 0 0.25337805191613461 -0.19476885043830161 0 0.2582856762122106 -0.1813689403538031 0 0.26077429823893528 -0.20465826655482641 0 0.26437707647828118 -0.19217261228669019 0 0.25337805191613461 -0.19476885043830161 0 0.26077429823893528 -0.20465826655482641 0 0.25337805191613461 -0.19476885043830161 0 0.24968031544965991 -0.20669020366769289 0 0.2582856762122106 -0.1813689403538031 0 0.25029294720335099 -0.16883820464241561 0 0.26595323692397982 -0.16848709796950409 0 0.25337805191613461 -0.19476885043830161 0 0.2582856762122106 -0.1813689403538031 0 0.24484910782225641 -0.1841802587785589 0 0.26437707647828118 -0.19217261228669019 0 0.2582856762122106 -0.1813689403538031 0 0.27252316103947399 -0.18308246815163759 0 0.2582856762122106 -0.1813689403538031 0 0.26595323692397982 -0.16848709796950409 0 0.27252316103947399 -0.18308246815163759 0 0.2582856762122106 -0.1813689403538031 0 0.25029294720335099 -0.16883820464241561 0 0.24484910782225641 -0.1841802587785589 0 0.25029294720335099 -0.16883820464241561 0 0.26595323692397982 -0.16848709796950409 0 0.25533841576965088 -0.14974000274204671 0 0.26595323692397982 -0.16848709796950409 0 0.27976642503365778 -0.15743997536705601 0 0.25533841576965088 -0.14974000274204671 0 0.26595323692397982 -0.16848709796950409 0 0.27976642503365778 -0.15743997536705601 0 0.28155328268636948 -0.1720511868746612 0 0.27252316103947399 -0.18308246815163759 0 0.28963161890864891 -0.1835502334496811 0 0.28155328268636948 -0.1720511868746612 0 0.26595323692397982 -0.16848709796950409 0 0.27252316103947399 -0.18308246815163759 0 0.28155328268636948 -0.1720511868746612 0 0.25901014890428448 -0.12325311030784 0 0.25533841576965088 -0.14974000274204671 0 0.24084402420614909 -0.1375470201783103 0 0.25901014890428448 -0.12325311030784 0 0.25533841576965088 -0.14974000274204671 0 0.2803269710436449 -0.13995848212544659 0 0.27976642503365778 -0.15743997536705601 0 0.25533841576965088 -0.14974000274204671 0 0.2803269710436449 -0.13995848212544659 0 0.25533841576965088 -0.14974000274204671 0 0.2803269710436449 -0.13995848212544659 0 0.28060982011316049 -0.1218029184798453 0 0.25901014890428448 -0.12325311030784 0 0.2803269710436449 -0.13995848212544659 0 0.2803269710436449 -0.13995848212544659 0 0.29646260053033568 -0.1334319417363721 0 0.29874427937722609 -0.14796592286230381 0 0.29323656632005141 -0.1206514893314227 0 0.28060982011316049 -0.1218029184798453 0 0.29646260053033568 -0.1334319417363721 0 0.28060982011316049 -0.1218029184798453 0 0.2803269710436449 -0.13995848212544659 0 0.29646260053033568 -0.1334319417363721 0 0.27976642503365778 -0.15743997536705601 0 0.2803269710436449 -0.13995848212544659 0 0.29874427937722609 -0.14796592286230381 0 0.29874427937722609 -0.14796592286230381 0 0.31265997470220719 -0.1357614044284432 0 0.31403937139354282 -0.15617685198772141 0 0.29646260053033568 -0.1334319417363721 0 0.29874427937722609 -0.14796592286230381 0 0.31265997470220719 -0.1357614044284432 0 0.30503230920486429 -0.1223871894364415 0 0.29646260053033568 -0.1334319417363721 0 0.31265997470220719 -0.1357614044284432 0 0.31785375091120649 -0.1207135882762928 0 0.30503230920486429 -0.1223871894364415 0 0.31265997470220719 -0.1357614044284432 0 0.30503230920486429 -0.1223871894364415 0 0.29323656632005141 -0.1206514893314227 0 0.29646260053033568 -0.1334319417363721 0 0.28963161890864891 -0.1835502334496811 0 0.28155328268636948 -0.1720511868746612 0 0.29668236440107559 -0.1664371596283736 0 0.27976642503365778 -0.15743997536705601 0 0.29874427937722609 -0.14796592286230381 0 0.29668236440107559 -0.1664371596283736 0 0.27976642503365778 -0.15743997536705601 0 0.28155328268636948 -0.1720511868746612 0 0.29668236440107559 -0.1664371596283736 0 0.29668236440107559 -0.1664371596283736 0 0.31471565261958212 -0.1820794997736169 0 0.31403937139354282 -0.15617685198772141 0 0.29874427937722609 -0.14796592286230381 0 0.29668236440107559 -0.1664371596283736 0 0.31403937139354282 -0.15617685198772141 0 0.28963161890864891 -0.1835502334496811 0 0.29668236440107559 -0.1664371596283736 0 0.31471565261958212 -0.1820794997736169 0 0.31471565261958212 -0.1820794997736169 0 0.33404024751842371 -0.16349244921231881 0 0.31471565261958212 -0.1820794997736169 0 0.33404024751842371 -0.16349244921231881 0 0.31403937139354282 -0.15617685198772141 0 0.31471565261958212 -0.1820794997736169 0 0.33404024751842371 -0.16349244921231881 0 0.34037016356387362 -0.188570921095632 0 0.31785375091120649 -0.1207135882762928 0 0.3223233272158883 -0.1319793125548169 0 0.33138587350739762 -0.1301175814932593 0 0.31785375091120649 -0.1207135882762928 0 0.3223233272158883 -0.1319793125548169 0 0.31265997470220719 -0.1357614044284432 0 0.3223233272158883 -0.1319793125548169 0 0.31265997470220719 -0.1357614044284432 0 0.32739370974274201 -0.1413246760212723 0 0.3223233272158883 -0.1319793125548169 0 0.32739370974274201 -0.1413246760212723 0 0.33138587350739762 -0.1301175814932593 0 0.31265997470220719 -0.1357614044284432 0 0.31403937139354282 -0.15617685198772141 0 0.32739370974274201 -0.1413246760212723 0 0.33404024751842371 -0.16349244921231881 0 0.31403937139354282 -0.15617685198772141 0 0.32739370974274201 -0.1413246760212723 0 0.33404024751842371 -0.16349244921231881 0 0.34122332093076208 -0.13889875157326509 0 0.35336484241726529 -0.14490539865102081 0 0.33404024751842371 -0.16349244921231881 0 0.32739370974274201 -0.1413246760212723 0 0.34122332093076208 -0.13889875157326509 0 0.33404024751842371 -0.16349244921231881 0 0.35336484241726529 -0.14490539865102081 0 0.32739370974274201 -0.1413246760212723 0 0.34122332093076208 -0.13889875157326509 0 0.33138587350739762 -0.1301175814932593 0 0.34527159411365699 -0.12351596818300831 0 0.34122332093076208 -0.13889875157326509 0 0.33138587350739762 -0.1301175814932593 0 0.34527159411365699 -0.12351596818300831 0 0.35377980012602511 -0.13285108981502119 0 0.37268943731610737 -0.1263183480897232 0 0.34527159411365699 -0.12351596818300831 0 0.34122332093076208 -0.13889875157326509 0 0.35377980012602511 -0.13285108981502119 0 0.34122332093076208 -0.13889875157326509 0 0.35377980012602511 -0.13285108981502119 0 0.35336484241726529 -0.14490539865102081 0 0.35336484241726529 -0.14490539865102081 0 0.36987586561970259 -0.15439528881431211 0 0.37755093482716418 -0.14117399251019649 0 0.35336484241726529 -0.14490539865102081 0 0.37268943731610737 -0.1263183480897232 0 0.35336484241726529 -0.14490539865102081 0 0.37268943731610737 -0.1263183480897232 0 0.37755093482716418 -0.14117399251019649 0 0.35377980012602511 -0.13285108981502119 0 0.35336484241726529 -0.14490539865102081 0 0.37268943731610737 -0.1263183480897232 0 0.36152617424600941 -0.17104453122371521 0 0.36767448400184799 -0.19520763399353541 0 0.34037016356387362 -0.188570921095632 0 0.33404024751842371 -0.16349244921231881 0 0.36152617424600941 -0.17104453122371521 0 0.34037016356387362 -0.188570921095632 0 0.33404024751842371 -0.16349244921231881 0 0.35336484241726529 -0.14490539865102081 0 0.36152617424600941 -0.17104453122371521 0 0.36987586561970259 -0.15439528881431211 0 0.36152617424600941 -0.17104453122371521 0 0.38353419769109959 -0.16766638023627969 0 0.35336484241726529 -0.14490539865102081 0 0.36987586561970259 -0.15439528881431211 0 0.36152617424600941 -0.17104453122371521 0 0.36152617424600941 -0.17104453122371521 0 0.36767448400184799 -0.19520763399353541 0 0.38388269781496581 -0.18320332408063619 0 0.36767448400184799 -0.19520763399353541 0 0.37478274199164507 -0.2135049928648029 0 0.35097796797058373 -0.2113694487843816 0 0.36767448400184799 -0.19520763399353541 0 0.35097796797058373 -0.2113694487843816 0 0.34037016356387362 -0.188570921095632 0 0.35097796797058373 -0.2113694487843816 0 0.32185084079399789 -0.20990741035376709 0 0.33393973526398241 -0.2300484193616478 0 0.35097796797058373 -0.2113694487843816 0 0.34037016356387362 -0.188570921095632 0 0.32185084079399789 -0.20990741035376709 0 0.31471565261958212 -0.1820794997736169 0 0.34037016356387362 -0.188570921095632 0 0.32185084079399789 -0.20990741035376709 0 0.31278636253022091 -0.2380913383386552 0 0.33393973526398241 -0.2300484193616478 0 0.32719286717574941 -0.25616249926352519 0 0.32185084079399789 -0.20990741035376709 0 0.31278636253022091 -0.2380913383386552 0 0.33393973526398241 -0.2300484193616478 0 0.30483971903528811 -0.21903342750634899 0 0.32185084079399789 -0.20990741035376709 0 0.31278636253022091 -0.2380913383386552 0 0.33393973526398241 -0.2300484193616478 0 0.34713579541447798 -0.24843367759178059 0 0.32719286717574941 -0.25616249926352519 0 0.34713579541447798 -0.24843367759178059 0 0.36390019056435008 -0.23284864805708491 0 0.36218607115561252 -0.25957534036308427 0 0.33393973526398241 -0.2300484193616478 0 0.34713579541447798 -0.24843367759178059 0 0.36390019056435008 -0.23284864805708491 0 0.35097796797058373 -0.2113694487843816 0 0.33393973526398241 -0.2300484193616478 0 0.36390019056435008 -0.23284864805708491 0 0.37478274199164507 -0.2135049928648029 0 0.35097796797058373 -0.2113694487843816 0 0.36390019056435008 -0.23284864805708491 0 0.36390019056435008 -0.23284864805708491 0 0.38300252927607759 -0.24908553861838309 0 0.36218607115561252 -0.25957534036308427 0 0.38300252927607759 -0.24908553861838309 0 0.39161071322115809 -0.2232270692073737 0 0.36390019056435008 -0.23284864805708491 0 0.38300252927607759 -0.24908553861838309 0 0.39161071322115809 -0.2232270692073737 0 0.38300252927607759 -0.24908553861838309 0 0.40508077101690659 -0.23965232782795201 0 0.41086316301984632 -0.25802231137203191 0 0.38300252927607759 -0.24908553861838309 0 0.40508077101690659 -0.23965232782795201 0 0.39161071322115809 -0.2232270692073737 0 0.40508077101690659 -0.23965232782795201 0 0.39161071322115809 -0.2232270692073737 0 0.41251698169293999 -0.22755835044462769 0 0.39161071322115809 -0.2232270692073737 0 0.41048946929531432 -0.21302649809648769 0 0.41251698169293999 -0.22755835044462769 0 0.37478274199164507 -0.2135049928648029 0 0.36390019056435008 -0.23284864805708491 0 0.39161071322115809 -0.2232270692073737 0 0.36767448400184799 -0.19520763399353541 0 0.39988844153291869 -0.20223361582692859 0 0.38388269781496581 -0.18320332408063619 0 0.37478274199164507 -0.2135049928648029 0 0.39161071322115809 -0.2232270692073737 0 0.39988844153291869 -0.20223361582692859 0 0.36767448400184799 -0.19520763399353541 0 0.37478274199164507 -0.2135049928648029 0 0.39988844153291869 -0.20223361582692859 0 0.39988844153291869 -0.20223361582692859 0 0.38388269781496581 -0.18320332408063619 0 0.40157536837556213 -0.18687514723595719 0 0.39988844153291869 -0.20223361582692859 0 0.41427541202591822 -0.19267084196935291 0 0.40157536837556213 -0.18687514723595719 0 0.39161071322115809 -0.2232270692073737 0 0.39988844153291869 -0.20223361582692859 0 0.41048946929531432 -0.21302649809648769 0 0.39988844153291869 -0.20223361582692859 0 0.41048946929531432 -0.21302649809648769 0 0.41319627360245281 -0.20301080195822391 0 0.41048946929531432 -0.21302649809648769 0 0.41917514332529943 -0.20867028284562031 0 0.41319627360245281 -0.20301080195822391 0 0.41917514332529943 -0.20867028284562031 0 0.41319627360245281 -0.20301080195822391 0 0.42234573675285098 -0.20001646399517431 0 0.41048946929531432 -0.21302649809648769 0 0.41917514332529943 -0.20867028284562031 0 0.42303837883581918 -0.22080311026304711 0 0.39988844153291869 -0.20223361582692859 0 0.41319627360245281 -0.20301080195822391 0 0.41427541202591822 -0.19267084196935291 0 0.41319627360245281 -0.20301080195822391 0 0.41427541202591822 -0.19267084196935291 0 0.42234573675285098 -0.20001646399517431 0 0.41427541202591822 -0.19267084196935291 0 0.42566142698926068 -0.19295564544622679 0 0.42234573675285098 -0.20001646399517431 0 0.41427541202591822 -0.19267084196935291 0 0.42415639225964741 -0.18772053547205361 0 0.41851027619034281 -0.184208596065355 0 0.41427541202591822 -0.19267084196935291 0 0.42415639225964741 -0.18772053547205361 0 0.42566142698926068 -0.19295564544622679 0 0.42234573675285098 -0.20001646399517431 0 0.4516797657533862 -0.19442020738075691 0 0.42234573675285098 -0.20001646399517431 0 0.43548256838072341 -0.19252673948539861 0 0.4516797657533862 -0.19442020738075691 0 0.42234573675285098 -0.20001646399517431 0 0.42680585814005972 -0.2064945399151685 0 0.4516797657533862 -0.19442020738075691 0 0.42566142698926068 -0.19295564544622679 0 0.42234573675285098 -0.20001646399517431 0 0.43548256838072341 -0.19252673948539861 0 0.42415639225964741 -0.18772053547205361 0 0.42566142698926068 -0.19295564544622679 0 0.43065065069550612 -0.1887753201376805 0 0.42566142698926068 -0.19295564544622679 0 0.43548256838072341 -0.19252673948539861 0 0.43065065069550612 -0.1887753201376805 0 0.43548256838072341 -0.19252673948539861 0 0.43065065069550612 -0.1887753201376805 0 0.4382607380905586 -0.1871417294085809 0 0.42680585814005972 -0.2064945399151685 0 0.44202518760682857 -0.23026431372147971 0 0.41917514332529943 -0.20867028284562031 0 0.42680585814005972 -0.2064945399151685 0 0.42303837883581918 -0.22080311026304711 0 0.41917514332529943 -0.20867028284562031 0 0.42234573675285098 -0.20001646399517431 0 0.42680585814005972 -0.2064945399151685 0 0.42303837883581918 -0.22080311026304711 0 0.42312583681382221 -0.24007695028055889 0 0.44202518760682857 -0.23026431372147971 0 0.42680585814005972 -0.2064945399151685 0 0.42303837883581918 -0.22080311026304711 0 0.44202518760682857 -0.23026431372147971 0 0.42312583681382221 -0.24007695028055889 0 0.43956676477840251 -0.24874223002817791 0 0.44202518760682857 -0.23026431372147971 0 0.42312583681382221 -0.24007695028055889 0 0.43956676477840251 -0.24874223002817791 0 0.42878961074601168 -0.25549600830659602 0 0.40508077101690659 -0.23965232782795201 0 0.42312583681382221 -0.24007695028055889 0 0.41086316301984632 -0.25802231137203191 0 0.40508077101690659 -0.23965232782795201 0 0.42312583681382221 -0.24007695028055889 0 0.41251698169293999 -0.22755835044462769 0 0.42303837883581918 -0.22080311026304711 0 0.42312583681382221 -0.24007695028055889 0 0.41251698169293999 -0.22755835044462769 0 0.41048946929531432 -0.21302649809648769 0 0.42303837883581918 -0.22080311026304711 0 0.41251698169293999 -0.22755835044462769 0 0.40533619384373909 -0.12607033413378321 0 0.40417496441643869 -0.13978082932318481 0 0.39443519576741942 -0.14686835718503141 0 0.40533619384373909 -0.12607033413378321 0 0.3964980330151171 -0.13778413092861669 0 0.39443519576741942 -0.14686835718503141 0 0.40533619384373909 -0.12607033413378321 0 0.39443519576741942 -0.14686835718503141 0 0.40533619384373909 -0.12607033413378321 0 0.3964980330151171 -0.13778413092861669 0 0.39621532145855459 -0.1287229305552991 0 0.40533619384373909 -0.12607033413378321 0 0.3964980330151171 -0.13778413092861669 0 0.3964980330151171 -0.13778413092861669 0 0.39621532145855459 -0.1287229305552991 0 0.38651484909173872 -0.13499962409180541 0 0.37268943731610737 -0.1263183480897232 0 0.39621532145855459 -0.1287229305552991 0 0.38651484909173872 -0.13499962409180541 0 0.37268943731610737 -0.1263183480897232 0 0.39621532145855459 -0.1287229305552991 0 0.37268943731610737 -0.1263183480897232 0 0.38651484909173872 -0.13499962409180541 0 0.37755093482716418 -0.14117399251019649 0 0.3964980330151171 -0.13778413092861669 0 0.38651484909173872 -0.13499962409180541 0 0.38751062674831299 -0.14255169450637431 0 0.38651484909173872 -0.13499962409180541 0 0.38751062674831299 -0.14255169450637431 0 0.37755093482716418 -0.14117399251019649 0 0.38255412104012582 -0.1519323678162213 0 0.39443519576741942 -0.14686835718503141 0 0.38353419769109959 -0.16766638023627969 0 0.38751062674831299 -0.14255169450637431 0 0.38255412104012582 -0.1519323678162213 0 0.39443519576741942 -0.14686835718503141 0 0.38751062674831299 -0.14255169450637431 0 0.37755093482716418 -0.14117399251019649 0 0.38255412104012582 -0.1519323678162213 0 0.36987586561970259 -0.15439528881431211 0 0.37755093482716418 -0.14117399251019649 0 0.38255412104012582 -0.1519323678162213 0 0.39443519576741942 -0.14686835718503141 0 0.40178220135693521 -0.14738734926313149 0 0.39651356480589772 -0.15946176050298461 0 0.3964980330151171 -0.13778413092861669 0 0.38751062674831299 -0.14255169450637431 0 0.39443519576741942 -0.14686835718503141 0 0.40178220135693521 -0.14738734926313149 0 0.40676062738433588 -0.15282783386115981 0 0.40925403482525091 -0.144726006331484 0 0.40417496441643869 -0.13978082932318481 0 0.39443519576741942 -0.14686835718503141 0 0.40178220135693521 -0.14738734926313149 0 0.40417496441643869 -0.13978082932318481 0 0.40178220135693521 -0.14738734926313149 0 0.40925403482525091 -0.144726006331484 0 0.40178220135693521 -0.14738734926313149 0 0.39651356480589772 -0.15946176050298461 0 0.40676062738433588 -0.15282783386115981 0 0.39443519576741942 -0.14686835718503141 0 0.39651356480589772 -0.15946176050298461 0 0.38353419769109959 -0.16766638023627969 0 0.4057628486673861 -0.16220158173413249 0 0.39651356480589772 -0.15946176050298461 0 0.40676062738433588 -0.15282783386115981 0 0.4057628486673861 -0.16220158173413249 0 0.39651356480589772 -0.15946176050298461 0 0.39885682079204499 -0.17344426334173901 0 0.4057628486673861 -0.16220158173413249 0 0.39885682079204499 -0.17344426334173901 0 0.41028197412263417 -0.17243689030503781 0 0.39651356480589772 -0.15946176050298461 0 0.38353419769109959 -0.16766638023627969 0 0.39885682079204499 -0.17344426334173901 0 0.36987586561970259 -0.15439528881431211 0 0.38255412104012582 -0.1519323678162213 0 0.38353419769109959 -0.16766638023627969 0 0.39443519576741942 -0.14686835718503141 0 0.38353419769109959 -0.16766638023627969 0 0.38353419769109959 -0.16766638023627969 0 0.38388269781496581 -0.18320332408063619 0 0.39885682079204499 -0.17344426334173901 0 0.36152617424600941 -0.17104453122371521 0 0.38353419769109959 -0.16766638023627969 0 0.38388269781496581 -0.18320332408063619 0 0.38388269781496581 -0.18320332408063619 0 0.39885682079204499 -0.17344426334173901 0 0.40157536837556213 -0.18687514723595719 0 0.39885682079204499 -0.17344426334173901 0 0.40157536837556213 -0.18687514723595719 0 0.41154587608804688 -0.18266249230393711 0 0.41427541202591822 -0.19267084196935291 0 0.40157536837556213 -0.18687514723595719 0 0.41154587608804688 -0.18266249230393711 0 0.41154587608804688 -0.18266249230393711 0 0.41028197412263417 -0.17243689030503781 0 0.41811434050281537 -0.17716375160573089 0 0.39885682079204499 -0.17344426334173901 0 0.41154587608804688 -0.18266249230393711 0 0.41028197412263417 -0.17243689030503781 0 0.41811434050281537 -0.17716375160573089 0 0.42496967996135943 -0.17351102676464439 0 0.41875188259132112 -0.16891353554815181 0 0.41028197412263417 -0.17243689030503781 0 0.41811434050281537 -0.17716375160573089 0 0.41875188259132112 -0.16891353554815181 0 0.41427541202591822 -0.19267084196935291 0 0.41154587608804688 -0.18266249230393711 0 0.41851027619034281 -0.184208596065355 0 0.41811434050281537 -0.17716375160573089 0 0.41851027619034281 -0.184208596065355 0 0.42445936007528601 -0.18082535897570021 0 0.41154587608804688 -0.18266249230393711 0 0.41811434050281537 -0.17716375160573089 0 0.41851027619034281 -0.184208596065355 0 0.42415639225964741 -0.18772053547205361 0 0.41851027619034281 -0.184208596065355 0 0.42445936007528601 -0.18082535897570021 0 0.42445936007528601 -0.18082535897570021 0 0.42943762150291559 -0.1834253546913592 0 0.43096187476801762 -0.17802895467555241 0 0.42415639225964741 -0.18772053547205361 0 0.42445936007528601 -0.18082535897570021 0 0.42943762150291559 -0.1834253546913592 0 0.42415639225964741 -0.18772053547205361 0 0.43065065069550612 -0.1887753201376805 0 0.42943762150291559 -0.1834253546913592 0 0.43065065069550612 -0.1887753201376805 0 0.42943762150291559 -0.1834253546913592 0 0.43486430559479028 -0.18296188125745561 0 0.42943762150291559 -0.1834253546913592 0 0.43486430559479028 -0.18296188125745561 0 0.43096187476801762 -0.17802895467555241 0 0.43065065069550612 -0.1887753201376805 0 0.43486430559479028 -0.18296188125745561 0 0.4382607380905586 -0.1871417294085809 0 0.43486430559479028 -0.18296188125745561 0 0.43707686162067783 -0.1758280789835677 0 0.43096187476801762 -0.17802895467555241 0 0.43707686162067783 -0.1758280789835677 0 0.43096187476801762 -0.17802895467555241 0 0.43186076197970308 -0.17052238761946051 0 0.43096187476801762 -0.17802895467555241 0 0.42496967996135943 -0.17351102676464439 0 0.43186076197970308 -0.17052238761946051 0 0.42445936007528601 -0.18082535897570021 0 0.43096187476801762 -0.17802895467555241 0 0.42496967996135943 -0.17351102676464439 0 0.41811434050281537 -0.17716375160573089 0 0.42445936007528601 -0.18082535897570021 0 0.42496967996135943 -0.17351102676464439 0 0.42496967996135943 -0.17351102676464439 0 0.42566985985101302 -0.16561217216327059 0 0.43186076197970308 -0.17052238761946051 0 0.42496967996135943 -0.17351102676464439 0 0.42566985985101302 -0.16561217216327059 0 0.41875188259132112 -0.16891353554815181 0 0.42566985985101302 -0.16561217216327059 0 0.43186076197970308 -0.17052238761946051 0 0.43275682024741069 -0.16261817249081981 0 0.43707686162067783 -0.1758280789835677 0 0.43186076197970308 -0.17052238761946051 0 0.43857478777033171 -0.16780739554910901 0 0.43186076197970308 -0.17052238761946051 0 0.43275682024741069 -0.16261817249081981 0 0.43857478777033171 -0.16780739554910901 0 0.43275682024741069 -0.16261817249081981 0 0.43988849649023681 -0.1590882566412776 0 0.43857478777033171 -0.16780739554910901 0 0.43275682024741069 -0.16261817249081981 0 0.42694180530738041 -0.1579930392206341 0 0.43420793535753088 -0.15378663479075119 0 0.43275682024741069 -0.16261817249081981 0 0.43420793535753088 -0.15378663479075119 0 0.43988849649023681 -0.1590882566412776 0 0.42566985985101302 -0.16561217216327059 0 0.43275682024741069 -0.16261817249081981 0 0.42694180530738041 -0.1579930392206341 0 0.42566985985101302 -0.16561217216327059 0 0.42694180530738041 -0.1579930392206341 0 0.41956423939388537 -0.16093859745932229 0 0.42694180530738041 -0.1579930392206341 0 0.41956423939388537 -0.16093859745932229 0 0.42177167700853407 -0.15355965944502381 0 0.41956423939388537 -0.16093859745932229 0 0.41368018538083651 -0.15636200484147081 0 0.42177167700853407 -0.15355965944502381 0 0.41956423939388537 -0.16093859745932229 0 0.41368018538083651 -0.15636200484147081 0 0.4126544027238423 -0.16353746719413881 0 0.41956423939388537 -0.16093859745932229 0 0.41875188259132112 -0.16891353554815181 0 0.4126544027238423 -0.16353746719413881 0 0.42566985985101302 -0.16561217216327059 0 0.41956423939388537 -0.16093859745932229 0 0.41875188259132112 -0.16891353554815181 0 0.4057628486673861 -0.16220158173413249 0 0.41028197412263417 -0.17243689030503781 0 0.4126544027238423 -0.16353746719413881 0 0.41028197412263417 -0.17243689030503781 0 0.41875188259132112 -0.16891353554815181 0 0.4126544027238423 -0.16353746719413881 0 0.4057628486673861 -0.16220158173413249 0 0.41368018538083651 -0.15636200484147081 0 0.40676062738433588 -0.15282783386115981 0 0.4057628486673861 -0.16220158173413249 0 0.41368018538083651 -0.15636200484147081 0 0.4126544027238423 -0.16353746719413881 0 0.41368018538083651 -0.15636200484147081 0 0.40676062738433588 -0.15282783386115981 0 0.41489450420917501 -0.14953505188778499 0 0.40676062738433588 -0.15282783386115981 0 0.40925403482525091 -0.144726006331484 0 0.41489450420917501 -0.14953505188778499 0 0.40925403482525091 -0.144726006331484 0 0.4157789439454862 -0.14351486294756019 0 0.41215887918207678 -0.13570589340407199 0 0.40925403482525091 -0.144726006331484 0 0.4157789439454862 -0.14351486294756019 0 0.41489450420917501 -0.14953505188778499 0 0.4157789439454862 -0.14351486294756019 0 0.41489450420917501 -0.14953505188778499 0 0.42212155671060653 -0.1462199439000112 0 0.4157789439454862 -0.14351486294756019 0 0.42212155671060653 -0.1462199439000112 0 0.42028680763077092 -0.13876153283909981 0 0.41368018538083651 -0.15636200484147081 0 0.41489450420917501 -0.14953505188778499 0 0.42177167700853407 -0.15355965944502381 0 0.41489450420917501 -0.14953505188778499 0 0.42177167700853407 -0.15355965944502381 0 0.42212155671060653 -0.1462199439000112 0 0.42694180530738041 -0.1579930392206341 0 0.42177167700853407 -0.15355965944502381 0 0.42794804394669511 -0.14999061501896249 0 0.42177167700853407 -0.15355965944502381 0 0.42794804394669511 -0.14999061501896249 0 0.42212155671060653 -0.1462199439000112 0 0.42794804394669511 -0.14999061501896249 0 0.43420793535753088 -0.15378663479075119 0 0.43466998051672001 -0.14500379928594251 0 0.43420793535753088 -0.15378663479075119 0 0.43466998051672001 -0.14500379928594251 0 0.44277517979853059 -0.1488386509207158 0 0.42694180530738041 -0.1579930392206341 0 0.42794804394669511 -0.14999061501896249 0 0.43420793535753088 -0.15378663479075119 0 0.43466998051672001 -0.14500379928594251 0 0.42758495244800132 -0.14193006194623939 0 0.43316240841996462 -0.1361181914689229 0 0.42794804394669511 -0.14999061501896249 0 0.43466998051672001 -0.14500379928594251 0 0.42758495244800132 -0.14193006194623939 0 0.42794804394669511 -0.14999061501896249 0 0.42758495244800132 -0.14193006194623939 0 0.42212155671060653 -0.1462199439000112 0 0.42758495244800132 -0.14193006194623939 0 0.42212155671060653 -0.1462199439000112 0 0.42028680763077092 -0.13876153283909981 0 0.42758495244800132 -0.14193006194623939 0 0.42544882537423262 -0.13438243887245191 0 0.42028680763077092 -0.13876153283909981 0 0.42544882537423262 -0.13438243887245191 0 0.43316240841996462 -0.1361181914689229 0 0.43013357272441433 -0.12862847271597691 0 0.42758495244800132 -0.14193006194623939 0 0.42544882537423262 -0.13438243887245191 0 0.43316240841996462 -0.1361181914689229 0 0.43466998051672001 -0.14500379928594251 0 0.43316240841996462 -0.1361181914689229 0 0.44175509937769802 -0.13780765035079409 0 0.43503295817135279 -0.12198269533632081 0 0.43013357272441433 -0.12862847271597691 0 0.43938202007872162 -0.12895672564213301 0 0.43316240841996462 -0.1361181914689229 0 0.43013357272441433 -0.12862847271597691 0 0.43938202007872162 -0.12895672564213301 0 0.42697885102370903 -0.1211993388057796 0 0.43013357272441433 -0.12862847271597691 0 0.42252482061961988 -0.12745043777918089 0 0.42544882537423262 -0.13438243887245191 0 0.43013357272441433 -0.12862847271597691 0 0.42252482061961988 -0.12745043777918089 0 0.42544882537423262 -0.13438243887245191 0 0.42252482061961988 -0.12745043777918089 0 0.41862672884152169 -0.13235512702051441 0 0.41872096395110298 -0.1202207506010656 0 0.42252482061961988 -0.12745043777918089 0 0.41523998180273902 -0.12791649865929711 0 0.41523998180273902 -0.12791649865929711 0 0.41862672884152169 -0.13235512702051441 0 0.41215887918207678 -0.13570589340407199 0 0.42252482061961988 -0.12745043777918089 0 0.41523998180273902 -0.12791649865929711 0 0.41862672884152169 -0.13235512702051441 0 0.42544882537423262 -0.13438243887245191 0 0.41862672884152169 -0.13235512702051441 0 0.42028680763077092 -0.13876153283909981 0 0.4157789439454862 -0.14351486294756019 0 0.42028680763077092 -0.13876153283909981 0 0.41215887918207678 -0.13570589340407199 0 0.41862672884152169 -0.13235512702051441 0 0.42028680763077092 -0.13876153283909981 0 0.41215887918207678 -0.13570589340407199 0 0.40417496441643869 -0.13978082932318481 0 0.40925403482525091 -0.144726006331484 0 0.41215887918207678 -0.13570589340407199 0 0.40533619384373909 -0.12607033413378321 0 0.40417496441643869 -0.13978082932318481 0 0.41215887918207678 -0.13570589340407199 0 0.40533619384373909 -0.12607033413378321 0 0.41523998180273902 -0.12791649865929711 0 0.41215887918207678 -0.13570589340407199 0 0.46770785044197799 -0.125513236056432 0 0.46051527287866872 -0.14135582835282731 0 0.47541684817899188 -0.14599226437140819 0 0.46770785044197799 -0.125513236056432 0 0.45162710275900469 -0.1296606788713969 0 0.46051527287866872 -0.14135582835282731 0 0.45162710275900469 -0.1296606788713969 0 0.45010731665332521 -0.1397965135660218 0 0.46051527287866872 -0.14135582835282731 0 0.44413539188490669 -0.1211722855947488 0 0.45162710275900469 -0.1296606788713969 0 0.43938202007872162 -0.12895672564213301 0 0.45162710275900469 -0.1296606788713969 0 0.43938202007872162 -0.12895672564213301 0 0.44175509937769802 -0.13780765035079409 0 0.43316240841996462 -0.1361181914689229 0 0.43938202007872162 -0.12895672564213301 0 0.44175509937769802 -0.13780765035079409 0 0.45162710275900469 -0.1296606788713969 0 0.44175509937769802 -0.13780765035079409 0 0.45010731665332521 -0.1397965135660218 0 0.45010731665332521 -0.1397965135660218 0 0.44277517979853059 -0.1488386509207158 0 0.45344422934285689 -0.1508011398539145 0 0.44175509937769802 -0.13780765035079409 0 0.45010731665332521 -0.1397965135660218 0 0.44277517979853059 -0.1488386509207158 0 0.43466998051672001 -0.14500379928594251 0 0.44175509937769802 -0.13780765035079409 0 0.44277517979853059 -0.1488386509207158 0 0.43420793535753088 -0.15378663479075119 0 0.44277517979853059 -0.1488386509207158 0 0.43988849649023681 -0.1590882566412776 0 0.44277517979853059 -0.1488386509207158 0 0.44670618630987652 -0.1561718002282324 0 0.43988849649023681 -0.1590882566412776 0 0.44277517979853059 -0.1488386509207158 0 0.44670618630987652 -0.1561718002282324 0 0.45344422934285689 -0.1508011398539145 0 0.44670618630987652 -0.1561718002282324 0 0.45344422934285689 -0.1508011398539145 0 0.45323805154012381 -0.16139664766808071 0 0.45344422934285689 -0.1508011398539145 0 0.46051527287866872 -0.14135582835282731 0 0.46372436735662559 -0.15752280939766231 0 0.46051527287866872 -0.14135582835282731 0 0.46372436735662559 -0.15752280939766231 0 0.47541684817899188 -0.14599226437140819 0 0.45010731665332521 -0.1397965135660218 0 0.45344422934285689 -0.1508011398539145 0 0.46051527287866872 -0.14135582835282731 0 0.46372436735662559 -0.15752280939766231 0 0.46934279117676841 -0.17058451848894729 0 0.47290246315709789 -0.16014272123610049 0 0.46372436735662559 -0.15752280939766231 0 0.45824113071346639 -0.17069410750517031 0 0.46934279117676841 -0.17058451848894729 0 0.45824113071346639 -0.17069410750517031 0 0.45323805154012381 -0.16139664766808071 0 0.4514067079043812 -0.16883812685777 0 0.45824113071346639 -0.17069410750517031 0 0.4514067079043812 -0.16883812685777 0 0.45068826575277959 -0.17455503446883819 0 0.45344422934285689 -0.1508011398539145 0 0.46372436735662559 -0.15752280939766231 0 0.45323805154012381 -0.16139664766808071 0 0.46372436735662559 -0.15752280939766231 0 0.45824113071346639 -0.17069410750517031 0 0.45323805154012381 -0.16139664766808071 0 0.44670618630987652 -0.1561718002282324 0 0.45323805154012381 -0.16139664766808071 0 0.44590568761353611 -0.16435190216573489 0 0.43988849649023681 -0.1590882566412776 0 0.43857478777033171 -0.16780739554910901 0 0.44590568761353611 -0.16435190216573489 0 0.44670618630987652 -0.1561718002282324 0 0.43988849649023681 -0.1590882566412776 0 0.44590568761353611 -0.16435190216573489 0 0.43857478777033171 -0.16780739554910901 0 0.44590568761353611 -0.16435190216573489 0 0.44452171126465673 -0.1737202507404898 0 0.44590568761353611 -0.16435190216573489 0 0.4514067079043812 -0.16883812685777 0 0.44452171126465673 -0.1737202507404898 0 0.45323805154012381 -0.16139664766808071 0 0.44590568761353611 -0.16435190216573489 0 0.4514067079043812 -0.16883812685777 0 0.45068826575277959 -0.17455503446883819 0 0.44875131472858282 -0.18022001455467121 0 0.45485977907128478 -0.17943001227046021 0 0.45068826575277959 -0.17455503446883819 0 0.44452171126465673 -0.1737202507404898 0 0.44875131472858282 -0.18022001455467121 0 0.4514067079043812 -0.16883812685777 0 0.45068826575277959 -0.17455503446883819 0 0.44452171126465673 -0.1737202507404898 0 0.44452171126465673 -0.1737202507404898 0 0.44206682706997752 -0.18223355326409571 0 0.44875131472858282 -0.18022001455467121 0 0.43707686162067783 -0.1758280789835677 0 0.44452171126465673 -0.1737202507404898 0 0.44206682706997752 -0.18223355326409571 0 0.43707686162067783 -0.1758280789835677 0 0.43857478777033171 -0.16780739554910901 0 0.44452171126465673 -0.1737202507404898 0 0.43486430559479028 -0.18296188125745561 0 0.4382607380905586 -0.1871417294085809 0 0.44206682706997752 -0.18223355326409571 0 0.4382607380905586 -0.1871417294085809 0 0.44206682706997752 -0.18223355326409571 0 0.44354287262241288 -0.1864538679124432 0 0.43486430559479028 -0.18296188125745561 0 0.43707686162067783 -0.1758280789835677 0 0.44206682706997752 -0.18223355326409571 0 0.44206682706997752 -0.18223355326409571 0 0.44354287262241288 -0.1864538679124432 0 0.44723915450526741 -0.18540266114944459 0 0.44354287262241288 -0.1864538679124432 0 0.44723915450526741 -0.18540266114944459 0 0.44729772756670372 -0.18954598213249019 0 0.44206682706997752 -0.18223355326409571 0 0.44723915450526741 -0.18540266114944459 0 0.44875131472858282 -0.18022001455467121 0 0.44875131472858282 -0.18022001455467121 0 0.4534375642012301 -0.1859875379617521 0 0.45485977907128478 -0.17943001227046021 0 0.44723915450526741 -0.18540266114944459 0 0.4534375642012301 -0.1859875379617521 0 0.44966427385061042 -0.18804425911704051 0 0.44723915450526741 -0.18540266114944459 0 0.44875131472858282 -0.18022001455467121 0 0.4534375642012301 -0.1859875379617521 0 0.4534375642012301 -0.1859875379617521 0 0.45485977907128478 -0.17943001227046021 0 0.46363518128439068 -0.18345163060203601 0 0.45824113071346639 -0.17069410750517031 0 0.45068826575277959 -0.17455503446883819 0 0.45485977907128478 -0.17943001227046021 0 0.45824113071346639 -0.17069410750517031 0 0.45485977907128478 -0.17943001227046021 0 0.46363518128439068 -0.18345163060203601 0 0.45824113071346639 -0.17069410750517031 0 0.46363518128439068 -0.18345163060203601 0 0.46934279117676841 -0.17058451848894729 0 0.47795871372511478 -0.17961436294470171 0 0.4908348436530196 -0.1869503210013605 0 0.48312584591600582 -0.1664712926863843 0 0.47795871372511478 -0.17961436294470171 0 0.4908348436530196 -0.1869503210013605 0 0.47125730470320298 -0.19068526419105919 0 0.46363518128439068 -0.18345163060203601 0 0.47795871372511478 -0.17961436294470171 0 0.47125730470320298 -0.19068526419105919 0 0.46363518128439068 -0.18345163060203601 0 0.47795871372511478 -0.17961436294470171 0 0.46934279117676841 -0.17058451848894729 0 0.47795871372511478 -0.17961436294470171 0 0.48312584591600582 -0.1664712926863843 0 0.46934279117676841 -0.17058451848894729 0 0.4908348436530196 -0.1869503210013605 0 0.4931851480979374 -0.1743751093700423 0 0.48312584591600582 -0.1664712926863843 0 0.50000000000000333 -0.1852018204176861 0 0.4931851480979374 -0.1743751093700423 0 0.5 -0.15910736477551349 0 0.4908348436530196 -0.1869503210013605 0 0.48312584591600582 -0.1664712926863843 0 0.4908348436530196 -0.1869503210013605 0 0.50000000000000333 -0.1852018204176861 0 0.4931851480979374 -0.1743751093700423 0 0.4908348436530196 -0.1869503210013605 0 0.50000000000000333 -0.1852018204176861 0 0.4931851480979374 -0.1743751093700423 0 0.5 -0.15910736477551349 0 0.48312584591600582 -0.1664712926863843 0 0.5 -0.15910736477551349 0 0.48312584591600582 -0.1664712926863843 0 0.48852627956053463 -0.15214365517700049 0 0.48312584591600582 -0.1664712926863843 0 0.47290246315709789 -0.16014272123610049 0 0.47541684817899188 -0.14599226437140819 0 0.48312584591600582 -0.1664712926863843 0 0.46934279117676841 -0.17058451848894729 0 0.47290246315709789 -0.16014272123610049 0 0.46770785044197799 -0.125513236056432 0 0.47541684817899188 -0.14599226437140819 0 0.5 -0.13301290913334091 0 0.48312584591600582 -0.1664712926863843 0 0.47541684817899188 -0.14599226437140819 0 0.48852627956053463 -0.15214365517700049 0 0.48312584591600582 -0.1664712926863843 0 0.47541684817899188 -0.14599226437140819 0 0.46372436735662559 -0.15752280939766231 0 0.47290246315709789 -0.16014272123610049 0 0.47541684817899188 -0.14599226437140819 0 0.47541684817899188 -0.14599226437140819 0 0.48852627956053463 -0.15214365517700049 0 0.5 -0.13301290913334091 0 0.5 -0.15910736477551349 0 0.48852627956053463 -0.15214365517700049 0 0.5 -0.13301290913334091 0 0.46770785044197799 -0.125513236056432 0 0.47541684817899188 -0.14599226437140819 0 0.45944787289220829 -0.21918917380250899 0 0.46721598003103049 -0.2439581402242611 0 0.47484615636705491 -0.22865209193636671 0 0.45944787289220829 -0.21918917380250899 0 0.46721598003103049 -0.2439581402242611 0 0.45645910774239112 -0.23372912814801319 0 0.45944787289220829 -0.21918917380250899 0 0.46721598003103049 -0.2439581402242611 0 0.45645910774239112 -0.23372912814801319 0 0.46721598003103049 -0.2439581402242611 0 0.45724451707359759 -0.25403408752779111 0 0.44202518760682857 -0.23026431372147971 0 0.45724451707359759 -0.25403408752779111 0 0.45645910774239112 -0.23372912814801319 0 0.44202518760682857 -0.23026431372147971 0 0.45724451707359759 -0.25403408752779111 0 0.43956676477840251 -0.24874223002817791 0 0.44202518760682857 -0.23026431372147971 0 0.45724451707359759 -0.25403408752779111 0 0.45645910774239112 -0.23372912814801319 0 0.45944787289220829 -0.21918917380250899 0 0.44202518760682857 -0.23026431372147971 0 0.45944787289220829 -0.21918917380250899 0 0.44202518760682857 -0.23026431372147971 0 0.44454081249897309 -0.21152250772671649 0 0.42680585814005972 -0.2064945399151685 0 0.44202518760682857 -0.23026431372147971 0 0.44454081249897309 -0.21152250772671649 0 0.42680585814005972 -0.2064945399151685 0 0.44454081249897309 -0.21152250772671649 0 0.4516797657533862 -0.19442020738075691 0 0.45944787289220829 -0.21918917380250899 0 0.44454081249897309 -0.21152250772671649 0 0.4516797657533862 -0.19442020738075691 0 0.43548256838072341 -0.19252673948539861 0 0.44297110162817771 -0.19015207149114821 0 0.4516797657533862 -0.19442020738075691 0 0.44354287262241288 -0.1864538679124432 0 0.44297110162817771 -0.19015207149114821 0 0.44729772756670372 -0.18954598213249019 0 0.4382607380905586 -0.1871417294085809 0 0.44354287262241288 -0.1864538679124432 0 0.44297110162817771 -0.19015207149114821 0 0.43548256838072341 -0.19252673948539861 0 0.4382607380905586 -0.1871417294085809 0 0.44297110162817771 -0.19015207149114821 0 0.44297110162817771 -0.19015207149114821 0 0.4516797657533862 -0.19442020738075691 0 0.44729772756670372 -0.18954598213249019 0 0.4534375642012301 -0.1859875379617521 0 0.4516797657533862 -0.19442020738075691 0 0.45068264912924022 -0.19124085522447501 0 0.4516797657533862 -0.19442020738075691 0 0.45068264912924022 -0.19124085522447501 0 0.44729772756670372 -0.18954598213249019 0 0.4516797657533862 -0.19442020738075691 0 0.45068264912924022 -0.19124085522447501 0 0.4534375642012301 -0.1859875379617521 0 0.45068264912924022 -0.19124085522447501 0 0.44966427385061042 -0.18804425911704051 0 0.44723915450526741 -0.18540266114944459 0 0.44966427385061042 -0.18804425911704051 0 0.44729772756670372 -0.18954598213249019 0 0.45068264912924022 -0.19124085522447501 0 0.44966427385061042 -0.18804425911704051 0 0.44729772756670372 -0.18954598213249019 0 0.4516797657533862 -0.19442020738075691 0 0.47125730470320298 -0.19068526419105919 0 0.46363518128439068 -0.18345163060203601 0 0.4516797657533862 -0.19442020738075691 0 0.47125730470320298 -0.19068526419105919 0 0.4516797657533862 -0.19442020738075691 0 0.46751562138370428 -0.20394007518940471 0 0.47125730470320298 -0.19068526419105919 0 0.4534375642012301 -0.1859875379617521 0 0.46363518128439068 -0.18345163060203601 0 0.4516797657533862 -0.19442020738075691 0 0.45944787289220829 -0.21918917380250899 0 0.4516797657533862 -0.19442020738075691 0 0.46751562138370428 -0.20394007518940471 0 0.45944787289220829 -0.21918917380250899 0 0.46751562138370428 -0.20394007518940471 0 0.47765635845089532 -0.21295710892563219 0 0.45944787289220829 -0.21918917380250899 0 0.4516797657533862 -0.19442020738075691 0 0.46751562138370428 -0.20394007518940471 0 0.47765635845089532 -0.21295710892563219 0 0.48162184420936521 -0.20035447471081461 0 0.47765635845089532 -0.21295710892563219 0 0.48162184420936521 -0.20035447471081461 0 0.48876771929918472 -0.20898445522548001 0 0.4908348436530196 -0.1869503210013605 0 0.47125730470320298 -0.19068526419105919 0 0.4908348436530196 -0.1869503210013605 0 0.47125730470320298 -0.19068526419105919 0 0.48162184420936521 -0.20035447471081461 0 0.46751562138370428 -0.20394007518940471 0 0.47125730470320298 -0.19068526419105919 0 0.48162184420936521 -0.20035447471081461 0 0.50000000000000333 -0.1852018204176861 0 0.49525535806533849 -0.1986934610183792 0 0.5 -0.2099625363178261 0 0.4908348436530196 -0.1869503210013605 0 0.48162184420936521 -0.20035447471081461 0 0.49525535806533849 -0.1986934610183792 0 0.48162184420936521 -0.20035447471081461 0 0.49525535806533849 -0.1986934610183792 0 0.48876771929918472 -0.20898445522548001 0 0.4908348436530196 -0.1869503210013605 0 0.49525535806533849 -0.1986934610183792 0 0.4908348436530196 -0.1869503210013605 0 0.50000000000000333 -0.1852018204176861 0 0.49525535806533849 -0.1986934610183792 0 0.47765635845089532 -0.21295710892563219 0 0.48876771929918472 -0.20898445522548001 0 0.4893050357703243 -0.22295469515474761 0 0.49525535806533849 -0.1986934610183792 0 0.48876771929918472 -0.20898445522548001 0 0.5 -0.2099625363178261 0 0.48876771929918472 -0.20898445522548001 0 0.5 -0.2099625363178261 0 0.4893050357703243 -0.22295469515474761 0 0.5 -0.2099625363178261 0 0.4893050357703243 -0.22295469515474761 0 0.5 -0.234723252217966 0 0.4893050357703243 -0.22295469515474761 0 0.47484615636705491 -0.22865209193636671 0 0.48528347660374571 -0.2456384494105798 0 0.47765635845089532 -0.21295710892563219 0 0.4893050357703243 -0.22295469515474761 0 0.47484615636705491 -0.22865209193636671 0 0.45944787289220829 -0.21918917380250899 0 0.47765635845089532 -0.21295710892563219 0 0.47484615636705491 -0.22865209193636671 0 0.46721598003103049 -0.2439581402242611 0 0.47484615636705491 -0.22865209193636671 0 0.48528347660374571 -0.2456384494105798 0 0.4893050357703243 -0.22295469515474761 0 0.48528347660374571 -0.2456384494105798 0 0.5 -0.234723252217966 0 0.48528347660374571 -0.2456384494105798 0 0.5 -0.234723252217966 0 0.5 -0.25948396811810581 0 0.48528347660374571 -0.2456384494105798 0 0.5 -0.25948396811810581 0 0.47498408716985269 -0.26872710664601318 0 0.5 -0.25948396811810581 0 0.47498408716985269 -0.26872710664601318 0 0.49999999999999861 -0.28424468401824571 0 0.47498408716985269 -0.26872710664601318 0 0.47246384654036672 -0.27780386133410229 0 0.48275219430867239 -0.29349607306776587 0 0.47498408716985269 -0.26872710664601318 0 0.48275219430867239 -0.29349607306776587 0 0.46721598003103049 -0.2439581402242611 0 0.48528347660374571 -0.2456384494105798 0 0.47498408716985269 -0.26872710664601318 0 0.46721598003103049 -0.2439581402242611 0 0.47498408716985269 -0.26872710664601318 0 0.46721598003103049 -0.2439581402242611 0 0.47498408716985269 -0.26872710664601318 0 0.45724451707359759 -0.25403408752779111 0 0.47246384654036672 -0.27780386133410229 0 0.45724451707359759 -0.25403408752779111 0 0.47246384654036672 -0.27780386133410229 0 0.45724451707359759 -0.25403408752779111 0 0.45515371357508683 -0.27261902244552438 0 0.47498408716985269 -0.26872710664601318 0 0.47246384654036672 -0.27780386133410229 0 0.45724451707359759 -0.25403408752779111 0 0.47246384654036672 -0.27780386133410229 0 0.45515371357508683 -0.27261902244552438 0 0.45851947215890898 -0.2872081039151485 0 0.45515371357508683 -0.27261902244552438 0 0.44236404059106338 -0.26354837108767948 0 0.44330803566323668 -0.28161197135129751 0 0.44236404059106338 -0.26354837108767948 0 0.44330803566323668 -0.28161197135129751 0 0.42819848735456029 -0.27145834075682529 0 0.45515371357508683 -0.27261902244552438 0 0.44330803566323668 -0.28161197135129751 0 0.45851947215890898 -0.2872081039151485 0 0.45724451707359759 -0.25403408752779111 0 0.45515371357508683 -0.27261902244552438 0 0.44236404059106338 -0.26354837108767948 0 0.43956676477840251 -0.24874223002817791 0 0.45724451707359759 -0.25403408752779111 0 0.44236404059106338 -0.26354837108767948 0 0.44635079221412582 -0.29704805133343182 0 0.44397328647238732 -0.31429632845847838 0 0.42642188809578319 -0.29598119256288602 0 0.44635079221412582 -0.29704805133343182 0 0.46336274039052983 -0.30389620076312202 0 0.44397328647238732 -0.31429632845847838 0 0.44635079221412582 -0.29704805133343182 0 0.44330803566323668 -0.28161197135129751 0 0.42642188809578319 -0.29598119256288602 0 0.44635079221412582 -0.29704805133343182 0 0.44330803566323668 -0.28161197135129751 0 0.45851947215890898 -0.2872081039151485 0 0.44635079221412582 -0.29704805133343182 0 0.45851947215890898 -0.2872081039151485 0 0.46336274039052983 -0.30389620076312202 0 0.45851947215890898 -0.2872081039151485 0 0.46336274039052983 -0.30389620076312202 0 0.46927456334961942 -0.29060105977003459 0 0.47246384654036672 -0.27780386133410229 0 0.45851947215890898 -0.2872081039151485 0 0.46927456334961942 -0.29060105977003459 0 0.46336274039052983 -0.30389620076312202 0 0.44397328647238732 -0.31429632845847838 0 0.46336274039052983 -0.30389620076312202 0 0.48275219430867239 -0.29349607306776587 0 0.47356310842583088 -0.312593963932634 0 0.46336274039052983 -0.30389620076312202 0 0.48275219430867239 -0.29349607306776587 0 0.48275219430867239 -0.29349607306776587 0 0.4892603191953061 -0.3142475282041039 0 0.47356310842583088 -0.312593963932634 0 0.46336274039052983 -0.30389620076312202 0 0.48275219430867239 -0.29349607306776587 0 0.46927456334961942 -0.29060105977003459 0 0.47246384654036672 -0.27780386133410229 0 0.48275219430867239 -0.29349607306776587 0 0.46927456334961942 -0.29060105977003459 0 0.48275219430867239 -0.29349607306776587 0 0.49999999999999861 -0.28424468401824571 0 0.48275219430867239 -0.29349607306776587 0 0.49999999999999861 -0.28424468401824571 0 0.49907776680891058 -0.30327432576671232 0 0.47498408716985269 -0.26872710664601318 0 0.48275219430867239 -0.29349607306776587 0 0.49999999999999861 -0.28424468401824571 0 0.49907776680891058 -0.30327432576671232 0 0.5 -0.30566028726272892 0 0.49742310544542562 -0.3191366545535772 0 0.48275219430867239 -0.29349607306776587 0 0.4892603191953061 -0.3142475282041039 0 0.49999999999999861 -0.28424468401824571 0 0.49907776680891058 -0.30327432576671232 0 0.5 -0.30566028726272892 0 0.48275219430867239 -0.29349607306776587 0 0.49907776680891058 -0.30327432576671232 0 0.4892603191953061 -0.3142475282041039 0 0.49907776680891058 -0.30327432576671232 0 0.49742310544542562 -0.3191366545535772 0 0.49907776680891058 -0.30327432576671232 0 0.4892603191953061 -0.3142475282041039 0 0.49742310544542562 -0.3191366545535772 0 0.49742310544542562 -0.3191366545535772 0 0.5 -0.32707589050721209 0 0.4957684440819391 -0.33499898334044209 0 0.5 -0.30566028726272892 0 0.49742310544542562 -0.3191366545535772 0 0.5 -0.32707589050721209 0 0.49742310544542562 -0.3191366545535772 0 0.4957684440819391 -0.33499898334044209 0 0.4892603191953061 -0.3142475282041039 0 0.4957684440819391 -0.33499898334044209 0 0.47497027852012641 -0.32913877256748569 0 0.4892603191953061 -0.3142475282041039 0 0.49742310544542562 -0.3191366545535772 0 0.4957684440819391 -0.33499898334044209 0 0.4892603191953061 -0.3142475282041039 0 0.4957684440819391 -0.33499898334044209 0 0.5 -0.32707589050721209 0 0.4957684440819391 -0.33499898334044209 0 0.50000000000000056 -0.3484914937516953 0 0.4957684440819391 -0.33499898334044209 0 0.50000000000000056 -0.3484914937516953 0 0.4957684440819391 -0.33499898334044209 0 0.47497027852012641 -0.32913877256748569 0 0.47392250371401962 -0.34412044306402528 0 0.47497027852012641 -0.32913877256748569 0 0.47392250371401962 -0.34412044306402528 0 0.45965433015036727 -0.34137995984610392 0 0.4892603191953061 -0.3142475282041039 0 0.47497027852012641 -0.32913877256748569 0 0.47356310842583088 -0.312593963932634 0 0.49300806793092999 -0.36146119189200321 0 0.5 -0.37290263754027608 0 0.50000000000000056 -0.3484914937516953 0 0.49300806793092999 -0.36146119189200321 0 0.4902476917799185 -0.38792340044356383 0 0.49300806793092999 -0.36146119189200321 0 0.5 -0.37290263754027608 0 0.4902476917799185 -0.38792340044356383 0 0.49300806793092999 -0.36146119189200321 0 0.4902476917799185 -0.38792340044356383 0 0.47720072029110588 -0.37536062772200302 0 0.4957684440819391 -0.33499898334044209 0 0.49300806793092999 -0.36146119189200321 0 0.50000000000000056 -0.3484914937516953 0 0.4957684440819391 -0.33499898334044209 0 0.49300806793092999 -0.36146119189200321 0 0.4957684440819391 -0.33499898334044209 0 0.49300806793092999 -0.36146119189200321 0 0.47392250371401962 -0.34412044306402528 0 0.47693385930003818 -0.35833391423206801 0 0.47392250371401962 -0.34412044306402528 0 0.46183865058621232 -0.36056867463151521 0 0.49300806793092999 -0.36146119189200321 0 0.47693385930003818 -0.35833391423206801 0 0.47392250371401962 -0.34412044306402528 0 0.49300806793092999 -0.36146119189200321 0 0.47693385930003818 -0.35833391423206801 0 0.47720072029110588 -0.37536062772200302 0 0.47693385930003818 -0.35833391423206801 0 0.46183865058621232 -0.36056867463151521 0 0.47720072029110588 -0.37536062772200302 0 0.47693385930003818 -0.35833391423206801 0 0.47720072029110588 -0.37536062772200302 0 0.46183865058621232 -0.36056867463151521 0 0.47720072029110588 -0.37536062772200302 0 0.46183865058621232 -0.36056867463151521 0 0.44778286271151768 -0.36678134121227429 0 0.46432866370991521 -0.38244282407337088 0 0.46183865058621232 -0.36056867463151521 0 0.47720072029110588 -0.37536062772200302 0 0.46432866370991521 -0.38244282407337088 0 0.46183865058621232 -0.36056867463151521 0 0.46432866370991521 -0.38244282407337088 0 0.47392250371401962 -0.34412044306402528 0 0.46183865058621232 -0.36056867463151521 0 0.45965433015036727 -0.34137995984610392 0 0.46183865058621232 -0.36056867463151521 0 0.45965433015036727 -0.34137995984610392 0 0.44321124157022762 -0.3426325653926745 0 0.46183865058621232 -0.36056867463151521 0 0.45965433015036727 -0.34137995984610392 0 0.44778286271151768 -0.36678134121227429 0 0.44321124157022762 -0.3426325653926745 0 0.43158016336645649 -0.35891373302690399 0 0.46183865058621232 -0.36056867463151521 0 0.44321124157022762 -0.3426325653926745 0 0.46183865058621232 -0.36056867463151521 0 0.44778286271151768 -0.36678134121227429 0 0.44321124157022762 -0.3426325653926745 0 0.44778286271151768 -0.36678134121227429 0 0.43705744417117631 -0.37295653114084171 0 0.44868101286511941 -0.38317371900833902 0 0.44778286271151768 -0.36678134121227429 0 0.43705744417117631 -0.37295653114084171 0 0.43158016336645649 -0.35891373302690399 0 0.47497027852012641 -0.32913877256748569 0 0.47356310842583088 -0.312593963932634 0 0.45747000971452012 -0.32219124506069291 0 0.46336274039052983 -0.30389620076312202 0 0.47356310842583088 -0.312593963932634 0 0.45747000971452012 -0.32219124506069291 0 0.46336274039052983 -0.30389620076312202 0 0.45747000971452012 -0.32219124506069291 0 0.44397328647238732 -0.31429632845847838 0 0.45747000971452012 -0.32219124506069291 0 0.45965433015036727 -0.34137995984610392 0 0.47497027852012641 -0.32913877256748569 0 0.45747000971452012 -0.32219124506069291 0 0.45965433015036727 -0.34137995984610392 0 0.45747000971452012 -0.32219124506069291 0 0.45965433015036727 -0.34137995984610392 0 0.44472524365804322 -0.32849491608626408 0 0.44321124157022762 -0.3426325653926745 0 0.44472524365804322 -0.32849491608626408 0 0.42458383255424381 -0.32469645615383302 0 0.45965433015036727 -0.34137995984610392 0 0.44321124157022762 -0.3426325653926745 0 0.44472524365804322 -0.32849491608626408 0 0.44472524365804322 -0.32849491608626408 0 0.44397328647238732 -0.31429632845847838 0 0.42458383255424381 -0.32469645615383302 0 0.45747000971452012 -0.32219124506069291 0 0.44472524365804322 -0.32849491608626408 0 0.44397328647238732 -0.31429632845847838 0 0.44397328647238732 -0.31429632845847838 0 0.42458383255424381 -0.32469645615383302 0 0.44321124157022762 -0.3426325653926745 0 0.42458383255424381 -0.32469645615383302 0 0.44321124157022762 -0.3426325653926745 0 0.42458383255424381 -0.32469645615383302 0 0.42002650463658381 -0.34561624490957832 0 0.42458383255424381 -0.32469645615383302 0 0.42002650463658381 -0.34561624490957832 0 0.40406544122413762 -0.33570212402036193 0 0.42458383255424381 -0.32469645615383302 0 0.40406544122413762 -0.33570212402036193 0 0.42002650463658381 -0.34561624490957832 0 0.40654984532204069 -0.34937206848672808 0 0.40406544122413762 -0.33570212402036193 0 0.42458383255424381 -0.32469645615383302 0 0.40344641657128538 -0.3215921361501155 0 0.40719752828605271 -0.30795539182510889 0 0.42458383255424381 -0.32469645615383302 0 0.40719752828605271 -0.30795539182510889 0 0.42458383255424381 -0.32469645615383302 0 0.40344641657128538 -0.3215921361501155 0 0.40406544122413762 -0.33570212402036193 0 0.42258531399817462 -0.37200754243203632 0 0.43705744417117631 -0.37295653114084171 0 0.43158016336645649 -0.35891373302690399 0 0.44321124157022762 -0.3426325653926745 0 0.43158016336645649 -0.35891373302690399 0 0.42002650463658381 -0.34561624490957832 0 0.43158016336645649 -0.35891373302690399 0 0.42002650463658381 -0.34561624490957832 0 0.40968851086933422 -0.36290678030550871 0 0.42002650463658381 -0.34561624490957832 0 0.40654984532204069 -0.34937206848672808 0 0.40968851086933422 -0.36290678030550871 0 0.42258531399817462 -0.37200754243203632 0 0.43158016336645649 -0.35891373302690399 0 0.40968851086933422 -0.36290678030550871 0 0.42258531399817462 -0.37200754243203632 0 0.40968851086933422 -0.36290678030550871 0 0.40972512838904951 -0.37460542088767917 0 0.40968851086933422 -0.36290678030550871 0 0.39831003731272252 -0.37044786667302959 0 0.39269850294288772 -0.34828580897321798 0 0.39831003731272252 -0.37044786667302959 0 0.38511285390514682 -0.35331319988489851 0 0.39831003731272252 -0.37044786667302959 0 0.38525662673201583 -0.3673711722762053 0 0.38958862162507529 -0.3762920420681537 0 0.40968851086933422 -0.36290678030550871 0 0.40972512838904951 -0.37460542088767917 0 0.39831003731272252 -0.37044786667302959 0 0.40654984532204069 -0.34937206848672808 0 0.40968851086933422 -0.36290678030550871 0 0.39269850294288772 -0.34828580897321798 0 0.40968851086933422 -0.36290678030550871 0 0.39269850294288772 -0.34828580897321798 0 0.39831003731272252 -0.37044786667302959 0 0.39269850294288772 -0.34828580897321798 0 0.38511285390514682 -0.35331319988489851 0 0.40654984532204069 -0.34937206848672808 0 0.39269850294288772 -0.34828580897321798 0 0.39608401452663189 -0.33991820396619149 0 0.39269850294288772 -0.34828580897321798 0 0.38511285390514682 -0.35331319988489851 0 0.37570849501644121 -0.33366483764092719 0 0.38511285390514682 -0.35331319988489851 0 0.37191567049757102 -0.33617853309676732 0 0.38511285390514682 -0.35331319988489851 0 0.37191567049757102 -0.33617853309676732 0 0.3706585033362147 -0.34688644151250642 0 0.38511285390514682 -0.35331319988489851 0 0.37702831201740922 -0.36234499727590669 0 0.37404793340421683 -0.35462110290698701 0 0.38511285390514682 -0.35331319988489851 0 0.37404793340421683 -0.35462110290698701 0 0.3706585033362147 -0.34688644151250642 0 0.39831003731272252 -0.37044786667302959 0 0.38511285390514682 -0.35331319988489851 0 0.38525662673201583 -0.3673711722762053 0 0.38511285390514682 -0.35331319988489851 0 0.37702831201740922 -0.36234499727590669 0 0.38525662673201583 -0.3673711722762053 0 0.37702831201740922 -0.36234499727590669 0 0.38525662673201583 -0.3673711722762053 0 0.37686528948467862 -0.37514013492188419 0 0.38525662673201583 -0.3673711722762053 0 0.38958862162507529 -0.3762920420681537 0 0.37686528948467862 -0.37514013492188419 0 0.39182059317056889 -0.3276476509649206 0 0.40344641657128538 -0.3215921361501155 0 0.38956468762142371 -0.31195905778635352 0 0.40344641657128538 -0.3215921361501155 0 0.38956468762142371 -0.31195905778635352 0 0.40719752828605271 -0.30795539182510889 0 0.39182059317056889 -0.3276476509649206 0 0.40344641657128538 -0.3215921361501155 0 0.40406544122413762 -0.33570212402036193 0 0.40654984532204069 -0.34937206848672808 0 0.40406544122413762 -0.33570212402036193 0 0.39608401452663189 -0.33991820396619149 0 0.39269850294288772 -0.34828580897321798 0 0.39608401452663189 -0.33991820396619149 0 0.38780239954434159 -0.33624222731385212 0 0.39182059317056889 -0.3276476509649206 0 0.40406544122413762 -0.33570212402036193 0 0.39608401452663189 -0.33991820396619149 0 0.39182059317056889 -0.3276476509649206 0 0.39608401452663189 -0.33991820396619149 0 0.38780239954434159 -0.33624222731385212 0 0.39269850294288772 -0.34828580897321798 0 0.38780239954434159 -0.33624222731385212 0 0.37570849501644121 -0.33366483764092719 0 0.39182059317056889 -0.3276476509649206 0 0.38364203645909017 -0.32991158560808531 0 0.38780239954434159 -0.33624222731385212 0 0.38511285390514682 -0.35331319988489851 0 0.37570849501644121 -0.33366483764092719 0 0.37191567049757102 -0.33617853309676732 0 0.39269850294288772 -0.34828580897321798 0 0.37570849501644121 -0.33366483764092719 0 0.38364203645909017 -0.32991158560808531 0 0.37570849501644121 -0.33366483764092719 0 0.37923665810500917 -0.32209162651264139 0 0.38364203645909017 -0.32991158560808531 0 0.38780239954434159 -0.33624222731385212 0 0.37570849501644121 -0.33366483764092719 0 0.39182059317056889 -0.3276476509649206 0 0.37923665810500917 -0.32209162651264139 0 0.38956468762142371 -0.31195905778635352 0 0.39182059317056889 -0.3276476509649206 0 0.38364203645909017 -0.32991158560808531 0 0.37923665810500917 -0.32209162651264139 0 0.37923665810500917 -0.32209162651264139 0 0.37517298714136482 -0.31118083914760092 0 0.38956468762142371 -0.31195905778635352 0 0.37517298714136482 -0.31118083914760092 0 0.37894588109951272 -0.29802014198002691 0 0.38956468762142371 -0.31195905778635352 0 0.37894588109951272 -0.29802014198002691 0 0.38956468762142371 -0.31195905778635352 0 0.38981122401786128 -0.29121432749638521 0 0.38981122401786128 -0.29121432749638521 0 0.40719752828605271 -0.30795539182510889 0 0.40577445415470798 -0.29203457577632053 0 0.38981122401786128 -0.29121432749638521 0 0.40719752828605271 -0.30795539182510889 0 0.38956468762142371 -0.31195905778635352 0 0.38981122401786128 -0.29121432749638521 0 0.40719752828605271 -0.30795539182510889 0 0.40577445415470798 -0.29203457577632053 0 0.38981122401786128 -0.29121432749638521 0 0.3955136125294425 -0.27311983282267149 0 0.37894588109951272 -0.29802014198002691 0 0.38981122401786128 -0.29121432749638521 0 0.37439434533099708 -0.27494400802939251 0 0.38300252927607759 -0.24908553861838309 0 0.3955136125294425 -0.27311983282267149 0 0.37439434533099708 -0.27494400802939251 0 0.38981122401786128 -0.29121432749638521 0 0.3955136125294425 -0.27311983282267149 0 0.37439434533099708 -0.27494400802939251 0 0.38300252927607759 -0.24908553861838309 0 0.37439434533099708 -0.27494400802939251 0 0.38300252927607759 -0.24908553861838309 0 0.3955136125294425 -0.27311983282267149 0 0.41086316301984632 -0.25802231137203191 0 0.40577445415470798 -0.29203457577632053 0 0.3955136125294425 -0.27311983282267149 0 0.41278690925657952 -0.27828041242774593 0 0.3955136125294425 -0.27311983282267149 0 0.41278690925657952 -0.27828041242774593 0 0.41086316301984632 -0.25802231137203191 0 0.41278690925657952 -0.27828041242774593 0 0.41086316301984632 -0.25802231137203191 0 0.42819848735456029 -0.27145834075682529 0 0.42312583681382221 -0.24007695028055889 0 0.41086316301984632 -0.25802231137203191 0 0.42878961074601168 -0.25549600830659602 0 0.44236404059106338 -0.26354837108767948 0 0.42878961074601168 -0.25549600830659602 0 0.42819848735456029 -0.27145834075682529 0 0.41086316301984632 -0.25802231137203191 0 0.42878961074601168 -0.25549600830659602 0 0.42819848735456029 -0.27145834075682529 0 0.43956676477840251 -0.24874223002817791 0 0.44236404059106338 -0.26354837108767948 0 0.42878961074601168 -0.25549600830659602 0 0.41278690925657952 -0.27828041242774593 0 0.42819848735456029 -0.27145834075682529 0 0.42642188809578319 -0.29598119256288602 0 0.44330803566323668 -0.28161197135129751 0 0.42819848735456029 -0.27145834075682529 0 0.42642188809578319 -0.29598119256288602 0 0.44397328647238732 -0.31429632845847838 0 0.42458383255424381 -0.32469645615383302 0 0.42642188809578319 -0.29598119256288602 0 0.40577445415470798 -0.29203457577632053 0 0.42642188809578319 -0.29598119256288602 0 0.40719752828605271 -0.30795539182510889 0 0.42458383255424381 -0.32469645615383302 0 0.42642188809578319 -0.29598119256288602 0 0.40719752828605271 -0.30795539182510889 0 0.40577445415470798 -0.29203457577632053 0 0.41278690925657952 -0.27828041242774593 0 0.42642188809578319 -0.29598119256288602 0 0.4468168404583836 -0.49175467296803088 0 0.45762016670193861 -0.49145413315915443 0 0.43248190522938879 -0.48199779517533098 0 0.44114739634062339 -0.5 0 0.4468168404583836 -0.49175467296803088 0 0.45762016670193861 -0.49145413315915443 0 0.44114739634062339 -0.5 0 0.4468168404583836 -0.49175467296803088 0 0.43248190522938879 -0.48199779517533098 0 0.45762016670193861 -0.49145413315915443 0 0.43248190522938879 -0.48199779517533098 0 0.4468168404583836 -0.49175467296803088 0 0.45762016670193861 -0.49145413315915443 0 0.45762016670193861 -0.49145413315915443 0 0.44174755577752789 -0.4653323192171685 0 0.43248190522938879 -0.48199779517533098 0 0.46044969396354468 -0.46904989857253548 0 0.46810247196942478 -0.48385372085743478 0 0.45762016670193861 -0.49145413315915443 0 0.46044969396354468 -0.46904989857253548 0 0.45762016670193861 -0.49145413315915443 0 0.44174755577752789 -0.4653323192171685 0 0.46044969396354468 -0.46904989857253548 0 0.46970245225785268 -0.47462506828019169 0 0.47085976064620921 -0.46544699146134572 0 0.46044969396354468 -0.46904989857253548 0 0.46810247196942478 -0.48385372085743478 0 0.46970245225785268 -0.47462506828019169 0 0.45762016670193861 -0.49145413315915443 0 0.4683881885080623 -0.49550477340438931 0 0.47779985327565189 -0.49089275058036741 0 0.44114739634062339 -0.5 0 0.45762016670193861 -0.49145413315915443 0 0.46469628929179613 -0.50000000000000089 0 0.46810247196942478 -0.48385372085743478 0 0.45762016670193861 -0.49145413315915443 0 0.47779985327565189 -0.49089275058036741 0 0.45762016670193861 -0.49145413315915443 0 0.47779985327565189 -0.49089275058036741 0 0.45762016670193861 -0.49145413315915443 0 0.4683881885080623 -0.49550477340438931 0 0.45762016670193861 -0.49145413315915443 0 0.46469628929179613 -0.50000000000000089 0 0.4683881885080623 -0.49550477340438931 0 0.46469628929179613 -0.50000000000000089 0 0.47779985327565189 -0.49089275058036741 0 0.47855654468994391 -0.49999999999999267 0 0.46469628929179613 -0.50000000000000089 0 0.4683881885080623 -0.49550477340438931 0 0.47779985327565189 -0.49089275058036741 0 0.46469628929179613 -0.50000000000000089 0 0.47779985327565189 -0.49089275058036741 0 0.46810247196942478 -0.48385372085743478 0 0.47779985327565189 -0.49089275058036741 0 0.47887377713154777 -0.48210781231688948 0 0.47963996617658761 -0.48961383385437351 0 0.47779985327565189 -0.49089275058036741 0 0.47887377713154777 -0.48210781231688948 0 0.47963996617658761 -0.48961383385437351 0 0.47779985327565189 -0.49089275058036741 0 0.47963996617658761 -0.48961383385437351 0 0.47779985327565189 -0.49089275058036741 0 0.47855654468994391 -0.49999999999999267 0 0.47963996617658761 -0.48961383385437351 0 0.47855654468994391 -0.49999999999999267 0 0.48951701730593639 -0.49528007342526492 0 0.47963996617658761 -0.48961383385437351 0 0.47855654468994391 -0.49999999999999267 0 0.47963996617658761 -0.48961383385437351 0 0.48951701730593639 -0.49528007342526492 0 0.50000000000000022 -0.49027516043236941 0 0.47963996617658761 -0.48961383385437351 0 0.50000000000000022 -0.49027516043236941 0 0.47963996617658761 -0.48961383385437351 0 0.50000000000000022 -0.49027516043236941 0 0.50000000000000089 -0.47546318701886991 0 0.47855654468994391 -0.49999999999999267 0 0.48951701730593639 -0.49528007342526492 0 0.5 -0.5 0 0.48951701730593639 -0.49528007342526492 0 0.50000000000000022 -0.49027516043236941 0 0.5 -0.5 0 0.47963996617658761 -0.48961383385437351 0 0.50000000000000089 -0.47546318701886991 0 0.47963996617658761 -0.48961383385437351 0 0.50000000000000089 -0.47546318701886991 0 0.48229189757741991 -0.46419122550167102 0 0.47887377713154777 -0.48210781231688948 0 0.46970245225785268 -0.47462506828019169 0 0.47085976064620921 -0.46544699146134572 0 0.47963996617658761 -0.48961383385437351 0 0.47887377713154777 -0.48210781231688948 0 0.48229189757741991 -0.46419122550167102 0 0.47887377713154777 -0.48210781231688948 0 0.47845551292143712 -0.45542101616816782 0 0.47963996617658761 -0.48961383385437351 0 0.48229189757741991 -0.46419122550167102 0 0.46810247196942478 -0.48385372085743478 0 0.47887377713154777 -0.48210781231688948 0 0.46970245225785268 -0.47462506828019169 0 0.47887377713154777 -0.48210781231688948 0 0.48229189757741991 -0.46419122550167102 0 0.47845551292143712 -0.45542101616816782 0 0.47887377713154777 -0.48210781231688948 0 0.47085976064620921 -0.46544699146134572 0 0.47845551292143712 -0.45542101616816782 0 0.47085976064620921 -0.46544699146134572 0 0.47845551292143712 -0.45542101616816782 0 0.46430166141737872 -0.45543028238864902 0 0.50000000000000089 -0.47546318701886991 0 0.48229189757741991 -0.46419122550167102 0 0.5 -0.44941338512219892 0 0.48229189757741991 -0.46419122550167102 0 0.48494382897825311 -0.4387686171489687 0 0.5 -0.44941338512219892 0 0.47845551292143712 -0.45542101616816782 0 0.46906537854532138 -0.43739001899208801 0 0.47803724871132641 -0.42873422001944622 0 0.48229189757741991 -0.46419122550167102 0 0.47845551292143712 -0.45542101616816782 0 0.48494382897825311 -0.4387686171489687 0 0.47845551292143712 -0.45542101616816782 0 0.46349049271923493 -0.44494684750400082 0 0.46906537854532138 -0.43739001899208801 0 0.47845551292143712 -0.45542101616816782 0 0.48494382897825311 -0.4387686171489687 0 0.47803724871132641 -0.42873422001944622 0 0.48229189757741991 -0.46419122550167102 0 0.48494382897825311 -0.4387686171489687 0 0.47845551292143712 -0.45542101616816782 0 0.47803724871132641 -0.42873422001944622 0 0.46349049271923493 -0.44494684750400082 0 0.45603494841729209 -0.43165688831174209 0 0.46906537854532138 -0.43739001899208801 0 0.46349049271923493 -0.44494684750400082 0 0.44915816512623519 -0.44776322026266357 0 0.45603494841729209 -0.43165688831174209 0 0.46349049271923493 -0.44494684750400082 0 0.46430166141737872 -0.45543028238864902 0 0.44915816512623519 -0.44776322026266357 0 0.47845551292143712 -0.45542101616816782 0 0.46349049271923493 -0.44494684750400082 0 0.46430166141737872 -0.45543028238864902 0 0.46044969396354468 -0.46904989857253548 0 0.46430166141737872 -0.45543028238864902 0 0.44915816512623519 -0.44776322026266357 0 0.46044969396354468 -0.46904989857253548 0 0.47085976064620921 -0.46544699146134572 0 0.46430166141737872 -0.45543028238864902 0 0.46044969396354468 -0.46904989857253548 0 0.44174755577752789 -0.4653323192171685 0 0.44915816512623519 -0.44776322026266357 0 0.44494010750648372 -0.41788628806717099 0 0.45603494841729209 -0.43165688831174209 0 0.4367063139945187 -0.43302351264923872 0 0.44915816512623519 -0.44776322026266357 0 0.45603494841729209 -0.43165688831174209 0 0.4367063139945187 -0.43302351264923872 0 0.44494010750648372 -0.41788628806717099 0 0.45792282067527967 -0.41705896361827349 0 0.45603494841729209 -0.43165688831174209 0 0.44494010750648372 -0.41788628806717099 0 0.45792282067527967 -0.41705896361827349 0 0.45261498776973658 -0.40574072180506948 0 0.44494010750648372 -0.41788628806717099 0 0.45261498776973658 -0.40574072180506948 0 0.43853926399778709 -0.4059160712481884 0 0.4693086899573165 -0.426191122957083 0 0.46681867683361589 -0.40431697351522689 0 0.45792282067527967 -0.41705896361827349 0 0.4693086899573165 -0.426191122957083 0 0.46681867683361589 -0.40431697351522689 0 0.45792282067527967 -0.41705896361827349 0 0.46681867683361589 -0.40431697351522689 0 0.45261498776973658 -0.40574072180506948 0 0.45792282067527967 -0.41705896361827349 0 0.45603494841729209 -0.43165688831174209 0 0.4693086899573165 -0.426191122957083 0 0.45603494841729209 -0.43165688831174209 0 0.46906537854532138 -0.43739001899208801 0 0.4693086899573165 -0.426191122957083 0 0.48494382897825311 -0.4387686171489687 0 0.47803724871132641 -0.42873422001944622 0 0.48759576037908631 -0.41334600879626632 0 0.46906537854532138 -0.43739001899208801 0 0.4693086899573165 -0.426191122957083 0 0.47803724871132641 -0.42873422001944622 0 0.48494382897825311 -0.4387686171489687 0 0.5 -0.44941338512219892 0 0.5 -0.42336358322552781 0 0.48494382897825311 -0.4387686171489687 0 0.5 -0.42336358322552781 0 0.48759576037908631 -0.41334600879626632 0 0.48494382897825311 -0.4387686171489687 0 0.48759576037908631 -0.41334600879626632 0 0.5 -0.42336358322552781 0 0.48759576037908631 -0.41334600879626632 0 0.49999999999999922 -0.39731378132885681 0 0.47803724871132641 -0.42873422001944622 0 0.48759576037908631 -0.41334600879626632 0 0.47761898450121582 -0.40204742387072462 0 0.4693086899573165 -0.426191122957083 0 0.47803724871132641 -0.42873422001944622 0 0.47761898450121582 -0.40204742387072462 0 0.4693086899573165 -0.426191122957083 0 0.47761898450121582 -0.40204742387072462 0 0.46681867683361589 -0.40431697351522689 0 0.47803724871132641 -0.42873422001944622 0 0.47761898450121582 -0.40204742387072462 0 0.47761898450121582 -0.40204742387072462 0 0.46432866370991521 -0.38244282407337088 0 0.46681867683361589 -0.40431697351522689 0 0.48759576037908631 -0.41334600879626632 0 0.4902476917799185 -0.38792340044356383 0 0.48759576037908631 -0.41334600879626632 0 0.47761898450121582 -0.40204742387072462 0 0.4902476917799185 -0.38792340044356383 0 0.48759576037908631 -0.41334600879626632 0 0.49999999999999922 -0.39731378132885681 0 0.4902476917799185 -0.38792340044356383 0 0.49999999999999922 -0.39731378132885681 0 0.4902476917799185 -0.38792340044356383 0 0.5 -0.37290263754027608 0 0.49999999999999922 -0.39731378132885681 0 0.4902476917799185 -0.38792340044356383 0 0.47761898450121582 -0.40204742387072462 0 0.47720072029110588 -0.37536062772200302 0 0.47761898450121582 -0.40204742387072462 0 0.47720072029110588 -0.37536062772200302 0 0.46432866370991521 -0.38244282407337088 0 0.47761898450121582 -0.40204742387072462 0 0.4902476917799185 -0.38792340044356383 0 0.47720072029110588 -0.37536062772200302 0 0.4902476917799185 -0.38792340044356383 0 0.47720072029110588 -0.37536062772200302 0 0.46432866370991521 -0.38244282407337088 0 0.45594436677432337 -0.3941895191480651 0 0.44868101286511941 -0.38317371900833902 0 0.44778286271151768 -0.36678134121227429 0 0.46432866370991521 -0.38244282407337088 0 0.44868101286511941 -0.38317371900833902 0 0.46432866370991521 -0.38244282407337088 0 0.46681867683361589 -0.40431697351522689 0 0.46432866370991521 -0.38244282407337088 0 0.46681867683361589 -0.40431697351522689 0 0.45594436677432337 -0.3941895191480651 0 0.46681867683361589 -0.40431697351522689 0 0.45594436677432337 -0.3941895191480651 0 0.45261498776973658 -0.40574072180506948 0 0.45594436677432337 -0.3941895191480651 0 0.44727849269322989 -0.39527335733831942 0 0.45261498776973658 -0.40574072180506948 0 0.45594436677432337 -0.3941895191480651 0 0.44727849269322989 -0.39527335733831942 0 0.44868101286511941 -0.38317371900833902 0 0.44727849269322989 -0.39527335733831942 0 0.43853926399778709 -0.4059160712481884 0 0.43367450033247951 -0.38787020339176709 0 0.44727849269322989 -0.39527335733831942 0 0.45261498776973658 -0.40574072180506948 0 0.43853926399778709 -0.4059160712481884 0 0.44727849269322989 -0.39527335733831942 0 0.44868101286511941 -0.38317371900833902 0 0.43367450033247951 -0.38787020339176709 0 0.43705744417117631 -0.37295653114084171 0 0.44868101286511941 -0.38317371900833902 0 0.43367450033247951 -0.38787020339176709 0 0.42258531399817462 -0.37200754243203632 0 0.43367450033247951 -0.38787020339176709 0 0.41628914636689762 -0.38503636508683581 0 0.42258531399817462 -0.37200754243203632 0 0.43705744417117631 -0.37295653114084171 0 0.43367450033247951 -0.38787020339176709 0 0.43853926399778709 -0.4059160712481884 0 0.43367450033247951 -0.38787020339176709 0 0.42529082823497139 -0.40072783748780982 0 0.43367450033247951 -0.38787020339176709 0 0.42529082823497139 -0.40072783748780982 0 0.41628914636689762 -0.38503636508683581 0 0.42529082823497139 -0.40072783748780982 0 0.40715538378068211 -0.39801146447894048 0 0.41628914636689762 -0.38503636508683581 0 0.42529082823497139 -0.40072783748780982 0 0.40715538378068211 -0.39801146447894048 0 0.40781595104260332 -0.41784357379125742 0 0.40715538378068211 -0.39801146447894048 0 0.41628914636689762 -0.38503636508683581 0 0.40175263339811829 -0.382628549940986 0 0.42258531399817462 -0.37200754243203632 0 0.40972512838904951 -0.37460542088767917 0 0.41628914636689762 -0.38503636508683581 0 0.40972512838904951 -0.37460542088767917 0 0.41628914636689762 -0.38503636508683581 0 0.40175263339811829 -0.382628549940986 0 0.40715538378068211 -0.39801146447894048 0 0.40175263339811829 -0.382628549940986 0 0.38874402848562001 -0.38914790785432579 0 0.40972512838904951 -0.37460542088767917 0 0.39831003731272252 -0.37044786667302959 0 0.40175263339811829 -0.382628549940986 0 0.40175263339811829 -0.382628549940986 0 0.38958862162507529 -0.3762920420681537 0 0.38874402848562001 -0.38914790785432579 0 0.39831003731272252 -0.37044786667302959 0 0.40175263339811829 -0.382628549940986 0 0.38958862162507529 -0.3762920420681537 0 0.38874402848562001 -0.38914790785432579 0 0.37686528948467862 -0.37514013492188419 0 0.37160502246987198 -0.38960196225763938 0 0.38958862162507529 -0.3762920420681537 0 0.38874402848562001 -0.38914790785432579 0 0.37686528948467862 -0.37514013492188419 0 0.38874402848562001 -0.38914790785432579 0 0.37838748843425241 -0.40343377389136359 0 0.39333715342866088 -0.40485411443965291 0 0.38874402848562001 -0.38914790785432579 0 0.37838748843425241 -0.40343377389136359 0 0.37160502246987198 -0.38960196225763938 0 0.40715538378068211 -0.39801146447894048 0 0.38874402848562001 -0.38914790785432579 0 0.39333715342866088 -0.40485411443965291 0 0.39333715342866088 -0.40485411443965291 0 0.38943387414695269 -0.42005103321505632 0 0.40781595104260332 -0.41784357379125742 0 0.40715538378068211 -0.39801146447894048 0 0.39333715342866088 -0.40485411443965291 0 0.40781595104260332 -0.41784357379125742 0 0.37838748843425241 -0.40343377389136359 0 0.38943387414695269 -0.42005103321505632 0 0.37212780481493818 -0.4185412991261282 0 0.37838748843425241 -0.40343377389136359 0 0.39333715342866088 -0.40485411443965291 0 0.38943387414695269 -0.42005103321505632 0 0.38991565302118703 -0.43848777917831572 0 0.36029439696866261 -0.43385005863614168 0 0.38943387414695269 -0.42005103321505632 0 0.38991565302118703 -0.43848777917831572 0 0.37212780481493818 -0.4185412991261282 0 0.38943387414695269 -0.42005103321505632 0 0.40781595104260332 -0.41784357379125742 0 0.38991565302118703 -0.43848777917831572 0 0.40781595104260332 -0.41784357379125742 0 0.41953690907371111 -0.4431254997204897 0 0.38991565302118703 -0.43848777917831572 0 0.40781595104260332 -0.41784357379125742 0 0.42797948974691219 -0.41709751459147693 0 0.41953690907371111 -0.4431254997204897 0 0.42529082823497139 -0.40072783748780982 0 0.40781595104260332 -0.41784357379125742 0 0.42797948974691219 -0.41709751459147693 0 0.43853926399778709 -0.4059160712481884 0 0.42529082823497139 -0.40072783748780982 0 0.42797948974691219 -0.41709751459147693 0 0.44494010750648372 -0.41788628806717099 0 0.43853926399778709 -0.4059160712481884 0 0.42797948974691219 -0.41709751459147693 0 0.42797948974691219 -0.41709751459147693 0 0.4367063139945187 -0.43302351264923872 0 0.41953690907371111 -0.4431254997204897 0 0.44494010750648372 -0.41788628806717099 0 0.42797948974691219 -0.41709751459147693 0 0.4367063139945187 -0.43302351264923872 0 0.44174755577752789 -0.4653323192171685 0 0.41953690907371111 -0.4431254997204897 0 0.40734364375683962 -0.4725414571915062 0 0.44915816512623519 -0.44776322026266357 0 0.41953690907371111 -0.4431254997204897 0 0.44915816512623519 -0.44776322026266357 0 0.4367063139945187 -0.43302351264923872 0 0.41953690907371111 -0.4431254997204897 0 0.44174755577752789 -0.4653323192171685 0 0.44915816512623519 -0.44776322026266357 0 0.41953690907371111 -0.4431254997204897 0 0.41953690907371111 -0.4431254997204897 0 0.39975039703400689 -0.45430996382449818 0 0.40734364375683962 -0.4725414571915062 0 0.41953690907371111 -0.4431254997204897 0 0.38991565302118703 -0.43848777917831572 0 0.41953690907371111 -0.4431254997204897 0 0.38991565302118703 -0.43848777917831572 0 0.39975039703400689 -0.45430996382449818 0 0.38991565302118703 -0.43848777917831572 0 0.3822053822842903 -0.46308511920768142 0 0.37237063827147021 -0.44726293456149879 0 0.38991565302118703 -0.43848777917831572 0 0.3822053822842903 -0.46308511920768142 0 0.39975039703400689 -0.45430996382449818 0 0.3822053822842903 -0.46308511920768142 0 0.39975039703400689 -0.45430996382449818 0 0.40734364375683962 -0.4725414571915062 0 0.3822053822842903 -0.46308511920768142 0 0.40734364375683962 -0.4725414571915062 0 0.3822053822842903 -0.46308511920768142 0 0.39272957215839188 -0.482434702371632 0 0.40734364375683962 -0.4725414571915062 0 0.3822053822842903 -0.46308511920768142 0 0.39272957215839188 -0.482434702371632 0 0.37605279144450049 -0.47359770756945629 0 0.39272957215839188 -0.482434702371632 0 0.37605279144450049 -0.47359770756945629 0 0.37912750163699221 -0.48538393026114829 0 0.37745109891251261 -0.49999999999999939 0 0.37912750163699221 -0.48538393026114829 0 0.39404961043827802 -0.50000000000000011 0 0.39272957215839188 -0.482434702371632 0 0.37912750163699221 -0.48538393026114829 0 0.39404961043827802 -0.50000000000000011 0 0.37912750163699221 -0.48538393026114829 0 0.39404961043827802 -0.50000000000000011 0 0.39272957215839188 -0.482434702371632 0 0.39404961043827802 -0.50000000000000011 0 0.4175985033894507 -0.5 0 0.39272957215839188 -0.482434702371632 0 0.4175985033894507 -0.5 0 0.40734364375683962 -0.4725414571915062 0 0.4175985033894507 -0.5 0 0.40734364375683962 -0.4725414571915062 0 0.43248190522938879 -0.48199779517533098 0 0.44174755577752789 -0.4653323192171685 0 0.40734364375683962 -0.4725414571915062 0 0.43248190522938879 -0.48199779517533098 0 0.40734364375683962 -0.4725414571915062 0 0.43248190522938879 -0.48199779517533098 0 0.44114739634062339 -0.5 0 0.4175985033894507 -0.5 0 0.43248190522938879 -0.48199779517533098 0 0.32647220404927513 -0.4846224389778232 0 0.3287537719408743 -0.49999999999999928 0 0.31115651392417698 -0.48195699885906268 0 0.3287537719408743 -0.49999999999999928 0 0.31115651392417698 -0.48195699885906268 0 0.3287537719408743 -0.49999999999999928 0 0.31115651392417698 -0.48195699885906268 0 0.31139450619199011 -0.5 0 0.32647220404927513 -0.4846224389778232 0 0.31776076468809872 -0.45827027370514678 0 0.31115651392417698 -0.48195699885906268 0 0.32647220404927513 -0.4846224389778232 0 0.33636184200576469 -0.4726278570291142 0 0.31776076468809872 -0.45827027370514678 0 0.33636184200576469 -0.4726278570291142 0 0.34062606519493782 -0.5 0 0.32647220404927513 -0.4846224389778232 0 0.33636184200576469 -0.4726278570291142 0 0.34062606519493782 -0.5 0 0.33636184200576469 -0.4726278570291142 0 0.34062606519493782 -0.5 0 0.3483634250342415 -0.48553837482377771 0 0.32647220404927513 -0.4846224389778232 0 0.3287537719408743 -0.49999999999999928 0 0.34062606519493782 -0.5 0 0.35903858205372519 -0.5 0 0.3483634250342415 -0.48553837482377771 0 0.36233327221387213 -0.48175190468607582 0 0.34062606519493782 -0.5 0 0.35903858205372519 -0.5 0 0.3483634250342415 -0.48553837482377771 0 0.37745109891251261 -0.49999999999999939 0 0.37912750163699221 -0.48538393026114829 0 0.36233327221387213 -0.48175190468607582 0 0.37745109891251261 -0.49999999999999939 0 0.36233327221387213 -0.48175190468607582 0 0.37745109891251261 -0.49999999999999939 0 0.35903858205372519 -0.5 0 0.36233327221387213 -0.48175190468607582 0 0.37912750163699221 -0.48538393026114829 0 0.36233327221387213 -0.48175190468607582 0 0.36420539283570641 -0.47076786052229652 0 0.3822053822842903 -0.46308511920768142 0 0.37605279144450049 -0.47359770756945629 0 0.36420539283570641 -0.47076786052229652 0 0.37912750163699221 -0.48538393026114829 0 0.36420539283570641 -0.47076786052229652 0 0.37605279144450049 -0.47359770756945629 0 0.37912750163699221 -0.48538393026114829 0 0.36420539283570641 -0.47076786052229652 0 0.36233327221387213 -0.48175190468607582 0 0.34856849619227742 -0.47585548647777998 0 0.3472154455152312 -0.46350380937215252 0 0.36233327221387213 -0.48175190468607582 0 0.36420539283570641 -0.47076786052229652 0 0.3472154455152312 -0.46350380937215252 0 0.36233327221387213 -0.48175190468607582 0 0.3472154455152312 -0.46350380937215252 0 0.3483634250342415 -0.48553837482377771 0 0.36233327221387213 -0.48175190468607582 0 0.34856849619227742 -0.47585548647777998 0 0.33636184200576469 -0.4726278570291142 0 0.3483634250342415 -0.48553837482377771 0 0.34856849619227742 -0.47585548647777998 0 0.33636184200576469 -0.4726278570291142 0 0.34856849619227742 -0.47585548647777998 0 0.3472154455152312 -0.46350380937215252 0 0.36420539283570641 -0.47076786052229652 0 0.35706712081174108 -0.45362878122385653 0 0.34928328403442072 -0.45615179078344459 0 0.36420539283570641 -0.47076786052229652 0 0.3472154455152312 -0.46350380937215252 0 0.34928328403442072 -0.45615179078344459 0 0.36420539283570641 -0.47076786052229652 0 0.34928328403442072 -0.45615179078344459 0 0.3822053822842903 -0.46308511920768142 0 0.35706712081174108 -0.45362878122385653 0 0.3822053822842903 -0.46308511920768142 0 0.36420539283570641 -0.47076786052229652 0 0.35706712081174108 -0.45362878122385653 0 0.3822053822842903 -0.46308511920768142 0 0.35706712081174108 -0.45362878122385653 0 0.37237063827147021 -0.44726293456149879 0 0.38991565302118703 -0.43848777917831572 0 0.37237063827147021 -0.44726293456149879 0 0.36029439696866261 -0.43385005863614168 0 0.35706712081174108 -0.45362878122385653 0 0.37237063827147021 -0.44726293456149879 0 0.36029439696866261 -0.43385005863614168 0 0.35706712081174108 -0.45362878122385653 0 0.34928328403442072 -0.45615179078344459 0 0.33209761881659111 -0.44525571405822872 0 0.35706712081174108 -0.45362878122385653 0 0.33209761881659111 -0.44525571405822872 0 0.35706712081174108 -0.45362878122385653 0 0.34823209730570359 -0.43999454811958227 0 0.33209761881659111 -0.44525571405822872 0 0.35706712081174108 -0.45362878122385653 0 0.34823209730570359 -0.43999454811958227 0 0.36029439696866261 -0.43385005863614168 0 0.34823209730570359 -0.43999454811958227 0 0.33209761881659111 -0.44525571405822872 0 0.34363801210321909 -0.4283269093782992 0 0.33209761881659111 -0.44525571405822872 0 0.33087026720859619 -0.44377422934664662 0 0.33087026720859619 -0.44377422934664662 0 0.32777784076484051 -0.44004149092982042 0 0.3472154455152312 -0.46350380937215252 0 0.33209761881659111 -0.44525571405822872 0 0.33636184200576469 -0.4726278570291142 0 0.33209761881659111 -0.44525571405822872 0 0.33636184200576469 -0.4726278570291142 0 0.3472154455152312 -0.46350380937215252 0 0.33209761881659111 -0.44525571405822872 0 0.3472154455152312 -0.46350380937215252 0 0.34928328403442072 -0.45615179078344459 0 0.33209761881659111 -0.44525571405822872 0 0.33636184200576469 -0.4726278570291142 0 0.33209761881659111 -0.44525571405822872 0 0.31776076468809872 -0.45827027370514678 0 0.33087026720859619 -0.44377422934664662 0 0.31776076468809872 -0.45827027370514678 0 0.31101326017894099 -0.4486454878417 0 0.33087026720859619 -0.44377422934664662 0 0.30343133535075162 -0.43345244103020419 0 0.31101326017894099 -0.4486454878417 0 0.33087026720859619 -0.44377422934664662 0 0.32777784076484051 -0.44004149092982042 0 0.30343133535075162 -0.43345244103020419 0 0.33087026720859619 -0.44377422934664662 0 0.30343133535075162 -0.43345244103020419 0 0.33209761881659111 -0.44525571405822872 0 0.33087026720859619 -0.44377422934664662 0 0.31776076468809872 -0.45827027370514678 0 0.32777784076484051 -0.44004149092982042 0 0.31703672968859059 -0.42661234549730798 0 0.30343133535075162 -0.43345244103020419 0 0.32777784076484051 -0.44004149092982042 0 0.31703672968859059 -0.42661234549730798 0 0.32774125513194469 -0.41729211920885573 0 0.32774125513194469 -0.41729211920885573 0 0.32506962085330671 -0.40664764788959501 0 0.30919648750682532 -0.41566333082035151 0 0.31703672968859059 -0.42661234549730798 0 0.32774125513194469 -0.41729211920885573 0 0.30919648750682532 -0.41566333082035151 0 0.32506962085330671 -0.40664764788959501 0 0.31496163966289809 -0.39787422061049849 0 0.30919648750682532 -0.41566333082035151 0 0.32506962085330671 -0.40664764788959501 0 0.34103598662427081 -0.41268768401496619 0 0.33563970476535271 -0.39998054534059652 0 0.32774125513194469 -0.41729211920885573 0 0.34103598662427081 -0.41268768401496619 0 0.34363801210321909 -0.4283269093782992 0 0.32774125513194469 -0.41729211920885573 0 0.32506962085330671 -0.40664764788959501 0 0.34103598662427081 -0.41268768401496619 0 0.33209761881659111 -0.44525571405822872 0 0.33087026720859619 -0.44377422934664662 0 0.32774125513194469 -0.41729211920885573 0 0.33209761881659111 -0.44525571405822872 0 0.32774125513194469 -0.41729211920885573 0 0.33087026720859619 -0.44377422934664662 0 0.32777784076484051 -0.44004149092982042 0 0.32774125513194469 -0.41729211920885573 0 0.33209761881659111 -0.44525571405822872 0 0.32774125513194469 -0.41729211920885573 0 0.34363801210321909 -0.4283269093782992 0 0.34823209730570359 -0.43999454811958227 0 0.34363801210321909 -0.4283269093782992 0 0.36029439696866261 -0.43385005863614168 0 0.34363801210321909 -0.4283269093782992 0 0.36029439696866261 -0.43385005863614168 0 0.35478771900692768 -0.41918894840486048 0 0.36029439696866261 -0.43385005863614168 0 0.37212780481493818 -0.4185412991261282 0 0.35478771900692768 -0.41918894840486048 0 0.38991565302118703 -0.43848777917831572 0 0.36029439696866261 -0.43385005863614168 0 0.37212780481493818 -0.4185412991261282 0 0.37212780481493818 -0.4185412991261282 0 0.35478771900692768 -0.41918894840486048 0 0.35631776986780728 -0.40208687007069471 0 0.37838748843425241 -0.40343377389136359 0 0.37212780481493818 -0.4185412991261282 0 0.35631776986780728 -0.40208687007069471 0 0.34103598662427081 -0.41268768401496619 0 0.35478771900692768 -0.41918894840486048 0 0.35631776986780728 -0.40208687007069471 0 0.34103598662427081 -0.41268768401496619 0 0.34363801210321909 -0.4283269093782992 0 0.35478771900692768 -0.41918894840486048 0 0.34103598662427081 -0.41268768401496619 0 0.35631776986780728 -0.40208687007069471 0 0.33563970476535271 -0.39998054534059652 0 0.35631776986780728 -0.40208687007069471 0 0.33563970476535271 -0.39998054534059652 0 0.35631776986780728 -0.40208687007069471 0 0.34554034722044369 -0.38915017288054959 0 0.33563970476535271 -0.39998054534059652 0 0.37838748843425241 -0.40343377389136359 0 0.35631776986780728 -0.40208687007069471 0 0.37160502246987198 -0.38960196225763938 0 0.35631776986780728 -0.40208687007069471 0 0.37160502246987198 -0.38960196225763938 0 0.35782910666266099 -0.37855285845812009 0 0.37686528948467862 -0.37514013492188419 0 0.37160502246987198 -0.38960196225763938 0 0.35782910666266099 -0.37855285845812009 0 0.35782910666266099 -0.37855285845812009 0 0.34554034722044369 -0.38915017288054959 0 0.33961430049029462 -0.3769321928230206 0 0.35631776986780728 -0.40208687007069471 0 0.35782910666266099 -0.37855285845812009 0 0.34554034722044369 -0.38915017288054959 0 0.33961430049029462 -0.3769321928230206 0 0.32998536134603229 -0.38935349550080611 0 0.3254327230086223 -0.37727573954620008 0 0.34554034722044369 -0.38915017288054959 0 0.33961430049029462 -0.3769321928230206 0 0.32998536134603229 -0.38935349550080611 0 0.34554034722044369 -0.38915017288054959 0 0.32998536134603229 -0.38935349550080611 0 0.33563970476535271 -0.39998054534059652 0 0.32998536134603229 -0.38935349550080611 0 0.33563970476535271 -0.39998054534059652 0 0.31496163966289809 -0.39787422061049849 0 0.32506962085330671 -0.40664764788959501 0 0.33563970476535271 -0.39998054534059652 0 0.31496163966289809 -0.39787422061049849 0 0.32998536134603229 -0.38935349550080611 0 0.31496163966289809 -0.39787422061049849 0 0.31797226335237821 -0.38858455831492189 0 0.33563970476535271 -0.39998054534059652 0 0.31496163966289809 -0.39787422061049849 0 0.31496163966289809 -0.39787422061049849 0 0.31797226335237821 -0.38858455831492189 0 0.30741743965522123 -0.38741180650899382 0 0.31496163966289809 -0.39787422061049849 0 0.31797226335237821 -0.38858455831492189 0 0.31797226335237821 -0.38858455831492189 0 0.31284986629360689 -0.3777358552997348 0 0.30741743965522123 -0.38741180650899382 0 0.31797226335237821 -0.38858455831492189 0 0.31284986629360689 -0.3777358552997348 0 0.3254327230086223 -0.37727573954620008 0 0.32998536134603229 -0.38935349550080611 0 0.31797226335237821 -0.38858455831492189 0 0.3254327230086223 -0.37727573954620008 0 0.29870122288962742 -0.37761725860127049 0 0.30741743965522123 -0.38741180650899382 0 0.2912400886838874 -0.39545787801674942 0 0.31284986629360689 -0.3777358552997348 0 0.29870122288962742 -0.37761725860127049 0 0.30741743965522123 -0.38741180650899382 0 0.31496163966289809 -0.39787422061049849 0 0.2912400886838874 -0.39545787801674942 0 0.31496163966289809 -0.39787422061049849 0 0.2912400886838874 -0.39545787801674942 0 0.29764714762266459 -0.40904069134981608 0 0.31496163966289809 -0.39787422061049849 0 0.30741743965522123 -0.38741180650899382 0 0.2912400886838874 -0.39545787801674942 0 0.2912400886838874 -0.39545787801674942 0 0.28362302362783598 -0.40848588003672243 0 0.29764714762266459 -0.40904069134981608 0 0.29870122288962742 -0.37761725860127049 0 0.2912400886838874 -0.39545787801674942 0 0.28139632719700169 -0.3755677227491474 0 0.28139632719700169 -0.3755677227491474 0 0.26751853770487671 -0.39304153542300052 0 0.25928413265921563 -0.37040063651259658 0 0.2912400886838874 -0.39545787801674942 0 0.28139632719700169 -0.3755677227491474 0 0.26751853770487671 -0.39304153542300052 0 0.26647874277756711 -0.39723192194029477 0 0.25928413265921563 -0.37040063651259658 0 0.2477446635434315 -0.39286115357201701 0 0.26647874277756711 -0.39723192194029477 0 0.25928413265921563 -0.37040063651259658 0 0.26751853770487671 -0.39304153542300052 0 0.26647874277756711 -0.39723192194029477 0 0.25928413265921563 -0.37040063651259658 0 0.26647874277756711 -0.39723192194029477 0 0.2464374729598148 -0.41559860774766111 0 0.2477446635434315 -0.39286115357201701 0 0.2912400886838874 -0.39545787801674942 0 0.26647874277756711 -0.39723192194029477 0 0.28362302362783598 -0.40848588003672243 0 0.2912400886838874 -0.39545787801674942 0 0.26751853770487671 -0.39304153542300052 0 0.26647874277756711 -0.39723192194029477 0 0.2912400886838874 -0.39545787801674942 0 0.26751853770487671 -0.39304153542300052 0 0.26647874277756711 -0.39723192194029477 0 0.27367335289591888 -0.42406320736799308 0 0.26647874277756711 -0.39723192194029477 0 0.27367335289591888 -0.42406320736799308 0 0.28362302362783598 -0.40848588003672243 0 0.26647874277756711 -0.39723192194029477 0 0.27367335289591888 -0.42406320736799308 0 0.2464374729598148 -0.41559860774766111 0 0.27367335289591888 -0.42406320736799308 0 0.2464374729598148 -0.41559860774766111 0 0.26365396395708202 -0.43325119694149039 0 0.2464374729598148 -0.41559860774766111 0 0.26365396395708202 -0.43325119694149039 0 0.27367335289591888 -0.42406320736799308 0 0.2464374729598148 -0.41559860774766111 0 0.27367335289591888 -0.42406320736799308 0 0.28087045495434593 -0.45090378613532262 0 0.26365396395708202 -0.43325119694149039 0 0.27367335289591888 -0.42406320736799308 0 0.28087045495434593 -0.45090378613532262 0 0.27367335289591888 -0.42406320736799308 0 0.28568672322965899 -0.42747713411587801 0 0.27367335289591888 -0.42406320736799308 0 0.28568672322965899 -0.42747713411587801 0 0.28910194831264358 -0.44000259421193871 0 0.2932929256816223 -0.42963864394028223 0 0.28568672322965899 -0.42747713411587801 0 0.28910194831264358 -0.44000259421193871 0 0.2932929256816223 -0.42963864394028223 0 0.30343133535075162 -0.43345244103020419 0 0.28910194831264358 -0.44000259421193871 0 0.2932929256816223 -0.42963864394028223 0 0.28568672322965899 -0.42747713411587801 0 0.29779100781040302 -0.42179575585851792 0 0.28568672322965899 -0.42747713411587801 0 0.28872563060688988 -0.41788445706390781 0 0.29779100781040302 -0.42179575585851792 0 0.2932929256816223 -0.42963864394028223 0 0.28568672322965899 -0.42747713411587801 0 0.27367335289591888 -0.42406320736799308 0 0.28568672322965899 -0.42747713411587801 0 0.28872563060688988 -0.41788445706390781 0 0.27367335289591888 -0.42406320736799308 0 0.28872563060688988 -0.41788445706390781 0 0.28362302362783598 -0.40848588003672243 0 0.28872563060688988 -0.41788445706390781 0 0.28362302362783598 -0.40848588003672243 0 0.29764714762266459 -0.40904069134981608 0 0.28872563060688988 -0.41788445706390781 0 0.29779100781040302 -0.42179575585851792 0 0.29764714762266459 -0.40904069134981608 0 0.31496163966289809 -0.39787422061049849 0 0.29764714762266459 -0.40904069134981608 0 0.30919648750682532 -0.41566333082035151 0 0.31496163966289809 -0.39787422061049849 0 0.30919648750682532 -0.41566333082035151 0 0.29779100781040302 -0.42179575585851792 0 0.29764714762266459 -0.40904069134981608 0 0.30919648750682532 -0.41566333082035151 0 0.30919648750682532 -0.41566333082035151 0 0.30343133535075162 -0.43345244103020419 0 0.29779100781040302 -0.42179575585851792 0 0.30919648750682532 -0.41566333082035151 0 0.30343133535075162 -0.43345244103020419 0 0.31703672968859059 -0.42661234549730798 0 0.30919648750682532 -0.41566333082035151 0 0.30343133535075162 -0.43345244103020419 0 0.2932929256816223 -0.42963864394028223 0 0.30343133535075162 -0.43345244103020419 0 0.2932929256816223 -0.42963864394028223 0 0.29779100781040302 -0.42179575585851792 0 0.30343133535075162 -0.43345244103020419 0 0.30343133535075162 -0.43345244103020419 0 0.29849529562911731 -0.44868321937416528 0 0.28910194831264358 -0.44000259421193871 0 0.30343133535075162 -0.43345244103020419 0 0.29849529562911731 -0.44868321937416528 0 0.31101326017894099 -0.4486454878417 0 0.30343133535075162 -0.43345244103020419 0 0.29849529562911731 -0.44868321937416528 0 0.29849529562911731 -0.44868321937416528 0 0.31101326017894099 -0.4486454878417 0 0.30547209722600921 -0.45968335725606341 0 0.31776076468809872 -0.45827027370514678 0 0.30547209722600921 -0.45968335725606341 0 0.31115651392417698 -0.48195699885906268 0 0.31776076468809872 -0.45827027370514678 0 0.31101326017894099 -0.4486454878417 0 0.30547209722600921 -0.45968335725606341 0 0.30547209722600921 -0.45968335725606341 0 0.29355925590748039 -0.46391399771812558 0 0.31115651392417698 -0.48195699885906268 0 0.29849529562911731 -0.44868321937416528 0 0.30547209722600921 -0.45968335725606341 0 0.29355925590748039 -0.46391399771812558 0 0.29355925590748039 -0.46391399771812558 0 0.28087045495434593 -0.45090378613532262 0 0.28852463323182959 -0.47944896630484418 0 0.29849529562911731 -0.44868321937416528 0 0.29355925590748039 -0.46391399771812558 0 0.28087045495434593 -0.45090378613532262 0 0.29849529562911731 -0.44868321937416528 0 0.29355925590748039 -0.46391399771812558 0 0.28087045495434593 -0.45090378613532262 0 0.28852463323182959 -0.47944896630484418 0 0.29355925590748039 -0.46391399771812558 0 0.28087045495434593 -0.45090378613532262 0 0.29849529562911731 -0.44868321937416528 0 0.28910194831264358 -0.44000259421193871 0 0.28087045495434593 -0.45090378613532262 0 0.26365396395708202 -0.43325119694149039 0 0.28087045495434593 -0.45090378613532262 0 0.25908156621457828 -0.45416123098193678 0 0.26365396395708202 -0.43325119694149039 0 0.28087045495434593 -0.45090378613532262 0 0.27367335289591888 -0.42406320736799308 0 0.28910194831264358 -0.44000259421193871 0 0.28087045495434593 -0.45090378613532262 0 0.26365396395708202 -0.43325119694149039 0 0.25908156621457828 -0.45416123098193678 0 0.23885445762038829 -0.43540416446514618 0 0.25908156621457828 -0.45416123098193678 0 0.25737827664022023 -0.47291509967688239 0 0.23958668861670329 -0.4616213097725792 0 0.25908156621457828 -0.45416123098193678 0 0.27197849689291598 -0.46863532795473528 0 0.25737827664022023 -0.47291509967688239 0 0.28087045495434593 -0.45090378613532262 0 0.27197849689291598 -0.46863532795473528 0 0.28852463323182959 -0.47944896630484418 0 0.28087045495434593 -0.45090378613532262 0 0.25908156621457828 -0.45416123098193678 0 0.27197849689291598 -0.46863532795473528 0 0.27197849689291598 -0.46863532795473528 0 0.25737827664022023 -0.47291509967688239 0 0.27403755342360181 -0.48574755667469321 0 0.27197849689291598 -0.46863532795473528 0 0.27403755342360181 -0.48574755667469321 0 0.28852463323182959 -0.47944896630484418 0 0.25737827664022023 -0.47291509967688239 0 0.25779138439249011 -0.48761716103823111 0 0.27403755342360181 -0.48574755667469321 0 0.25737827664022023 -0.47291509967688239 0 0.25779138439249011 -0.48761716103823111 0 0.24322227263701091 -0.47942314883957993 0 0.25779138439249011 -0.48761716103823111 0 0.26945135323490788 -0.5 0 0.24486746602671011 -0.5 0 0.25779138439249011 -0.48761716103823111 0 0.26945135323490788 -0.5 0 0.27403755342360181 -0.48574755667469321 0 0.26945135323490788 -0.5 0 0.27403755342360181 -0.48574755667469321 0 0.28203509168030699 -0.49999999999999539 0 0.29403524044310569 -0.49999999999999112 0 0.28852463323182959 -0.47944896630484418 0 0.29403524044310569 -0.49999999999999112 0 0.28852463323182959 -0.47944896630484418 0 0.3012777234477757 -0.49035149129097422 0 0.28203509168030699 -0.49999999999999539 0 0.29403524044310569 -0.49999999999999112 0 0.28852463323182959 -0.47944896630484418 0 0.27403755342360181 -0.48574755667469321 0 0.28203509168030699 -0.49999999999999539 0 0.28852463323182959 -0.47944896630484418 0 0.28203509168030699 -0.49999999999999539 0 0.28852463323182959 -0.47944896630484418 0 0.29355925590748039 -0.46391399771812558 0 0.28852463323182959 -0.47944896630484418 0 0.28852463323182959 -0.47944896630484418 0 0.31115651392417698 -0.48195699885906268 0 0.3012777234477757 -0.49035149129097422 0 0.29355925590748039 -0.46391399771812558 0 0.31115651392417698 -0.48195699885906268 0 0.29355925590748039 -0.46391399771812558 0 0.28852463323182959 -0.47944896630484418 0 0.31115651392417698 -0.48195699885906268 0 0.31115651392417698 -0.48195699885906268 0 0.31139450619199011 -0.5 0 0.3012777234477757 -0.49035149129097422 0 0.29403524044310569 -0.49999999999999112 0 0.31139450619199011 -0.5 0 0.3012777234477757 -0.49035149129097422 0 0.34306561043003558 -0.2987208308880509 0 0.32741273377007601 -0.27839779546746563 0 0.34306561043003558 -0.2987208308880509 0 0.32327376658494689 -0.30266572574026002 0 0.32741273377007601 -0.27839779546746563 0 0.34306561043003558 -0.2987208308880509 0 0.32741273377007601 -0.27839779546746563 0 0.35010283986450852 -0.2754755947895407 0 0.34306561043003558 -0.2987208308880509 0 0.32327376658494689 -0.30266572574026002 0 0.33524549266992032 -0.31527437616135928 0 0.34306561043003558 -0.2987208308880509 0 0.34962079976231869 -0.31121473366879571 0 0.33524549266992032 -0.31527437616135928 0 0.32327376658494689 -0.30266572574026002 0 0.31968809636106732 -0.31794948752767982 0 0.30708735274197202 -0.30964730317719058 0 0.32327376658494689 -0.30266572574026002 0 0.30814094993854169 -0.29080042086919439 0 0.30708735274197202 -0.30964730317719058 0 0.32327376658494689 -0.30266572574026002 0 0.33524549266992032 -0.31527437616135928 0 0.31968809636106732 -0.31794948752767982 0 0.32327376658494689 -0.30266572574026002 0 0.32741273377007601 -0.27839779546746563 0 0.30814094993854169 -0.29080042086919439 0 0.32741273377007601 -0.27839779546746563 0 0.30814094993854169 -0.29080042086919439 0 0.30982777026963187 -0.26418463547166199 0 0.32741273377007601 -0.27839779546746563 0 0.32719286717574941 -0.25616249926352519 0 0.30982777026963187 -0.26418463547166199 0 0.31278636253022091 -0.2380913383386552 0 0.32719286717574941 -0.25616249926352519 0 0.30982777026963187 -0.26418463547166199 0 0.34713579541447798 -0.24843367759178059 0 0.32719286717574941 -0.25616249926352519 0 0.35010283986450852 -0.2754755947895407 0 0.32741273377007601 -0.27839779546746563 0 0.32719286717574941 -0.25616249926352519 0 0.35010283986450852 -0.2754755947895407 0 0.34713579541447798 -0.24843367759178059 0 0.35010283986450852 -0.2754755947895407 0 0.36218607115561252 -0.25957534036308427 0 0.38300252927607759 -0.24908553861838309 0 0.36218607115561252 -0.25957534036308427 0 0.37439434533099708 -0.27494400802939251 0 0.35010283986450852 -0.2754755947895407 0 0.36218607115561252 -0.25957534036308427 0 0.37439434533099708 -0.27494400802939251 0 0.35010283986450852 -0.2754755947895407 0 0.37439434533099708 -0.27494400802939251 0 0.35833723925286443 -0.2874857277868465 0 0.37439434533099708 -0.27494400802939251 0 0.35833723925286443 -0.2874857277868465 0 0.36578616138591658 -0.30080247744040189 0 0.37894588109951272 -0.29802014198002691 0 0.37439434533099708 -0.27494400802939251 0 0.36578616138591658 -0.30080247744040189 0 0.37439434533099708 -0.27494400802939251 0 0.36578616138591658 -0.30080247744040189 0 0.34306561043003558 -0.2987208308880509 0 0.35010283986450852 -0.2754755947895407 0 0.35833723925286443 -0.2874857277868465 0 0.34306561043003558 -0.2987208308880509 0 0.35833723925286443 -0.2874857277868465 0 0.36578616138591658 -0.30080247744040189 0 0.34306561043003558 -0.2987208308880509 0 0.34962079976231869 -0.31121473366879571 0 0.35871848708999488 -0.31904386630863629 0 0.34306561043003558 -0.2987208308880509 0 0.36578616138591658 -0.30080247744040189 0 0.35871848708999488 -0.31904386630863629 0 0.34306561043003558 -0.2987208308880509 0 0.35871848708999488 -0.31904386630863629 0 0.37517298714136482 -0.31118083914760092 0 0.36578616138591658 -0.30080247744040189 0 0.35871848708999488 -0.31904386630863629 0 0.37517298714136482 -0.31118083914760092 0 0.37894588109951272 -0.29802014198002691 0 0.36578616138591658 -0.30080247744040189 0 0.37570849501644121 -0.33366483764092719 0 0.35871848708999488 -0.31904386630863629 0 0.37191567049757102 -0.33617853309676732 0 0.35871848708999488 -0.31904386630863629 0 0.37923665810500917 -0.32209162651264139 0 0.37517298714136482 -0.31118083914760092 0 0.35871848708999488 -0.31904386630863629 0 0.37570849501644121 -0.33366483764092719 0 0.37923665810500917 -0.32209162651264139 0 0.35871848708999488 -0.31904386630863629 0 0.37570849501644121 -0.33366483764092719 0 0.37191567049757102 -0.33617853309676732 0 0.35871848708999488 -0.31904386630863629 0 0.37191567049757102 -0.33617853309676732 0 0.3614563083567861 -0.33211580147252528 0 0.35871848708999488 -0.31904386630863629 0 0.37191567049757102 -0.33617853309676732 0 0.36565762089130199 -0.33851252990026592 0 0.3706585033362147 -0.34688644151250642 0 0.36565762089130199 -0.33851252990026592 0 0.36207709447315789 -0.34324136264673222 0 0.3706585033362147 -0.34688644151250642 0 0.36565762089130199 -0.33851252990026592 0 0.3614563083567861 -0.33211580147252528 0 0.35786053686108771 -0.33810687587835248 0 0.36565762089130199 -0.33851252990026592 0 0.36207709447315789 -0.34324136264673222 0 0.35786053686108771 -0.33810687587835248 0 0.37191567049757102 -0.33617853309676732 0 0.36565762089130199 -0.33851252990026592 0 0.3614563083567861 -0.33211580147252528 0 0.3527541833906902 -0.3302209863991849 0 0.35786053686108771 -0.33810687587835248 0 0.35051765425037551 -0.33820262509182109 0 0.3614563083567861 -0.33211580147252528 0 0.3527541833906902 -0.3302209863991849 0 0.35786053686108771 -0.33810687587835248 0 0.36207709447315789 -0.34324136264673222 0 0.35786053686108771 -0.33810687587835248 0 0.35470035980421399 -0.34634794975958572 0 0.35786053686108771 -0.33810687587835248 0 0.35051765425037551 -0.33820262509182109 0 0.35470035980421399 -0.34634794975958572 0 0.35051765425037551 -0.33820262509182109 0 0.34428596878119572 -0.33351913737147992 0 0.34372181235033022 -0.34370556861764939 0 0.35051765425037551 -0.33820262509182109 0 0.35470035980421399 -0.34634794975958572 0 0.34372181235033022 -0.34370556861764939 0 0.3527541833906902 -0.3302209863991849 0 0.35051765425037551 -0.33820262509182109 0 0.34428596878119572 -0.33351913737147992 0 0.3527541833906902 -0.3302209863991849 0 0.34428596878119572 -0.33351913737147992 0 0.34639718004265752 -0.3228222084756257 0 0.34962079976231869 -0.31121473366879571 0 0.34639718004265752 -0.3228222084756257 0 0.33524549266992032 -0.31527437616135928 0 0.34962079976231869 -0.31121473366879571 0 0.34639718004265752 -0.3228222084756257 0 0.35871848708999488 -0.31904386630863629 0 0.34962079976231869 -0.31121473366879571 0 0.35871848708999488 -0.31904386630863629 0 0.3614563083567861 -0.33211580147252528 0 0.3527541833906902 -0.3302209863991849 0 0.35871848708999488 -0.31904386630863629 0 0.3527541833906902 -0.3302209863991849 0 0.34639718004265752 -0.3228222084756257 0 0.35871848708999488 -0.31904386630863629 0 0.37686528948467862 -0.37514013492188419 0 0.35782910666266099 -0.37855285845812009 0 0.36603268555187263 -0.36724264752405278 0 0.35782910666266099 -0.37855285845812009 0 0.36603268555187263 -0.36724264752405278 0 0.35725369156155778 -0.36746802398417711 0 0.37702831201740922 -0.36234499727590669 0 0.37686528948467862 -0.37514013492188419 0 0.36603268555187263 -0.36724264752405278 0 0.37702831201740922 -0.36234499727590669 0 0.36603268555187263 -0.36724264752405278 0 0.36805072643219361 -0.35870928473369201 0 0.36603268555187263 -0.36724264752405278 0 0.35769345955621501 -0.35862099346163012 0 0.35725369156155778 -0.36746802398417711 0 0.36603268555187263 -0.36724264752405278 0 0.36805072643219361 -0.35870928473369201 0 0.35769345955621501 -0.35862099346163012 0 0.36805072643219361 -0.35870928473369201 0 0.36371601536604581 -0.35095249030740439 0 0.35769345955621501 -0.35862099346163012 0 0.36805072643219361 -0.35870928473369201 0 0.36938927133011962 -0.35185159112793141 0 0.36371601536604581 -0.35095249030740439 0 0.37702831201740922 -0.36234499727590669 0 0.36805072643219361 -0.35870928473369201 0 0.37404793340421683 -0.35462110290698701 0 0.36805072643219361 -0.35870928473369201 0 0.37404793340421683 -0.35462110290698701 0 0.36938927133011962 -0.35185159112793141 0 0.36938927133011962 -0.35185159112793141 0 0.3706585033362147 -0.34688644151250642 0 0.36371601536604581 -0.35095249030740439 0 0.37404793340421683 -0.35462110290698701 0 0.36938927133011962 -0.35185159112793141 0 0.3706585033362147 -0.34688644151250642 0 0.36207709447315789 -0.34324136264673222 0 0.3706585033362147 -0.34688644151250642 0 0.36371601536604581 -0.35095249030740439 0 0.36207709447315789 -0.34324136264673222 0 0.36371601536604581 -0.35095249030740439 0 0.35470035980421399 -0.34634794975958572 0 0.35470035980421399 -0.34634794975958572 0 0.34761546273637312 -0.35246737914200998 0 0.34372181235033022 -0.34370556861764939 0 0.34761546273637312 -0.35246737914200998 0 0.35769345955621501 -0.35862099346163012 0 0.34745951447548262 -0.3654555964929056 0 0.34761546273637312 -0.35246737914200998 0 0.34745951447548262 -0.3654555964929056 0 0.34073027616764778 -0.35820443971688792 0 0.35470035980421399 -0.34634794975958572 0 0.34761546273637312 -0.35246737914200998 0 0.35769345955621501 -0.35862099346163012 0 0.36371601536604581 -0.35095249030740439 0 0.35470035980421399 -0.34634794975958572 0 0.35769345955621501 -0.35862099346163012 0 0.35782910666266099 -0.37855285845812009 0 0.33961430049029462 -0.3769321928230206 0 0.34745951447548262 -0.3654555964929056 0 0.35769345955621501 -0.35862099346163012 0 0.34745951447548262 -0.3654555964929056 0 0.35725369156155778 -0.36746802398417711 0 0.35782910666266099 -0.37855285845812009 0 0.34745951447548262 -0.3654555964929056 0 0.35725369156155778 -0.36746802398417711 0 0.33961430049029462 -0.3769321928230206 0 0.3254327230086223 -0.37727573954620008 0 0.33269278431466759 -0.36420175697181001 0 0.33961430049029462 -0.3769321928230206 0 0.34745951447548262 -0.3654555964929056 0 0.33269278431466759 -0.36420175697181001 0 0.34745951447548262 -0.3654555964929056 0 0.33269278431466759 -0.36420175697181001 0 0.34073027616764778 -0.35820443971688792 0 0.33269278431466759 -0.36420175697181001 0 0.33515334314406803 -0.3506930262608261 0 0.32194917287413499 -0.35407963295240857 0 0.33269278431466759 -0.36420175697181001 0 0.34073027616764778 -0.35820443971688792 0 0.33515334314406803 -0.3506930262608261 0 0.34761546273637312 -0.35246737914200998 0 0.34073027616764778 -0.35820443971688792 0 0.33515334314406803 -0.3506930262608261 0 0.34761546273637312 -0.35246737914200998 0 0.33515334314406803 -0.3506930262608261 0 0.34372181235033022 -0.34370556861764939 0 0.33515334314406803 -0.3506930262608261 0 0.34372181235033022 -0.34370556861764939 0 0.33596165848389448 -0.33747853502321151 0 0.32194917287413499 -0.35407963295240857 0 0.32604180773128583 -0.34278279167691528 0 0.31358035678219298 -0.34312268843977151 0 0.33515334314406803 -0.3506930262608261 0 0.32194917287413499 -0.35407963295240857 0 0.32604180773128583 -0.34278279167691528 0 0.32194917287413499 -0.35407963295240857 0 0.31358035678219298 -0.34312268843977151 0 0.30908381831347498 -0.35622409107173691 0 0.32194917287413499 -0.35407963295240857 0 0.31892575001573209 -0.36683721017535642 0 0.30908381831347498 -0.35622409107173691 0 0.33269278431466759 -0.36420175697181001 0 0.32194917287413499 -0.35407963295240857 0 0.31892575001573209 -0.36683721017535642 0 0.31284986629360689 -0.3777358552997348 0 0.3254327230086223 -0.37727573954620008 0 0.31892575001573209 -0.36683721017535642 0 0.31284986629360689 -0.3777358552997348 0 0.31892575001573209 -0.36683721017535642 0 0.30864979884006039 -0.36868855865166661 0 0.3254327230086223 -0.37727573954620008 0 0.33269278431466759 -0.36420175697181001 0 0.31892575001573209 -0.36683721017535642 0 0.33524549266992032 -0.31527437616135928 0 0.33768269921814381 -0.32734908713695637 0 0.32804819728632439 -0.32605303271236202 0 0.34428596878119572 -0.33351913737147992 0 0.34639718004265752 -0.3228222084756257 0 0.33768269921814381 -0.32734908713695637 0 0.34639718004265752 -0.3228222084756257 0 0.33524549266992032 -0.31527437616135928 0 0.33768269921814381 -0.32734908713695637 0 0.33596165848389448 -0.33747853502321151 0 0.32604180773128583 -0.34278279167691528 0 0.32804819728632439 -0.32605303271236202 0 0.34428596878119572 -0.33351913737147992 0 0.33768269921814381 -0.32734908713695637 0 0.33596165848389448 -0.33747853502321151 0 0.34428596878119572 -0.33351913737147992 0 0.34372181235033022 -0.34370556861764939 0 0.33596165848389448 -0.33747853502321151 0 0.33515334314406803 -0.3506930262608261 0 0.33596165848389448 -0.33747853502321151 0 0.32604180773128583 -0.34278279167691528 0 0.33768269921814381 -0.32734908713695637 0 0.33596165848389448 -0.33747853502321151 0 0.32804819728632439 -0.32605303271236202 0 0.31358035678219298 -0.34312268843977151 0 0.31955378240251769 -0.33351949484101162 0 0.30801105636484127 -0.3273756977793989 0 0.32604180773128583 -0.34278279167691528 0 0.31955378240251769 -0.33351949484101162 0 0.32804819728632439 -0.32605303271236202 0 0.32604180773128583 -0.34278279167691528 0 0.31358035678219298 -0.34312268843977151 0 0.31955378240251769 -0.33351949484101162 0 0.31955378240251769 -0.33351949484101162 0 0.31968809636106732 -0.31794948752767982 0 0.30801105636484127 -0.3273756977793989 0 0.31955378240251769 -0.33351949484101162 0 0.32804819728632439 -0.32605303271236202 0 0.31968809636106732 -0.31794948752767982 0 0.33524549266992032 -0.31527437616135928 0 0.32804819728632439 -0.32605303271236202 0 0.31968809636106732 -0.31794948752767982 0 0.31968809636106732 -0.31794948752767982 0 0.30801105636484127 -0.3273756977793989 0 0.30708735274197202 -0.30964730317719058 0 0.30801105636484127 -0.3273756977793989 0 0.2932025985389482 -0.32210469925040092 0 0.30708735274197202 -0.30964730317719058 0 0.30801105636484127 -0.3273756977793989 0 0.29833797415396762 -0.34098549409782958 0 0.2932025985389482 -0.32210469925040092 0 0.31358035678219298 -0.34312268843977151 0 0.30801105636484127 -0.3273756977793989 0 0.29833797415396762 -0.34098549409782958 0 0.29833797415396762 -0.34098549409782958 0 0.2932025985389482 -0.32210469925040092 0 0.27679915163355318 -0.34039739566629279 0 0.2932025985389482 -0.32210469925040092 0 0.27191955157803671 -0.31984872510949958 0 0.29050304907290142 -0.29764133388679698 0 0.29870122288962742 -0.37761725860127049 0 0.30864979884006039 -0.36868855865166661 0 0.29361182863687652 -0.35877079562029629 0 0.31284986629360689 -0.3777358552997348 0 0.29870122288962742 -0.37761725860127049 0 0.30864979884006039 -0.36868855865166661 0 0.31892575001573209 -0.36683721017535642 0 0.30864979884006039 -0.36868855865166661 0 0.30908381831347498 -0.35622409107173691 0 0.30864979884006039 -0.36868855865166661 0 0.30908381831347498 -0.35622409107173691 0 0.29361182863687652 -0.35877079562029629 0 0.29833797415396762 -0.34098549409782958 0 0.30908381831347498 -0.35622409107173691 0 0.29361182863687652 -0.35877079562029629 0 0.31358035678219298 -0.34312268843977151 0 0.29833797415396762 -0.34098549409782958 0 0.30908381831347498 -0.35622409107173691 0 0.29833797415396762 -0.34098549409782958 0 0.29361182863687652 -0.35877079562029629 0 0.27679915163355318 -0.34039739566629279 0 0.29870122288962742 -0.37761725860127049 0 0.28139632719700169 -0.3755677227491474 0 0.29361182863687652 -0.35877079562029629 0 0.28139632719700169 -0.3755677227491474 0 0.29361182863687652 -0.35877079562029629 0 0.27263619253350219 -0.35774118032664631 0 0.28139632719700169 -0.3755677227491474 0 0.27263619253350219 -0.35774118032664631 0 0.25928413265921563 -0.37040063651259658 0 0.27263619253350219 -0.35774118032664631 0 0.27679915163355318 -0.34039739566629279 0 0.25208952254086398 -0.34356935108489828 0 0.29361182863687652 -0.35877079562029629 0 0.27263619253350219 -0.35774118032664631 0 0.27679915163355318 -0.34039739566629279 0 0.27263619253350219 -0.35774118032664631 0 0.25928413265921563 -0.37040063651259658 0 0.25208952254086398 -0.34356935108489828 0 0.25928413265921563 -0.37040063651259658 0 0.25208952254086398 -0.34356935108489828 0 0.2932025985389482 -0.32210469925040092 0 0.27191955157803671 -0.31984872510949958 0 0.27679915163355318 -0.34039739566629279 0 0.27191955157803671 -0.31984872510949958 0 0.27679915163355318 -0.34039739566629279 0 0.25208952254086398 -0.34356935108489828 0 0.27191955157803671 -0.31984872510949958 0 0.25208952254086398 -0.34356935108489828 0 0.24489491242251241 -0.31673806565719997 0 0.27191955157803671 -0.31984872510949958 0 0.27162207932983828 -0.29882565623400359 0 0.24489491242251241 -0.31673806565719997 0 0.25486001957661009 -0.29073593644715051 0 0.27162207932983828 -0.29882565623400359 0 0.24489491242251241 -0.31673806565719997 0 0.25486001957661009 -0.29073593644715051 0 0.27162207932983828 -0.29882565623400359 0 0.27035362481016212 -0.27759728452177168 0 0.27162207932983828 -0.29882565623400359 0 0.29050304907290142 -0.29764133388679698 0 0.27035362481016212 -0.27759728452177168 0 0.27191955157803671 -0.31984872510949958 0 0.27162207932983828 -0.29882565623400359 0 0.29050304907290142 -0.29764133388679698 0 0.29050304907290142 -0.29764133388679698 0 0.2910079226000466 -0.27314716439863301 0 0.27035362481016212 -0.27759728452177168 0 0.29050304907290142 -0.29764133388679698 0 0.30814094993854169 -0.29080042086919439 0 0.2910079226000466 -0.27314716439863301 0 0.30814094993854169 -0.29080042086919439 0 0.2910079226000466 -0.27314716439863301 0 0.29050304907290142 -0.29764133388679698 0 0.30814094993854169 -0.29080042086919439 0 0.30708735274197202 -0.30964730317719058 0 0.2932025985389482 -0.32210469925040092 0 0.29050304907290142 -0.29764133388679698 0 0.30708735274197202 -0.30964730317719058 0 0.29242578560315741 -0.24850859449249901 0 0.30982777026963187 -0.26418463547166199 0 0.2910079226000466 -0.27314716439863301 0 0.29242578560315741 -0.24850859449249901 0 0.31278636253022091 -0.2380913383386552 0 0.30982777026963187 -0.26418463547166199 0 0.30814094993854169 -0.29080042086919439 0 0.30982777026963187 -0.26418463547166199 0 0.2910079226000466 -0.27314716439863301 0 0.2910079226000466 -0.27314716439863301 0 0.2738748952615514 -0.25549390792807158 0 0.29242578560315741 -0.24850859449249901 0 0.2910079226000466 -0.27314716439863301 0 0.2738748952615514 -0.25549390792807158 0 0.2738748952615514 -0.25549390792807158 0 0.27035362481016212 -0.27759728452177168 0 0.25900969032513188 -0.25853262373145808 0 0.2910079226000466 -0.27314716439863301 0 0.2738748952615514 -0.25549390792807158 0 0.27035362481016212 -0.27759728452177168 0 0.27035362481016212 -0.27759728452177168 0 0.25900969032513188 -0.25853262373145808 0 0.24972917901637701 -0.27061189559327548 0 0.25486001957661009 -0.29073593644715051 0 0.27035362481016212 -0.27759728452177168 0 0.24972917901637701 -0.27061189559327548 0 0.25900969032513188 -0.25853262373145808 0 0.24362378005441829 -0.25045807312964968 0 0.24972917901637701 -0.27061189559327548 0 0.2567418679230562 -0.23784065145751021 0 0.2738748952615514 -0.25549390792807158 0 0.25900969032513188 -0.25853262373145808 0 0.24362378005441829 -0.25045807312964968 0 0.24972917901637701 -0.27061189559327548 0 0.23050569218579739 -0.2630754948018067 0 0.24362378005441829 -0.25045807312964968 0 0.23050569218579739 -0.2630754948018067 0 0.24972917901637701 -0.27061189559327548 0 0.23050569218579739 -0.2630754948018067 0 0.23770030230416089 -0.28990678022950178 0 0.23050569218579739 -0.2630754948018067 0 0.23770030230416089 -0.28990678022950178 0 0.23050569218579739 -0.2630754948018067 0 0.21511110912344661 -0.27788252673428349 0 0.23770030230416089 -0.28990678022950178 0 0.23050569218579739 -0.2630754948018067 0 0.21511110912344661 -0.27788252673428349 0 0.23050569218579739 -0.2630754948018067 0 0.20735443702654849 -0.25734212299693798 0 0.22492302681093859 -0.24225573033139669 0 0.24362378005441829 -0.25045807312964968 0 0.23050569218579739 -0.2630754948018067 0 0.22492302681093859 -0.24225573033139669 0 0.23050569218579739 -0.2630754948018067 0 0.22492302681093859 -0.24225573033139669 0 0.20735443702654849 -0.25734212299693798 0 0.21511110912344661 -0.27788252673428349 0 0.1977748865803067 -0.27473155530668347 0 0.23050569218579739 -0.2630754948018067 0 0.20735443702654849 -0.25734212299693798 0 0.21511110912344661 -0.27788252673428349 0 0.1977748865803067 -0.27473155530668347 0 0.1806241390616336 -0.26038437566538281 0 0.18554135527150081 -0.28589133793286592 0 0.20735443702654849 -0.25734212299693798 0 0.1806241390616336 -0.26038437566538281 0 0.19660292783236619 -0.24793799953647061 0 0.20735443702654849 -0.25734212299693798 0 0.1977748865803067 -0.27473155530668347 0 0.1806241390616336 -0.26038437566538281 0 0.1997165260611137 -0.29268955866677893 0 0.2087367112512869 -0.3162522549687784 0 0.19444721479456281 -0.31659103134721361 0 0.1997165260611137 -0.29268955866677893 0 0.19444721479456281 -0.31659103134721361 0 0.18432194299878071 -0.30749659059927431 0 0.1997165260611137 -0.29268955866677893 0 0.18432194299878071 -0.30749659059927431 0 0.1997165260611137 -0.29268955866677893 0 0.18554135527150081 -0.28589133793286592 0 0.18432194299878071 -0.30749659059927431 0 0.1977748865803067 -0.27473155530668347 0 0.1997165260611137 -0.29268955866677893 0 0.18554135527150081 -0.28589133793286592 0 0.21511110912344661 -0.27788252673428349 0 0.1997165260611137 -0.29268955866677893 0 0.22219404241154311 -0.30305394443265021 0 0.21511110912344661 -0.27788252673428349 0 0.1977748865803067 -0.27473155530668347 0 0.1997165260611137 -0.29268955866677893 0 0.21511110912344661 -0.27788252673428349 0 0.1997165260611137 -0.29268955866677893 0 0.1997165260611137 -0.29268955866677893 0 0.22219404241154311 -0.30305394443265021 0 0.2087367112512869 -0.3162522549687784 0 0.21511110912344661 -0.27788252673428349 0 0.22219404241154311 -0.30305394443265021 0 0.23770030230416089 -0.28990678022950178 0 0.25486001957661009 -0.29073593644715051 0 0.24972917901637701 -0.27061189559327548 0 0.23770030230416089 -0.28990678022950178 0 0.22219404241154311 -0.30305394443265021 0 0.23770030230416089 -0.28990678022950178 0 0.24489491242251241 -0.31673806565719997 0 0.23770030230416089 -0.28990678022950178 0 0.24489491242251241 -0.31673806565719997 0 0.25486001957661009 -0.29073593644715051 0 0.23770030230416089 -0.28990678022950178 0 0.24489491242251241 -0.31673806565719997 0 0.25208952254086398 -0.34356935108489828 0 0.24489491242251241 -0.31673806565719997 0 0.22700469330673831 -0.32485448033935871 0 0.25208952254086398 -0.34356935108489828 0 0.24489491242251241 -0.31673806565719997 0 0.25208952254086398 -0.34356935108489828 0 0.22700469330673831 -0.32485448033935871 0 0.22405613093966131 -0.34383885372279471 0 0.22700469330673831 -0.32485448033935871 0 0.22405613093966131 -0.34383885372279471 0 0.213181737361226 -0.32991875949064442 0 0.22219404241154311 -0.30305394443265021 0 0.22700469330673831 -0.32485448033935871 0 0.2087367112512869 -0.3162522549687784 0 0.22219404241154311 -0.30305394443265021 0 0.24489491242251241 -0.31673806565719997 0 0.22700469330673831 -0.32485448033935871 0 0.25928413265921563 -0.37040063651259658 0 0.23369737191528331 -0.36070013086384378 0 0.2340011630334082 -0.37983699337592602 0 0.25208952254086398 -0.34356935108489828 0 0.22405613093966131 -0.34383885372279471 0 0.23369737191528331 -0.36070013086384378 0 0.25928413265921563 -0.37040063651259658 0 0.25208952254086398 -0.34356935108489828 0 0.23369737191528331 -0.36070013086384378 0 0.22405613093966131 -0.34383885372279471 0 0.23369737191528331 -0.36070013086384378 0 0.21307871763725639 -0.35530949733655831 0 0.23369737191528331 -0.36070013086384378 0 0.21698192605821021 -0.37066731991265228 0 0.21307871763725639 -0.35530949733655831 0 0.23369737191528331 -0.36070013086384378 0 0.21698192605821021 -0.37066731991265228 0 0.2340011630334082 -0.37983699337592602 0 0.21698192605821021 -0.37066731991265228 0 0.20261299273817429 -0.36485215265645582 0 0.20263420454414741 -0.37905125931138423 0 0.21698192605821021 -0.37066731991265228 0 0.21307871763725639 -0.35530949733655831 0 0.20261299273817429 -0.36485215265645582 0 0.21307871763725639 -0.35530949733655831 0 0.19347800855519709 -0.35021988117632541 0 0.20905114607747369 -0.34202173978623102 0 0.22405613093966131 -0.34383885372279471 0 0.21307871763725639 -0.35530949733655831 0 0.20905114607747369 -0.34202173978623102 0 0.21307871763725639 -0.35530949733655831 0 0.19347800855519709 -0.35021988117632541 0 0.20261299273817429 -0.36485215265645582 0 0.19347800855519709 -0.35021988117632541 0 0.20261299273817429 -0.36485215265645582 0 0.19065126810229219 -0.36839826868046621 0 0.20261299273817429 -0.36485215265645582 0 0.19065126810229219 -0.36839826868046621 0 0.20263420454414741 -0.37905125931138423 0 0.22700469330673831 -0.32485448033935871 0 0.2087367112512869 -0.3162522549687784 0 0.213181737361226 -0.32991875949064442 0 0.2087367112512869 -0.3162522549687784 0 0.213181737361226 -0.32991875949064442 0 0.2003561446936219 -0.3308528387371335 0 0.22405613093966131 -0.34383885372279471 0 0.213181737361226 -0.32991875949064442 0 0.20905114607747369 -0.34202173978623102 0 0.213181737361226 -0.32991875949064442 0 0.20905114607747369 -0.34202173978623102 0 0.2003561446936219 -0.3308528387371335 0 0.19347800855519709 -0.35021988117632541 0 0.2003561446936219 -0.3308528387371335 0 0.18547853560715041 -0.33118499589775052 0 0.19347800855519709 -0.35021988117632541 0 0.20905114607747369 -0.34202173978623102 0 0.2003561446936219 -0.3308528387371335 0 0.2003561446936219 -0.3308528387371335 0 0.19444721479456281 -0.31659103134721361 0 0.18547853560715041 -0.33118499589775052 0 0.2087367112512869 -0.3162522549687784 0 0.2003561446936219 -0.3308528387371335 0 0.19444721479456281 -0.31659103134721361 0 0.18111279941400071 -0.31871647888915738 0 0.18547853560715041 -0.33118499589775052 0 0.16615479838656441 -0.32800126135166979 0 0.18111279941400071 -0.31871647888915738 0 0.16615479838656441 -0.32800126135166979 0 0.1751615052829453 -0.31030851524987868 0 0.19444721479456281 -0.31659103134721361 0 0.18111279941400071 -0.31871647888915738 0 0.18432194299878071 -0.30749659059927431 0 0.19444721479456281 -0.31659103134721361 0 0.18111279941400071 -0.31871647888915738 0 0.18547853560715041 -0.33118499589775052 0 0.19347800855519709 -0.35021988117632541 0 0.18547853560715041 -0.33118499589775052 0 0.1755681931312357 -0.34412432420007588 0 0.18547853560715041 -0.33118499589775052 0 0.16615479838656441 -0.32800126135166979 0 0.1755681931312357 -0.34412432420007588 0 0.16615479838656441 -0.32800126135166979 0 0.1755681931312357 -0.34412432420007588 0 0.15714809149018399 -0.34569400745346118 0 0.16615479838656441 -0.32800126135166979 0 0.15714809149018399 -0.34569400745346118 0 0.16615479838656441 -0.32800126135166979 0 0.15714809149018399 -0.34569400745346118 0 0.14933672411681401 -0.33621562295308172 0 0.16615479838656441 -0.32800126135166979 0 0.1751615052829453 -0.31030851524987868 0 0.16615479838656441 -0.32800126135166979 0 0.14933672411681401 -0.33621562295308172 0 0.15976586243175089 -0.31093854052384751 0 0.16615479838656441 -0.32800126135166979 0 0.1751615052829453 -0.31030851524987868 0 0.15976586243175089 -0.31093854052384751 0 0.19347800855519709 -0.35021988117632541 0 0.19065126810229219 -0.36839826868046621 0 0.1727155343267972 -0.36458368474557962 0 0.1727155343267972 -0.36458368474557962 0 0.18828297716341011 -0.38347336203769811 0 0.19065126810229219 -0.36839826868046621 0 0.1727155343267972 -0.36458368474557962 0 0.18828297716341011 -0.38347336203769811 0 0.19347800855519709 -0.35021988117632541 0 0.1727155343267972 -0.36458368474557962 0 0.1755681931312357 -0.34412432420007588 0 0.1727155343267972 -0.36458368474557962 0 0.1755681931312357 -0.34412432420007588 0 0.15714809149018399 -0.34569400745346118 0 0.1727155343267972 -0.36458368474557962 0 0.15714809149018399 -0.34569400745346118 0 0.15813709312550639 -0.36495647177485069 0 0.1727155343267972 -0.36458368474557962 0 0.15714809149018399 -0.34569400745346118 0 0.1727155343267972 -0.36458368474557962 0 0.15813709312550639 -0.36495647177485069 0 0.1583774979432217 -0.37693245688468952 0 0.15714809149018399 -0.34569400745346118 0 0.15813709312550639 -0.36495647177485069 0 0.1439035571567642 -0.37171152816258951 0 0.15813709312550639 -0.36495647177485069 0 0.1439035571567642 -0.37171152816258951 0 0.1583774979432217 -0.37693245688468952 0 0.15714809149018399 -0.34569400745346118 0 0.1439035571567642 -0.37171152816258951 0 0.1404020312678913 -0.3578706207872176 0 0.15714809149018399 -0.34569400745346118 0 0.1404020312678913 -0.3578706207872176 0 0.14933672411681401 -0.33621562295308172 0 0.1404020312678913 -0.3578706207872176 0 0.14933672411681401 -0.33621562295308172 0 0.15714809149018399 -0.34569400745346118 0 0.1439035571567642 -0.37171152816258951 0 0.1404020312678913 -0.3578706207872176 0 0.14933672411681401 -0.33621562295308172 0 0.13634448421871759 -0.34314180383461967 0 0.12876765350972841 -0.35129794502120132 0 0.1404020312678913 -0.3578706207872176 0 0.13634448421871759 -0.34314180383461967 0 0.12876765350972841 -0.35129794502120132 0 0.13634448421871759 -0.34314180383461967 0 0.12571838696758669 -0.3378639988588239 0 0.12876765350972841 -0.35129794502120132 0 0.13012082844154901 -0.36575139347928931 0 0.1216667858606698 -0.35703048718483948 0 0.12876765350972841 -0.35129794502120132 0 0.1404020312678913 -0.3578706207872176 0 0.13012082844154901 -0.36575139347928931 0 0.1439035571567642 -0.37171152816258951 0 0.13012082844154901 -0.36575139347928931 0 0.12690999171213099 -0.37953724022328328 0 0.1439035571567642 -0.37171152816258951 0 0.1404020312678913 -0.3578706207872176 0 0.13012082844154901 -0.36575139347928931 0 0.14632945896899779 -0.31697327578143109 0 0.14933672411681401 -0.33621562295308172 0 0.15976586243175089 -0.31093854052384751 0 0.14632945896899779 -0.31697327578143109 0 0.14933672411681401 -0.33621562295308172 0 0.1307654101627948 -0.31368102101723649 0 0.14933672411681401 -0.33621562295308172 0 0.15976586243175089 -0.31093854052384751 0 0.14632945896899779 -0.31697327578143109 0 0.1307654101627948 -0.31368102101723649 0 0.14544983916463169 -0.30705791863155868 0 0.15714809149018399 -0.34569400745346118 0 0.14933672411681401 -0.33621562295308172 0 0.14933672411681401 -0.33621562295308172 0 0.13302574391487729 -0.33111151626344593 0 0.13634448421871759 -0.34314180383461967 0 0.13302574391487729 -0.33111151626344593 0 0.13634448421871759 -0.34314180383461967 0 0.12571838696758669 -0.3378639988588239 0 0.13302574391487729 -0.33111151626344593 0 0.12571838696758669 -0.3378639988588239 0 0.1229637141084734 -0.3246551346534674 0 0.14933672411681401 -0.33621562295308172 0 0.13302574391487729 -0.33111151626344593 0 0.1307654101627948 -0.31368102101723649 0 0.13302574391487729 -0.33111151626344593 0 0.1307654101627948 -0.31368102101723649 0 0.1229637141084734 -0.3246551346534674 0 0.14933672411681401 -0.33621562295308172 0 0.1307654101627948 -0.31368102101723649 0 0.1307654101627948 -0.31368102101723649 0 0.13704929194167831 -0.29707556772858768 0 0.12366468097104601 -0.29647713135865722 0 0.1307654101627948 -0.31368102101723649 0 0.13704929194167831 -0.29707556772858768 0 0.14544983916463169 -0.30705791863155868 0 0.14544983916463169 -0.30705791863155868 0 0.15111038337531979 -0.29249006859161247 0 0.15976586243175089 -0.31093854052384751 0 0.13704929194167831 -0.29707556772858768 0 0.14544983916463169 -0.30705791863155868 0 0.15111038337531979 -0.29249006859161247 0 0.14632945896899779 -0.31697327578143109 0 0.14544983916463169 -0.30705791863155868 0 0.15976586243175089 -0.31093854052384751 0 0.15111038337531979 -0.29249006859161247 0 0.13417504399288691 -0.28060830866143821 0 0.15610417712740959 -0.27387736217816733 0 0.13704929194167831 -0.29707556772858768 0 0.15111038337531979 -0.29249006859161247 0 0.13417504399288691 -0.28060830866143821 0 0.13704929194167831 -0.29707556772858768 0 0.13417504399288691 -0.28060830866143821 0 0.12366468097104601 -0.29647713135865722 0 0.13417504399288691 -0.28060830866143821 0 0.12802740959780479 -0.2606020347716278 0 0.11914039084994731 -0.27425050440703841 0 0.13417504399288691 -0.28060830866143821 0 0.12802740959780479 -0.2606020347716278 0 0.14261796729620771 -0.26550674591415879 0 0.12802740959780479 -0.2606020347716278 0 0.14261796729620771 -0.26550674591415879 0 0.14004499930757069 -0.2480871212240183 0 0.14261796729620771 -0.26550674591415879 0 0.15610417712740959 -0.27387736217816733 0 0.16302435918981631 -0.25696886028418142 0 0.14261796729620771 -0.26550674591415879 0 0.16302435918981631 -0.25696886028418142 0 0.14004499930757069 -0.2480871212240183 0 0.16302435918981631 -0.25696886028418142 0 0.14004499930757069 -0.2480871212240183 0 0.13417504399288691 -0.28060830866143821 0 0.14261796729620771 -0.26550674591415879 0 0.15610417712740959 -0.27387736217816733 0 0.15610417712740959 -0.27387736217816733 0 0.1806241390616336 -0.26038437566538281 0 0.17019500074669219 -0.28566145809461507 0 0.15610417712740959 -0.27387736217816733 0 0.16302435918981631 -0.25696886028418142 0 0.1806241390616336 -0.26038437566538281 0 0.16302435918981631 -0.25696886028418142 0 0.1806241390616336 -0.26038437566538281 0 0.17152651884717751 -0.24510378973914779 0 0.1806241390616336 -0.26038437566538281 0 0.17019500074669219 -0.28566145809461507 0 0.1806241390616336 -0.26038437566538281 0 0.18554135527150081 -0.28589133793286592 0 0.17019500074669219 -0.28566145809461507 0 0.18554135527150081 -0.28589133793286592 0 0.17510250661779209 -0.29995285938753002 0 0.17019500074669219 -0.28566145809461507 0 0.18554135527150081 -0.28589133793286592 0 0.18432194299878071 -0.30749659059927431 0 0.17510250661779209 -0.29995285938753002 0 0.18111279941400071 -0.31871647888915738 0 0.18432194299878071 -0.30749659059927431 0 0.1751615052829453 -0.31030851524987868 0 0.18432194299878071 -0.30749659059927431 0 0.1751615052829453 -0.31030851524987868 0 0.17510250661779209 -0.29995285938753002 0 0.15976586243175089 -0.31093854052384751 0 0.17019500074669219 -0.28566145809461507 0 0.17510250661779209 -0.29995285938753002 0 0.15976586243175089 -0.31093854052384751 0 0.17019500074669219 -0.28566145809461507 0 0.1751615052829453 -0.31030851524987868 0 0.17510250661779209 -0.29995285938753002 0 0.15976586243175089 -0.31093854052384751 0 0.15111038337531979 -0.29249006859161247 0 0.15610417712740959 -0.27387736217816733 0 0.17019500074669219 -0.28566145809461507 0 0.15111038337531979 -0.29249006859161247 0 0.15976586243175089 -0.31093854052384751 0 0.17019500074669219 -0.28566145809461507 0 0.19569969161031439 -0.5 0 0.2079916352144133 -0.48473511906048411 0 0.1808369163244814 -0.48100574967652349 0 0.2079916352144133 -0.48473511906048411 0 0.20255569329966441 -0.4659053818567041 0 0.1808369163244814 -0.48100574967652349 0 0.20255569329966441 -0.4659053818567041 0 0.1808369163244814 -0.48100574967652349 0 0.20255569329966441 -0.4659053818567041 0 0.1842117044953516 -0.46295566601377203 0 0.1808369163244814 -0.48100574967652349 0 0.2079916352144133 -0.48473511906048411 0 0.22275297188282919 -0.47384031069675309 0 0.20255569329966441 -0.4659053818567041 0 0.2079916352144133 -0.48473511906048411 0 0.22028357881851221 -0.5 0 0.22275297188282919 -0.47384031069675309 0 0.19569969161031439 -0.5 0 0.2079916352144133 -0.48473511906048411 0 0.22028357881851221 -0.5 0 0.22028357881851221 -0.5 0 0.24322227263701091 -0.47942314883957993 0 0.22275297188282919 -0.47384031069675309 0 0.22028357881851221 -0.5 0 0.24486746602671011 -0.5 0 0.24322227263701091 -0.47942314883957993 0 0.25779138439249011 -0.48761716103823111 0 0.24486746602671011 -0.5 0 0.24322227263701091 -0.47942314883957993 0 0.25737827664022023 -0.47291509967688239 0 0.24322227263701091 -0.47942314883957993 0 0.23958668861670329 -0.4616213097725792 0 0.24322227263701091 -0.47942314883957993 0 0.22275297188282919 -0.47384031069675309 0 0.23958668861670329 -0.4616213097725792 0 0.22275297188282919 -0.47384031069675309 0 0.23958668861670329 -0.4616213097725792 0 0.22427447027484751 -0.45080501403688472 0 0.25908156621457828 -0.45416123098193678 0 0.23958668861670329 -0.4616213097725792 0 0.23885445762038829 -0.43540416446514618 0 0.23958668861670329 -0.4616213097725792 0 0.22427447027484751 -0.45080501403688472 0 0.23885445762038829 -0.43540416446514618 0 0.22427447027484751 -0.45080501403688472 0 0.19798345082307989 -0.44896585230684172 0 0.207297368355357 -0.43485435299178338 0 0.22275297188282919 -0.47384031069675309 0 0.22427447027484751 -0.45080501403688472 0 0.20255569329966441 -0.4659053818567041 0 0.22427447027484751 -0.45080501403688472 0 0.20255569329966441 -0.4659053818567041 0 0.19798345082307989 -0.44896585230684172 0 0.22427447027484751 -0.45080501403688472 0 0.20255569329966441 -0.4659053818567041 0 0.20255569329966441 -0.4659053818567041 0 0.19798345082307989 -0.44896585230684172 0 0.1842117044953516 -0.46295566601377203 0 0.19798345082307989 -0.44896585230684172 0 0.18931192907820549 -0.43140599888719028 0 0.1810337639644663 -0.44566484558222391 0 0.19798345082307989 -0.44896585230684172 0 0.1810337639644663 -0.44566484558222391 0 0.1842117044953516 -0.46295566601377203 0 0.19798345082307989 -0.44896585230684172 0 0.18931192907820549 -0.43140599888719028 0 0.207297368355357 -0.43485435299178338 0 0.18931192907820549 -0.43140599888719028 0 0.20205154396563671 -0.42082947618333427 0 0.207297368355357 -0.43485435299178338 0 0.20205154396563671 -0.42082947618333427 0 0.188509923260271 -0.41200193555243642 0 0.20385042000002179 -0.40236303932981748 0 0.18931192907820549 -0.43140599888719028 0 0.20205154396563671 -0.42082947618333427 0 0.188509923260271 -0.41200193555243642 0 0.20205154396563671 -0.42082947618333427 0 0.22128807913432841 -0.42352205415544358 0 0.20385042000002179 -0.40236303932981748 0 0.22128807913432841 -0.42352205415544358 0 0.22514394647991789 -0.40898082353874071 0 0.20385042000002179 -0.40236303932981748 0 0.22128807913432841 -0.42352205415544358 0 0.20385042000002179 -0.40236303932981748 0 0.22427447027484751 -0.45080501403688472 0 0.207297368355357 -0.43485435299178338 0 0.22128807913432841 -0.42352205415544358 0 0.20205154396563671 -0.42082947618333427 0 0.207297368355357 -0.43485435299178338 0 0.22128807913432841 -0.42352205415544358 0 0.22128807913432841 -0.42352205415544358 0 0.23885445762038829 -0.43540416446514618 0 0.23330559045874469 -0.41997221464587248 0 0.22427447027484751 -0.45080501403688472 0 0.22128807913432841 -0.42352205415544358 0 0.23885445762038829 -0.43540416446514618 0 0.23885445762038829 -0.43540416446514618 0 0.2464374729598148 -0.41559860774766111 0 0.23330559045874469 -0.41997221464587248 0 0.26365396395708202 -0.43325119694149039 0 0.23885445762038829 -0.43540416446514618 0 0.2464374729598148 -0.41559860774766111 0 0.2464374729598148 -0.41559860774766111 0 0.22514394647991789 -0.40898082353874071 0 0.2464374729598148 -0.41559860774766111 0 0.23115228972040389 -0.39992624683970301 0 0.2464374729598148 -0.41559860774766111 0 0.23330559045874469 -0.41997221464587248 0 0.22514394647991789 -0.40898082353874071 0 0.2464374729598148 -0.41559860774766111 0 0.22514394647991789 -0.40898082353874071 0 0.23115228972040389 -0.39992624683970301 0 0.22128807913432841 -0.42352205415544358 0 0.23330559045874469 -0.41997221464587248 0 0.22514394647991789 -0.40898082353874071 0 0.22514394647991789 -0.40898082353874071 0 0.23115228972040389 -0.39992624683970301 0 0.21784385492534181 -0.39761593780035759 0 0.23115228972040389 -0.39992624683970301 0 0.21586710648099211 -0.38425388593174581 0 0.21784385492534181 -0.39761593780035759 0 0.23115228972040389 -0.39992624683970301 0 0.21586710648099211 -0.38425388593174581 0 0.23115228972040389 -0.39992624683970301 0 0.2477446635434315 -0.39286115357201701 0 0.2340011630334082 -0.37983699337592602 0 0.2464374729598148 -0.41559860774766111 0 0.23115228972040389 -0.39992624683970301 0 0.2477446635434315 -0.39286115357201701 0 0.25928413265921563 -0.37040063651259658 0 0.2477446635434315 -0.39286115357201701 0 0.2340011630334082 -0.37983699337592602 0 0.23115228972040389 -0.39992624683970301 0 0.2340011630334082 -0.37983699337592602 0 0.21586710648099211 -0.38425388593174581 0 0.21698192605821021 -0.37066731991265228 0 0.2340011630334082 -0.37983699337592602 0 0.21586710648099211 -0.38425388593174581 0 0.21586710648099211 -0.38425388593174581 0 0.20385042000002179 -0.40236303932981748 0 0.20263420454414741 -0.37905125931138423 0 0.21698192605821021 -0.37066731991265228 0 0.21586710648099211 -0.38425388593174581 0 0.20263420454414741 -0.37905125931138423 0 0.22514394647991789 -0.40898082353874071 0 0.20385042000002179 -0.40236303932981748 0 0.21784385492534181 -0.39761593780035759 0 0.21586710648099211 -0.38425388593174581 0 0.20385042000002179 -0.40236303932981748 0 0.21784385492534181 -0.39761593780035759 0 0.22514394647991789 -0.40898082353874071 0 0.20385042000002179 -0.40236303932981748 0 0.188509923260271 -0.41200193555243642 0 0.20385042000002179 -0.40236303932981748 0 0.18582593667473779 -0.3967612363012486 0 0.20385042000002179 -0.40236303932981748 0 0.18828297716341011 -0.38347336203769811 0 0.20385042000002179 -0.40236303932981748 0 0.18582593667473779 -0.3967612363012486 0 0.20385042000002179 -0.40236303932981748 0 0.18828297716341011 -0.38347336203769811 0 0.18582593667473779 -0.3967612363012486 0 0.20385042000002179 -0.40236303932981748 0 0.18828297716341011 -0.38347336203769811 0 0.20263420454414741 -0.37905125931138423 0 0.19065126810229219 -0.36839826868046621 0 0.18828297716341011 -0.38347336203769811 0 0.20263420454414741 -0.37905125931138423 0 0.18828297716341011 -0.38347336203769811 0 0.18582593667473779 -0.3967612363012486 0 0.16780145334945429 -0.3911594332726781 0 0.1727155343267972 -0.36458368474557962 0 0.18828297716341011 -0.38347336203769811 0 0.16780145334945429 -0.3911594332726781 0 0.18582593667473779 -0.3967612363012486 0 0.16780145334945429 -0.3911594332726781 0 0.18582593667473779 -0.3967612363012486 0 0.17389105829548729 -0.4043233432577088 0 0.16780145334945429 -0.3911594332726781 0 0.188509923260271 -0.41200193555243642 0 0.18582593667473779 -0.3967612363012486 0 0.17389105829548729 -0.4043233432577088 0 0.16780145334945429 -0.3911594332726781 0 0.1485224685874699 -0.39044274676158341 0 0.155042873523069 -0.40667005922824773 0 0.17389105829548729 -0.4043233432577088 0 0.16780145334945429 -0.3911594332726781 0 0.155042873523069 -0.40667005922824773 0 0.16780145334945429 -0.3911594332726781 0 0.1583774979432217 -0.37693245688468952 0 0.1485224685874699 -0.39044274676158341 0 0.1727155343267972 -0.36458368474557962 0 0.16780145334945429 -0.3911594332726781 0 0.1583774979432217 -0.37693245688468952 0 0.1439035571567642 -0.37171152816258951 0 0.1485224685874699 -0.39044274676158341 0 0.13065902282334491 -0.39772904887171789 0 0.1439035571567642 -0.37171152816258951 0 0.1583774979432217 -0.37693245688468952 0 0.1485224685874699 -0.39044274676158341 0 0.1439035571567642 -0.37171152816258951 0 0.13065902282334491 -0.39772904887171789 0 0.1439035571567642 -0.37171152816258951 0 0.12690999171213099 -0.37953724022328328 0 0.13065902282334491 -0.39772904887171789 0 0.1485224685874699 -0.39044274676158341 0 0.13065902282334491 -0.39772904887171789 0 0.155042873523069 -0.40667005922824773 0 0.13065902282334491 -0.39772904887171789 0 0.155042873523069 -0.40667005922824773 0 0.1373486685282749 -0.41762126045244802 0 0.155042873523069 -0.40667005922824773 0 0.1373486685282749 -0.41762126045244802 0 0.1563299446787578 -0.42763750061932593 0 0.13065902282334491 -0.39772904887171789 0 0.1373486685282749 -0.41762126045244802 0 0.1174144884899269 -0.42374656958084689 0 0.13968022715840181 -0.43681626839182192 0 0.1174144884899269 -0.42374656958084689 0 0.13968022715840181 -0.43681626839182192 0 0.12583928992890719 -0.43836746623775219 0 0.1174144884899269 -0.42374656958084689 0 0.1373486685282749 -0.41762126045244802 0 0.13968022715840181 -0.43681626839182192 0 0.1174144884899269 -0.42374656958084689 0 0.1373486685282749 -0.41762126045244802 0 0.13968022715840181 -0.43681626839182192 0 0.1563299446787578 -0.42763750061932593 0 0.17171576959881771 -0.43511074350051798 0 0.1563299446787578 -0.42763750061932593 0 0.17224616343710669 -0.41972070494012309 0 0.17389105829548729 -0.4043233432577088 0 0.155042873523069 -0.40667005922824773 0 0.17224616343710669 -0.41972070494012309 0 0.155042873523069 -0.40667005922824773 0 0.1563299446787578 -0.42763750061932593 0 0.17224616343710669 -0.41972070494012309 0 0.18931192907820549 -0.43140599888719028 0 0.188509923260271 -0.41200193555243642 0 0.17224616343710669 -0.41972070494012309 0 0.188509923260271 -0.41200193555243642 0 0.17389105829548729 -0.4043233432577088 0 0.17224616343710669 -0.41972070494012309 0 0.18931192907820549 -0.43140599888719028 0 0.17171576959881771 -0.43511074350051798 0 0.17224616343710669 -0.41972070494012309 0 0.18931192907820549 -0.43140599888719028 0 0.17171576959881771 -0.43511074350051798 0 0.1810337639644663 -0.44566484558222391 0 0.1810337639644663 -0.44566484558222391 0 0.1842117044953516 -0.46295566601377203 0 0.1619459658268767 -0.44988596720279689 0 0.1842117044953516 -0.46295566601377203 0 0.1619459658268767 -0.44988596720279689 0 0.1619459658268767 -0.44988596720279689 0 0.14788954642336991 -0.46149151651875159 0 0.16717820494428329 -0.46877656262049139 0 0.1842117044953516 -0.46295566601377203 0 0.1619459658268767 -0.44988596720279689 0 0.16717820494428329 -0.46877656262049139 0 0.17171576959881771 -0.43511074350051798 0 0.1563299446787578 -0.42763750061932593 0 0.1619459658268767 -0.44988596720279689 0 0.17171576959881771 -0.43511074350051798 0 0.1810337639644663 -0.44566484558222391 0 0.1619459658268767 -0.44988596720279689 0 0.13968022715840181 -0.43681626839182192 0 0.1619459658268767 -0.44988596720279689 0 0.14788954642336991 -0.46149151651875159 0 0.13968022715840181 -0.43681626839182192 0 0.1619459658268767 -0.44988596720279689 0 0.13968022715840181 -0.43681626839182192 0 0.1563299446787578 -0.42763750061932593 0 0.1619459658268767 -0.44988596720279689 0 0.13968022715840181 -0.43681626839182192 0 0.13236331947172619 -0.45203637873395652 0 0.14788954642336991 -0.46149151651875159 0 0.13236331947172619 -0.45203637873395652 0 0.12583928992890719 -0.43836746623775219 0 0.1193635535128334 -0.44574225965733028 0 0.13968022715840181 -0.43681626839182192 0 0.13236331947172619 -0.45203637873395652 0 0.12583928992890719 -0.43836746623775219 0 0.12683567628452319 -0.46068261615335332 0 0.1346862159070103 -0.46726089252406899 0 0.12240602812047501 -0.46857972388002178 0 0.13236331947172619 -0.45203637873395652 0 0.12683567628452319 -0.46068261615335332 0 0.1180073151436009 -0.45565298309277591 0 0.13236331947172619 -0.45203637873395652 0 0.12683567628452319 -0.46068261615335332 0 0.1346862159070103 -0.46726089252406899 0 0.13236331947172619 -0.45203637873395652 0 0.1346862159070103 -0.46726089252406899 0 0.14788954642336991 -0.46149151651875159 0 0.1346862159070103 -0.46726089252406899 0 0.14788954642336991 -0.46149151651875159 0 0.14295955393309689 -0.47815464597011248 0 0.14788954642336991 -0.46149151651875159 0 0.14295955393309689 -0.47815464597011248 0 0.15641333772219471 -0.47750990018801381 0 0.14295955393309689 -0.47815464597011248 0 0.15142261391345271 -0.48584296027383789 0 0.15641333772219471 -0.47750990018801381 0 0.15142261391345271 -0.48584296027383789 0 0.15824858764671881 -0.48565818024245849 0 0.15641333772219471 -0.47750990018801381 0 0.13174390927644969 -0.47737486614442809 0 0.1392619625903215 -0.48966172861475948 0 0.1194057858313451 -0.48321733973317771 0 0.1346862159070103 -0.46726089252406899 0 0.14295955393309689 -0.47815464597011248 0 0.13174390927644969 -0.47737486614442809 0 0.14295955393309689 -0.47815464597011248 0 0.13174390927644969 -0.47737486614442809 0 0.1392619625903215 -0.48966172861475948 0 0.1346862159070103 -0.46726089252406899 0 0.13174390927644969 -0.47737486614442809 0 0.12240602812047501 -0.46857972388002178 0 0.1392619625903215 -0.48966172861475948 0 0.1194057858313451 -0.48321733973317771 0 0.12550101204172959 -0.5 0 0.1392619625903215 -0.48966172861475948 0 0.15351758930485601 -0.49999999999999739 0 0.12550101204172959 -0.5 0 0.1392619625903215 -0.48966172861475948 0 0.1194057858313451 -0.48321733973317771 0 0.1392619625903215 -0.48966172861475948 0 0.15911813934929769 -0.49610611749634198 0 0.1392619625903215 -0.48966172861475948 0 0.15142261391345271 -0.48584296027383789 0 0.15911813934929769 -0.49610611749634198 0 0.1392619625903215 -0.48966172861475948 0 0.15351758930485601 -0.49999999999999739 0 0.15911813934929769 -0.49610611749634198 0 0.14295955393309689 -0.47815464597011248 0 0.1392619625903215 -0.48966172861475948 0 0.15142261391345271 -0.48584296027383789 0 0.15911813934929769 -0.49610611749634198 0 0.1711158044021166 -0.49999999999999989 0 0.1808369163244814 -0.48100574967652349 0 0.15351758930485601 -0.49999999999999739 0 0.15911813934929769 -0.49610611749634198 0 0.1711158044021166 -0.49999999999999989 0 0.15911813934929769 -0.49610611749634198 0 0.16604025960193011 -0.48317374301164118 0 0.1808369163244814 -0.48100574967652349 0 0.15911813934929769 -0.49610611749634198 0 0.1808369163244814 -0.48100574967652349 0 0.15351758930485601 -0.49999999999999739 0 0.15911813934929769 -0.49610611749634198 0 0.15911813934929769 -0.49610611749634198 0 0.1711158044021166 -0.49999999999999989 0 0.15142261391345271 -0.48584296027383789 0 0.15911813934929769 -0.49610611749634198 0 0.15824858764671881 -0.48565818024245849 0 0.15911813934929769 -0.49610611749634198 0 0.15824858764671881 -0.48565818024245849 0 0.16604025960193011 -0.48317374301164118 0 0.14788954642336991 -0.46149151651875159 0 0.15641333772219471 -0.47750990018801381 0 0.16717820494428329 -0.46877656262049139 0 0.15824858764671881 -0.48565818024245849 0 0.15641333772219471 -0.47750990018801381 0 0.16604025960193011 -0.48317374301164118 0 0.15641333772219471 -0.47750990018801381 0 0.16717820494428329 -0.46877656262049139 0 0.16604025960193011 -0.48317374301164118 0 0.16717820494428329 -0.46877656262049139 0 0.16604025960193011 -0.48317374301164118 0 0.1808369163244814 -0.48100574967652349 0 0.1842117044953516 -0.46295566601377203 0 0.16717820494428329 -0.46877656262049139 0 0.1808369163244814 -0.48100574967652349 0 0.19569969161031439 -0.5 0 0.1711158044021166 -0.49999999999999989 0 0.1808369163244814 -0.48100574967652349 0 0.069467857515476572 -0.5 0 0.078554629455141745 -0.48153065936014411 0 0.054945264631449282 -0.48251579119466159 0 0.078554629455141745 -0.48153065936014411 0 0.064429903993351287 -0.46273258056485889 0 0.054945264631449282 -0.48251579119466159 0 0.078554629455141745 -0.48153065936014411 0 0.084073579510358723 -0.46641843825444779 0 0.064429903993351287 -0.46273258056485889 0 0.078554629455141745 -0.48153065936014411 0 0.099549609072368719 -0.47677295085159588 0 0.084073579510358723 -0.46641843825444779 0 0.078554629455141745 -0.48153065936014411 0 0.097484434778603135 -0.5 0 0.099549609072368719 -0.47677295085159588 0 0.069467857515476572 -0.5 0 0.078554629455141745 -0.48153065936014411 0 0.097484434778603135 -0.5 0 0.097484434778603135 -0.5 0 0.1194057858313451 -0.48321733973317771 0 0.099549609072368719 -0.47677295085159588 0 0.12550101204172959 -0.5 0 0.097484434778603135 -0.5 0 0.1194057858313451 -0.48321733973317771 0 0.1194057858313451 -0.48321733973317771 0 0.1089269623871217 -0.46520967144927972 0 0.12240602812047501 -0.46857972388002178 0 0.1194057858313451 -0.48321733973317771 0 0.099549609072368719 -0.47677295085159588 0 0.13174390927644969 -0.47737486614442809 0 0.1194057858313451 -0.48321733973317771 0 0.12240602812047501 -0.46857972388002178 0 0.1194057858313451 -0.48321733973317771 0 0.099549609072368719 -0.47677295085159588 0 0.1089269623871217 -0.46520967144927972 0 0.099549609072368719 -0.47677295085159588 0 0.096533135789291583 -0.45921151354083489 0 0.1089269623871217 -0.46520967144927972 0 0.096533135789291583 -0.45921151354083489 0 0.1089269623871217 -0.46520967144927972 0 0.10818804640446771 -0.45178998881086668 0 0.1089269623871217 -0.46520967144927972 0 0.1180073151436009 -0.45565298309277591 0 0.12240602812047501 -0.46857972388002178 0 0.1089269623871217 -0.46520967144927972 0 0.1180073151436009 -0.45565298309277591 0 0.10818804640446771 -0.45178998881086668 0 0.12683567628452319 -0.46068261615335332 0 0.1180073151436009 -0.45565298309277591 0 0.12240602812047501 -0.46857972388002178 0 0.12583928992890719 -0.43836746623775219 0 0.1193635535128334 -0.44574225965733028 0 0.1193374961951081 -0.43350264998101351 0 0.13236331947172619 -0.45203637873395652 0 0.1180073151436009 -0.45565298309277591 0 0.1193635535128334 -0.44574225965733028 0 0.1193635535128334 -0.44574225965733028 0 0.1108935262014662 -0.44139257910601098 0 0.10818804640446771 -0.45178998881086668 0 0.1180073151436009 -0.45565298309277591 0 0.1193635535128334 -0.44574225965733028 0 0.10818804640446771 -0.45178998881086668 0 0.1193635535128334 -0.44574225965733028 0 0.1108935262014662 -0.44139257910601098 0 0.1193374961951081 -0.43350264998101351 0 0.1108935262014662 -0.44139257910601098 0 0.098006141912336878 -0.44372624547753092 0 0.1051298622474842 -0.43581803189715429 0 0.1108935262014662 -0.44139257910601098 0 0.10818804640446771 -0.45178998881086668 0 0.098006141912336878 -0.44372624547753092 0 0.096533135789291583 -0.45921151354083489 0 0.10818804640446771 -0.45178998881086668 0 0.098006141912336878 -0.44372624547753092 0 0.081300619241640296 -0.45184448695480511 0 0.067520701566364749 -0.44228686514229493 0 0.086476228886620238 -0.43607954944128169 0 0.098006141912336878 -0.44372624547753092 0 0.081300619241640296 -0.45184448695480511 0 0.086476228886620238 -0.43607954944128169 0 0.096533135789291583 -0.45921151354083489 0 0.098006141912336878 -0.44372624547753092 0 0.081300619241640296 -0.45184448695480511 0 0.096533135789291583 -0.45921151354083489 0 0.081300619241640296 -0.45184448695480511 0 0.084073579510358723 -0.46641843825444779 0 0.099549609072368719 -0.47677295085159588 0 0.096533135789291583 -0.45921151354083489 0 0.084073579510358723 -0.46641843825444779 0 0.081300619241640296 -0.45184448695480511 0 0.084073579510358723 -0.46641843825444779 0 0.064429903993351287 -0.46273258056485889 0 0.081300619241640296 -0.45184448695480511 0 0.064429903993351287 -0.46273258056485889 0 0.067520701566364749 -0.44228686514229493 0 0.067520701566364749 -0.44228686514229493 0 0.080108462630431934 -0.4200875835798536 0 0.086476228886620238 -0.43607954944128169 0 0.067520701566364749 -0.44228686514229493 0 0.080108462630431934 -0.4200875835798536 0 0.058000062168216321 -0.42464166422433358 0 0.080108462630431934 -0.4200875835798536 0 0.075370670102445525 -0.40353932865166481 0 0.058000062168216321 -0.42464166422433358 0 0.075370670102445525 -0.40353932865166481 0 0.056279487617490069 -0.41994112666098732 0 0.058000062168216321 -0.42464166422433358 0 0.075370670102445525 -0.40353932865166481 0 0.056279487617490069 -0.41994112666098732 0 0.075370670102445525 -0.40353932865166481 0 0.060011069112654469 -0.39922804109927568 0 0.056279487617490069 -0.41994112666098732 0 0.075370670102445525 -0.40353932865166481 0 0.058000062168216321 -0.42464166422433358 0 0.080108462630431934 -0.4200875835798536 0 0.084084034203987731 -0.40999702456782711 0 0.090494244587873696 -0.42490012256538789 0 0.080108462630431934 -0.4200875835798536 0 0.084084034203987731 -0.40999702456782711 0 0.075370670102445525 -0.40353932865166481 0 0.084084034203987731 -0.40999702456782711 0 0.095780394762742971 -0.41552243997135552 0 0.092202784687095807 -0.40307097420533627 0 0.084084034203987731 -0.40999702456782711 0 0.090494244587873696 -0.42490012256538789 0 0.095780394762742971 -0.41552243997135552 0 0.080108462630431934 -0.4200875835798536 0 0.090494244587873696 -0.42490012256538789 0 0.086476228886620238 -0.43607954944128169 0 0.090494244587873696 -0.42490012256538789 0 0.086476228886620238 -0.43607954944128169 0 0.098992777418717454 -0.42916904301264419 0 0.098006141912336878 -0.44372624547753092 0 0.086476228886620238 -0.43607954944128169 0 0.098992777418717454 -0.42916904301264419 0 0.098006141912336878 -0.44372624547753092 0 0.098992777418717454 -0.42916904301264419 0 0.1051298622474842 -0.43581803189715429 0 0.090494244587873696 -0.42490012256538789 0 0.098992777418717454 -0.42916904301264419 0 0.095780394762742971 -0.41552243997135552 0 0.098992777418717454 -0.42916904301264419 0 0.1079355077980306 -0.42700415084532789 0 0.1044049037464161 -0.41973525605620249 0 0.1079355077980306 -0.42700415084532789 0 0.10932575809442779 -0.42187180373376648 0 0.1044049037464161 -0.41973525605620249 0 0.098992777418717454 -0.42916904301264419 0 0.1079355077980306 -0.42700415084532789 0 0.1051298622474842 -0.43581803189715429 0 0.1079355077980306 -0.42700415084532789 0 0.1051298622474842 -0.43581803189715429 0 0.1116784183231634 -0.4336705793473622 0 0.1108935262014662 -0.44139257910601098 0 0.1051298622474842 -0.43581803189715429 0 0.1116784183231634 -0.4336705793473622 0 0.1108935262014662 -0.44139257910601098 0 0.1116784183231634 -0.4336705793473622 0 0.1193374961951081 -0.43350264998101351 0 0.1116784183231634 -0.4336705793473622 0 0.11243430435829591 -0.42951616037480861 0 0.1193374961951081 -0.43350264998101351 0 0.11243430435829591 -0.42951616037480861 0 0.1157777956443012 -0.42696168375047561 0 0.1193374961951081 -0.43350264998101351 0 0.1079355077980306 -0.42700415084532789 0 0.1116784183231634 -0.4336705793473622 0 0.11243430435829591 -0.42951616037480861 0 0.1079355077980306 -0.42700415084532789 0 0.11243430435829591 -0.42951616037480861 0 0.11238280904247699 -0.42514639124827602 0 0.1079355077980306 -0.42700415084532789 0 0.11238280904247699 -0.42514639124827602 0 0.10932575809442779 -0.42187180373376648 0 0.11238280904247699 -0.42514639124827602 0 0.1134286131718191 -0.42140691264507563 0 0.10932575809442779 -0.42187180373376648 0 0.11238280904247699 -0.42514639124827602 0 0.1174144884899269 -0.42374656958084689 0 0.1134286131718191 -0.42140691264507563 0 0.1174144884899269 -0.42374656958084689 0 0.1134286131718191 -0.42140691264507563 0 0.11238280904247699 -0.42514639124827602 0 0.1157777956443012 -0.42696168375047561 0 0.1174144884899269 -0.42374656958084689 0 0.1157777956443012 -0.42696168375047561 0 0.1174144884899269 -0.42374656958084689 0 0.11243430435829591 -0.42951616037480861 0 0.11238280904247699 -0.42514639124827602 0 0.1157777956443012 -0.42696168375047561 0 0.1157777956443012 -0.42696168375047561 0 0.1174144884899269 -0.42374656958084689 0 0.1193374961951081 -0.43350264998101351 0 0.12583928992890719 -0.43836746623775219 0 0.1174144884899269 -0.42374656958084689 0 0.1193374961951081 -0.43350264998101351 0 0.13065902282334491 -0.39772904887171789 0 0.1174144884899269 -0.42374656958084689 0 0.1140833909081113 -0.41127121893283752 0 0.13065902282334491 -0.39772904887171789 0 0.1174144884899269 -0.42374656958084689 0 0.1174144884899269 -0.42374656958084689 0 0.1134286131718191 -0.42140691264507563 0 0.1140833909081113 -0.41127121893283752 0 0.1134286131718191 -0.42140691264507563 0 0.1099481736353925 -0.41629953049493168 0 0.1140833909081113 -0.41127121893283752 0 0.1134286131718191 -0.42140691264507563 0 0.1099481736353925 -0.41629953049493168 0 0.10932575809442779 -0.42187180373376648 0 0.1099481736353925 -0.41629953049493168 0 0.1140833909081113 -0.41127121893283752 0 0.104657627586789 -0.40883373233222042 0 0.1140833909081113 -0.41127121893283752 0 0.104657627586789 -0.40883373233222042 0 0.10439234285019371 -0.39910151885704848 0 0.104657627586789 -0.40883373233222042 0 0.1044049037464161 -0.41973525605620249 0 0.095780394762742971 -0.41552243997135552 0 0.1099481736353925 -0.41629953049493168 0 0.104657627586789 -0.40883373233222042 0 0.1044049037464161 -0.41973525605620249 0 0.1099481736353925 -0.41629953049493168 0 0.10932575809442779 -0.42187180373376648 0 0.1044049037464161 -0.41973525605620249 0 0.098992777418717454 -0.42916904301264419 0 0.1044049037464161 -0.41973525605620249 0 0.095780394762742971 -0.41552243997135552 0 0.104657627586789 -0.40883373233222042 0 0.095780394762742971 -0.41552243997135552 0 0.092202784687095807 -0.40307097420533627 0 0.10439234285019371 -0.39910151885704848 0 0.094701294792280191 -0.38693181878125632 0 0.092202784687095807 -0.40307097420533627 0 0.104657627586789 -0.40883373233222042 0 0.10439234285019371 -0.39910151885704848 0 0.092202784687095807 -0.40307097420533627 0 0.10439234285019371 -0.39910151885704848 0 0.098858609086026103 -0.38767887827461878 0 0.094701294792280191 -0.38693181878125632 0 0.10439234285019371 -0.39910151885704848 0 0.094701294792280191 -0.38693181878125632 0 0.10439234285019371 -0.39910151885704848 0 0.11661173016121081 -0.39622715078082288 0 0.1062160655298295 -0.39024568306681989 0 0.10439234285019371 -0.39910151885704848 0 0.1062160655298295 -0.39024568306681989 0 0.098858609086026103 -0.38767887827461878 0 0.1140833909081113 -0.41127121893283752 0 0.10439234285019371 -0.39910151885704848 0 0.12690999171213099 -0.37953724022328328 0 0.13065902282334491 -0.39772904887171789 0 0.11661173016121081 -0.39622715078082288 0 0.1140833909081113 -0.41127121893283752 0 0.10439234285019371 -0.39910151885704848 0 0.11661173016121081 -0.39622715078082288 0 0.13065902282334491 -0.39772904887171789 0 0.1140833909081113 -0.41127121893283752 0 0.11661173016121081 -0.39622715078082288 0 0.12690999171213099 -0.37953724022328328 0 0.11661173016121081 -0.39622715078082288 0 0.1123096752003218 -0.384903127698352 0 0.11661173016121081 -0.39622715078082288 0 0.1123096752003218 -0.384903127698352 0 0.1062160655298295 -0.39024568306681989 0 0.12690999171213099 -0.37953724022328328 0 0.1123096752003218 -0.384903127698352 0 0.1113082484552979 -0.37266429503066478 0 0.098907970351395147 -0.38331773972325728 0 0.094701294792280191 -0.38693181878125632 0 0.090581171567946234 -0.37022945266867691 0 0.098907970351395147 -0.38331773972325728 0 0.1113082484552979 -0.37266429503066478 0 0.1123096752003218 -0.384903127698352 0 0.098907970351395147 -0.38331773972325728 0 0.1113082484552979 -0.37266429503066478 0 0.1123096752003218 -0.384903127698352 0 0.1062160655298295 -0.39024568306681989 0 0.098907970351395147 -0.38331773972325728 0 0.1062160655298295 -0.39024568306681989 0 0.098858609086026103 -0.38767887827461878 0 0.098907970351395147 -0.38331773972325728 0 0.098858609086026103 -0.38767887827461878 0 0.098907970351395147 -0.38331773972325728 0 0.098907970351395147 -0.38331773972325728 0 0.094701294792280191 -0.38693181878125632 0 0.098858609086026103 -0.38767887827461878 0 0.098907970351395147 -0.38331773972325728 0 0.094701294792280191 -0.38693181878125632 0 0.094701294792280191 -0.38693181878125632 0 0.084192239594549398 -0.39282262141810892 0 0.076520246282469534 -0.38240413235346588 0 0.094701294792280191 -0.38693181878125632 0 0.076397794949366132 -0.36394688442800588 0 0.094701294792280191 -0.38693181878125632 0 0.076520246282469534 -0.38240413235346588 0 0.076397794949366132 -0.36394688442800588 0 0.084084034203987731 -0.40999702456782711 0 0.092202784687095807 -0.40307097420533627 0 0.075370670102445525 -0.40353932865166481 0 0.094701294792280191 -0.38693181878125632 0 0.084192239594549398 -0.39282262141810892 0 0.075370670102445525 -0.40353932865166481 0 0.094701294792280191 -0.38693181878125632 0 0.092202784687095807 -0.40307097420533627 0 0.075370670102445525 -0.40353932865166481 0 0.094701294792280191 -0.38693181878125632 0 0.075370670102445525 -0.40353932865166481 0 0.084192239594549398 -0.39282262141810892 0 0.075370670102445525 -0.40353932865166481 0 0.084192239594549398 -0.39282262141810892 0 0.072165679093150664 -0.39246856864970092 0 0.075370670102445525 -0.40353932865166481 0 0.072165679093150664 -0.39246856864970092 0 0.075370670102445525 -0.40353932865166481 0 0.060011069112654469 -0.39922804109927568 0 0.072165679093150664 -0.39246856864970092 0 0.064187623724523871 -0.38501202208791252 0 0.060011069112654469 -0.39922804109927568 0 0.064187623724523871 -0.38501202208791252 0 0.065866480599706165 -0.37579705806782671 0 0.076520246282469534 -0.38240413235346588 0 0.072165679093150664 -0.39246856864970092 0 0.064187623724523871 -0.38501202208791252 0 0.076520246282469534 -0.38240413235346588 0 0.084192239594549398 -0.39282262141810892 0 0.072165679093150664 -0.39246856864970092 0 0.076520246282469534 -0.38240413235346588 0 0.053432931855233998 -0.37889603663796317 0 0.042010486854758222 -0.37788610069942957 0 0.050794757223404083 -0.37264006649722331 0 0.051462572748126309 -0.38786631345834272 0 0.053432931855233998 -0.37889603663796317 0 0.042010486854758222 -0.37788610069942957 0 0.064187623724523871 -0.38501202208791252 0 0.065866480599706165 -0.37579705806782671 0 0.053432931855233998 -0.37889603663796317 0 0.064187623724523871 -0.38501202208791252 0 0.051462572748126309 -0.38786631345834272 0 0.053432931855233998 -0.37889603663796317 0 0.064187623724523871 -0.38501202208791252 0 0.051462572748126309 -0.38786631345834272 0 0.060011069112654469 -0.39922804109927568 0 0.060011069112654469 -0.39922804109927568 0 0.048177291166979372 -0.40524179032992219 0 0.048704346218271473 -0.39661440861498881 0 0.051462572748126309 -0.38786631345834272 0 0.060011069112654469 -0.39922804109927568 0 0.048704346218271473 -0.39661440861498881 0 0.051462572748126309 -0.38786631345834272 0 0.048704346218271473 -0.39661440861498881 0 0.040428978723315863 -0.38956127161048643 0 0.040823651506218667 -0.39996285753069227 0 0.029763035095710849 -0.39627907480227959 0 0.037044606326815797 -0.41211774229578452 0 0.048704346218271473 -0.39661440861498881 0 0.040823651506218667 -0.39996285753069227 0 0.040428978723315863 -0.38956127161048643 0 0.048177291166979372 -0.40524179032992219 0 0.040823651506218667 -0.39996285753069227 0 0.037044606326815797 -0.41211774229578452 0 0.048177291166979372 -0.40524179032992219 0 0.048704346218271473 -0.39661440861498881 0 0.040823651506218667 -0.39996285753069227 0 0.040823651506218667 -0.39996285753069227 0 0.040428978723315863 -0.38956127161048643 0 0.029763035095710849 -0.39627907480227959 0 0.040428978723315863 -0.38956127161048643 0 0.042010486854758222 -0.37788610069942957 0 0.03070325480921781 -0.38214353108225269 0 0.040428978723315863 -0.38956127161048643 0 0.03070325480921781 -0.38214353108225269 0 0.029763035095710849 -0.39627907480227959 0 0.051462572748126309 -0.38786631345834272 0 0.040428978723315863 -0.38956127161048643 0 0.042010486854758222 -0.37788610069942957 0 0.02272878151037238 -0.37991369560403149 0 0.01537124417786998 -0.39549717533818801 0 0.015808852777026799 -0.37358926968726253 0 0.03070325480921781 -0.38214353108225269 0 0.02406237526443317 -0.39057030026783512 0 0.029763035095710849 -0.39627907480227959 0 0.03070325480921781 -0.38214353108225269 0 0.02406237526443317 -0.39057030026783512 0 0.02272878151037238 -0.37991369560403149 0 0.02406237526443317 -0.39057030026783512 0 0.02272878151037238 -0.37991369560403149 0 0.01537124417786998 -0.39549717533818801 0 -0.0042991817058167497 -0.38608776007888962 0 0.015808852777026799 -0.37358926968726253 0 0.0066728154701173222 -0.36766635767071087 0 0.01312846303293067 -0.4028772037635131 0 0.015808852777026799 -0.37358926968726253 0 -0.0042991817058167497 -0.38608776007888962 0 0.015808852777026799 -0.37358926968726253 0 0.005190832503114251 -0.39120422671356669 0 0.01312846303293067 -0.4028772037635131 0 0.015808852777026799 -0.37358926968726253 0 -0.0042991817058167497 -0.38608776007888962 0 0.005190832503114251 -0.39120422671356669 0 0.015808852777026799 -0.37358926968726253 0 -0.003874804091683717 -0.40226267332460158 0 0.01312846303293067 -0.4028772037635131 0 0.001614574853448068 -0.41053238532083602 0 0.01312846303293067 -0.4028772037635131 0 0.01537124417786998 -0.39549717533818801 0 0.015808852777026799 -0.37358926968726253 0 -0.003874804091683717 -0.40226267332460158 0 0.005190832503114251 -0.39120422671356669 0 0.01312846303293067 -0.4028772037635131 0 0.01537124417786998 -0.39549717533818801 0 0.023131854757421268 -0.39742637176235068 0 0.0233307644916711 -0.40735893664110018 0 0.029763035095710849 -0.39627907480227959 0 0.0233307644916711 -0.40735893664110018 0 0.037044606326815797 -0.41211774229578452 0 0.02406237526443317 -0.39057030026783512 0 0.01537124417786998 -0.39549717533818801 0 0.023131854757421268 -0.39742637176235068 0 0.02406237526443317 -0.39057030026783512 0 0.023131854757421268 -0.39742637176235068 0 0.029763035095710849 -0.39627907480227959 0 0.023131854757421268 -0.39742637176235068 0 0.029763035095710849 -0.39627907480227959 0 0.0233307644916711 -0.40735893664110018 0 0.027179231444427271 -0.41802418785878792 0 0.0233307644916711 -0.40735893664110018 0 0.016734183412726589 -0.4241209490089104 0 0.027179231444427271 -0.41802418785878792 0 0.0233307644916711 -0.40735893664110018 0 0.037044606326815797 -0.41211774229578452 0 0.01537124417786998 -0.39549717533818801 0 0.016734183412726589 -0.4241209490089104 0 0.01537124417786998 -0.39549717533818801 0 0.0233307644916711 -0.40735893664110018 0 0.016734183412726589 -0.4241209490089104 0 0.01312846303293067 -0.4028772037635131 0 0.0039341323720228924 -0.42045757728254091 0 0.001614574853448068 -0.41053238532083602 0 0.01312846303293067 -0.4028772037635131 0 0.0039341323720228924 -0.42045757728254091 0 0.01044807328883463 -0.4321651378397639 0 0.01312846303293067 -0.4028772037635131 0 0.01537124417786998 -0.39549717533818801 0 0.016734183412726589 -0.4241209490089104 0 0.01312846303293067 -0.4028772037635131 0 0.01044807328883463 -0.4321651378397639 0 0.016734183412726589 -0.4241209490089104 0 0.01312846303293067 -0.4028772037635131 0 0.01044807328883463 -0.4321651378397639 0 0.01044807328883463 -0.4321651378397639 0 0.016734183412726589 -0.4241209490089104 0 0.01194057796861525 -0.44622006439215728 0 -0.0044734541324917346 -0.43050294303249642 0 0.01044807328883463 -0.4321651378397639 0 0.00098856455182785743 -0.44494076730793158 0 -0.0044734541324917346 -0.43050294303249642 0 0.0039341323720228924 -0.42045757728254091 0 0.01044807328883463 -0.4321651378397639 0 0.027179231444427271 -0.41802418785878792 0 0.02713413278062388 -0.429942598791129 0 0.037188305132534273 -0.43634292467030927 0 0.016734183412726589 -0.4241209490089104 0 0.02713413278062388 -0.429942598791129 0 0.018097122647579841 -0.45274472267963289 0 0.027179231444427271 -0.41802418785878792 0 0.016734183412726589 -0.4241209490089104 0 0.02713413278062388 -0.429942598791129 0 0.037188305132534273 -0.43634292467030927 0 0.058000062168216321 -0.42464166422433358 0 0.040629454233987589 -0.44574399979700269 0 0.037188305132534273 -0.43634292467030927 0 0.037044606326815797 -0.41211774229578452 0 0.056279487617490069 -0.41994112666098732 0 0.027179231444427271 -0.41802418785878792 0 0.037188305132534273 -0.43634292467030927 0 0.037044606326815797 -0.41211774229578452 0 0.037188305132534273 -0.43634292467030927 0 0.056279487617490069 -0.41994112666098732 0 0.048177291166979372 -0.40524179032992219 0 0.037044606326815797 -0.41211774229578452 0 0.056279487617490069 -0.41994112666098732 0 0.060011069112654469 -0.39922804109927568 0 0.048177291166979372 -0.40524179032992219 0 0.056279487617490069 -0.41994112666098732 0 0.037188305132534273 -0.43634292467030927 0 0.056279487617490069 -0.41994112666098732 0 0.058000062168216321 -0.42464166422433358 0 0.058000062168216321 -0.42464166422433358 0 0.040629454233987589 -0.44574399979700269 0 0.067520701566364749 -0.44228686514229493 0 0.058000062168216321 -0.42464166422433358 0 0.040629454233987589 -0.44574399979700269 0 0.064429903993351287 -0.46273258056485889 0 0.067520701566364749 -0.44228686514229493 0 0.040629454233987589 -0.44574399979700269 0 0.064429903993351287 -0.46273258056485889 0 0.043123706486919412 -0.468252374922206 0 0.040629454233987589 -0.44574399979700269 0 0.043123706486919412 -0.468252374922206 0 0.040629454233987589 -0.44574399979700269 0 0.023258846299756782 -0.46684633536967018 0 0.040629454233987589 -0.44574399979700269 0 0.023258846299756782 -0.46684633536967018 0 0.037188305132534273 -0.43634292467030927 0 0.040629454233987589 -0.44574399979700269 0 0.018097122647579841 -0.45274472267963289 0 0.040629454233987589 -0.44574399979700269 0 0.018097122647579841 -0.45274472267963289 0 0.018341917653727918 -0.45788578595849788 0 0.037188305132534273 -0.43634292467030927 0 0.018097122647579841 -0.45274472267963289 0 0.02713413278062388 -0.429942598791129 0 0.037188305132534273 -0.43634292467030927 0 0.018097122647579841 -0.45274472267963289 0 0.016734183412726589 -0.4241209490089104 0 0.018097122647579841 -0.45274472267963289 0 0.01044807328883463 -0.4321651378397639 0 0.00098856455182785743 -0.44494076730793158 0 0.0078497243333498362 -0.46154856484097911 0 0.016734183412726589 -0.4241209490089104 0 0.018097122647579841 -0.45274472267963289 0 0.01194057796861525 -0.44622006439215728 0 0.01044807328883463 -0.4321651378397639 0 0.01194057796861525 -0.44622006439215728 0 0.0078497243333498362 -0.46154856484097911 0 0.01044807328883463 -0.4321651378397639 0 0.0078497243333498362 -0.46154856484097911 0 0.01194057796861525 -0.44622006439215728 0 0.016346265994214831 -0.45424893527591043 0 0.018097122647579841 -0.45274472267963289 0 0.01194057796861525 -0.44622006439215728 0 0.016346265994214831 -0.45424893527591043 0 -0.0023298791104773078 -0.45519920744487702 0 -0.0033510519106745231 -0.47117148210379811 0 0.0078497243333498362 -0.46154856484097911 0 -0.0023298791104773078 -0.45519920744487702 0 0.00098856455182785743 -0.44494076730793158 0 0.0078497243333498362 -0.46154856484097911 0 -0.0033510519106745231 -0.47117148210379811 0 0.018341917653727918 -0.45788578595849788 0 0.019014115950832491 -0.47200296112380219 0 -0.0033510519106745231 -0.47117148210379811 0 0.0078497243333498362 -0.46154856484097911 0 0.018341917653727918 -0.45788578595849788 0 -0.0033510519106745231 -0.47117148210379811 0 0.0078497243333498362 -0.46154856484097911 0 0.0078497243333498362 -0.46154856484097911 0 0.016346265994214831 -0.45424893527591043 0 0.0078497243333498362 -0.46154856484097911 0 0.016346265994214831 -0.45424893527591043 0 0.018341917653727918 -0.45788578595849788 0 0.01194057796861525 -0.44622006439215728 0 0.0078497243333498362 -0.46154856484097911 0 0.016346265994214831 -0.45424893527591043 0 0.023258846299756782 -0.46684633536967018 0 0.018341917653727918 -0.45788578595849788 0 0.018341917653727918 -0.45788578595849788 0 0.019014115950832491 -0.47200296112380219 0 0.023258846299756782 -0.46684633536967018 0 0.018341917653727918 -0.45788578595849788 0 0.019014115950832491 -0.47200296112380219 0 0.040629454233987589 -0.44574399979700269 0 0.023258846299756782 -0.46684633536967018 0 0.018341917653727918 -0.45788578595849788 0 0.018097122647579841 -0.45274472267963289 0 0.016346265994214831 -0.45424893527591043 0 0.018341917653727918 -0.45788578595849788 0 0.018097122647579841 -0.45274472267963289 0 0.018341917653727918 -0.45788578595849788 0 0.018097122647579841 -0.45274472267963289 0 0.016346265994214831 -0.45424893527591043 0 0.016346265994214831 -0.45424893527591043 0 0.018341917653727918 -0.45788578595849788 0 0.023258846299756782 -0.46684633536967018 0 0.032355063276052927 -0.48342316768483562 0 0.023258846299756782 -0.46684633536967018 0 0.019014115950832491 -0.47200296112380219 0 0.032355063276052927 -0.48342316768483562 0 0.023258846299756782 -0.46684633536967018 0 0.019014115950832491 -0.47200296112380219 0 -0.0033510519106745231 -0.47117148210379811 0 0.019014115950832491 -0.47200296112380219 0 0.0076010414497993187 -0.48586790637779581 0 0.019014115950832491 -0.47200296112380219 0 0.0076010414497993187 -0.48586790637779581 0 -0.0038120330512322461 -0.49973285163179071 0 0.0076010414497993187 -0.48586790637779581 0 0.020347212808820101 -0.50000000000000222 0 -0.0038120330512322461 -0.49973285163179071 0 0.0076010414497993187 -0.48586790637779581 0 0.019014115950832491 -0.47200296112380219 0 0.020347212808820101 -0.50000000000000222 0 0.019014115950832491 -0.47200296112380219 0 0.0076010414497993187 -0.48586790637779581 0 0.020347212808820101 -0.50000000000000222 0 0.019014115950832491 -0.47200296112380219 0 0.020347212808820101 -0.50000000000000222 0 0.032355063276052927 -0.48342316768483562 0 0.020347212808820101 -0.50000000000000222 0 0.041451280252350141 -0.50000000000000044 0 0.032355063276052927 -0.48342316768483562 0 0.041451280252350141 -0.50000000000000044 0 0.032355063276052927 -0.48342316768483562 0 0.054945264631449282 -0.48251579119466159 0 0.041451280252350141 -0.50000000000000044 0 0.032355063276052927 -0.48342316768483562 0 0.043123706486919412 -0.468252374922206 0 0.023258846299756782 -0.46684633536967018 0 0.032355063276052927 -0.48342316768483562 0 0.043123706486919412 -0.468252374922206 0 0.032355063276052927 -0.48342316768483562 0 0.054945264631449282 -0.48251579119466159 0 0.064429903993351287 -0.46273258056485889 0 0.043123706486919412 -0.468252374922206 0 0.054945264631449282 -0.48251579119466159 0 0.069467857515476572 -0.5 0 0.041451280252350141 -0.50000000000000044 0 0.054945264631449282 -0.48251579119466159 0 0.085846078507244739 -0.29474437278521842 0 0.09195084215156836 -0.28482989068283637 0 0.099790290590116668 -0.30536348188986251 0 0.085846078507244739 -0.29474437278521842 0 0.072286788611910208 -0.28776652403367908 0 0.076322897044933918 -0.2675998163624973 0 0.085846078507244739 -0.29474437278521842 0 0.09195084215156836 -0.28482989068283637 0 0.08792706869763818 -0.27524325282841677 0 0.085846078507244739 -0.29474437278521842 0 0.083925769594272559 -0.31122866955315248 0 0.099790290590116668 -0.30536348188986251 0 0.085846078507244739 -0.29474437278521842 0 0.083925769594272559 -0.31122866955315248 0 0.073327024392788473 -0.30311199089175611 0 0.083925769594272559 -0.31122866955315248 0 0.099790290590116668 -0.30536348188986251 0 0.088889870791452413 -0.32034484514142902 0 0.083925769594272559 -0.31122866955315248 0 0.073327024392788473 -0.30311199089175611 0 0.072564062038633581 -0.31680291505543529 0 0.073327024392788473 -0.30311199089175611 0 0.066324836665700618 -0.30974084853084849 0 0.072564062038633581 -0.31680291505543529 0 0.073327024392788473 -0.30311199089175611 0 0.066324836665700618 -0.30974084853084849 0 0.062079150323751393 -0.30260474777132301 0 0.073327024392788473 -0.30311199089175611 0 0.064144664591700748 -0.29323753683853021 0 0.062079150323751393 -0.30260474777132301 0 0.073327024392788473 -0.30311199089175611 0 0.064144664591700748 -0.29323753683853021 0 0.072286788611910208 -0.28776652403367908 0 0.085846078507244739 -0.29474437278521842 0 0.073327024392788473 -0.30311199089175611 0 0.072286788611910208 -0.28776652403367908 0 0.064144664591700748 -0.29323753683853021 0 0.072286788611910208 -0.28776652403367908 0 0.06179327852288316 -0.2801389032903937 0 0.076322897044933918 -0.2675998163624973 0 0.05389111362010679 -0.2600061227010787 0 0.06179327852288316 -0.2801389032903937 0 0.072286788611910208 -0.28776652403367908 0 0.076322897044933918 -0.2675998163624973 0 0.06179327852288316 -0.2801389032903937 0 0.076322897044933918 -0.2675998163624973 0 0.066799715582623098 -0.24045525993977621 0 0.082981758670300818 -0.24704750354947569 0 0.076322897044933918 -0.2675998163624973 0 0.066799715582623098 -0.24045525993977621 0 0.076322897044933918 -0.2675998163624973 0 0.05389111362010679 -0.2600061227010787 0 0.066799715582623098 -0.24045525993977621 0 0.076322897044933918 -0.2675998163624973 0 0.089465010015154542 -0.26259233729445669 0 0.082981758670300818 -0.24704750354947569 0 0.089465010015154542 -0.26259233729445669 0 0.082981758670300818 -0.24704750354947569 0 0.10044298587705459 -0.24769691769715169 0 0.085846078507244739 -0.29474437278521842 0 0.076322897044933918 -0.2675998163624973 0 0.085846078507244739 -0.29474437278521842 0 0.076322897044933918 -0.2675998163624973 0 0.08792706869763818 -0.27524325282841677 0 0.076322897044933918 -0.2675998163624973 0 0.089465010015154542 -0.26259233729445669 0 0.08792706869763818 -0.27524325282841677 0 0.089465010015154542 -0.26259233729445669 0 0.08792706869763818 -0.27524325282841677 0 0.10011663823358551 -0.27653019979350713 0 0.09195084215156836 -0.28482989068283637 0 0.08792706869763818 -0.27524325282841677 0 0.10011663823358551 -0.27653019979350713 0 0.10011663823358551 -0.27653019979350713 0 0.11130718981359081 -0.2612580820725211 0 0.1055487402018538 -0.28331078198119192 0 0.11130718981359081 -0.2612580820725211 0 0.1055487402018538 -0.28331078198119192 0 0.089465010015154542 -0.26259233729445669 0 0.10011663823358551 -0.27653019979350713 0 0.10044298587705459 -0.24769691769715169 0 0.10011663823358551 -0.27653019979350713 0 0.11130718981359081 -0.2612580820725211 0 0.10044298587705459 -0.24769691769715169 0 0.10011663823358551 -0.27653019979350713 0 0.10044298587705459 -0.24769691769715169 0 0.12802740959780479 -0.2606020347716278 0 0.11130718981359081 -0.2612580820725211 0 0.11706563942532711 -0.23920538216385021 0 0.11130718981359081 -0.2612580820725211 0 0.11706563942532711 -0.23920538216385021 0 0.12802740959780479 -0.2606020347716278 0 0.11130718981359081 -0.2612580820725211 0 0.11914039084994731 -0.27425050440703841 0 0.13417504399288691 -0.28060830866143821 0 0.11914039084994731 -0.27425050440703841 0 0.1170740112742174 -0.28586162553488992 0 0.11130718981359081 -0.2612580820725211 0 0.11914039084994731 -0.27425050440703841 0 0.1055487402018538 -0.28331078198119192 0 0.11914039084994731 -0.27425050440703841 0 0.1170740112742174 -0.28586162553488992 0 0.1055487402018538 -0.28331078198119192 0 0.13417504399288691 -0.28060830866143821 0 0.12366468097104601 -0.29647713135865722 0 0.1170740112742174 -0.28586162553488992 0 0.12366468097104601 -0.29647713135865722 0 0.1121345899195752 -0.29575857725094362 0 0.1170740112742174 -0.28586162553488992 0 0.1121345899195752 -0.29575857725094362 0 0.1170740112742174 -0.28586162553488992 0 0.1055487402018538 -0.28331078198119192 0 0.10011663823358551 -0.27653019979350713 0 0.1055487402018538 -0.28331078198119192 0 0.099790290590116668 -0.30536348188986251 0 0.1121345899195752 -0.29575857725094362 0 0.1055487402018538 -0.28331078198119192 0 0.099790290590116668 -0.30536348188986251 0 0.09195084215156836 -0.28482989068283637 0 0.10011663823358551 -0.27653019979350713 0 0.099790290590116668 -0.30536348188986251 0 0.10011663823358551 -0.27653019979350713 0 0.099790290590116668 -0.30536348188986251 0 0.1055487402018538 -0.28331078198119192 0 0.099790290590116668 -0.30536348188986251 0 0.099790290590116668 -0.30536348188986251 0 0.11616207067709659 -0.30914284448264667 0 0.1065496256987173 -0.31843402770795082 0 0.1121345899195752 -0.29575857725094362 0 0.099790290590116668 -0.30536348188986251 0 0.11616207067709659 -0.30914284448264667 0 0.1307654101627948 -0.31368102101723649 0 0.12366468097104601 -0.29647713135865722 0 0.11616207067709659 -0.30914284448264667 0 0.12366468097104601 -0.29647713135865722 0 0.1121345899195752 -0.29575857725094362 0 0.11616207067709659 -0.30914284448264667 0 0.1307654101627948 -0.31368102101723649 0 0.11616207067709659 -0.30914284448264667 0 0.1229637141084734 -0.3246551346534674 0 0.11616207067709659 -0.30914284448264667 0 0.1229637141084734 -0.3246551346534674 0 0.1065496256987173 -0.31843402770795082 0 0.1229637141084734 -0.3246551346534674 0 0.1126080333333548 -0.33184385529914928 0 0.1065496256987173 -0.31843402770795082 0 0.12571838696758669 -0.3378639988588239 0 0.1229637141084734 -0.3246551346534674 0 0.1126080333333548 -0.33184385529914928 0 0.12571838696758669 -0.3378639988588239 0 0.1126080333333548 -0.33184385529914928 0 0.1184149900789208 -0.34620360819662699 0 0.1126080333333548 -0.33184385529914928 0 0.1184149900789208 -0.34620360819662699 0 0.10962515366700511 -0.34520236680592192 0 0.1126080333333548 -0.33184385529914928 0 0.1054341197242555 -0.33847504282953039 0 0.10623915067940411 -0.32664777042946158 0 0.1054341197242555 -0.33847504282953039 0 0.099496183843876679 -0.3313482345009941 0 0.10623915067940411 -0.32664777042946158 0 0.099496183843876679 -0.3313482345009941 0 0.099202077097636968 -0.35733298711212569 0 0.093327171705269621 -0.3382338705856337 0 0.1054341197242555 -0.33847504282953039 0 0.099496183843876679 -0.3313482345009941 0 0.099202077097636968 -0.35733298711212569 0 0.1126080333333548 -0.33184385529914928 0 0.1054341197242555 -0.33847504282953039 0 0.10962515366700511 -0.34520236680592192 0 0.099496183843876679 -0.3313482345009941 0 0.093939086654524454 -0.327771396032769 0 0.093327171705269621 -0.3382338705856337 0 0.099790290590116668 -0.30536348188986251 0 0.099496183843876679 -0.3313482345009941 0 0.093939086654524454 -0.327771396032769 0 0.099790290590116668 -0.30536348188986251 0 0.099496183843876679 -0.3313482345009941 0 0.099790290590116668 -0.30536348188986251 0 0.093939086654524454 -0.327771396032769 0 0.088889870791452413 -0.32034484514142902 0 0.099790290590116668 -0.30536348188986251 0 0.099496183843876679 -0.3313482345009941 0 0.1065496256987173 -0.31843402770795082 0 0.099790290590116668 -0.30536348188986251 0 0.093939086654524454 -0.327771396032769 0 0.1126080333333548 -0.33184385529914928 0 0.1065496256987173 -0.31843402770795082 0 0.10623915067940411 -0.32664777042946158 0 0.099496183843876679 -0.3313482345009941 0 0.1065496256987173 -0.31843402770795082 0 0.10623915067940411 -0.32664777042946158 0 0.1113082484552979 -0.37266429503066478 0 0.11210392713517971 -0.35398299600982641 0 0.1216667858606698 -0.35703048718483948 0 0.13012082844154901 -0.36575139347928931 0 0.1113082484552979 -0.37266429503066478 0 0.1216667858606698 -0.35703048718483948 0 0.13012082844154901 -0.36575139347928931 0 0.12690999171213099 -0.37953724022328328 0 0.1113082484552979 -0.37266429503066478 0 0.11210392713517971 -0.35398299600982641 0 0.1216667858606698 -0.35703048718483948 0 0.1184149900789208 -0.34620360819662699 0 0.12876765350972841 -0.35129794502120132 0 0.12571838696758669 -0.3378639988588239 0 0.1184149900789208 -0.34620360819662699 0 0.12876765350972841 -0.35129794502120132 0 0.1216667858606698 -0.35703048718483948 0 0.1184149900789208 -0.34620360819662699 0 0.11210392713517971 -0.35398299600982641 0 0.1184149900789208 -0.34620360819662699 0 0.10962515366700511 -0.34520236680592192 0 0.1054341197242555 -0.33847504282953039 0 0.10962515366700511 -0.34520236680592192 0 0.099202077097636968 -0.35733298711212569 0 0.099496183843876679 -0.3313482345009941 0 0.099202077097636968 -0.35733298711212569 0 0.11210392713517971 -0.35398299600982641 0 0.10962515366700511 -0.34520236680592192 0 0.099202077097636968 -0.35733298711212569 0 0.1113082484552979 -0.37266429503066478 0 0.11210392713517971 -0.35398299600982641 0 0.099202077097636968 -0.35733298711212569 0 0.098907970351395147 -0.38331773972325728 0 0.099202077097636968 -0.35733298711212569 0 0.090581171567946234 -0.37022945266867691 0 0.098907970351395147 -0.38331773972325728 0 0.1113082484552979 -0.37266429503066478 0 0.099202077097636968 -0.35733298711212569 0 0.098907970351395147 -0.38331773972325728 0 0.099202077097636968 -0.35733298711212569 0 0.094701294792280191 -0.38693181878125632 0 0.090581171567946234 -0.37022945266867691 0 0.076397794949366132 -0.36394688442800588 0 0.090581171567946234 -0.37022945266867691 0 0.079160064182539028 -0.35013190682836071 0 0.076397794949366132 -0.36394688442800588 0 0.099202077097636968 -0.35733298711212569 0 0.079160064182539028 -0.35013190682836071 0 0.087280775837350263 -0.34221291161315809 0 0.099202077097636968 -0.35733298711212569 0 0.087280775837350263 -0.34221291161315809 0 0.093327171705269621 -0.3382338705856337 0 0.099202077097636968 -0.35733298711212569 0 0.090581171567946234 -0.37022945266867691 0 0.079160064182539028 -0.35013190682836071 0 0.079160064182539028 -0.35013190682836071 0 0.076397794949366132 -0.36394688442800588 0 0.058094295106456278 -0.34096195007475238 0 0.076397794949366132 -0.36394688442800588 0 0.058094295106456278 -0.34096195007475238 0 0.076397794949366132 -0.36394688442800588 0 0.058094295106456278 -0.34096195007475238 0 0.053839688821885889 -0.35745151283600612 0 0.076397794949366132 -0.36394688442800588 0 0.058793806186937338 -0.3687262148317863 0 0.053839688821885889 -0.35745151283600612 0 0.065866480599706165 -0.37579705806782671 0 0.076397794949366132 -0.36394688442800588 0 0.058793806186937338 -0.3687262148317863 0 0.065866480599706165 -0.37579705806782671 0 0.076520246282469534 -0.38240413235346588 0 0.076397794949366132 -0.36394688442800588 0 0.080076472025388604 -0.32485685456223939 0 0.088889870791452413 -0.32034484514142902 0 0.086717735092959741 -0.33250382366912129 0 0.083925769594272559 -0.31122866955315248 0 0.080076472025388604 -0.32485685456223939 0 0.072564062038633581 -0.31680291505543529 0 0.083925769594272559 -0.31122866955315248 0 0.080076472025388604 -0.32485685456223939 0 0.088889870791452413 -0.32034484514142902 0 0.093939086654524454 -0.327771396032769 0 0.088889870791452413 -0.32034484514142902 0 0.086717735092959741 -0.33250382366912129 0 0.093939086654524454 -0.327771396032769 0 0.086717735092959741 -0.33250382366912129 0 0.093327171705269621 -0.3382338705856337 0 0.086717735092959741 -0.33250382366912129 0 0.087280775837350263 -0.34221291161315809 0 0.093327171705269621 -0.3382338705856337 0 0.086717735092959741 -0.33250382366912129 0 0.087280775837350263 -0.34221291161315809 0 0.077951290940080964 -0.33633923912958869 0 0.079160064182539028 -0.35013190682836071 0 0.087280775837350263 -0.34221291161315809 0 0.077951290940080964 -0.33633923912958869 0 0.080076472025388604 -0.32485685456223939 0 0.086717735092959741 -0.33250382366912129 0 0.077951290940080964 -0.33633923912958869 0 0.080076472025388604 -0.32485685456223939 0 0.077951290940080964 -0.33633923912958869 0 0.065578289806994386 -0.33012383884094287 0 0.079160064182539028 -0.35013190682836071 0 0.070195985009017664 -0.33938923371841112 0 0.058094295106456278 -0.34096195007475238 0 0.077951290940080964 -0.33633923912958869 0 0.070195985009017664 -0.33938923371841112 0 0.065578289806994386 -0.33012383884094287 0 0.079160064182539028 -0.35013190682836071 0 0.077951290940080964 -0.33633923912958869 0 0.070195985009017664 -0.33938923371841112 0 0.070195985009017664 -0.33938923371841112 0 0.065578289806994386 -0.33012383884094287 0 0.058094295106456278 -0.34096195007475238 0 0.065578289806994386 -0.33012383884094287 0 0.072564062038633581 -0.31680291505543529 0 0.061271036109410738 -0.31732668911170719 0 0.080076472025388604 -0.32485685456223939 0 0.065578289806994386 -0.33012383884094287 0 0.072564062038633581 -0.31680291505543529 0 0.066324836665700618 -0.30974084853084849 0 0.072564062038633581 -0.31680291505543529 0 0.061271036109410738 -0.31732668911170719 0 0.061271036109410738 -0.31732668911170719 0 0.058936234343990049 -0.30848484635330981 0 0.051802897612493473 -0.31241786404962701 0 0.061271036109410738 -0.31732668911170719 0 0.054329049058505587 -0.32508782562989008 0 0.051802897612493473 -0.31241786404962701 0 0.054329049058505587 -0.32508782562989008 0 0.04296161263848701 -0.31698342706241001 0 0.051802897612493473 -0.31241786404962701 0 0.054329049058505587 -0.32508782562989008 0 0.049352999760854409 -0.33211078273072842 0 0.04296161263848701 -0.31698342706241001 0 0.065578289806994386 -0.33012383884094287 0 0.061271036109410738 -0.31732668911170719 0 0.054329049058505587 -0.32508782562989008 0 0.054329049058505587 -0.32508782562989008 0 0.058094295106456278 -0.34096195007475238 0 0.049352999760854409 -0.33211078273072842 0 0.065578289806994386 -0.33012383884094287 0 0.054329049058505587 -0.32508782562989008 0 0.058094295106456278 -0.34096195007475238 0 0.058094295106456278 -0.34096195007475238 0 0.04873547129024583 -0.34023639261183958 0 0.049352999760854409 -0.33211078273072842 0 0.058094295106456278 -0.34096195007475238 0 0.04873547129024583 -0.34023639261183958 0 0.049527716576850088 -0.34755446119124128 0 0.04873547129024583 -0.34023639261183958 0 0.049352999760854409 -0.33211078273072842 0 0.042644570710577312 -0.33728431827474992 0 0.042644570710577312 -0.33728431827474992 0 0.038729763889962583 -0.33947809629059161 0 0.04296161263848701 -0.31698342706241001 0 0.049352999760854409 -0.33211078273072842 0 0.042644570710577312 -0.33728431827474992 0 0.04296161263848701 -0.31698342706241001 0 0.038729763889962583 -0.33947809629059161 0 0.04296161263848701 -0.31698342706241001 0 0.042644570710577312 -0.33728431827474992 0 0.038729763889962583 -0.33947809629059161 0 0.039519472822455763 -0.34814622899827941 0 0.042644570710577312 -0.33728431827474992 0 0.046552493100129239 -0.34390709264941932 0 0.04573733454627954 -0.34915162451686488 0 0.04873547129024583 -0.34023639261183958 0 0.042644570710577312 -0.33728431827474992 0 0.046552493100129239 -0.34390709264941932 0 0.038729763889962583 -0.33947809629059161 0 0.032713823027687508 -0.3270433300671135 0 0.02735838898753204 -0.3368494846148386 0 0.032713823027687508 -0.3270433300671135 0 0.03252545066701433 -0.3170775037156045 0 0.04296161263848701 -0.31698342706241001 0 0.042644570710577312 -0.33728431827474992 0 0.04296161263848701 -0.31698342706241001 0 0.038729763889962583 -0.33947809629059161 0 0.032713823027687508 -0.3270433300671135 0 0.04296161263848701 -0.31698342706241001 0 0.03252545066701433 -0.3170775037156045 0 0.04296161263848701 -0.31698342706241001 0 0.035204522773725683 -0.30809582160057192 0 0.050794757223404083 -0.37264006649722331 0 0.058793806186937338 -0.3687262148317863 0 0.051499788589028192 -0.36588728495452988 0 0.053432931855233998 -0.37889603663796317 0 0.050794757223404083 -0.37264006649722331 0 0.058793806186937338 -0.3687262148317863 0 0.050794757223404083 -0.37264006649722331 0 0.051499788589028192 -0.36588728495452988 0 0.046914565980781503 -0.36706479979350731 0 0.065866480599706165 -0.37579705806782671 0 0.053432931855233998 -0.37889603663796317 0 0.058793806186937338 -0.3687262148317863 0 0.058793806186937338 -0.3687262148317863 0 0.051499788589028192 -0.36588728495452988 0 0.053839688821885889 -0.35745151283600612 0 0.051499788589028192 -0.36588728495452988 0 0.048001560873657097 -0.36127701564173331 0 0.053839688821885889 -0.35745151283600612 0 0.051499788589028192 -0.36588728495452988 0 0.046914565980781503 -0.36706479979350731 0 0.048001560873657097 -0.36127701564173331 0 0.058094295106456278 -0.34096195007475238 0 0.053839688821885889 -0.35745151283600612 0 0.049527716576850088 -0.34755446119124128 0 0.047860489968436802 -0.35373220377486519 0 0.053839688821885889 -0.35745151283600612 0 0.049527716576850088 -0.34755446119124128 0 0.047860489968436802 -0.35373220377486519 0 0.053839688821885889 -0.35745151283600612 0 0.046554599982115967 -0.35751523511349492 0 0.048001560873657097 -0.36127701564173331 0 0.053839688821885889 -0.35745151283600612 0 0.046554599982115967 -0.35751523511349492 0 0.047860489968436802 -0.35373220377486519 0 0.049527716576850088 -0.34755446119124128 0 0.04573733454627954 -0.34915162451686488 0 0.04873547129024583 -0.34023639261183958 0 0.049527716576850088 -0.34755446119124128 0 0.046552493100129239 -0.34390709264941932 0 0.049527716576850088 -0.34755446119124128 0 0.046552493100129239 -0.34390709264941932 0 0.04573733454627954 -0.34915162451686488 0 0.042644570710577312 -0.33728431827474992 0 0.039519472822455763 -0.34814622899827941 0 0.041575459224141187 -0.3531828162897222 0 0.042644570710577312 -0.33728431827474992 0 0.04573733454627954 -0.34915162451686488 0 0.041575459224141187 -0.3531828162897222 0 0.042644570710577312 -0.33728431827474992 0 0.041575459224141187 -0.3531828162897222 0 0.038729763889962583 -0.33947809629059161 0 0.039519472822455763 -0.34814622899827941 0 0.034497915141437442 -0.361972765518773 0 0.038729763889962583 -0.33947809629059161 0 0.034497915141437442 -0.361972765518773 0 0.038729763889962583 -0.33947809629059161 0 0.031383487995359387 -0.35203643926985939 0 0.034497915141437442 -0.361972765518773 0 0.038729763889962583 -0.33947809629059161 0 0.031383487995359387 -0.35203643926985939 0 0.026061356319725559 -0.34862934599046203 0 0.039519472822455763 -0.34814622899827941 0 0.041575459224141187 -0.3531828162897222 0 0.034497915141437442 -0.361972765518773 0 0.040992006158825332 -0.35600797682309943 0 0.041575459224141187 -0.3531828162897222 0 0.034497915141437442 -0.361972765518773 0 0.040992006158825332 -0.35600797682309943 0 0.041267316710639858 -0.35776512898711949 0 0.034497915141437442 -0.361972765518773 0 0.04573733454627954 -0.34915162451686488 0 0.041267316710639858 -0.35776512898711949 0 0.04551120813901606 -0.35484646172382411 0 0.040992006158825332 -0.35600797682309943 0 0.041267316710639858 -0.35776512898711949 0 0.041575459224141187 -0.3531828162897222 0 0.041267316710639858 -0.35776512898711949 0 0.041575459224141187 -0.3531828162897222 0 0.04573733454627954 -0.34915162451686488 0 0.041267316710639858 -0.35776512898711949 0 0.041575459224141187 -0.3531828162897222 0 0.047860489968436802 -0.35373220377486519 0 0.04573733454627954 -0.34915162451686488 0 0.04551120813901606 -0.35484646172382411 0 0.047860489968436802 -0.35373220377486519 0 0.04551120813901606 -0.35484646172382411 0 0.046554599982115967 -0.35751523511349492 0 0.041267316710639858 -0.35776512898711949 0 0.04551120813901606 -0.35484646172382411 0 0.046554599982115967 -0.35751523511349492 0 0.048001560873657097 -0.36127701564173331 0 0.041267316710639858 -0.35776512898711949 0 0.046554599982115967 -0.35751523511349492 0 0.042010486854758222 -0.37788610069942957 0 0.046914565980781503 -0.36706479979350731 0 0.041267316710639858 -0.35776512898711949 0 0.042010486854758222 -0.37788610069942957 0 0.03070325480921781 -0.38214353108225269 0 0.034497915141437442 -0.361972765518773 0 0.042010486854758222 -0.37788610069942957 0 0.041267316710639858 -0.35776512898711949 0 0.034497915141437442 -0.361972765518773 0 0.042010486854758222 -0.37788610069942957 0 0.041267316710639858 -0.35776512898711949 0 0.03070325480921781 -0.38214353108225269 0 0.034497915141437442 -0.361972765518773 0 0.046914565980781503 -0.36706479979350731 0 0.048001560873657097 -0.36127701564173331 0 0.041267316710639858 -0.35776512898711949 0 0.041267316710639858 -0.35776512898711949 0 0.034497915141437442 -0.361972765518773 0 0.042010486854758222 -0.37788610069942957 0 0.050794757223404083 -0.37264006649722331 0 0.046914565980781503 -0.36706479979350731 0 0.034497915141437442 -0.361972765518773 0 0.015808852777026799 -0.37358926968726253 0 0.026244916630312011 -0.35806554927961121 0 0.03070325480921781 -0.38214353108225269 0 0.02272878151037238 -0.37991369560403149 0 0.034497915141437442 -0.361972765518773 0 0.02272878151037238 -0.37991369560403149 0 0.034497915141437442 -0.361972765518773 0 0.015808852777026799 -0.37358926968726253 0 0.034497915141437442 -0.361972765518773 0 0.015808852777026799 -0.37358926968726253 0 0.015808852777026799 -0.37358926968726253 0 0.017152574697771952 -0.35890676348894368 0 0.015808852777026799 -0.37358926968726253 0 0.017152574697771952 -0.35890676348894368 0 0.026244916630312011 -0.35806554927961121 0 0.017152574697771952 -0.35890676348894368 0 0.026244916630312011 -0.35806554927961121 0 0.026061356319725559 -0.34862934599046203 0 0.031383487995359387 -0.35203643926985939 0 0.026244916630312011 -0.35806554927961121 0 0.026061356319725559 -0.34862934599046203 0 0.031383487995359387 -0.35203643926985939 0 0.034497915141437442 -0.361972765518773 0 0.026244916630312011 -0.35806554927961121 0 0.017152574697771952 -0.35890676348894368 0 0.026061356319725559 -0.34862934599046203 0 0.016545363471511119 -0.34461241782877278 0 -0.0033811721168725828 -0.36432141729733819 0 0.0080830036984771945 -0.35542657780112041 0 0.00089808406604861835 -0.34371057887786732 0 0.016545363471511119 -0.34461241782877278 0 0.0080830036984771945 -0.35542657780112041 0 0.00089808406604861835 -0.34371057887786732 0 0.017152574697771952 -0.35890676348894368 0 0.016545363471511119 -0.34461241782877278 0 0.0080830036984771945 -0.35542657780112041 0 0.015808852777026799 -0.37358926968726253 0 0.017152574697771952 -0.35890676348894368 0 0.0066728154701173222 -0.36766635767071087 0 0.017152574697771952 -0.35890676348894368 0 0.0080830036984771945 -0.35542657780112041 0 0.0066728154701173222 -0.36766635767071087 0 -0.0033811721168725828 -0.36432141729733819 0 0.0080830036984771945 -0.35542657780112041 0 0.0066728154701173222 -0.36766635767071087 0 0.03252545066701433 -0.3170775037156045 0 0.021993898955441599 -0.3248281386521229 0 0.024560712295831112 -0.30888005721642497 0 0.032713823027687508 -0.3270433300671135 0 0.03252545066701433 -0.3170775037156045 0 0.021993898955441599 -0.3248281386521229 0 0.016545363471511119 -0.34461241782877278 0 0.021993898955441599 -0.3248281386521229 0 0.02735838898753204 -0.3368494846148386 0 0.032713823027687508 -0.3270433300671135 0 0.021993898955441599 -0.3248281386521229 0 0.02735838898753204 -0.3368494846148386 0 0.038729763889962583 -0.33947809629059161 0 0.026061356319725559 -0.34862934599046203 0 0.02735838898753204 -0.3368494846148386 0 0.026061356319725559 -0.34862934599046203 0 0.016545363471511119 -0.34461241782877278 0 0.02735838898753204 -0.3368494846148386 0 0.021993898955441599 -0.3248281386521229 0 0.00089808406604861835 -0.34371057887786732 0 0.021993898955441599 -0.3248281386521229 0 0.00089808406604861835 -0.34371057887786732 0 0.0031498237463885681 -0.32561115355848907 0 0.016545363471511119 -0.34461241782877278 0 0.021993898955441599 -0.3248281386521229 0 0.00089808406604861835 -0.34371057887786732 0 -0.0001097783325532953 -0.30639892047602713 0 0.021993898955441599 -0.3248281386521229 0 0.024560712295831112 -0.30888005721642497 0 -0.0001097783325532953 -0.30639892047602713 0 0.021993898955441599 -0.3248281386521229 0 0.0031498237463885681 -0.32561115355848907 0 -0.0001097783325532953 -0.30639892047602713 0 0.0203209595419158 -0.29632551362895732 0 0.024560712295831112 -0.30888005721642497 0 -0.0001097783325532953 -0.30639892047602713 0 0.01423679978065954 -0.28312686623628408 0 -0.0001097783325532953 -0.30639892047602713 0 0.00084207949546891842 -0.28801913965445369 0 0.01423679978065954 -0.28312686623628408 0 -0.0001097783325532953 -0.30639892047602713 0 0.01423679978065954 -0.28312686623628408 0 0.0203209595419158 -0.29632551362895732 0 0.00084207949546891842 -0.28801913965445369 0 0.01423679978065954 -0.28312686623628408 0 0.0051763763107566911 -0.27835768527965898 0 0.01423679978065954 -0.28312686623628408 0 0.0203209595419158 -0.29632551362895732 0 0.030180775286325071 -0.2849341499398157 0 0.0203209595419158 -0.29632551362895732 0 0.030180775286325071 -0.2849341499398157 0 0.032736288679316591 -0.29828757427623448 0 0.0203209595419158 -0.29632551362895732 0 0.024560712295831112 -0.30888005721642497 0 0.032736288679316591 -0.29828757427623448 0 0.03252545066701433 -0.3170775037156045 0 0.024560712295831112 -0.30888005721642497 0 0.035204522773725683 -0.30809582160057192 0 0.024560712295831112 -0.30888005721642497 0 0.035204522773725683 -0.30809582160057192 0 0.032736288679316591 -0.29828757427623448 0 0.04296161263848701 -0.31698342706241001 0 0.035204522773725683 -0.30809582160057192 0 0.043238549587979402 -0.29925054573218518 0 0.04296161263848701 -0.31698342706241001 0 0.043238549587979402 -0.29925054573218518 0 0.04296161263848701 -0.31698342706241001 0 0.043238549587979402 -0.29925054573218518 0 0.045363744370207799 -0.30421473849186192 0 0.04296161263848701 -0.31698342706241001 0 0.045363744370207799 -0.30421473849186192 0 0.04296161263848701 -0.31698342706241001 0 0.045363744370207799 -0.30421473849186192 0 0.051802897612493473 -0.31241786404962701 0 0.043238549587979402 -0.29925054573218518 0 0.048151038898082511 -0.29385350674857602 0 0.048869005020597961 -0.29977712012774149 0 0.043238549587979402 -0.29925054573218518 0 0.045363744370207799 -0.30421473849186192 0 0.048869005020597961 -0.29977712012774149 0 0.035204522773725683 -0.30809582160057192 0 0.043238549587979402 -0.29925054573218518 0 0.032736288679316591 -0.29828757427623448 0 0.030180775286325071 -0.2849341499398157 0 0.032736288679316591 -0.29828757427623448 0 0.0387714526723918 -0.29138223686000703 0 0.043238549587979402 -0.29925054573218518 0 0.032736288679316591 -0.29828757427623448 0 0.0387714526723918 -0.29138223686000703 0 0.030180775286325071 -0.2849341499398157 0 0.0387714526723918 -0.29138223686000703 0 0.045186792359509183 -0.27831266909398078 0 0.0387714526723918 -0.29138223686000703 0 0.046942159483703227 -0.28749574878401318 0 0.045186792359509183 -0.27831266909398078 0 0.0387714526723918 -0.29138223686000703 0 0.048151038898082511 -0.29385350674857602 0 0.046942159483703227 -0.28749574878401318 0 0.043238549587979402 -0.29925054573218518 0 0.0387714526723918 -0.29138223686000703 0 0.048151038898082511 -0.29385350674857602 0 0.056161252228278877 -0.28851558196865518 0 0.06179327852288316 -0.2801389032903937 0 0.045186792359509183 -0.27831266909398078 0 0.048151038898082511 -0.29385350674857602 0 0.046942159483703227 -0.28749574878401318 0 0.056161252228278877 -0.28851558196865518 0 0.048151038898082511 -0.29385350674857602 0 0.056161252228278877 -0.28851558196865518 0 0.054923814395543807 -0.29669980701885418 0 0.048151038898082511 -0.29385350674857602 0 0.054923814395543807 -0.29669980701885418 0 0.048869005020597961 -0.29977712012774149 0 0.046942159483703227 -0.28749574878401318 0 0.056161252228278877 -0.28851558196865518 0 0.045186792359509183 -0.27831266909398078 0 0.064144664591700748 -0.29323753683853021 0 0.056161252228278877 -0.28851558196865518 0 0.06179327852288316 -0.2801389032903937 0 0.064144664591700748 -0.29323753683853021 0 0.056161252228278877 -0.28851558196865518 0 0.054923814395543807 -0.29669980701885418 0 0.054923814395543807 -0.29669980701885418 0 0.062079150323751393 -0.30260474777132301 0 0.053094989492820217 -0.30416693025928387 0 0.064144664591700748 -0.29323753683853021 0 0.054923814395543807 -0.29669980701885418 0 0.062079150323751393 -0.30260474777132301 0 0.062079150323751393 -0.30260474777132301 0 0.058936234343990049 -0.30848484635330981 0 0.053094989492820217 -0.30416693025928387 0 0.066324836665700618 -0.30974084853084849 0 0.062079150323751393 -0.30260474777132301 0 0.058936234343990049 -0.30848484635330981 0 0.066324836665700618 -0.30974084853084849 0 0.061271036109410738 -0.31732668911170719 0 0.058936234343990049 -0.30848484635330981 0 0.058936234343990049 -0.30848484635330981 0 0.051802897612493473 -0.31241786404962701 0 0.053094989492820217 -0.30416693025928387 0 0.045363744370207799 -0.30421473849186192 0 0.051802897612493473 -0.31241786404962701 0 0.053094989492820217 -0.30416693025928387 0 0.045363744370207799 -0.30421473849186192 0 0.048869005020597961 -0.29977712012774149 0 0.053094989492820217 -0.30416693025928387 0 0.054923814395543807 -0.29669980701885418 0 0.048869005020597961 -0.29977712012774149 0 0.053094989492820217 -0.30416693025928387 0 0.05389111362010679 -0.2600061227010787 0 0.06179327852288316 -0.2801389032903937 0 0.045186792359509183 -0.27831266909398078 0 0.030180775286325071 -0.2849341499398157 0 0.045186792359509183 -0.27831266909398078 0 0.028583377893872341 -0.25985481199654098 0 0.05389111362010679 -0.2600061227010787 0 0.045186792359509183 -0.27831266909398078 0 0.028583377893872341 -0.25985481199654098 0 0.05389111362010679 -0.2600061227010787 0 0.028583377893872341 -0.25985481199654098 0 0.042929956007085067 -0.23658275775679821 0 0.028583377893872341 -0.25985481199654098 0 0.0097048124864975299 -0.26695263380869111 0 0.01054219323342527 -0.24875531609243781 0 0.01423679978065954 -0.28312686623628408 0 0.028583377893872341 -0.25985481199654098 0 0.01423679978065954 -0.28312686623628408 0 0.030180775286325071 -0.2849341499398157 0 0.028583377893872341 -0.25985481199654098 0 0.01423679978065954 -0.28312686623628408 0 0.028583377893872341 -0.25985481199654098 0 0.0097048124864975299 -0.26695263380869111 0 0.01423679978065954 -0.28312686623628408 0 0.0097048124864975299 -0.26695263380869111 0 0.0051763763107566911 -0.27835768527965898 0 -0.0040781865195992214 -0.275332101419207 0 0.0097048124864975299 -0.26695263380869111 0 0.001389287298594218 -0.25783471860273199 0 -0.0040781865195992214 -0.275332101419207 0 0.0097048124864975299 -0.26695263380869111 0 0.0051763763107566911 -0.27835768527965898 0 -0.0040781865195992214 -0.275332101419207 0 0.00084207949546891842 -0.28801913965445369 0 0.0051763763107566911 -0.27835768527965898 0 -0.0076987751499405961 -0.24543657877108971 0 0.001389287298594218 -0.25783471860273199 0 0.01054219323342527 -0.24875531609243781 0 0.0097048124864975299 -0.26695263380869111 0 0.001389287298594218 -0.25783471860273199 0 0.01054219323342527 -0.24875531609243781 0 0.01054219323342527 -0.24875531609243781 0 0.0026361890209762799 -0.2340569800989358 0 0.02288063312089807 -0.2337634831755821 0 -0.0076987751499405961 -0.24543657877108971 0 0.01054219323342527 -0.24875531609243781 0 0.0026361890209762799 -0.2340569800989358 0 0.0026361890209762799 -0.2340569800989358 0 0.02288063312089807 -0.2337634831755821 0 0.016356315814553889 -0.21459692529355731 0 -0.00011561062830193539 -0.2166814117034169 0 0.0026361890209762799 -0.2340569800989358 0 0.016356315814553889 -0.21459692529355731 0 0.02288063312089807 -0.2337634831755821 0 0.016356315814553889 -0.21459692529355731 0 0.03306958007554972 -0.20902749271161841 0 0.028583377893872341 -0.25985481199654098 0 0.01054219323342527 -0.24875531609243781 0 0.02288063312089807 -0.2337634831755821 0 0.010124132891584731 -0.19837721154793911 0 0.023993903330589709 -0.18791066073382401 0 0.0001332541776606494 -0.18416096870748341 0 -0.0091779261855240435 -0.20407756478235239 0 0.010124132891584731 -0.19837721154793911 0 0.0001332541776606494 -0.18416096870748341 0 -0.00011561062830193539 -0.2166814117034169 0 0.010124132891584731 -0.19837721154793911 0 0.016356315814553889 -0.21459692529355731 0 -0.0091779261855240435 -0.20407756478235239 0 -0.00011561062830193539 -0.2166814117034169 0 0.010124132891584731 -0.19837721154793911 0 0.010124132891584731 -0.19837721154793911 0 0.016356315814553889 -0.21459692529355731 0 0.03306958007554972 -0.20902749271161841 0 0.010124132891584731 -0.19837721154793911 0 0.023993903330589709 -0.18791066073382401 0 0.03306958007554972 -0.20902749271161841 0 0.023993903330589709 -0.18791066073382401 0 0.03306958007554972 -0.20902749271161841 0 0.048138746514303873 -0.1872646607915448 0 0.03306958007554972 -0.20902749271161841 0 0.057276534120303042 -0.21331070351705861 0 0.048138746514303873 -0.1872646607915448 0 0.057276534120303042 -0.21331070351705861 0 0.048138746514303873 -0.1872646607915448 0 0.057276534120303042 -0.21331070351705861 0 0.067837378279333255 -0.1961796123155794 0 0.048138746514303873 -0.1872646607915448 0 0.067837378279333255 -0.1961796123155794 0 0.063611193212789185 -0.18281070684003889 0 0.048138746514303873 -0.1872646607915448 0 0.028583377893872341 -0.25985481199654098 0 0.02288063312089807 -0.2337634831755821 0 0.042929956007085067 -0.23658275775679821 0 0.028583377893872341 -0.25985481199654098 0 0.042929956007085067 -0.23658275775679821 0 0.02288063312089807 -0.2337634831755821 0 0.03306958007554972 -0.20902749271161841 0 0.042929956007085067 -0.23658275775679821 0 0.03306958007554972 -0.20902749271161841 0 0.057276534120303042 -0.21331070351705861 0 0.042929956007085067 -0.23658275775679821 0 0.057276534120303042 -0.21331070351705861 0 0.042929956007085067 -0.23658275775679821 0 0.066799715582623098 -0.24045525993977621 0 0.057276534120303042 -0.21331070351705861 0 0.042929956007085067 -0.23658275775679821 0 0.057276534120303042 -0.21331070351705861 0 0.066799715582623098 -0.24045525993977621 0 0.05389111362010679 -0.2600061227010787 0 0.042929956007085067 -0.23658275775679821 0 0.066799715582623098 -0.24045525993977621 0 0.082981758670300818 -0.24704750354947569 0 0.09233619410147699 -0.2386302711154312 0 0.10044298587705459 -0.24769691769715169 0 0.066799715582623098 -0.24045525993977621 0 0.082981758670300818 -0.24704750354947569 0 0.084924808097259913 -0.2267826480887799 0 0.082981758670300818 -0.24704750354947569 0 0.09233619410147699 -0.2386302711154312 0 0.084924808097259913 -0.2267826480887799 0 0.084924808097259913 -0.2267826480887799 0 0.10099522376129259 -0.23299401512631751 0 0.084924808097259913 -0.2267826480887799 0 0.071764248297614824 -0.22221557716534829 0 0.078055935390278511 -0.20831369711578179 0 0.084924808097259913 -0.2267826480887799 0 0.091236926883901795 -0.21531088168831841 0 0.10099522376129259 -0.23299401512631751 0 0.09233619410147699 -0.2386302711154312 0 0.084924808097259913 -0.2267826480887799 0 0.10099522376129259 -0.23299401512631751 0 0.057276534120303042 -0.21331070351705861 0 0.066799715582623098 -0.24045525993977621 0 0.071764248297614824 -0.22221557716534829 0 0.066799715582623098 -0.24045525993977621 0 0.084924808097259913 -0.2267826480887799 0 0.071764248297614824 -0.22221557716534829 0 0.057276534120303042 -0.21331070351705861 0 0.078055935390278511 -0.20831369711578179 0 0.067837378279333255 -0.1961796123155794 0 0.057276534120303042 -0.21331070351705861 0 0.067837378279333255 -0.1961796123155794 0 0.057276534120303042 -0.21331070351705861 0 0.071764248297614824 -0.22221557716534829 0 0.078055935390278511 -0.20831369711578179 0 0.078055935390278511 -0.20831369711578179 0 0.067837378279333255 -0.1961796123155794 0 0.081043534792109073 -0.19178090866335989 0 0.067837378279333255 -0.1961796123155794 0 0.081043534792109073 -0.19178090866335989 0 0.078398222438368706 -0.17904852111410349 0 0.067837378279333255 -0.1961796123155794 0 0.078398222438368706 -0.17904852111410349 0 0.09096440303590933 -0.1962693318766808 0 0.089961734816655634 -0.17909338089465399 0 0.078055935390278511 -0.20831369711578179 0 0.09096440303590933 -0.1962693318766808 0 0.081043534792109073 -0.19178090866335989 0 0.09096440303590933 -0.1962693318766808 0 0.081043534792109073 -0.19178090866335989 0 0.089961734816655634 -0.17909338089465399 0 0.078055935390278511 -0.20831369711578179 0 0.09096440303590933 -0.1962693318766808 0 0.091236926883901795 -0.21531088168831841 0 0.084924808097259913 -0.2267826480887799 0 0.078055935390278511 -0.20831369711578179 0 0.091236926883901795 -0.21531088168831841 0 0.09096440303590933 -0.1962693318766808 0 0.091236926883901795 -0.21531088168831841 0 0.102507229197367 -0.2023572430114953 0 0.091236926883901795 -0.21531088168831841 0 0.1042459065447699 -0.2163079794513065 0 0.102507229197367 -0.2023572430114953 0 0.1042459065447699 -0.2163079794513065 0 0.102507229197367 -0.2023572430114953 0 0.1130167921015755 -0.20650413294038 0 0.102507229197367 -0.2023572430114953 0 0.11204558446744629 -0.19514953347012831 0 0.10353376215059951 -0.18460159864215789 0 0.09096440303590933 -0.1962693318766808 0 0.102507229197367 -0.2023572430114953 0 0.10353376215059951 -0.18460159864215789 0 0.102507229197367 -0.2023572430114953 0 0.11204558446744629 -0.19514953347012831 0 0.1130167921015755 -0.20650413294038 0 0.1198743494142234 -0.19623618872524901 0 0.1240317678798548 -0.21252772573010759 0 0.1309978963343818 -0.1858500692963648 0 0.11204558446744629 -0.19514953347012831 0 0.1198743494142234 -0.19623618872524901 0 0.11927970628785881 -0.18114948218926391 0 0.11204558446744629 -0.19514953347012831 0 0.1198743494142234 -0.19623618872524901 0 0.1130167921015755 -0.20650413294038 0 0.1198743494142234 -0.19623618872524901 0 0.11927970628785881 -0.18114948218926391 0 0.1309978963343818 -0.1858500692963648 0 0.1198743494142234 -0.19623618872524901 0 0.1130167921015755 -0.20650413294038 0 0.1240317678798548 -0.21252772573010759 0 0.1042459065447699 -0.2163079794513065 0 0.1130167921015755 -0.20650413294038 0 0.1120356294074881 -0.22155398714827801 0 0.1130167921015755 -0.20650413294038 0 0.1240317678798548 -0.21252772573010759 0 0.1120356294074881 -0.22155398714827801 0 0.1240317678798548 -0.21252772573010759 0 0.11706563942532711 -0.23920538216385021 0 0.13097874107705609 -0.22778041309205979 0 0.1240317678798548 -0.21252772573010759 0 0.11706563942532711 -0.23920538216385021 0 0.1240317678798548 -0.21252772573010759 0 0.1120356294074881 -0.22155398714827801 0 0.11706563942532711 -0.23920538216385021 0 0.1120356294074881 -0.22155398714827801 0 0.11706563942532711 -0.23920538216385021 0 0.10099522376129259 -0.23299401512631751 0 0.11130718981359081 -0.2612580820725211 0 0.11706563942532711 -0.23920538216385021 0 0.10044298587705459 -0.24769691769715169 0 0.11706563942532711 -0.23920538216385021 0 0.10099522376129259 -0.23299401512631751 0 0.11706563942532711 -0.23920538216385021 0 0.10044298587705459 -0.24769691769715169 0 0.10099522376129259 -0.23299401512631751 0 0.09233619410147699 -0.2386302711154312 0 0.10044298587705459 -0.24769691769715169 0 0.10099522376129259 -0.23299401512631751 0 0.091236926883901795 -0.21531088168831841 0 0.1042459065447699 -0.2163079794513065 0 0.10099522376129259 -0.23299401512631751 0 0.1042459065447699 -0.2163079794513065 0 0.1120356294074881 -0.22155398714827801 0 0.10099522376129259 -0.23299401512631751 0 0.098188499055094219 -0.1469460652385948 0 0.11673110272002429 -0.1511819306975003 0 0.10538029780919581 -0.1581502572733261 0 0.098188499055094219 -0.1469460652385948 0 0.1097685219100025 -0.13381359895849629 0 0.11673110272002429 -0.1511819306975003 0 0.098188499055094219 -0.1469460652385948 0 0.10538029780919581 -0.1581502572733261 0 0.088959066597403214 -0.1619174299126272 0 0.098188499055094219 -0.1469460652385948 0 0.098153780286743791 -0.1341379678896277 0 0.087386284164665956 -0.13497528349636331 0 0.1097685219100025 -0.13381359895849629 0 0.096685922694633608 -0.12217726802094769 0 0.11339254818201611 -0.12140938064550651 0 0.098153780286743791 -0.1341379678896277 0 0.087386284164665956 -0.13497528349636331 0 0.096685922694633608 -0.12217726802094769 0 0.098153780286743791 -0.1341379678896277 0 0.1097685219100025 -0.13381359895849629 0 0.096685922694633608 -0.12217726802094769 0 0.098188499055094219 -0.1469460652385948 0 0.098153780286743791 -0.1341379678896277 0 0.1097685219100025 -0.13381359895849629 0 0.12470005953504019 -0.13497765168463219 0 0.11339254818201611 -0.12140938064550651 0 0.12964966193745059 -0.1213101726902356 0 0.1097685219100025 -0.13381359895849629 0 0.12470005953504019 -0.13497765168463219 0 0.11673110272002429 -0.1511819306975003 0 0.1097685219100025 -0.13381359895849629 0 0.12470005953504019 -0.13497765168463219 0 0.11339254818201611 -0.12140938064550651 0 0.12470005953504019 -0.13497765168463219 0 0.11673110272002429 -0.1511819306975003 0 0.1280100492192375 -0.14625392370172549 0 0.11673110272002429 -0.1511819306975003 0 0.1245989487852746 -0.16746170591335791 0 0.13304511958170759 -0.15603928023025609 0 0.11673110272002429 -0.1511819306975003 0 0.1122931316856265 -0.16877197224848769 0 0.10538029780919581 -0.1581502572733261 0 0.11673110272002429 -0.1511819306975003 0 0.1245989487852746 -0.16746170591335791 0 0.1122931316856265 -0.16877197224848769 0 0.11204558446744629 -0.19514953347012831 0 0.11927970628785881 -0.18114948218926391 0 0.10353376215059951 -0.18460159864215789 0 0.1122931316856265 -0.16877197224848769 0 0.11927970628785881 -0.18114948218926391 0 0.10353376215059951 -0.18460159864215789 0 0.1245989487852746 -0.16746170591335791 0 0.1122931316856265 -0.16877197224848769 0 0.11927970628785881 -0.18114948218926391 0 0.1245989487852746 -0.16746170591335791 0 0.11927970628785881 -0.18114948218926391 0 0.12854491556810799 -0.1760030229322018 0 0.1122931316856265 -0.16877197224848769 0 0.10353376215059951 -0.18460159864215789 0 0.099416845999727749 -0.16992418511009499 0 0.09096440303590933 -0.1962693318766808 0 0.10353376215059951 -0.18460159864215789 0 0.089961734816655634 -0.17909338089465399 0 0.10353376215059951 -0.18460159864215789 0 0.099416845999727749 -0.16992418511009499 0 0.089961734816655634 -0.17909338089465399 0 0.10538029780919581 -0.1581502572733261 0 0.099416845999727749 -0.16992418511009499 0 0.088959066597403214 -0.1619174299126272 0 0.1122931316856265 -0.16877197224848769 0 0.10538029780919581 -0.1581502572733261 0 0.099416845999727749 -0.16992418511009499 0 0.088959066597403214 -0.1619174299126272 0 0.078398222438368706 -0.17904852111410349 0 0.071143170219707424 -0.15732880003000491 0 0.088959066597403214 -0.1619174299126272 0 0.089961734816655634 -0.17909338089465399 0 0.088959066597403214 -0.1619174299126272 0 0.078398222438368706 -0.17904852111410349 0 0.099416845999727749 -0.16992418511009499 0 0.088959066597403214 -0.1619174299126272 0 0.089961734816655634 -0.17909338089465399 0 0.088959066597403214 -0.1619174299126272 0 0.089961734816655634 -0.17909338089465399 0 0.078398222438368706 -0.17904852111410349 0 0.081043534792109073 -0.19178090866335989 0 0.089961734816655634 -0.17909338089465399 0 0.078398222438368706 -0.17904852111410349 0 0.078398222438368706 -0.17904852111410349 0 0.063611193212789185 -0.18281070684003889 0 0.059226689802878429 -0.16992141434495339 0 0.067837378279333255 -0.1961796123155794 0 0.078398222438368706 -0.17904852111410349 0 0.063611193212789185 -0.18281070684003889 0 0.078398222438368706 -0.17904852111410349 0 0.071143170219707424 -0.15732880003000491 0 0.059226689802878429 -0.16992141434495339 0 0.071143170219707424 -0.15732880003000491 0 0.072863731050061484 -0.13489491194771949 0 0.061185067441470058 -0.13835948772748169 0 0.071143170219707424 -0.15732880003000491 0 0.087386284164665956 -0.13497528349636331 0 0.072863731050061484 -0.13489491194771949 0 0.098188499055094219 -0.1469460652385948 0 0.088959066597403214 -0.1619174299126272 0 0.087386284164665956 -0.13497528349636331 0 0.088959066597403214 -0.1619174299126272 0 0.087386284164665956 -0.13497528349636331 0 0.071143170219707424 -0.15732880003000491 0 0.087386284164665956 -0.13497528349636331 0 0.088959066597403214 -0.1619174299126272 0 0.071143170219707424 -0.15732880003000491 0 0.087386284164665956 -0.13497528349636331 0 0.098188499055094219 -0.1469460652385948 0 0.088959066597403214 -0.1619174299126272 0 0.087386284164665956 -0.13497528349636331 0 0.096685922694633608 -0.12217726802094769 0 0.087386284164665956 -0.13497528349636331 0 0.072863731050061484 -0.13489491194771949 0 0.076673698749047448 -0.1219222509076579 0 0.072863731050061484 -0.13489491194771949 0 0.076673698749047448 -0.1219222509076579 0 0.063073453429372317 -0.1237216914192735 0 0.072863731050061484 -0.13489491194771949 0 0.061185067441470058 -0.13835948772748169 0 0.063073453429372317 -0.1237216914192735 0 0.047860534598324622 -0.12508127730088031 0 0.061185067441470058 -0.13835948772748169 0 0.063073453429372317 -0.1237216914192735 0 0.047860534598324622 -0.12508127730088031 0 0.049668141075471912 -0.13920740485960351 0 0.061185067441470058 -0.13835948772748169 0 0.071143170219707424 -0.15732880003000491 0 0.061185067441470058 -0.13835948772748169 0 0.054540512638635637 -0.1525892924817599 0 0.049668141075471912 -0.13920740485960351 0 0.061185067441470058 -0.13835948772748169 0 0.054540512638635637 -0.1525892924817599 0 0.049668141075471912 -0.13920740485960351 0 0.054540512638635637 -0.1525892924817599 0 0.033566710606020157 -0.14197879212910861 0 0.054540512638635637 -0.1525892924817599 0 0.033566710606020157 -0.14197879212910861 0 0.039000958908295413 -0.16121861806603421 0 0.033566710606020157 -0.14197879212910861 0 0.039000958908295413 -0.16121861806603421 0 0.02560272243274023 -0.1546155627711108 0 0.047860534598324622 -0.12508127730088031 0 0.033566710606020157 -0.14197879212910861 0 0.03256582071054423 -0.12526496599947429 0 0.047860534598324622 -0.12508127730088031 0 0.049668141075471912 -0.13920740485960351 0 0.033566710606020157 -0.14197879212910861 0 0.047860534598324622 -0.12508127730088031 0 0.033566710606020157 -0.14197879212910861 0 0.048138746514303873 -0.1872646607915448 0 0.059226689802878429 -0.16992141434495339 0 0.039000958908295413 -0.16121861806603421 0 0.063611193212789185 -0.18281070684003889 0 0.048138746514303873 -0.1872646607915448 0 0.059226689802878429 -0.16992141434495339 0 0.071143170219707424 -0.15732880003000491 0 0.054540512638635637 -0.1525892924817599 0 0.059226689802878429 -0.16992141434495339 0 0.054540512638635637 -0.1525892924817599 0 0.059226689802878429 -0.16992141434495339 0 0.039000958908295413 -0.16121861806603421 0 0.048138746514303873 -0.1872646607915448 0 0.039000958908295413 -0.16121861806603421 0 0.028847392713567101 -0.17307470945582559 0 0.023993903330589709 -0.18791066073382401 0 0.048138746514303873 -0.1872646607915448 0 0.028847392713567101 -0.17307470945582559 0 0.048138746514303873 -0.1872646607915448 0 0.039000958908295413 -0.16121861806603421 0 0.023993903330589709 -0.18791066073382401 0 0.028847392713567101 -0.17307470945582559 0 0.01525934715821246 -0.16539181758495949 0 0.039000958908295413 -0.16121861806603421 0 0.028847392713567101 -0.17307470945582559 0 0.02560272243274023 -0.1546155627711108 0 0.028847392713567101 -0.17307470945582559 0 0.01525934715821246 -0.16539181758495949 0 0.02560272243274023 -0.1546155627711108 0 -0.0056187679403888434 -0.153342583889575 0 -0.00017606275572031361 -0.16802454960933011 0 0.01525934715821246 -0.16539181758495949 0 -0.00017606275572031361 -0.16802454960933011 0 0.01525934715821246 -0.16539181758495949 0 0.0001332541776606494 -0.18416096870748341 0 0.023993903330589709 -0.18791066073382401 0 0.01525934715821246 -0.16539181758495949 0 0.0001332541776606494 -0.18416096870748341 0 0.033566710606020157 -0.14197879212910861 0 0.015923277176875979 -0.1262779970496139 0 0.012195426818498299 -0.14453755382671191 0 0.033566710606020157 -0.14197879212910861 0 0.03256582071054423 -0.12526496599947429 0 0.015923277176875979 -0.1262779970496139 0 0.01525934715821246 -0.16539181758495949 0 0.02560272243274023 -0.1546155627711108 0 0.012195426818498299 -0.14453755382671191 0 0.033566710606020157 -0.14197879212910861 0 0.02560272243274023 -0.1546155627711108 0 0.012195426818498299 -0.14453755382671191 0 -0.0056187679403888434 -0.153342583889575 0 0.01525934715821246 -0.16539181758495949 0 0.012195426818498299 -0.14453755382671191 0 -0.01156072852247016 -0.12561856953590339 0 0.015923277176875979 -0.1262779970496139 0 0.012195426818498299 -0.14453755382671191 0 -0.01156072852247016 -0.12561856953590339 0 0.015923277176875979 -0.1262779970496139 0 0.0071772414290887793 -0.1104649531920479 0 0.015923277176875979 -0.1262779970496139 0 0.0071772414290887793 -0.1104649531920479 0 0.022864868490969768 -0.1149487805525073 0 0.03256582071054423 -0.12526496599947429 0 0.015923277176875979 -0.1262779970496139 0 0.022864868490969768 -0.1149487805525073 0 0.022864868490969768 -0.1149487805525073 0 0.020168755299907561 -0.097937960218912934 0 0.038489247838432293 -0.1147980263024873 0 0.0071772414290887793 -0.1104649531920479 0 0.022864868490969768 -0.1149487805525073 0 0.020168755299907561 -0.097937960218912934 0 -0.0076998164921834658 -0.097922567374214869 0 0.020168755299907561 -0.097937960218912934 0 -0.0076998164921834658 -0.097922567374214869 0 0.0071772414290887793 -0.1104649531920479 0 0.020168755299907561 -0.097937960218912934 0 -0.0076998164921834658 -0.097922567374214869 0 0.020168755299907561 -0.097937960218912934 0 0.0062428489020568186 -0.082759276782587501 0 -0.0028087424043249328 -0.067091052758769379 0 0.0062428489020568186 -0.082759276782587501 0 0.016265713224269791 -0.064763013541559111 0 0.0062428489020568186 -0.082759276782587501 0 0.016265713224269791 -0.064763013541559111 0 0.032728444125786703 -0.080340376950044964 0 0.016265713224269791 -0.064763013541559111 0 0.032728444125786703 -0.080340376950044964 0 0.042266362015157953 -0.063630406307259441 0 0.016265713224269791 -0.064763013541559111 0 0.032728444125786703 -0.080340376950044964 0 0.020168755299907561 -0.097937960218912934 0 0.0062428489020568186 -0.082759276782587501 0 0.032728444125786703 -0.080340376950044964 0 0.032728444125786703 -0.080340376950044964 0 0.046600673408007803 -0.078206669139174081 0 0.049191175027304163 -0.09591774035853029 0 0.020168755299907561 -0.097937960218912934 0 0.032728444125786703 -0.080340376950044964 0 0.048037327091998698 -0.097953353063610193 0 0.032728444125786703 -0.080340376950044964 0 0.049191175027304163 -0.09591774035853029 0 0.032728444125786703 -0.080340376950044964 0 0.048037327091998698 -0.097953353063610193 0 0.049191175027304163 -0.09591774035853029 0 0.032728444125786703 -0.080340376950044964 0 0.046600673408007803 -0.078206669139174081 0 0.042266362015157953 -0.063630406307259441 0 0.042266362015157953 -0.063630406307259441 0 0.062216712463779668 -0.072938152940860063 0 0.0541803731315652 -0.051086041763833502 0 0.046600673408007803 -0.078206669139174081 0 0.042266362015157953 -0.063630406307259441 0 0.062216712463779668 -0.072938152940860063 0 0.046600673408007803 -0.078206669139174081 0 0.062216712463779668 -0.072938152940860063 0 0.049191175027304163 -0.09591774035853029 0 0.062216712463779668 -0.072938152940860063 0 0.061075402653011222 -0.090147440918561958 0 0.049191175027304163 -0.09591774035853029 0 0.062216712463779668 -0.072938152940860063 0 0.049191175027304163 -0.09591774035853029 0 0.061075402653011222 -0.090147440918561958 0 0.051344415892502347 -0.097955179691279204 0 0.070797758471984856 -0.097965924493108036 0 0.051344415892502347 -0.097955179691279204 0 0.070797758471984856 -0.097965924493108036 0 0.051344415892502347 -0.097955179691279204 0 0.062154358590630093 -0.108183762472653 0 0.070797758471984856 -0.097965924493108036 0 0.061075402653011222 -0.090147440918561958 0 0.051344415892502347 -0.097955179691279204 0 0.049191175027304163 -0.09591774035853029 0 0.051344415892502347 -0.097955179691279204 0 0.048037327091998698 -0.097953353063610193 0 0.049922444163660887 -0.10620516819224191 0 0.051344415892502347 -0.097955179691279204 0 0.048037327091998698 -0.097953353063610193 0 0.048037327091998698 -0.097953353063610193 0 0.049191175027304163 -0.09591774035853029 0 0.051344415892502347 -0.097955179691279204 0 0.048037327091998698 -0.097953353063610193 0 0.049191175027304163 -0.09591774035853029 0 0.051344415892502347 -0.097955179691279204 0 0.049191175027304163 -0.09591774035853029 0 0.049922444163660887 -0.10620516819224191 0 0.062154358590630093 -0.108183762472653 0 0.049586871404740968 -0.1121355194311791 0 0.051344415892502347 -0.097955179691279204 0 0.049922444163660887 -0.10620516819224191 0 0.062154358590630093 -0.108183762472653 0 0.051344415892502347 -0.097955179691279204 0 0.062154358590630093 -0.108183762472653 0 0.047860534598324622 -0.12508127730088031 0 0.062154358590630093 -0.108183762472653 0 0.047860534598324622 -0.12508127730088031 0 0.062154358590630093 -0.108183762472653 0 0.049586871404740968 -0.1121355194311791 0 0.047860534598324622 -0.12508127730088031 0 0.062154358590630093 -0.108183762472653 0 0.063073453429372317 -0.1237216914192735 0 0.049922444163660887 -0.10620516819224191 0 0.049586871404740968 -0.1121355194311791 0 0.038489247838432293 -0.1147980263024873 0 0.047860534598324622 -0.12508127730088031 0 0.03256582071054423 -0.12526496599947429 0 0.038489247838432293 -0.1147980263024873 0 0.047860534598324622 -0.12508127730088031 0 0.049586871404740968 -0.1121355194311791 0 0.038489247838432293 -0.1147980263024873 0 0.03256582071054423 -0.12526496599947429 0 0.022864868490969768 -0.1149487805525073 0 0.038489247838432293 -0.1147980263024873 0 0.020168755299907561 -0.097937960218912934 0 0.048037327091998698 -0.097953353063610193 0 0.038489247838432293 -0.1147980263024873 0 0.048037327091998698 -0.097953353063610193 0 0.049922444163660887 -0.10620516819224191 0 0.038489247838432293 -0.1147980263024873 0 0.048037327091998698 -0.097953353063610193 0 0.038489247838432293 -0.1147980263024873 0 0.020168755299907561 -0.097937960218912934 0 0.048037327091998698 -0.097953353063610193 0 0.021381410550077889 -0.0025360332760345681 0 0.009863533258343056 -0.020370579722063149 0 0.0299650763197611 -0.02210802333088777 0 -0.0017141771070067441 -0.0048886145369329021 0 0.021381410550077889 -0.0025360332760345681 0 0.009863533258343056 -0.020370579722063149 0 -0.0037500937347733861 -0.018262017718794009 0 -0.0017141771070067441 -0.0048886145369329021 0 0.009863533258343056 -0.020370579722063149 0 -0.002343545123954707 -0.031073266458213379 0 0.009863533258343056 -0.020370579722063149 0 0.01473080213323851 -0.038416111689648973 0 -0.002343545123954707 -0.031073266458213379 0 -0.0037500937347733861 -0.018262017718794009 0 0.009863533258343056 -0.020370579722063149 0 0.009863533258343056 -0.020370579722063149 0 0.0299650763197611 -0.02210802333088777 0 0.01473080213323851 -0.038416111689648973 0 0.0299650763197611 -0.02210802333088777 0 0.01473080213323851 -0.038416111689648973 0 0.034831052798259023 -0.042996136952097162 0 -0.002343545123954707 -0.031073266458213379 0 -0.0001970176772471792 -0.049185650133073217 0 0.01473080213323851 -0.038416111689648973 0 -0.0001970176772471792 -0.049185650133073217 0 0.016265713224269791 -0.064763013541559111 0 -0.0001970176772471792 -0.049185650133073217 0 0.016265713224269791 -0.064763013541559111 0 0.01473080213323851 -0.038416111689648973 0 -0.0001970176772471792 -0.049185650133073217 0 -0.0028087424043249328 -0.067091052758769379 0 0.016265713224269791 -0.064763013541559111 0 0.016265713224269791 -0.064763013541559111 0 0.01473080213323851 -0.038416111689648973 0 0.034831052798259023 -0.042996136952097162 0 0.016265713224269791 -0.064763013541559111 0 0.042266362015157953 -0.063630406307259441 0 0.034831052798259023 -0.042996136952097162 0 0.042266362015157953 -0.063630406307259441 0 0.0541803731315652 -0.051086041763833502 0 0.034831052798259023 -0.042996136952097162 0 0.0541803731315652 -0.051086041763833502 0 0.034831052798259023 -0.042996136952097162 0 0.056345488480376932 -0.02590694709576254 0 0.0541803731315652 -0.051086041763833502 0 0.056345488480376932 -0.02590694709576254 0 0.075242249900252439 -0.049958565523188322 0 0.0299650763197611 -0.02210802333088777 0 0.034831052798259023 -0.042996136952097162 0 0.056345488480376932 -0.02590694709576254 0 0.0299650763197611 -0.02210802333088777 0 0.056345488480376932 -0.02590694709576254 0 0.043920739850203283 -0.0072118260788971156 0 0.056345488480376932 -0.02590694709576254 0 0.043920739850203283 -0.0072118260788971156 0 0.069500382531848703 -0.0037633012112028501 0 0.021381410550077889 -0.0025360332760345681 0 0.0299650763197611 -0.02210802333088777 0 0.043920739850203283 -0.0072118260788971156 0 0.056345488480376932 -0.02590694709576254 0 0.069500382531848703 -0.0037633012112028501 0 0.088267787336725217 -0.02697897810551653 0 0.069500382531848703 -0.0037633012112028501 0 0.088267787336725217 -0.02697897810551653 0 0.101293324773198 -0.0039993906878447449 0 0.056345488480376932 -0.02590694709576254 0 0.069500382531848703 -0.0037633012112028501 0 0.088267787336725217 -0.02697897810551653 0 0.086639163478268971 -0.037621179660109187 0 0.096533234219108532 -0.01688740498963319 0 0.086639163478268971 -0.037621179660109187 0 0.096533234219108532 -0.01688740498963319 0 0.056345488480376932 -0.02590694709576254 0 0.088267787336725217 -0.02697897810551653 0 0.075242249900252439 -0.049958565523188322 0 0.088267787336725217 -0.02697897810551653 0 0.075242249900252439 -0.049958565523188322 0 0.088267787336725217 -0.02697897810551653 0 0.086639163478268971 -0.037621179660109187 0 0.075242249900252439 -0.049958565523188322 0 0.086639163478268971 -0.037621179660109187 0 0.09024422069643788 -0.045744254096962013 0 0.097067817159561295 -0.03828744170368148 0 0.086639163478268971 -0.037621179660109187 0 0.09024422069643788 -0.045744254096962013 0 0.082423742450887377 -0.049965734389915431 0 0.062216712463779668 -0.072938152940860063 0 0.0541803731315652 -0.051086041763833502 0 0.075242249900252439 -0.049958565523188322 0 0.062216712463779668 -0.072938152940860063 0 0.075242249900252439 -0.049958565523188322 0 0.062216712463779668 -0.072938152940860063 0 0.075242249900252439 -0.049958565523188322 0 0.07674509273742941 -0.058354954330585219 0 0.086639163478268971 -0.037621179660109187 0 0.07674509273742941 -0.058354954330585219 0 0.082423742450887377 -0.049965734389915431 0 0.07674509273742941 -0.058354954330585219 0 0.082423742450887377 -0.049965734389915431 0 0.083359078016220695 -0.06598826059890317 0 0.082423742450887377 -0.049965734389915431 0 0.088616118900158733 -0.057642810266552311 0 0.083359078016220695 -0.06598826059890317 0 0.082423742450887377 -0.049965734389915431 0 0.083359078016220695 -0.06598826059890317 0 0.086639163478268971 -0.037621179660109187 0 0.07674509273742941 -0.058354954330585219 0 0.086639163478268971 -0.037621179660109187 0 0.075242249900252439 -0.049958565523188322 0 0.07674509273742941 -0.058354954330585219 0 0.09024422069643788 -0.045744254096962013 0 0.088616118900158733 -0.057642810266552311 0 0.098889532367889707 -0.048898474197741827 0 0.09024422069643788 -0.045744254096962013 0 0.082423742450887377 -0.049965734389915431 0 0.088616118900158733 -0.057642810266552311 0 0.088616118900158733 -0.057642810266552311 0 0.083359078016220695 -0.06598826059890317 0 0.096248389157516212 -0.062852038072346905 0 0.098889532367889707 -0.048898474197741827 0 0.11690586381071071 -0.057460347208690248 0 0.10740799144872031 -0.036399481024614641 0 0.098889532367889707 -0.048898474197741827 0 0.11690586381071071 -0.057460347208690248 0 0.096248389157516212 -0.062852038072346905 0 0.088616118900158733 -0.057642810266552311 0 0.098889532367889707 -0.048898474197741827 0 0.096248389157516212 -0.062852038072346905 0 0.11690586381071071 -0.057460347208690248 0 0.1271602294557064 -0.036193405176865957 0 0.11690586381071071 -0.057460347208690248 0 0.10740799144872031 -0.036399481024614641 0 0.1271602294557064 -0.036193405176865957 0 0.10740799144872031 -0.036399481024614641 0 0.10945261279442541 -0.02280608525457592 0 0.1271602294557064 -0.036193405176865957 0 0.098889532367889707 -0.048898474197741827 0 0.10740799144872031 -0.036399481024614641 0 0.097067817159561295 -0.03828744170368148 0 0.09024422069643788 -0.045744254096962013 0 0.098889532367889707 -0.048898474197741827 0 0.097067817159561295 -0.03828744170368148 0 0.10740799144872031 -0.036399481024614641 0 0.097067817159561295 -0.03828744170368148 0 0.099420163820016894 -0.03040031852652289 0 0.086639163478268971 -0.037621179660109187 0 0.097067817159561295 -0.03828744170368148 0 0.099420163820016894 -0.03040031852652289 0 0.086639163478268971 -0.037621179660109187 0 0.099420163820016894 -0.03040031852652289 0 0.096533234219108532 -0.01688740498963319 0 0.088267787336725217 -0.02697897810551653 0 0.096533234219108532 -0.01688740498963319 0 0.101293324773198 -0.0039993906878447449 0 0.099420163820016894 -0.03040031852652289 0 0.096533234219108532 -0.01688740498963319 0 0.10945261279442541 -0.02280608525457592 0 0.096533234219108532 -0.01688740498963319 0 0.10945261279442541 -0.02280608525457592 0 0.1097275947744526 -0.010528090232497549 0 0.10740799144872031 -0.036399481024614641 0 0.099420163820016894 -0.03040031852652289 0 0.10945261279442541 -0.02280608525457592 0 0.10945261279442541 -0.02280608525457592 0 0.1209876411747203 -0.01358903652135897 0 0.1271602294557064 -0.036193405176865957 0 0.10945261279442541 -0.02280608525457592 0 0.1097275947744526 -0.010528090232497549 0 0.1209876411747203 -0.01358903652135897 0 0.1097275947744526 -0.010528090232497549 0 0.1209876411747203 -0.01358903652135897 0 0.1152371807240606 -0.0032042940777625038 0 0.1209876411747203 -0.01358903652135897 0 0.1249114752804408 -0.0025660630866009781 0 0.1152371807240606 -0.0032042940777625038 0 0.121771477586586 0.0039720656753206122 0 0.1249114752804408 -0.0025660630866009781 0 0.1152371807240606 -0.0032042940777625038 0 0.1059075416843831 0.0041409875032136761 0 0.1097275947744526 -0.010528090232497549 0 0.1152371807240606 -0.0032042940777625038 0 0.1059075416843831 0.0041409875032136761 0 0.096533234219108532 -0.01688740498963319 0 0.1097275947744526 -0.010528090232497549 0 0.1059075416843831 0.0041409875032136761 0 0.096533234219108532 -0.01688740498963319 0 0.101293324773198 -0.0039993906878447449 0 0.088267787336725217 -0.02697897810551653 0 0.101293324773198 -0.0039993906878447449 0 0.1059075416843831 0.0041409875032136761 0 0.096533234219108532 -0.01688740498963319 0 0.085217734491415897 -0.097827499040242072 0 0.093713420101586745 -0.084280357087196445 0 0.096397132520717896 -0.099994231272337933 0 0.085679390653236209 -0.105735781614372 0 0.081929484020576301 -0.1016960947599377 0 0.085217734491415897 -0.097827499040242072 0 0.085679390653236209 -0.105735781614372 0 0.081929484020576301 -0.1016960947599377 0 0.076903880754012943 -0.1032251541837281 0 0.085679390653236209 -0.105735781614372 0 0.085217734491415897 -0.097827499040242072 0 0.083015809043419792 -0.097972672975103731 0 0.085217734491415897 -0.097827499040242072 0 0.076657456929946272 -0.096168390986346247 0 0.085217734491415897 -0.097827499040242072 0 0.076657456929946272 -0.096168390986346247 0 0.081929484020576301 -0.1016960947599377 0 0.083015809043419792 -0.097972672975103731 0 0.076903880754012943 -0.1032251541837281 0 0.081929484020576301 -0.1016960947599377 0 0.083015809043419792 -0.097972672975103731 0 0.085217734491415897 -0.097827499040242072 0 0.085217734491415897 -0.097827499040242072 0 0.096397132520717896 -0.099994231272337933 0 0.085679390653236209 -0.105735781614372 0 0.092995733604061853 -0.107048529518761 0 0.089791466897433114 -0.1136939873328808 0 0.085679390653236209 -0.105735781614372 0 0.085217734491415897 -0.097827499040242072 0 0.092995733604061853 -0.107048529518761 0 0.085217734491415897 -0.097827499040242072 0 0.092995733604061853 -0.107048529518761 0 0.096397132520717896 -0.099994231272337933 0 0.085679390653236209 -0.105735781614372 0 0.092995733604061853 -0.107048529518761 0 0.087386284164665956 -0.13497528349636331 0 0.085679390653236209 -0.105735781614372 0 0.076673698749047448 -0.1219222509076579 0 0.087386284164665956 -0.13497528349636331 0 0.085679390653236209 -0.105735781614372 0 0.087386284164665956 -0.13497528349636331 0 0.085679390653236209 -0.105735781614372 0 0.089791466897433114 -0.1136939873328808 0 0.092995733604061853 -0.107048529518761 0 0.089791466897433114 -0.1136939873328808 0 0.085679390653236209 -0.105735781614372 0 0.076673698749047448 -0.1219222509076579 0 0.076903880754012943 -0.1032251541837281 0 0.092995733604061853 -0.107048529518761 0 0.089791466897433114 -0.1136939873328808 0 0.096685922694633608 -0.12217726802094769 0 0.087386284164665956 -0.13497528349636331 0 0.089791466897433114 -0.1136939873328808 0 0.096685922694633608 -0.12217726802094769 0 0.062154358590630093 -0.108183762472653 0 0.076673698749047448 -0.1219222509076579 0 0.076903880754012943 -0.1032251541837281 0 0.062154358590630093 -0.108183762472653 0 0.076673698749047448 -0.1219222509076579 0 0.063073453429372317 -0.1237216914192735 0 0.062154358590630093 -0.108183762472653 0 0.076673698749047448 -0.1219222509076579 0 0.062154358590630093 -0.108183762472653 0 0.070797758471984856 -0.097965924493108036 0 0.062154358590630093 -0.108183762472653 0 0.076903880754012943 -0.1032251541837281 0 0.070797758471984856 -0.097965924493108036 0 0.083015809043419792 -0.097972672975103731 0 0.076903880754012943 -0.1032251541837281 0 0.070797758471984856 -0.097965924493108036 0 0.083015809043419792 -0.097972672975103731 0 0.076657456929946272 -0.096168390986346247 0 0.070797758471984856 -0.097965924493108036 0 0.083015809043419792 -0.097972672975103731 0 0.070797758471984856 -0.097965924493108036 0 0.070797758471984856 -0.097965924493108036 0 0.084294413581554428 -0.082010786807890784 0 0.061075402653011222 -0.090147440918561958 0 0.070797758471984856 -0.097965924493108036 0 0.067962533698765509 -0.086706805423910613 0 0.076657456929946272 -0.096168390986346247 0 0.070797758471984856 -0.097965924493108036 0 0.084294413581554428 -0.082010786807890784 0 0.070797758471984856 -0.097965924493108036 0 0.074223210931198325 -0.083808172271548007 0 0.084294413581554428 -0.082010786807890784 0 0.062216712463779668 -0.072938152940860063 0 0.061075402653011222 -0.090147440918561958 0 0.066851021996589821 -0.079088729001061314 0 0.061075402653011222 -0.090147440918561958 0 0.067962533698765509 -0.086706805423910613 0 0.066851021996589821 -0.079088729001061314 0 0.067962533698765509 -0.086706805423910613 0 0.066851021996589821 -0.079088729001061314 0 0.074223210931198325 -0.083808172271548007 0 0.066851021996589821 -0.079088729001061314 0 0.074223210931198325 -0.083808172271548007 0 0.077259193990778408 -0.073826918003188524 0 0.070797758471984856 -0.097965924493108036 0 0.067962533698765509 -0.086706805423910613 0 0.074223210931198325 -0.083808172271548007 0 0.062216712463779668 -0.072938152940860063 0 0.07674509273742941 -0.058354954330585219 0 0.066851021996589821 -0.079088729001061314 0 0.07674509273742941 -0.058354954330585219 0 0.066851021996589821 -0.079088729001061314 0 0.077259193990778408 -0.073826918003188524 0 0.07674509273742941 -0.058354954330585219 0 0.066851021996589821 -0.079088729001061314 0 0.077259193990778408 -0.073826918003188524 0 0.083359078016220695 -0.06598826059890317 0 0.084294413581554428 -0.082010786807890784 0 0.083359078016220695 -0.06598826059890317 0 0.090212158118366886 -0.075015095793766196 0 0.084294413581554428 -0.082010786807890784 0 0.083359078016220695 -0.06598826059890317 0 0.084294413581554428 -0.082010786807890784 0 0.07674509273742941 -0.058354954330585219 0 0.077259193990778408 -0.073826918003188524 0 0.083359078016220695 -0.06598826059890317 0 0.083359078016220695 -0.06598826059890317 0 0.090212158118366886 -0.075015095793766196 0 0.096248389157516212 -0.062852038072346905 0 0.085217734491415897 -0.097827499040242072 0 0.084294413581554428 -0.082010786807890784 0 0.085217734491415897 -0.097827499040242072 0 0.076657456929946272 -0.096168390986346247 0 0.084294413581554428 -0.082010786807890784 0 0.085217734491415897 -0.097827499040242072 0 0.084294413581554428 -0.082010786807890784 0 0.093713420101586745 -0.084280357087196445 0 0.074223210931198325 -0.083808172271548007 0 0.077259193990778408 -0.073826918003188524 0 0.084294413581554428 -0.082010786807890784 0 0.090212158118366886 -0.075015095793766196 0 0.084294413581554428 -0.082010786807890784 0 0.093713420101586745 -0.084280357087196445 0 0.090212158118366886 -0.075015095793766196 0 0.084294413581554428 -0.082010786807890784 0 0.10665149816571511 -0.078727289240514489 0 0.096397132520717896 -0.099994231272337933 0 0.093713420101586745 -0.084280357087196445 0 0.10665149816571511 -0.078727289240514489 0 0.096397132520717896 -0.099994231272337933 0 0.10665149816571511 -0.078727289240514489 0 0.11039666271101591 -0.089824506835633047 0 0.096397132520717896 -0.099994231272337933 0 0.093713420101586745 -0.084280357087196445 0 0.10665149816571511 -0.078727289240514489 0 0.099507583731750671 -0.072107240368427764 0 0.11690586381071071 -0.057460347208690248 0 0.096248389157516212 -0.062852038072346905 0 0.099507583731750671 -0.072107240368427764 0 0.11690586381071071 -0.057460347208690248 0 0.10665149816571511 -0.078727289240514489 0 0.099507583731750671 -0.072107240368427764 0 0.090212158118366886 -0.075015095793766196 0 0.096248389157516212 -0.062852038072346905 0 0.099507583731750671 -0.072107240368427764 0 0.090212158118366886 -0.075015095793766196 0 0.093713420101586745 -0.084280357087196445 0 0.099507583731750671 -0.072107240368427764 0 0.11690586381071071 -0.057460347208690248 0 0.1178508484851635 -0.07781640475877373 0 0.12740287591615579 -0.070697462545633444 0 0.11690586381071071 -0.057460347208690248 0 0.10665149816571511 -0.078727289240514489 0 0.1178508484851635 -0.07781640475877373 0 0.11690586381071071 -0.057460347208690248 0 0.10665149816571511 -0.078727289240514489 0 0.1178508484851635 -0.07781640475877373 0 0.12668922191599491 -0.081733923457871296 0 0.12740287591615579 -0.070697462545633444 0 0.1178508484851635 -0.07781640475877373 0 0.11039666271101591 -0.089824506835633047 0 0.12104178206391331 -0.088659119533710057 0 0.10665149816571511 -0.078727289240514489 0 0.1178508484851635 -0.07781640475877373 0 0.11039666271101591 -0.089824506835633047 0 0.1178508484851635 -0.07781640475877373 0 0.12104178206391331 -0.088659119533710057 0 0.12668922191599491 -0.081733923457871296 0 0.12104178206391331 -0.088659119533710057 0 0.1243453031651181 -0.094481071065502048 0 0.1293390599537331 -0.088224873507981014 0 0.1107796041973539 -0.10278176642202071 0 0.13344917037337459 -0.1071754627187676 0 0.12104178206391331 -0.088659119533710057 0 0.1243453031651181 -0.094481071065502048 0 0.1107796041973539 -0.10278176642202071 0 0.1243453031651181 -0.094481071065502048 0 0.1107796041973539 -0.10278176642202071 0 0.13344917037337459 -0.1071754627187676 0 0.1107796041973539 -0.10278176642202071 0 0.1059855612246009 -0.10937925254553189 0 0.12265221373467421 -0.1123696964466496 0 0.1107796041973539 -0.10278176642202071 0 0.12265221373467421 -0.1123696964466496 0 0.13344917037337459 -0.1071754627187676 0 0.11039666271101591 -0.089824506835633047 0 0.12104178206391331 -0.088659119533710057 0 0.1107796041973539 -0.10278176642202071 0 0.12104178206391331 -0.088659119533710057 0 0.1107796041973539 -0.10278176642202071 0 0.1107796041973539 -0.10278176642202071 0 0.096397132520717896 -0.099994231272337933 0 0.11039666271101591 -0.089824506835633047 0 0.1107796041973539 -0.10278176642202071 0 0.096397132520717896 -0.099994231272337933 0 0.1107796041973539 -0.10278176642202071 0 0.096397132520717896 -0.099994231272337933 0 0.1059855612246009 -0.10937925254553189 0 0.1107796041973539 -0.10278176642202071 0 0.1059855612246009 -0.10937925254553189 0 0.092995733604061853 -0.107048529518761 0 0.1059855612246009 -0.10937925254553189 0 0.092995733604061853 -0.107048529518761 0 0.096397132520717896 -0.099994231272337933 0 0.1059855612246009 -0.10937925254553189 0 0.092995733604061853 -0.107048529518761 0 0.096397132520717896 -0.099994231272337933 0 0.096685922694633608 -0.12217726802094769 0 0.1059855612246009 -0.10937925254553189 0 0.11339254818201611 -0.12140938064550651 0 0.096685922694633608 -0.12217726802094769 0 0.1059855612246009 -0.10937925254553189 0 0.092995733604061853 -0.107048529518761 0 0.096685922694633608 -0.12217726802094769 0 0.1059855612246009 -0.10937925254553189 0 0.11339254818201611 -0.12140938064550651 0 0.12265221373467421 -0.1123696964466496 0 0.12964966193745059 -0.1213101726902356 0 0.1059855612246009 -0.10937925254553189 0 0.11339254818201611 -0.12140938064550651 0 0.12265221373467421 -0.1123696964466496 0 0.1059855612246009 -0.10937925254553189 0 0.12265221373467421 -0.1123696964466496 0 0.12265221373467421 -0.1123696964466496 0 0.12964966193745059 -0.1213101726902356 0 0.13931886624474771 -0.11536014034776711 0 0.12265221373467421 -0.1123696964466496 0 0.13931886624474771 -0.11536014034776711 0 0.13344917037337459 -0.1071754627187676 0 0.12265221373467421 -0.1123696964466496 0 0.13931886624474771 -0.11536014034776711 0 0.13931886624474771 -0.11536014034776711 0 0.13344917037337459 -0.1071754627187676 0 0.12964966193745059 -0.1213101726902356 0 0.13931886624474771 -0.11536014034776711 0 0.13665801173578701 -0.12910588202315659 0 0.13344917037337459 -0.1071754627187676 0 0.15975888209824449 -0.1122746729143429 0 0.13931886624474771 -0.11536014034776711 0 0.15108996265459629 -0.13177370445154221 0 0.13931886624474771 -0.11536014034776711 0 0.16281468107875349 -0.1195759188989603 0 0.13931886624474771 -0.11536014034776711 0 0.16281468107875349 -0.1195759188989603 0 0.15108996265459629 -0.13177370445154221 0 0.13931886624474771 -0.11536014034776711 0 0.16281468107875349 -0.1195759188989603 0 0.15975888209824449 -0.1122746729143429 0 0.13931886624474771 -0.11536014034776711 0 0.13344917037337459 -0.1071754627187676 0 0.15975888209824449 -0.1122746729143429 0 0.14876158825613581 -0.098592984100422221 0 0.13344917037337459 -0.1071754627187676 0 0.15975888209824449 -0.1122746729143429 0 0.14876158825613581 -0.098592984100422221 0 0.13678319325769711 -0.095172800868878554 0 0.13344917037337459 -0.1071754627187676 0 0.1243453031651181 -0.094481071065502048 0 0.13344917037337459 -0.1071754627187676 0 0.1243453031651181 -0.094481071065502048 0 0.13678319325769711 -0.095172800868878554 0 0.13344917037337459 -0.1071754627187676 0 0.12104178206391331 -0.088659119533710057 0 0.1293390599537331 -0.088224873507981014 0 0.12668922191599491 -0.081733923457871296 0 0.1243453031651181 -0.094481071065502048 0 0.13678319325769711 -0.095172800868878554 0 0.1293390599537331 -0.088224873507981014 0 0.12668922191599491 -0.081733923457871296 0 0.1378115431610088 -0.083271756943258279 0 0.12740287591615579 -0.070697462545633444 0 0.1293390599537331 -0.088224873507981014 0 0.12668922191599491 -0.081733923457871296 0 0.1378115431610088 -0.083271756943258279 0 0.13678319325769711 -0.095172800868878554 0 0.1293390599537331 -0.088224873507981014 0 0.1378115431610088 -0.083271756943258279 0 0.12740287591615579 -0.070697462545633444 0 0.14121350967050419 -0.068932601431079529 0 0.1334002801649562 -0.05230786019283646 0 0.1378115431610088 -0.083271756943258279 0 0.12740287591615579 -0.070697462545633444 0 0.14121350967050419 -0.068932601431079529 0 0.14121350967050419 -0.068932601431079529 0 0.15702922041250281 -0.083108303310116788 0 0.1504236286978971 -0.055277624163552627 0 0.15702922041250281 -0.083108303310116788 0 0.1504236286978971 -0.055277624163552627 0 0.1378115431610088 -0.083271756943258279 0 0.14121350967050419 -0.068932601431079529 0 0.15702922041250281 -0.083108303310116788 0 0.14876158825613581 -0.098592984100422221 0 0.1378115431610088 -0.083271756943258279 0 0.15702922041250281 -0.083108303310116788 0 0.14876158825613581 -0.098592984100422221 0 0.13678319325769711 -0.095172800868878554 0 0.1378115431610088 -0.083271756943258279 0 0.15702922041250281 -0.083108303310116788 0 0.16518411033711081 -0.062794413889140296 0 0.1504236286978971 -0.055277624163552627 0 0.15702922041250281 -0.083108303310116788 0 0.16518411033711081 -0.062794413889140296 0 0.1792273223828893 -0.071840034670372005 0 0.15702922041250281 -0.083108303310116788 0 0.1792273223828893 -0.071840034670372005 0 0.18656146502407009 -0.099191686995635492 0 0.1792273223828893 -0.071840034670372005 0 0.18656146502407009 -0.099191686995635492 0 0.18656146502407009 -0.099191686995635492 0 0.1636348121271084 -0.11093898245668091 0 0.19389560766525399 -0.1265433393208982 0 0.1636348121271084 -0.11093898245668091 0 0.17024040384171471 -0.13876966160324469 0 0.16281468107875349 -0.1195759188989603 0 0.1636348121271084 -0.11093898245668091 0 0.17024040384171471 -0.13876966160324469 0 0.16281468107875349 -0.1195759188989603 0 0.1636348121271084 -0.11093898245668091 0 0.15975888209824449 -0.1122746729143429 0 0.15702922041250281 -0.083108303310116788 0 0.1636348121271084 -0.11093898245668091 0 0.15702922041250281 -0.083108303310116788 0 0.18656146502407009 -0.099191686995635492 0 0.1636348121271084 -0.11093898245668091 0 0.14876158825613581 -0.098592984100422221 0 0.1636348121271084 -0.11093898245668091 0 0.15975888209824449 -0.1122746729143429 0 0.14876158825613581 -0.098592984100422221 0 0.15702922041250281 -0.083108303310116788 0 0.1636348121271084 -0.11093898245668091 0 0.13774245582409919 -0.0018493063532995979 0 0.14381803698329129 -0.027446945016988598 0 0.15823534656543101 -0.012348734459605701 0 0.13774245582409919 -0.0018493063532995979 0 0.14381803698329129 -0.027446945016988598 0 0.15817022831801089 0.0066894327835327694 0 0.13774245582409919 -0.0018493063532995979 0 0.15823534656543101 -0.012348734459605701 0 0.1209876411747203 -0.01358903652135897 0 0.13774245582409919 -0.0018493063532995979 0 0.14381803698329129 -0.027446945016988598 0 0.1209876411747203 -0.01358903652135897 0 0.1249114752804408 -0.0025660630866009781 0 0.13774245582409919 -0.0018493063532995979 0 0.13013997002243219 0.0026182745816751701 0 0.1249114752804408 -0.0025660630866009781 0 0.13774245582409919 -0.0018493063532995979 0 0.1209876411747203 -0.01358903652135897 0 0.14381803698329129 -0.027446945016988598 0 0.1209876411747203 -0.01358903652135897 0 0.14381803698329129 -0.027446945016988598 0 0.1271602294557064 -0.036193405176865957 0 0.14381803698329129 -0.027446945016988598 0 0.1567339589214595 -0.025525852674678849 0 0.15823534656543101 -0.012348734459605701 0 0.14381803698329129 -0.027446945016988598 0 0.15785560836250051 -0.03596766368104827 0 0.1567339589214595 -0.025525852674678849 0 0.14381803698329129 -0.027446945016988598 0 0.1334002801649562 -0.05230786019283646 0 0.1504236286978971 -0.055277624163552627 0 0.14381803698329129 -0.027446945016988598 0 0.1504236286978971 -0.055277624163552627 0 0.15785560836250051 -0.03596766368104827 0 0.14381803698329129 -0.027446945016988598 0 0.1504236286978971 -0.055277624163552627 0 0.14381803698329129 -0.027446945016988598 0 0.15785560836250051 -0.03596766368104827 0 0.14381803698329129 -0.027446945016988598 0 0.1271602294557064 -0.036193405176865957 0 0.1334002801649562 -0.05230786019283646 0 0.11690586381071071 -0.057460347208690248 0 0.12740287591615579 -0.070697462545633444 0 0.1334002801649562 -0.05230786019283646 0 0.11690586381071071 -0.057460347208690248 0 0.1271602294557064 -0.036193405176865957 0 0.1334002801649562 -0.05230786019283646 0 0.14121350967050419 -0.068932601431079529 0 0.1334002801649562 -0.05230786019283646 0 0.1504236286978971 -0.055277624163552627 0 0.16518411033711081 -0.062794413889140296 0 0.1504236286978971 -0.055277624163552627 0 0.17189317974170951 -0.044488382345108379 0 0.17189317974170951 -0.044488382345108379 0 0.18787685870076509 -0.054190376226219403 0 0.1792273223828893 -0.071840034670372005 0 0.17189317974170951 -0.044488382345108379 0 0.1792273223828893 -0.071840034670372005 0 0.17189317974170951 -0.044488382345108379 0 0.18787685870076509 -0.054190376226219403 0 0.16518411033711081 -0.062794413889140296 0 0.1792273223828893 -0.071840034670372005 0 0.17189317974170951 -0.044488382345108379 0 0.17189317974170951 -0.044488382345108379 0 0.16702684377461549 -0.02634006754107265 0 0.17923602265756489 -0.026666405235484272 0 0.17189317974170951 -0.044488382345108379 0 0.19185168362444169 -0.037299320222317467 0 0.18787685870076509 -0.054190376226219403 0 0.17189317974170951 -0.044488382345108379 0 0.17923602265756489 -0.026666405235484272 0 0.19185168362444169 -0.037299320222317467 0 0.17189317974170951 -0.044488382345108379 0 0.16702684377461549 -0.02634006754107265 0 0.17189317974170951 -0.044488382345108379 0 0.15785560836250051 -0.03596766368104827 0 0.16702684377461549 -0.02634006754107265 0 0.1504236286978971 -0.055277624163552627 0 0.17189317974170951 -0.044488382345108379 0 0.15785560836250051 -0.03596766368104827 0 0.17189317974170951 -0.044488382345108379 0 0.15785560836250051 -0.03596766368104827 0 0.16702684377461549 -0.02634006754107265 0 0.16216050780751659 -0.0081917527370382152 0 0.16702684377461549 -0.02634006754107265 0 0.16528067289576939 -0.01553841934332359 0 0.16216050780751659 -0.0081917527370382152 0 0.16702684377461549 -0.02634006754107265 0 0.16216050780751659 -0.0081917527370382152 0 0.15823534656543101 -0.012348734459605701 0 0.15785560836250051 -0.03596766368104827 0 0.1567339589214595 -0.025525852674678849 0 0.16702684377461549 -0.02634006754107265 0 0.1567339589214595 -0.025525852674678849 0 0.16702684377461549 -0.02634006754107265 0 0.15823534656543101 -0.012348734459605701 0 0.16702684377461549 -0.02634006754107265 0 0.17923602265756489 -0.026666405235484272 0 0.16528067289576939 -0.01553841934332359 0 0.17923602265756489 -0.026666405235484272 0 0.18254578727445081 -0.014914059837383869 0 0.1968179686344034 -0.02141818212369942 0 0.17923602265756489 -0.026666405235484272 0 0.18254578727445081 -0.014914059837383869 0 0.16528067289576939 -0.01553841934332359 0 0.18254578727445081 -0.014914059837383869 0 0.18538464162673801 -0.0032732069809759431 0 0.16528067289576939 -0.01553841934332359 0 0.17962099749985549 0.01029995551185294 0 0.16528067289576939 -0.01553841934332359 0 0.17962099749985549 0.01029995551185294 0 0.18538464162673801 -0.0032732069809759431 0 0.16528067289576939 -0.01553841934332359 0 0.15817022831801089 0.0066894327835327694 0 0.16216050780751659 -0.0081917527370382152 0 0.15823534656543101 -0.012348734459605701 0 0.17962099749985549 0.01029995551185294 0 0.16528067289576939 -0.01553841934332359 0 0.16216050780751659 -0.0081917527370382152 0 0.16216050780751659 -0.0081917527370382152 0 0.15823534656543101 -0.012348734459605701 0 0.15817022831801089 0.0066894327835327694 0 0.16216050780751659 -0.0081917527370382152 0 0.20503796567939631 -0.004218086381737692 0 0.1968179686344034 -0.02141818212369942 0 0.21331354713807671 -0.018549186395736651 0 0.20503796567939631 -0.004218086381737692 0 0.21331354713807671 -0.018549186395736651 0 0.2224695380458673 -0.0076253918173096319 0 0.2275301440843418 0.0064778870739085016 0 0.20503796567939631 -0.004218086381737692 0 0.2224695380458673 -0.0076253918173096319 0 0.18254578727445081 -0.014914059837383869 0 0.18538464162673801 -0.0032732069809759431 0 0.20503796567939631 -0.004218086381737692 0 0.18254578727445081 -0.014914059837383869 0 0.20503796567939631 -0.004218086381737692 0 0.18254578727445081 -0.014914059837383869 0 0.20503796567939631 -0.004218086381737692 0 0.1968179686344034 -0.02141818212369942 0 0.17923602265756489 -0.026666405235484272 0 0.1968179686344034 -0.02141818212369942 0 0.19185168362444169 -0.037299320222317467 0 0.1968179686344034 -0.02141818212369942 0 0.20632302983451969 -0.029762328419138818 0 0.19185168362444169 -0.037299320222317467 0 0.1968179686344034 -0.02141818212369942 0 0.20632302983451969 -0.029762328419138818 0 0.21331354713807671 -0.018549186395736651 0 0.20632302983451969 -0.029762328419138818 0 0.21331354713807671 -0.018549186395736651 0 0.21936971792182261 -0.030112372714501422 0 0.20632302983451969 -0.029762328419138818 0 0.20893151557946729 -0.047941815655296531 0 0.21936971792182261 -0.030112372714501422 0 0.19185168362444169 -0.037299320222317467 0 0.18787685870076509 -0.054190376226219403 0 0.20893151557946729 -0.047941815655296531 0 0.20632302983451969 -0.029762328419138818 0 0.19185168362444169 -0.037299320222317467 0 0.20893151557946729 -0.047941815655296531 0 0.18787685870076509 -0.054190376226219403 0 0.20893151557946729 -0.047941815655296531 0 0.20469956630045461 -0.068641397453135938 0 0.20893151557946729 -0.047941815655296531 0 0.2255166423597979 -0.05989494117469675 0 0.20469956630045461 -0.068641397453135938 0 0.20893151557946729 -0.047941815655296531 0 0.2255166423597979 -0.05989494117469675 0 0.2255166423597979 -0.05989494117469675 0 0.22798384747389699 -0.038641888614088772 0 0.20893151557946729 -0.047941815655296531 0 0.2255166423597979 -0.05989494117469675 0 0.22798384747389699 -0.038641888614088772 0 0.2255166423597979 -0.05989494117469675 0 0.23963375470789819 -0.052325155382711527 0 0.22798384747389699 -0.038641888614088772 0 0.2255166423597979 -0.05989494117469675 0 0.23963375470789819 -0.052325155382711527 0 0.24584071736462981 -0.07454277732428756 0 0.25984983263420558 -0.052534109215792067 0 0.23963375470789819 -0.052325155382711527 0 0.2389777337069609 -0.036012060584692328 0 0.25984983263420558 -0.052534109215792067 0 0.23963375470789819 -0.052325155382711527 0 0.24584071736462981 -0.07454277732428756 0 0.23963375470789819 -0.052325155382711527 0 0.2389777337069609 -0.036012060584692328 0 0.22798384747389699 -0.038641888614088772 0 0.25984983263420558 -0.052534109215792067 0 0.2389777337069609 -0.036012060584692328 0 0.2389777337069609 -0.036012060584692328 0 0.22798384747389699 -0.038641888614088772 0 0.2312819193923672 -0.028135859619231981 0 0.20893151557946729 -0.047941815655296531 0 0.22798384747389699 -0.038641888614088772 0 0.21936971792182261 -0.030112372714501422 0 0.22798384747389699 -0.038641888614088772 0 0.21936971792182261 -0.030112372714501422 0 0.2312819193923672 -0.028135859619231981 0 0.21936971792182261 -0.030112372714501422 0 0.22838444811260791 -0.01764315758351577 0 0.2312819193923672 -0.028135859619231981 0 0.21331354713807671 -0.018549186395736651 0 0.21936971792182261 -0.030112372714501422 0 0.22838444811260791 -0.01764315758351577 0 0.22838444811260791 -0.01764315758351577 0 0.2312819193923672 -0.028135859619231981 0 0.24104784862361561 -0.0212516084445354 0 0.2389777337069609 -0.036012060584692328 0 0.2312819193923672 -0.028135859619231981 0 0.24104784862361561 -0.0212516084445354 0 0.2512375238987517 -0.031481176853805547 0 0.2389777337069609 -0.036012060584692328 0 0.24104784862361561 -0.0212516084445354 0 0.2512375238987517 -0.031481176853805547 0 0.25316046145237819 -0.019959361608505002 0 0.24104784862361561 -0.0212516084445354 0 0.25316046145237819 -0.019959361608505002 0 0.24104784862361561 -0.0212516084445354 0 0.24869902982916139 -0.0078216830558482473 0 0.24104784862361561 -0.0212516084445354 0 0.24869902982916139 -0.0078216830558482473 0 0.2355397684761206 -0.0071777351202999429 0 0.22838444811260791 -0.01764315758351577 0 0.24104784862361561 -0.0212516084445354 0 0.2355397684761206 -0.0071777351202999429 0 0.24383330556498831 0.002616746942265157 0 0.25666829317726342 0.0030971832143192272 0 0.24869902982916139 -0.0078216830558482473 0 0.24383330556498831 0.002616746942265157 0 0.24869902982916139 -0.0078216830558482473 0 0.2355397684761206 -0.0071777351202999429 0 0.2275301440843418 0.0064778870739085016 0 0.2355397684761206 -0.0071777351202999429 0 0.2224695380458673 -0.0076253918173096319 0 0.22838444811260791 -0.01764315758351577 0 0.2355397684761206 -0.0071777351202999429 0 0.2224695380458673 -0.0076253918173096319 0 0.21331354713807671 -0.018549186395736651 0 0.22838444811260791 -0.01764315758351577 0 0.2224695380458673 -0.0076253918173096319 0 0.2013797976927113 -0.1098773851622285 0 0.20423466660577291 -0.091328347144652419 0 0.21930414198827461 -0.1134107985204601 0 0.20423466660577291 -0.091328347144652419 0 0.22241039217403549 -0.086652869847578334 0 0.21930414198827461 -0.1134107985204601 0 0.21930414198827461 -0.1134107985204601 0 0.19389560766525399 -0.1265433393208982 0 0.21930414198827461 -0.1134107985204601 0 0.21698448205753479 -0.13339286411727061 0 0.21930414198827461 -0.1134107985204601 0 0.21698448205753479 -0.13339286411727061 0 0.19389560766525399 -0.1265433393208982 0 0.2013797976927113 -0.1098773851622285 0 0.21930414198827461 -0.1134107985204601 0 0.19389560766525399 -0.1265433393208982 0 0.18656146502407009 -0.099191686995635492 0 0.2013797976927113 -0.1098773851622285 0 0.19389560766525399 -0.1265433393208982 0 0.18656146502407009 -0.099191686995635492 0 0.19389560766525399 -0.1265433393208982 0 0.18656146502407009 -0.099191686995635492 0 0.2013797976927113 -0.1098773851622285 0 0.20423466660577291 -0.091328347144652419 0 0.1792273223828893 -0.071840034670372005 0 0.18656146502407009 -0.099191686995635492 0 0.20423466660577291 -0.091328347144652419 0 0.1792273223828893 -0.071840034670372005 0 0.18787685870076509 -0.054190376226219403 0 0.20469956630045461 -0.068641397453135938 0 0.1792273223828893 -0.071840034670372005 0 0.20469956630045461 -0.068641397453135938 0 0.20423466660577291 -0.091328347144652419 0 0.2255166423597979 -0.05989494117469675 0 0.20469956630045461 -0.068641397453135938 0 0.22241039217403549 -0.086652869847578334 0 0.20469956630045461 -0.068641397453135938 0 0.20423466660577291 -0.091328347144652419 0 0.22241039217403549 -0.086652869847578334 0 0.2255166423597979 -0.05989494117469675 0 0.22241039217403549 -0.086652869847578334 0 0.24584071736462981 -0.07454277732428756 0 0.2255166423597979 -0.05989494117469675 0 0.22241039217403549 -0.086652869847578334 0 0.2255166423597979 -0.05989494117469675 0 0.24584071736462981 -0.07454277732428756 0 0.22241039217403549 -0.086652869847578334 0 0.24584071736462981 -0.07454277732428756 0 0.24273446717886829 -0.10130070599717041 0 0.22241039217403549 -0.086652869847578334 0 0.24273446717886829 -0.10130070599717041 0 0.21930414198827461 -0.1134107985204601 0 0.22241039217403549 -0.086652869847578334 0 0.21930414198827461 -0.1134107985204601 0 0.24273446717886829 -0.10130070599717041 0 0.21930414198827461 -0.1134107985204601 0 0.24273446717886829 -0.10130070599717041 0 0.21930414198827461 -0.1134107985204601 0 0.23712757913743029 -0.12281969200685509 0 0.21930414198827461 -0.1134107985204601 0 0.23712757913743029 -0.12281969200685509 0 0.21698448205753479 -0.13339286411727061 0 0.25280604854845029 -0.1109597930453238 0 0.25901014890428448 -0.12325311030784 0 0.23712757913743029 -0.12281969200685509 0 0.25280604854845029 -0.1109597930453238 0 0.24273446717886829 -0.10130070599717041 0 0.23712757913743029 -0.12281969200685509 0 0.25901014890428448 -0.12325311030784 0 0.23712757913743029 -0.12281969200685509 0 0.24084402420614909 -0.1375470201783103 0 0.25901014890428448 -0.12325311030784 0 0.24084402420614909 -0.1375470201783103 0 0.23712757913743029 -0.12281969200685509 0 0.24084402420614909 -0.1375470201783103 0 0.22940849622728199 -0.13640012658780409 0 0.25533841576965088 -0.14974000274204671 0 0.23034986049565681 -0.15952152335864681 0 0.25533841576965088 -0.14974000274204671 0 0.24084402420614909 -0.1375470201783103 0 0.23034986049565681 -0.15952152335864681 0 0.24084402420614909 -0.1375470201783103 0 0.22267789950801381 -0.15184093004878049 0 0.22940849622728199 -0.13640012658780409 0 0.24084402420614909 -0.1375470201783103 0 0.22267789950801381 -0.15184093004878049 0 0.24084402420614909 -0.1375470201783103 0 0.22267789950801381 -0.15184093004878049 0 0.23034986049565681 -0.15952152335864681 0 0.22267789950801381 -0.15184093004878049 0 0.22940849622728199 -0.13640012658780409 0 0.21698448205753479 -0.13339286411727061 0 0.23712757913743029 -0.12281969200685509 0 0.22940849622728199 -0.13640012658780409 0 0.21698448205753479 -0.13339286411727061 0 0.21698448205753479 -0.13339286411727061 0 0.1992036912375641 -0.1463390896200748 0 0.19389560766525399 -0.1265433393208982 0 0.21698448205753479 -0.13339286411727061 0 0.21466482212679711 -0.15337492971408129 0 0.21698448205753479 -0.13339286411727061 0 0.21466482212679711 -0.15337492971408129 0 0.1992036912375641 -0.1463390896200748 0 0.22267789950801381 -0.15184093004878049 0 0.21698448205753479 -0.13339286411727061 0 0.21466482212679711 -0.15337492971408129 0 0.21466482212679711 -0.15337492971408129 0 0.1992036912375641 -0.1463390896200748 0 0.20451177480987809 -0.1661348399192504 0 0.1992036912375641 -0.1463390896200748 0 0.1889264133351348 -0.15876701986252439 0 0.19541994980710581 -0.16341082961206871 0 0.1992036912375641 -0.1463390896200748 0 0.18443733534882631 -0.14364378434760219 0 0.1826345344703505 -0.1527705380462718 0 0.1992036912375641 -0.1463390896200748 0 0.20451177480987809 -0.1661348399192504 0 0.1992036912375641 -0.1463390896200748 0 0.1889264133351348 -0.15876701986252439 0 0.1826345344703505 -0.1527705380462718 0 0.1992036912375641 -0.1463390896200748 0 0.19389560766525399 -0.1265433393208982 0 0.1992036912375641 -0.1463390896200748 0 0.19389560766525399 -0.1265433393208982 0 0.18443733534882631 -0.14364378434760219 0 0.1956581904456102 -0.17310123143292569 0 0.19328425971385579 -0.18927852371333581 0 0.187421032202051 -0.18667865896779459 0 0.1956581904456102 -0.17310123143292569 0 0.21235083332886789 -0.19536950491811811 0 0.19328425971385579 -0.18927852371333581 0 0.1992036912375641 -0.1463390896200748 0 0.19541994980710581 -0.16341082961206871 0 0.20451177480987809 -0.1661348399192504 0 0.1956581904456102 -0.17310123143292569 0 0.19541994980710581 -0.16341082961206871 0 0.1864825743430098 -0.168430755040025 0 0.1889264133351348 -0.15876701986252439 0 0.19541994980710581 -0.16341082961206871 0 0.1864825743430098 -0.168430755040025 0 0.1956581904456102 -0.17310123143292569 0 0.19541994980710581 -0.16341082961206871 0 0.20451177480987809 -0.1661348399192504 0 0.1956581904456102 -0.17310123143292569 0 0.20451177480987809 -0.1661348399192504 0 0.1956581904456102 -0.17310123143292569 0 0.2053613052216631 -0.1693030439752474 0 0.1956581904456102 -0.17310123143292569 0 0.2053613052216631 -0.1693030439752474 0 0.20451177480987809 -0.1661348399192504 0 0.22267789950801381 -0.15184093004878049 0 0.2053613052216631 -0.1693030439752474 0 0.20451177480987809 -0.1661348399192504 0 0.22267789950801381 -0.15184093004878049 0 0.21466482212679711 -0.15337492971408129 0 0.20451177480987809 -0.1661348399192504 0 0.2053613052216631 -0.1693030439752474 0 0.23034986049565681 -0.15952152335864681 0 0.22267789950801381 -0.15184093004878049 0 0.20451177480987809 -0.1661348399192504 0 0.2053613052216631 -0.1693030439752474 0 0.20451177480987809 -0.1661348399192504 0 0.2053613052216631 -0.1693030439752474 0 0.21235083332886789 -0.19536950491811811 0 0.1956581904456102 -0.17310123143292569 0 0.2053613052216631 -0.1693030439752474 0 0.21235083332886789 -0.19536950491811811 0 0.2053613052216631 -0.1693030439752474 0 0.2223217433285338 -0.1755115045779623 0 0.21235083332886789 -0.19536950491811811 0 0.2223217433285338 -0.1755115045779623 0 0.23609791690472989 -0.1716760272163729 0 0.2301508969132802 -0.1876934404274769 0 0.2223217433285338 -0.1755115045779623 0 0.2301508969132802 -0.1876934404274769 0 0.21235083332886789 -0.19536950491811811 0 0.22267789950801381 -0.15184093004878049 0 0.2053613052216631 -0.1693030439752474 0 0.23034986049565681 -0.15952152335864681 0 0.2053613052216631 -0.1693030439752474 0 0.2223217433285338 -0.1755115045779623 0 0.23034986049565681 -0.15952152335864681 0 0.2223217433285338 -0.1755115045779623 0 0.23034986049565681 -0.15952152335864681 0 0.23609791690472989 -0.1716760272163729 0 0.25533841576965088 -0.14974000274204671 0 0.23034986049565681 -0.15952152335864681 0 0.24301978509334721 -0.16244393948987049 0 0.25029294720335099 -0.16883820464241561 0 0.25533841576965088 -0.14974000274204671 0 0.24301978509334721 -0.16244393948987049 0 0.23034986049565681 -0.15952152335864681 0 0.23609791690472989 -0.1716760272163729 0 0.24301978509334721 -0.16244393948987049 0 0.25029294720335099 -0.16883820464241561 0 0.23609791690472989 -0.1716760272163729 0 0.24301978509334721 -0.16244393948987049 0 0.23609791690472989 -0.1716760272163729 0 0.24484910782225641 -0.1841802587785589 0 0.2301508969132802 -0.1876934404274769 0 0.25029294720335099 -0.16883820464241561 0 0.23609791690472989 -0.1716760272163729 0 0.24484910782225641 -0.1841802587785589 0 0.25337805191613461 -0.19476885043830161 0 0.24484910782225641 -0.1841802587785589 0 0.24088915778383191 -0.2007360895929835 0 0.24484910782225641 -0.1841802587785589 0 0.24088915778383191 -0.2007360895929835 0 0.2301508969132802 -0.1876934404274769 0 0.25337805191613461 -0.19476885043830161 0 0.24088915778383191 -0.2007360895929835 0 0.24968031544965991 -0.20669020366769289 0 0.24088915778383191 -0.2007360895929835 0 0.24968031544965991 -0.20669020366769289 0 0.24698681653261151 -0.2185554892514483 0 0.24088915778383191 -0.2007360895929835 0 0.24698681653261151 -0.2185554892514483 0 0.22639226268297369 -0.20561003379399051 0 0.22639226268297369 -0.20561003379399051 0 0.21934036143606411 -0.22143596586099101 0 0.21235083332886789 -0.19536950491811811 0 0.24698681653261151 -0.2185554892514483 0 0.22639226268297369 -0.20561003379399051 0 0.21934036143606411 -0.22143596586099101 0 0.24088915778383191 -0.2007360895929835 0 0.22639226268297369 -0.20561003379399051 0 0.2301508969132802 -0.1876934404274769 0 0.22639226268297369 -0.20561003379399051 0 0.2301508969132802 -0.1876934404274769 0 0.21235083332886789 -0.19536950491811811 0 0.24282335052033741 -0.23831744091350771 0 0.2359092956362592 -0.2296959963746609 0 0.22492302681093859 -0.24225573033139669 0 0.24362378005441829 -0.25045807312964968 0 0.24282335052033741 -0.23831744091350771 0 0.22492302681093859 -0.24225573033139669 0 0.2567418679230562 -0.23784065145751021 0 0.24362378005441829 -0.25045807312964968 0 0.24282335052033741 -0.23831744091350771 0 0.24282335052033741 -0.23831744091350771 0 0.2359092956362592 -0.2296959963746609 0 0.24604137489327599 -0.22903064662998959 0 0.25185425576643949 -0.23280463130621301 0 0.24282335052033741 -0.23831744091350771 0 0.24604137489327599 -0.22903064662998959 0 0.24698681653261151 -0.2185554892514483 0 0.2359092956362592 -0.2296959963746609 0 0.24604137489327599 -0.22903064662998959 0 0.25263315601073222 -0.22577967530411799 0 0.24698681653261151 -0.2185554892514483 0 0.24604137489327599 -0.22903064662998959 0 0.24698681653261151 -0.2185554892514483 0 0.21934036143606411 -0.22143596586099101 0 0.2359092956362592 -0.2296959963746609 0 0.21934036143606411 -0.22143596586099101 0 0.22492302681093859 -0.24225573033139669 0 0.24698681653261151 -0.2185554892514483 0 0.2359092956362592 -0.2296959963746609 0 0.21934036143606411 -0.22143596586099101 0 0.21934036143606411 -0.22143596586099101 0 0.22492302681093859 -0.24225573033139669 0 0.20735443702654849 -0.25734212299693798 0 0.22492302681093859 -0.24225573033139669 0 0.20737985786470739 -0.23891820624741139 0 0.20735443702654849 -0.25734212299693798 0 0.20737985786470739 -0.23891820624741139 0 0.19660292783236619 -0.24793799953647061 0 0.21934036143606411 -0.22143596586099101 0 0.22492302681093859 -0.24225573033139669 0 0.20737985786470739 -0.23891820624741139 0 0.21934036143606411 -0.22143596586099101 0 0.2012249950985984 -0.22332340093457631 0 0.21934036143606411 -0.22143596586099101 0 0.20737985786470739 -0.23891820624741139 0 0.2012249950985984 -0.22332340093457631 0 0.2012249950985984 -0.22332340093457631 0 0.19105327737657499 -0.2351072932361504 0 0.1831096287611301 -0.22521083600813649 0 0.2012249950985984 -0.22332340093457631 0 0.1831096287611301 -0.22521083600813649 0 0.20737985786470739 -0.23891820624741139 0 0.2012249950985984 -0.22332340093457631 0 0.19105327737657499 -0.2351072932361504 0 0.2012249950985984 -0.22332340093457631 0 0.1917050637528131 -0.21532739468941231 0 0.1831096287611301 -0.22521083600813649 0 0.20737985786470739 -0.23891820624741139 0 0.19660292783236619 -0.24793799953647061 0 0.19105327737657499 -0.2351072932361504 0 0.1806241390616336 -0.26038437566538281 0 0.19660292783236619 -0.24793799953647061 0 0.19105327737657499 -0.2351072932361504 0 0.21235083332886789 -0.19536950491811811 0 0.20264002355158711 -0.20982772398706309 0 0.1966519168267459 -0.19908624559522251 0 0.21934036143606411 -0.22143596586099101 0 0.21235083332886789 -0.19536950491811811 0 0.20264002355158711 -0.20982772398706309 0 0.21934036143606411 -0.22143596586099101 0 0.21235083332886789 -0.19536950491811811 0 0.21934036143606411 -0.22143596586099101 0 0.2012249950985984 -0.22332340093457631 0 0.20264002355158711 -0.20982772398706309 0 0.20264002355158711 -0.20982772398706309 0 0.19032347832148411 -0.20512626920605079 0 0.1966519168267459 -0.19908624559522251 0 0.2012249950985984 -0.22332340093457631 0 0.20264002355158711 -0.20982772398706309 0 0.1917050637528131 -0.21532739468941231 0 0.1917050637528131 -0.21532739468941231 0 0.19032347832148411 -0.20512626920605079 0 0.1812271930312658 -0.21314874331123471 0 0.20264002355158711 -0.20982772398706309 0 0.1917050637528131 -0.21532739468941231 0 0.19032347832148411 -0.20512626920605079 0 0.19032347832148411 -0.20512626920605079 0 0.1966519168267459 -0.19908624559522251 0 0.1846609892179342 -0.19582920615154481 0 0.21235083332886789 -0.19536950491811811 0 0.1966519168267459 -0.19908624559522251 0 0.19328425971385579 -0.18927852371333581 0 0.1966519168267459 -0.19908624559522251 0 0.19328425971385579 -0.18927852371333581 0 0.1846609892179342 -0.19582920615154481 0 0.19328425971385579 -0.18927852371333581 0 0.1846609892179342 -0.19582920615154481 0 0.187421032202051 -0.18667865896779459 0 0.17608068943080379 -0.18850567457337211 0 0.1846609892179342 -0.19582920615154481 0 0.187421032202051 -0.18667865896779459 0 0.17608068943080379 -0.18850567457337211 0 0.17383619746868631 -0.20028707887055069 0 0.1846609892179342 -0.19582920615154481 0 0.19032347832148411 -0.20512626920605079 0 0.1846609892179342 -0.19582920615154481 0 0.18127766582301219 -0.20423912588079671 0 0.17383619746868631 -0.20028707887055069 0 0.1846609892179342 -0.19582920615154481 0 0.18127766582301219 -0.20423912588079671 0 0.19032347832148411 -0.20512626920605079 0 0.18127766582301219 -0.20423912588079671 0 0.1812271930312658 -0.21314874331123471 0 0.1917050637528131 -0.21532739468941231 0 0.1812271930312658 -0.21314874331123471 0 0.1831096287611301 -0.22521083600813649 0 0.1812271930312658 -0.21314874331123471 0 0.1702282593754289 -0.20911381835004639 0 0.16912331005992101 -0.21959741801459509 0 0.17383619746868631 -0.20028707887055069 0 0.18127766582301219 -0.20423912588079671 0 0.1702282593754289 -0.20911381835004639 0 0.18127766582301219 -0.20423912588079671 0 0.1812271930312658 -0.21314874331123471 0 0.1702282593754289 -0.20911381835004639 0 0.17383619746868631 -0.20028707887055069 0 0.1702282593754289 -0.20911381835004639 0 0.1565031884159975 -0.20391011771381831 0 0.1702282593754289 -0.20911381835004639 0 0.15774482556765659 -0.21644142814412271 0 0.16912331005992101 -0.21959741801459509 0 0.1702282593754289 -0.20911381835004639 0 0.15774482556765659 -0.21644142814412271 0 0.1565031884159975 -0.20391011771381831 0 0.17608068943080379 -0.18850567457337211 0 0.1565031884159975 -0.20391011771381831 0 0.17608068943080379 -0.18850567457337211 0 0.17383619746868631 -0.20028707887055069 0 0.1565031884159975 -0.20391011771381831 0 0.17608068943080379 -0.18850567457337211 0 0.1565031884159975 -0.20391011771381831 0 0.15160335307843359 -0.1903460579242143 0 0.1806241390616336 -0.26038437566538281 0 0.19105327737657499 -0.2351072932361504 0 0.1806241390616336 -0.26038437566538281 0 0.17948050949487979 -0.23953172889813079 0 0.17152651884717751 -0.24510378973914779 0 0.1806241390616336 -0.26038437566538281 0 0.19105327737657499 -0.2351072932361504 0 0.17948050949487979 -0.23953172889813079 0 0.17948050949487979 -0.23953172889813079 0 0.1710889834278827 -0.2318523498418365 0 0.17152651884717751 -0.24510378973914779 0 0.17948050949487979 -0.23953172889813079 0 0.1831096287611301 -0.22521083600813649 0 0.1710889834278827 -0.2318523498418365 0 0.19105327737657499 -0.2351072932361504 0 0.17948050949487979 -0.23953172889813079 0 0.1831096287611301 -0.22521083600813649 0 0.1812271930312658 -0.21314874331123471 0 0.1831096287611301 -0.22521083600813649 0 0.16912331005992101 -0.21959741801459509 0 0.1831096287611301 -0.22521083600813649 0 0.16912331005992101 -0.21959741801459509 0 0.1710889834278827 -0.2318523498418365 0 0.15774482556765659 -0.21644142814412271 0 0.16912331005992101 -0.21959741801459509 0 0.15780617543084069 -0.22954980648014819 0 0.15780617543084069 -0.22954980648014819 0 0.1710889834278827 -0.2318523498418365 0 0.15881220305553889 -0.2412864451989051 0 0.16912331005992101 -0.21959741801459509 0 0.15780617543084069 -0.22954980648014819 0 0.1710889834278827 -0.2318523498418365 0 0.16302435918981631 -0.25696886028418142 0 0.15881220305553889 -0.2412864451989051 0 0.17152651884717751 -0.24510378973914779 0 0.1710889834278827 -0.2318523498418365 0 0.15881220305553889 -0.2412864451989051 0 0.17152651884717751 -0.24510378973914779 0 0.16302435918981631 -0.25696886028418142 0 0.15881220305553889 -0.2412864451989051 0 0.14004499930757069 -0.2480871212240183 0 0.15881220305553889 -0.2412864451989051 0 0.14583465614199451 -0.2327851767730956 0 0.14004499930757069 -0.2480871212240183 0 0.15780617543084069 -0.22954980648014819 0 0.15881220305553889 -0.2412864451989051 0 0.14583465614199451 -0.2327851767730956 0 0.15774482556765659 -0.21644142814412271 0 0.15780617543084069 -0.22954980648014819 0 0.14511488183191421 -0.21727066394088679 0 0.15780617543084069 -0.22954980648014819 0 0.14583465614199451 -0.2327851767730956 0 0.14511488183191421 -0.21727066394088679 0 0.14583465614199451 -0.2327851767730956 0 0.13097874107705609 -0.22778041309205979 0 0.14511488183191421 -0.21727066394088679 0 0.13097874107705609 -0.22778041309205979 0 0.14511488183191421 -0.21727066394088679 0 0.13464923621491101 -0.21209204700083781 0 0.12802740959780479 -0.2606020347716278 0 0.11706563942532711 -0.23920538216385021 0 0.14004499930757069 -0.2480871212240183 0 0.11706563942532711 -0.23920538216385021 0 0.14004499930757069 -0.2480871212240183 0 0.14583465614199451 -0.2327851767730956 0 0.13097874107705609 -0.22778041309205979 0 0.14004499930757069 -0.2480871212240183 0 0.11706563942532711 -0.23920538216385021 0 0.13097874107705609 -0.22778041309205979 0 0.14004499930757069 -0.2480871212240183 0 0.15160335307843359 -0.1903460579242143 0 0.1435448558908847 -0.2039129610712761 0 0.1295759343948453 -0.19896847116985861 0 0.1565031884159975 -0.20391011771381831 0 0.15160335307843359 -0.1903460579242143 0 0.1435448558908847 -0.2039129610712761 0 0.15774482556765659 -0.21644142814412271 0 0.1565031884159975 -0.20391011771381831 0 0.14511488183191421 -0.21727066394088679 0 0.14511488183191421 -0.21727066394088679 0 0.1435448558908847 -0.2039129610712761 0 0.13464923621491101 -0.21209204700083781 0 0.1565031884159975 -0.20391011771381831 0 0.14511488183191421 -0.21727066394088679 0 0.1435448558908847 -0.2039129610712761 0 0.1435448558908847 -0.2039129610712761 0 0.13464923621491101 -0.21209204700083781 0 0.1295759343948453 -0.19896847116985861 0 0.1240317678798548 -0.21252772573010759 0 0.13097874107705609 -0.22778041309205979 0 0.13464923621491101 -0.21209204700083781 0 0.1240317678798548 -0.21252772573010759 0 0.13464923621491101 -0.21209204700083781 0 0.1295759343948453 -0.19896847116985861 0 0.15160335307843359 -0.1903460579242143 0 0.1295759343948453 -0.19896847116985861 0 0.15160335307843359 -0.1903460579242143 0 0.1295759343948453 -0.19896847116985861 0 0.1309978963343818 -0.1858500692963648 0 0.1240317678798548 -0.21252772573010759 0 0.1309978963343818 -0.1858500692963648 0 0.1240317678798548 -0.21252772573010759 0 0.1295759343948453 -0.19896847116985861 0 0.1309978963343818 -0.1858500692963648 0 0.11927970628785881 -0.18114948218926391 0 0.1309978963343818 -0.1858500692963648 0 0.12854491556810799 -0.1760030229322018 0 0.1309978963343818 -0.1858500692963648 0 0.12854491556810799 -0.1760030229322018 0 0.13769971686832241 -0.1716245471824373 0 0.1309978963343818 -0.1858500692963648 0 0.14558293277596909 -0.17883285235322219 0 0.13769971686832241 -0.1716245471824373 0 0.15160335307843359 -0.1903460579242143 0 0.1309978963343818 -0.1858500692963648 0 0.14558293277596909 -0.17883285235322219 0 0.14558293277596909 -0.17883285235322219 0 0.15065945290621571 -0.16967869441873679 0 0.13769971686832241 -0.1716245471824373 0 0.14558293277596909 -0.17883285235322219 0 0.15065945290621571 -0.16967869441873679 0 0.15695424469249189 -0.1766648929443575 0 0.15160335307843359 -0.1903460579242143 0 0.14558293277596909 -0.17883285235322219 0 0.15695424469249189 -0.1766648929443575 0 0.15523505774402299 -0.16106495321593631 0 0.14465761986790041 -0.16106652977041119 0 0.15149642215751491 -0.15345687872896729 0 0.15523505774402299 -0.16106495321593631 0 0.15065945290621571 -0.16967869441873679 0 0.14465761986790041 -0.16106652977041119 0 0.15523505774402299 -0.16106495321593631 0 0.15149642215751491 -0.15345687872896729 0 0.15796855636421789 -0.15425990008636581 0 0.15523505774402299 -0.16106495321593631 0 0.15065945290621571 -0.16967869441873679 0 0.16032339119919631 -0.16765110084575671 0 0.15065945290621571 -0.16967869441873679 0 0.15695424469249189 -0.1766648929443575 0 0.16032339119919631 -0.16765110084575671 0 0.15065945290621571 -0.16967869441873679 0 0.14465761986790041 -0.16106652977041119 0 0.13769971686832241 -0.1716245471824373 0 0.14465761986790041 -0.16106652977041119 0 0.13769971686832241 -0.1716245471824373 0 0.13304511958170759 -0.15603928023025609 0 0.1245989487852746 -0.16746170591335791 0 0.13769971686832241 -0.1716245471824373 0 0.13304511958170759 -0.15603928023025609 0 0.1245989487852746 -0.16746170591335791 0 0.12854491556810799 -0.1760030229322018 0 0.13769971686832241 -0.1716245471824373 0 0.11673110272002429 -0.1511819306975003 0 0.1280100492192375 -0.14625392370172549 0 0.13304511958170759 -0.15603928023025609 0 0.12470005953504019 -0.13497765168463219 0 0.1280100492192375 -0.14625392370172549 0 0.13853150830710029 -0.14210774094160569 0 0.1280100492192375 -0.14625392370172549 0 0.13853150830710029 -0.14210774094160569 0 0.13304511958170759 -0.15603928023025609 0 0.14465761986790041 -0.16106652977041119 0 0.13304511958170759 -0.15603928023025609 0 0.1428862197574661 -0.15137223805060729 0 0.13853150830710029 -0.14210774094160569 0 0.13304511958170759 -0.15603928023025609 0 0.1428862197574661 -0.15137223805060729 0 0.12470005953504019 -0.13497765168463219 0 0.12964966193745059 -0.1213101726902356 0 0.13665801173578701 -0.12910588202315659 0 0.12470005953504019 -0.13497765168463219 0 0.13853150830710029 -0.14210774094160569 0 0.13665801173578701 -0.12910588202315659 0 0.13931886624474771 -0.11536014034776711 0 0.13665801173578701 -0.12910588202315659 0 0.15108996265459629 -0.13177370445154221 0 0.13853150830710029 -0.14210774094160569 0 0.13665801173578701 -0.12910588202315659 0 0.15108996265459629 -0.13177370445154221 0 0.13853150830710029 -0.14210774094160569 0 0.15108996265459629 -0.13177370445154221 0 0.1525903430752199 -0.14312533867788779 0 0.15108996265459629 -0.13177370445154221 0 0.1525903430752199 -0.14312533867788779 0 0.16286105906444451 -0.14818726855531769 0 0.14465761986790041 -0.16106652977041119 0 0.1428862197574661 -0.15137223805060729 0 0.15149642215751491 -0.15345687872896729 0 0.13853150830710029 -0.14210774094160569 0 0.1428862197574661 -0.15137223805060729 0 0.1525903430752199 -0.14312533867788779 0 0.1428862197574661 -0.15137223805060729 0 0.1525903430752199 -0.14312533867788779 0 0.15149642215751491 -0.15345687872896729 0 0.1525903430752199 -0.14312533867788779 0 0.1562290951653493 -0.1497573465121346 0 0.15149642215751491 -0.15345687872896729 0 0.1562290951653493 -0.1497573465121346 0 0.15149642215751491 -0.15345687872896729 0 0.15796855636421789 -0.15425990008636581 0 0.15108996265459629 -0.13177370445154221 0 0.16169409572515531 -0.1431868679877997 0 0.16286105906444451 -0.14818726855531769 0 0.16286105906444451 -0.14818726855531769 0 0.1739450046380617 -0.1543778857538973 0 0.17463215547429259 -0.1646008326590932 0 0.15796855636421789 -0.15425990008636581 0 0.16286105906444451 -0.14818726855531769 0 0.1633200579596662 -0.160266850279698 0 0.1562290951653493 -0.1497573465121346 0 0.15796855636421789 -0.15425990008636581 0 0.16286105906444451 -0.14818726855531769 0 0.1525903430752199 -0.14312533867788779 0 0.1562290951653493 -0.1497573465121346 0 0.16286105906444451 -0.14818726855531769 0 0.16169409572515531 -0.1431868679877997 0 0.16286105906444451 -0.14818726855531769 0 0.17024040384171471 -0.13876966160324469 0 0.16286105906444451 -0.14818726855531769 0 0.17024040384171471 -0.13876966160324469 0 0.1739450046380617 -0.1543778857538973 0 0.16169409572515531 -0.1431868679877997 0 0.17024040384171471 -0.13876966160324469 0 0.16281468107875349 -0.1195759188989603 0 0.16145978582505499 -0.1333265382353867 0 0.17024040384171471 -0.13876966160324469 0 0.15108996265459629 -0.13177370445154221 0 0.16286105906444451 -0.14818726855531769 0 0.16281468107875349 -0.1195759188989603 0 0.15108996265459629 -0.13177370445154221 0 0.16145978582505499 -0.1333265382353867 0 0.15108996265459629 -0.13177370445154221 0 0.16169409572515531 -0.1431868679877997 0 0.16145978582505499 -0.1333265382353867 0 0.16169409572515531 -0.1431868679877997 0 0.16145978582505499 -0.1333265382353867 0 0.17024040384171471 -0.13876966160324469 0 0.19389560766525399 -0.1265433393208982 0 0.17024040384171471 -0.13876966160324469 0 0.18443733534882631 -0.14364378434760219 0 0.19389560766525399 -0.1265433393208982 0 0.17024040384171471 -0.13876966160324469 0 0.1636348121271084 -0.11093898245668091 0 0.19389560766525399 -0.1265433393208982 0 0.17024040384171471 -0.13876966160324469 0 0.1739450046380617 -0.1543778857538973 0 0.1826345344703505 -0.1527705380462718 0 0.18192762644419319 -0.16086646172145369 0 0.17024040384171471 -0.13876966160324469 0 0.1739450046380617 -0.1543778857538973 0 0.18443733534882631 -0.14364378434760219 0 0.17024040384171471 -0.13876966160324469 0 0.1739450046380617 -0.1543778857538973 0 0.1739450046380617 -0.1543778857538973 0 0.18443733534882631 -0.14364378434760219 0 0.1826345344703505 -0.1527705380462718 0 0.1889264133351348 -0.15876701986252439 0 0.1826345344703505 -0.1527705380462718 0 0.18192762644419319 -0.16086646172145369 0 0.1889264133351348 -0.15876701986252439 0 0.18192762644419319 -0.16086646172145369 0 0.1864825743430098 -0.168430755040025 0 0.1739450046380617 -0.1543778857538973 0 0.1776496054344093 -0.16998610990454979 0 0.1739450046380617 -0.1543778857538973 0 0.17463215547429259 -0.1646008326590932 0 0.1776496054344093 -0.16998610990454979 0 0.1739450046380617 -0.1543778857538973 0 0.18192762644419319 -0.16086646172145369 0 0.1776496054344093 -0.16998610990454979 0 0.1721974419691801 -0.1695030378013247 0 0.17463215547429259 -0.1646008326590932 0 0.1776496054344093 -0.16998610990454979 0 0.1721974419691801 -0.1695030378013247 0 0.1776496054344093 -0.16998610990454979 0 0.17154163021032751 -0.17454804224230261 0 0.18192762644419319 -0.16086646172145369 0 0.1776496054344093 -0.16998610990454979 0 0.1864825743430098 -0.168430755040025 0 0.1956581904456102 -0.17310123143292569 0 0.1736307717620218 -0.18172364467857 0 0.1956581904456102 -0.17310123143292569 0 0.17608068943080379 -0.18850567457337211 0 0.1956581904456102 -0.17310123143292569 0 0.17608068943080379 -0.18850567457337211 0 0.1736307717620218 -0.18172364467857 0 0.1956581904456102 -0.17310123143292569 0 0.1864825743430098 -0.168430755040025 0 0.1736307717620218 -0.18172364467857 0 0.1956581904456102 -0.17310123143292569 0 0.17608068943080379 -0.18850567457337211 0 0.187421032202051 -0.18667865896779459 0 0.1776496054344093 -0.16998610990454979 0 0.1736307717620218 -0.18172364467857 0 0.17154163021032751 -0.17454804224230261 0 0.1776496054344093 -0.16998610990454979 0 0.1864825743430098 -0.168430755040025 0 0.1736307717620218 -0.18172364467857 0 0.1721974419691801 -0.1695030378013247 0 0.17154163021032751 -0.17454804224230261 0 0.16626124071815501 -0.17265494122581621 0 0.17608068943080379 -0.18850567457337211 0 0.15160335307843359 -0.1903460579242143 0 0.1736307717620218 -0.18172364467857 0 0.1736307717620218 -0.18172364467857 0 0.17154163021032751 -0.17454804224230261 0 0.16399824809228589 -0.17918751580305209 0 0.15160335307843359 -0.1903460579242143 0 0.1736307717620218 -0.18172364467857 0 0.15160335307843359 -0.1903460579242143 0 0.1736307717620218 -0.18172364467857 0 0.16399824809228589 -0.17918751580305209 0 0.17154163021032751 -0.17454804224230261 0 0.16626124071815501 -0.17265494122581621 0 0.16399824809228589 -0.17918751580305209 0 0.15160335307843359 -0.1903460579242143 0 0.15695424469249189 -0.1766648929443575 0 0.16399824809228589 -0.17918751580305209 0 0.16626124071815501 -0.17265494122581621 0 0.15695424469249189 -0.1766648929443575 0 0.16032339119919631 -0.16765110084575671 0 0.16626124071815501 -0.17265494122581621 0 0.15695424469249189 -0.1766648929443575 0 0.16399824809228589 -0.17918751580305209 0 0.16286105906444451 -0.14818726855531769 0 0.17463215547429259 -0.1646008326590932 0 0.16286105906444451 -0.14818726855531769 0 0.17463215547429259 -0.1646008326590932 0 0.1633200579596662 -0.160266850279698 0 0.16032339119919631 -0.16765110084575671 0 0.1633200579596662 -0.160266850279698 0 0.16736593307487549 -0.16691957509603589 0 0.15523505774402299 -0.16106495321593631 0 0.15796855636421789 -0.15425990008636581 0 0.1633200579596662 -0.160266850279698 0 0.15523505774402299 -0.16106495321593631 0 0.16032339119919631 -0.16765110084575671 0 0.1633200579596662 -0.160266850279698 0 0.17463215547429259 -0.1646008326590932 0 0.1633200579596662 -0.160266850279698 0 0.16736593307487549 -0.16691957509603589 0 0.1721974419691801 -0.1695030378013247 0 0.17463215547429259 -0.1646008326590932 0 0.16736593307487549 -0.16691957509603589 0 0.1721974419691801 -0.1695030378013247 0 0.16626124071815501 -0.17265494122581621 0 0.16736593307487549 -0.16691957509603589 0 0.16626124071815501 -0.17265494122581621 0 0.16032339119919631 -0.16765110084575671 0 0.16736593307487549 -0.16691957509603589 0 
</DataArray>
</Points>
<Cells>
<DataArray type="UInt32" Name="connectivity" format="ascii">
0 1 2 3 4 5 6 7 8 9 10 11 12 13 14 15 16 17 18 19 20 21 22 23 24 25 26 27 28 29 30 31 32 33 34 35 36 37 38 39 40 41 42 43 44 45 46 47 48 49 50 51 52 53 54 55 56 57 58 59 60 61 62 63 64 65 66 67 68 69 70 71 72 73 74 75 76 77 78 79 80 81 82 83 84 85 86 87 88 89 90 91 92 93 94 95 96 97 98 99 100 101 102 103 104 105 106 107 108 109 110 111 112 113 114 115 116 117 118 119 120 121 122 123 124 125 126 127 128 129 130 131 132 133 134 135 136 137 138 139 140 141 142 143 144 145 146 147 148 149 150 151 152 153 154 155 156 157 158 159 160 161 162 163 164 165 166 167 168 169 170 171 172 173 174 175 176 177 178 179 180 181 182 183 184 185 186 187 188 189 190 191 192 193 194 195 196 197 198 199 200 201 202 203 204 205 206 207 208 209 210 211 212 213 214 215 216 217 218 219 220 221 222 223 224 225 226 227 228 229 230 231 232 233 234 235 236 237 238 239 240 241 242 243 244 245 246 247 248 249 250 251 252 253 254 255 256 257 258 259 260 261 262 263 264 265 266 267 268 269 270 271 272 273 274 275 276 277 278 279 280 281 282 283 284 285 286 287 288 289 290 291 292 293 294 295 296 297 298 299 300 301 302 303 304 305 306 307 308 309 310 311 312 313 314 315 316 317 318 319 320 321 322 323 324 325 326 327 328 329 330 331 332 333 334 335 336 337 338 339 340 341 342 343 344 345 346 347 348 349 350 351 352 353 354 355 356 357 358 359 360 361 362 363 364 365 366 367 368 369 370 371 372 373 374 375 376 377 378 379 380 381 382 383 384 385 386 387 388 389 390 391 392 393 394 395 396 397 398 399 400 401 402 403 404 405 406 407 408 409 410 411 412 413 414 415 416 417 418 419 420 421 422 423 424 425 426 427 428 429 430 431 432 433 434 435 436 437 438 439 440 441 442 443 444 445 446 447 448 449 450 451 452 453 454 455 456 457 458 459 460 461 462 463 464 465 466 467 468 469 470 471 472 473 474 475 476 477 478 479 480 481 482 483 484 485 486 487 488 489 490 491 492 493 494 495 496 497 498 499 500 501 502 503 504 505 506 507 508 509 510 511 512 513 514 515 516 517 518 519 520 521 522 523 524 525 526 527 528 529 530 531 532 533 534 535 536 537 538 539 540 541 542 543 544 545 546 547 548 549 550 551 552 553 554 555 556 557 558 559 560 561 562 563 564 565 566 567 568 569 570 571 572 573 574 575 576 577 578 579 580 581 582 583 584 585 586 587 588 589 590 591 592 593 594 595 596 597 598 599 600 601 602 603 604 605 606 607 608 609 610 611 612 613 614 615 616 617 618 619 620 621 622 623 624 625 626 627 628 629 630 631 632 633 634 635 636 637 638 639 640 641 642 643 644 645 646 647 648 649 650 651 652 653 654 655 656 657 658 659 660 661 662 663 664 665 666 667 668 669 670 671 672 673 674 675 676 677 678 679 680 681 682 683 684 685 686 687 688 689 690 691 692 693 694 695 696 697 698 699 700 701 702 703 704 705 706 707 708 709 710 711 712 713 714 715 716 717 718 719 720 721 722 723 724 725 726 727 728 729 730 731 732 733 734 735 736 737 738 739 740 741 742 743 744 745 746 747 748 749 750 751 752 753 754 755 756 757 758 759 760 761 762 763 764 765 766 767 768 769 770 771 772 773 774 775 776 777 778 779 780 781 782 783 784 785 786 787 788 789 790 791 792 793 794 795 796 797 798 799 800 801 802 803 804 805 806 807 808 809 810 811 812 813 814 815 816 817 818 819 820 821 822 823 824 825 826 827 828 829 830 831 832 833 834 835 836 837 838 839 840 841 842 843 844 845 846 847 848 849 850 851 852 853 854 855 856 857 858 859 860 861 862 863 864 865 866 867 868 869 870 871 872 873 874 875 876 877 878 879 880 881 882 883 884 885 886 887 888 889 890 891 892 893 894 895 896 897 898 899 900 901 902 903 904 905 906 907 908 909 910 911 912 913 914 915 916 917 918 919 920 921 922 923 924 925 926 927 928 929 930 931 932 933 934 935 936 937 938 939 940 941 942 943 944 945 946 947 948 949 950 951 952 953 954 955 956 957 958 959 960 961 962 963 964 965 966 967 968 969 970 971 972 973 974 975 976 977 978 979 980 981 982 983 984 985 986 987 988 989 990 991 992 993 994 995 996 997 998 999 1000 1001 1002 1003 1004 1005 1006 1007 1008 1009 1010 1011 1012 1013 1014 1015 1016 1017 1018 1019 1020 1021 1022 1023 1024 1025 1026 1027 1028 1029 1030 1031 1032 1033 1034 1035 1036 1037 1038 1039 1040 1041 1042 1043 1044 1045 1046 1047 1048 1049 1050 1051 1052 1053 1054 1055 1056 1057 1058 1059 1060 1061 1062 1063 1064 1065 1066 1067 1068 1069 1070 1071 1072 1073 1074 1075 1076 1077 1078 1079 1080 1081 1082 1083 1084 1085 1086 1087 1088 1089 1090 1091 1092 1093 1094 1095 1096 1097 1098 1099 1100 1101 1102 1103 1104 1105 1106 1107 1108 1109 1110 1111 1112 1113 1114 1115 1116 1117 1118 1119 1120 1121 1122 1123 1124 1125 1126 1127 1128 1129 1130 1131 1132 1133 1134 1135 1136 1137 1138 1139 1140 1141 1142 1143 1144 1145 1146 1147 1148 1149 1150 1151 1152 1153 1154 1155 1156 1157 1158 1159 1160 1161 1162 1163 1164 1165 1166 1167 1168 1169 1170 1171 1172 1173 1174 1175 1176 1177 1178 1179 1180 1181 1182 1183 1184 1185 1186 1187 1188 1189 1190 1191 1192 1193 1194 1195 1196 1197 1198 1199 1200 1201 1202 1203 1204 1205 1206 1207 1208 1209 1210 1211 1212 1213 1214 1215 1216 1217 1218 1219 1220 1221 1222 1223 1224 1225 1226 1227 1228 1229 1230 1231 1232 1233 1234 1235 1236 1237 1238 1239 1240 1241 1242 1243 1244 1245 1246 1247 1248 1249 1250 1251 1252 1253 1254 1255 1256 1257 1258 1259 1260 1261 1262 1263 1264 1265 1266 1267 1268 1269 1270 1271 1272 1273 1274 1275 1276 1277 1278 1279 1280 1281 1282 1283 1284 1285 1286 1287 1288 1289 1290 1291 1292 1293 1294 1295 1296 1297 1298 1299 1300 1301 1302 1303 1304 1305 1306 1307 1308 1309 1310 1311 1312 1313 1314 1315 1316 1317 1318 1319 1320 1321 1322 1323 1324 1325 1326 1327 1328 1329 1330 1331 1332 1333 1334 1335 1336 1337 1338 1339 1340 1341 1342 1343 1344 1345 1346 1347 1348 1349 1350 1351 1352 1353 1354 1355 1356 1357 1358 1359 1360 1361 1362 1363 1364 1365 1366 1367 1368 1369 1370 1371 1372 1373 1374 1375 1376 1377 1378 1379 1380 1381 1382 1383 1384 1385 1386 1387 1388 1389 1390 1391 1392 1393 1394 1395 1396 1397 1398 1399 1400 1401 1402 1403 1404 1405 1406 1407 1408 1409 1410 1411 1412 1413 1414 1415 1416 1417 1418 1419 1420 1421 1422 1423 1424 1425 1426 1427 1428 1429 1430 1431 1432 1433 1434 1435 1436 1437 1438 1439 1440 1441 1442 1443 1444 1445 1446 1447 1448 1449 1450 1451 1452 1453 1454 1455 1456 1457 1458 1459 1460 1461 1462 1463 1464 1465 1466 1467 1468 1469 1470 1471 1472 1473 1474 1475 1476 1477 1478 1479 1480 1481 1482 1483 1484 1485 1486 1487 1488 1489 1490 1491 1492 1493 1494 1495 1496 1497 1498 1499 1500 1501 1502 1503 1504 1505 1506 1507 1508 1509 1510 1511 1512 1513 1514 1515 1516 1517 1518 1519 1520 1521 1522 1523 1524 1525 1526 1527 1528 1529 1530 1531 1532 1533 1534 1535 1536 1537 1538 1539 1540 1541 1542 1543 1544 1545 1546 1547 1548 1549 1550 1551 1552 1553 1554 1555 1556 1557 1558 1559 1560 1561 1562 1563 1564 1565 1566 1567 1568 1569 1570 1571 1572 1573 1574 1575 1576 1577 1578 1579 1580 1581 1582 1583 1584 1585 1586 1587 1588 1589 1590 1591 1592 1593 1594 1595 1596 1597 1598 1599 1600 1601 1602 1603 1604 1605 1606 1607 1608 1609 1610 1611 1612 1613 1614 1615 1616 1617 1618 1619 1620 1621 1622 1623 1624 1625 1626 1627 1628 1629 1630 1631 1632 1633 1634 1635 1636 1637 1638 1639 1640 1641 1642 1643 1644 1645 1646 1647 1648 1649 1650 1651 1652 1653 1654 1655 1656 1657 1658 1659 1660 1661 1662 1663 1664 1665 1666 1667 1668 1669 1670 1671 1672 1673 1674 1675 1676 1677 1678 1679 1680 1681 1682 1683 1684 1685 1686 1687 1688 1689 1690 1691 1692 1693 1694 1695 1696 1697 1698 1699 1700 1701 1702 1703 1704 1705 1706 1707 1708 1709 1710 1711 1712 1713 1714 1715 1716 1717 1718 1719 1720 1721 1722 1723 1724 1725 1726 1727 1728 1729 1730 1731 1732 1733 1734 1735 1736 1737 1738 1739 1740 1741 1742 1743 1744 1745 1746 1747 1748 1749 1750 1751 1752 1753 1754 1755 1756 1757 1758 1759 1760 1761 1762 1763 1764 1765 1766 1767 1768 1769 1770 1771 1772 1773 1774 1775 1776 1777 1778 1779 1780 1781 1782 1783 1784 1785 1786 1787 1788 1789 1790 1791 1792 1793 1794 1795 1796 1797 1798 1799 1800 1801 1802 1803 1804 1805 1806 1807 1808 1809 1810 1811 1812 1813 1814 1815 1816 1817 1818 1819 1820 1821 1822 1823 1824 1825 1826 1827 1828 1829 1830 1831 1832 1833 1834 1835 1836 1837 1838 1839 1840 1841 1842 1843 1844 1845 1846 1847 1848 1849 1850 1851 1852 1853 1854 1855 1856 1857 1858 1859 1860 1861 1862 1863 1864 1865 1866 1867 1868 1869 1870 1871 1872 1873 1874 1875 1876 1877 1878 1879 1880 1881 1882 1883 1884 1885 1886 1887 1888 1889 1890 1891 1892 1893 1894 1895 1896 1897 1898 1899 1900 1901 1902 1903 1904 1905 1906 1907 1908 1909 1910 1911 1912 1913 1914 1915 1916 1917 1918 1919 1920 1921 1922 1923 1924 1925 1926 1927 1928 1929 1930 1931 1932 1933 1934 1935 1936 1937 1938 1939 1940 1941 1942 1943 1944 1945 1946 1947 1948 1949 1950 1951 1952 1953 1954 1955 1956 1957 1958 1959 1960 1961 1962 1963 1964 1965 1966 1967 1968 1969 1970 1971 1972 1973 1974 1975 1976 1977 1978 1979 1980 1981 1982 1983 1984 1985 1986 1987 1988 1989 1990 1991 1992 1993 1994 1995 1996 1997 1998 1999 2000 2001 2002 2003 2004 2005 2006 2007 2008 2009 2010 2011 2012 2013 2014 2015 2016 2017 2018 2019 2020 2021 2022 2023 2024 2025 2026 2027 2028 2029 2030 2031 2032 2033 2034 2035 2036 2037 2038 2039 2040 2041 2042 2043 2044 2045 2046 2047 2048 2049 2050 2051 2052 2053 2054 2055 2056 2057 2058 2059 2060 2061 2062 2063 2064 2065 2066 2067 2068 2069 2070 2071 2072 2073 2074 2075 2076 2077 2078 2079 2080 2081 2082 2083 2084 2085 2086 2087 2088 2089 2090 2091 2092 2093 2094 2095 2096 2097 2098 2099 2100 2101 2102 2103 2104 2105 2106 2107 2108 2109 2110 2111 2112 2113 2114 2115 2116 2117 2118 2119 2120 2121 2122 2123 2124 2125 2126 2127 2128 2129 2130 2131 2132 2133 2134 2135 2136 2137 2138 2139 2140 2141 2142 2143 2144 2145 2146 2147 2148 2149 2150 2151 2152 2153 2154 2155 2156 2157 2158 2159 2160 2161 2162 2163 2164 2165 2166 2167 2168 2169 2170 2171 2172 2173 2174 2175 2176 2177 2178 2179 2180 2181 2182 2183 2184 2185 2186 2187 2188 2189 2190 2191 2192 2193 2194 2195 2196 2197 2198 2199 2200 2201 2202 2203 2204 2205 2206 2207 2208 2209 2210 2211 2212 2213 2214 2215 2216 2217 2218 2219 2220 2221 2222 2223 2224 2225 2226 2227 2228 2229 2230 2231 2232 2233 2234 2235 2236 2237 2238 2239 2240 2241 2242 2243 2244 2245 2246 2247 2248 2249 2250 2251 2252 2253 2254 2255 2256 2257 2258 2259 2260 2261 2262 2263 2264 2265 2266 2267 2268 2269 2270 2271 2272 2273 2274 2275 2276 2277 2278 2279 2280 2281 2282 2283 2284 2285 2286 2287 2288 2289 2290 2291 2292 2293 2294 2295 2296 2297 2298 2299 2300 2301 2302 2303 2304 2305 2306 2307 2308 2309 2310 2311 2312 2313 2314 2315 2316 2317 2318 2319 2320 2321 2322 2323 2324 2325 2326 2327 2328 2329 2330 2331 2332 2333 2334 2335 2336 2337 2338 2339 2340 2341 2342 2343 2344 2345 2346 2347 2348 2349 2350 2351 2352 2353 2354 2355 2356 2357 2358 2359 2360 2361 2362 2363 2364 2365 2366 2367 2368 2369 2370 2371 2372 2373 2374 2375 2376 2377 2378 2379 2380 2381 2382 2383 2384 2385 2386 2387 2388 2389 2390 2391 2392 2393 2394 2395 2396 2397 2398 2399 2400 2401 2402 2403 2404 2405 2406 2407 2408 2409 2410 2411 2412 2413 2414 2415 2416 2417 2418 2419 2420 2421 2422 2423 2424 2425 2426 2427 2428 2429 2430 2431 2432 2433 2434 2435 2436 2437 2438 2439 2440 2441 2442 2443 2444 2445 2446 2447 2448 2449 2450 2451 2452 2453 2454 2455 2456 2457 2458 2459 2460 2461 2462 2463 2464 2465 2466 2467 2468 2469 2470 2471 2472 2473 2474 2475 2476 2477 2478 2479 2480 2481 2482 2483 2484 2485 2486 2487 2488 2489 2490 2491 2492 2493 2494 2495 2496 2497 2498 2499 2500 2501 2502 2503 2504 2505 2506 2507 2508 2509 2510 2511 2512 2513 2514 2515 2516 2517 2518 2519 2520 2521 2522 2523 2524 2525 2526 2527 2528 2529 2530 2531 2532 2533 2534 2535 2536 2537 2538 2539 2540 2541 2542 2543 2544 2545 2546 2547 2548 2549 2550 2551 2552 2553 2554 2555 2556 2557 2558 2559 2560 2561 2562 2563 2564 2565 2566 2567 2568 2569 2570 2571 2572 2573 2574 2575 2576 2577 2578 2579 2580 2581 2582 2583 2584 2585 2586 2587 2588 2589 2590 2591 2592 2593 2594 2595 2596 2597 2598 2599 2600 2601 2602 2603 2604 2605 2606 2607 2608 2609 2610 2611 2612 2613 2614 2615 2616 2617 2618 2619 2620 2621 2622 2623 2624 2625 2626 2627 2628 2629 2630 2631 2632 2633 2634 2635 2636 2637 2638 2639 2640 2641 2642 2643 2644 2645 2646 2647 2648 2649 2650 2651 2652 2653 2654 2655 2656 2657 2658 2659 2660 2661 2662 2663 2664 2665 2666 2667 2668 2669 2670 2671 2672 2673 2674 2675 2676 2677 2678 2679 2680 2681 2682 2683 2684 2685 2686 2687 2688 2689 2690 2691 2692 2693 2694 2695 2696 2697 2698 2699 2700 2701 2702 2703 2704 2705 2706 2707 2708 2709 2710 2711 2712 2713 2714 2715 2716 2717 2718 2719 2720 2721 2722 2723 2724 2725 2726 2727 2728 2729 2730 2731 2732 2733 2734 2735 2736 2737 2738 2739 2740 2741 2742 2743 2744 2745 2746 2747 2748 2749 2750 2751 2752 2753 2754 2755 2756 2757 2758 2759 2760 2761 2762 2763 2764 2765 2766 2767 2768 2769 2770 2771 2772 2773 2774 2775 2776 2777 2778 2779 2780 2781 2782 2783 2784 2785 2786 2787 2788 2789 2790 2791 2792 2793 2794 2795 2796 2797 2798 2799 2800 2801 2802 2803 2804 2805 2806 2807 2808 2809 2810 2811 2812 2813 2814 2815 2816 2817 2818 2819 2820 2821 2822 2823 2824 2825 2826 2827 2828 2829 2830 2831 2832 2833 2834 2835 2836 2837 2838 2839 2840 2841 2842 2843 2844 2845 2846 2847 2848 2849 2850 2851 2852 2853 2854 2855 2856 2857 2858 2859 2860 2861 2862 2863 2864 2865 2866 2867 2868 2869 2870 2871 2872 2873 2874 2875 2876 2877 2878 2879 2880 2881 2882 2883 2884 2885 2886 2887 2888 2889 2890 2891 2892 2893 2894 2895 2896 2897 2898 2899 2900 2901 2902 2903 2904 2905 2906 2907 2908 2909 2910 2911 2912 2913 2914 2915 2916 2917 2918 2919 2920 2921 2922 2923 2924 2925 2926 2927 2928 2929 2930 2931 2932 2933 2934 2935 2936 2937 2938 2939 2940 2941 2942 2943 2944 2945 2946 2947 2948 2949 2950 2951 2952 2953 2954 2955 2956 2957 2958 2959 2960 2961 2962 2963 2964 2965 2966 2967 2968 2969 2970 2971 2972 2973 2974 2975 2976 2977 2978 2979 2980 2981 2982 2983 2984 2985 2986 2987 2988 2989 2990 2991 2992 2993 2994 2995 2996 2997 2998 2999 3000 3001 3002 3003 3004 3005 3006 3007 3008 3009 3010 3011 3012 3013 3014 3015 3016 3017 3018 3019 3020 3021 3022 3023 3024 3025 3026 3027 3028 3029 3030 3031 3032 3033 3034 3035 3036 3037 3038 3039 3040 3041 3042 3043 3044 3045 3046 3047 3048 3049 3050 3051 3052 3053 3054 3055 3056 3057 3058 3059 3060 3061 3062 3063 3064 3065 3066 3067 3068 3069 3070 3071 3072 3073 3074 3075 3076 3077 3078 3079 3080 3081 3082 3083 3084 3085 3086 3087 3088 3089 3090 3091 3092 3093 3094 3095 3096 3097 3098 3099 3100 3101 3102 3103 3104 3105 3106 3107 3108 3109 3110 3111 3112 3113 3114 3115 3116 3117 3118 3119 3120 3121 3122 3123 3124 3125 3126 3127 3128 3129 3130 3131 3132 3133 3134 3135 3136 3137 3138 3139 3140 3141 3142 3143 3144 3145 3146 3147 3148 3149 3150 3151 3152 3153 3154 3155 3156 3157 3158 3159 3160 3161 3162 3163 3164 3165 3166 3167 3168 3169 3170 3171 3172 3173 3174 3175 3176 3177 3178 3179 3180 3181 3182 3183 3184 3185 3186 3187 3188 3189 3190 3191 3192 3193 3194 3195 3196 3197 3198 3199 3200 3201 3202 3203 3204 3205 3206 3207 3208 3209 3210 3211 3212 3213 3214 3215 3216 3217 3218 3219 3220 3221 3222 3223 3224 3225 3226 3227 3228 3229 3230 3231 3232 3233 3234 3235 3236 3237 3238 3239 3240 3241 3242 3243 3244 3245 3246 3247 3248 3249 3250 3251 3252 3253 3254 3255 3256 3257 3258 3259 3260 3261 3262 3263 3264 3265 3266 3267 3268 3269 3270 3271 3272 3273 3274 3275 3276 3277 3278 3279 3280 3281 3282 3283 3284 3285 3286 3287 3288 3289 3290 3291 3292 3293 3294 3295 3296 3297 3298 3299 3300 3301 3302 3303 3304 3305 3306 3307 3308 3309 3310 3311 3312 3313 3314 3315 3316 3317 3318 3319 3320 3321 3322 3323 3324 3325 3326 3327 3328 3329 3330 3331 3332 3333 3334 3335 3336 3337 3338 3339 3340 3341 3342 3343 3344 3345 3346 3347 3348 3349 3350 3351 3352 3353 3354 3355 3356 3357 3358 3359 3360 3361 3362 3363 3364 3365 3366 3367 3368 3369 3370 3371 3372 3373 3374 3375 3376 3377 3378 3379 3380 3381 3382 3383 3384 3385 3386 3387 3388 3389 3390 3391 3392 3393 3394 3395 3396 3397 3398 3399 3400 3401 3402 3403 3404 3405 3406 3407 3408 3409 3410 3411 3412 3413 3414 3415 3416 3417 3418 3419 3420 3421 3422 3423 3424 3425 3426 3427 3428 3429 3430 3431 3432 3433 3434 3435 3436 3437 3438 3439 3440 3441 3442 3443 3444 3445 3446 3447 3448 3449 3450 3451 3452 3453 3454 3455 3456 3457 3458 3459 3460 3461 3462 3463 3464 3465 3466 3467 3468 3469 3470 3471 3472 3473 3474 3475 3476 3477 3478 3479 3480 3481 3482 3483 3484 3485 3486 3487 3488 3489 3490 3491 3492 3493 3494 3495 3496 3497 3498 3499 3500 3501 3502 3503 3504 3505 3506 3507 3508 3509 3510 3511 3512 3513 3514 3515 3516 3517 3518 3519 3520 3521 3522 3523 3524 3525 3526 3527 3528 3529 3530 3531 3532 3533 3534 3535 3536 3537 3538 3539 3540 3541 3542 3543 3544 3545 3546 3547 3548 3549 3550 3551 3552 3553 3554 3555 3556 3557 3558 3559 3560 3561 3562 3563 3564 3565 3566 3567 3568 3569 3570 3571 3572 3573 3574 3575 3576 3577 3578 3579 3580 3581 3582 3583 3584 3585 3586 3587 3588 3589 3590 3591 3592 3593 3594 3595 3596 3597 3598 3599 3600 3601 3602 3603 3604 3605 3606 3607 3608 3609 3610 3611 3612 3613 3614 3615 3616 3617 3618 3619 3620 3621 3622 3623 3624 3625 3626 3627 3628 3629 3630 3631 3632 3633 3634 3635 3636 3637 3638 3639 3640 3641 3642 3643 3644 3645 3646 3647 3648 3649 3650 3651 3652 3653 3654 3655 3656 3657 3658 3659 3660 3661 3662 3663 3664 3665 3666 3667 3668 3669 3670 3671 3672 3673 3674 3675 3676 3677 3678 3679 3680 3681 3682 3683 3684 3685 3686 3687 3688 3689 3690 3691 3692 3693 3694 3695 3696 3697 3698 3699 3700 3701 3702 3703 3704 3705 3706 3707 3708 3709 3710 3711 3712 3713 3714 3715 3716 3717 3718 3719 3720 3721 3722 3723 3724 3725 3726 3727 3728 3729 3730 3731 3732 3733 3734 3735 3736 3737 3738 3739 3740 3741 3742 3743 3744 3745 3746 3747 3748 3749 3750 3751 3752 3753 3754 3755 3756 3757 3758 3759 3760 3761 3762 3763 3764 3765 3766 3767 3768 3769 3770 3771 3772 3773 3774 3775 3776 3777 3778 3779 3780 3781 3782 3783 3784 3785 3786 3787 3788 3789 3790 3791 3792 3793 3794 3795 3796 3797 3798 3799 3800 3801 3802 3803 3804 3805 3806 3807 3808 3809 3810 3811 3812 3813 3814 3815 3816 3817 3818 3819 3820 3821 3822 3823 3824 3825 3826 3827 3828 3829 3830 3831 3832 3833 3834 3835 3836 3837 3838 3839 3840 3841 3842 3843 3844 3845 3846 3847 3848 3849 3850 3851 3852 3853 3854 3855 3856 3857 3858 3859 3860 3861 3862 3863 3864 3865 3866 3867 3868 3869 3870 3871 3872 3873 3874 3875 3876 3877 3878 3879 3880 3881 3882 3883 3884 3885 3886 3887 3888 3889 3890 3891 3892 3893 3894 3895 3896 3897 3898 3899 3900 3901 3902 3903 3904 3905 3906 3907 3908 3909 3910 3911 3912 3913 3914 3915 3916 3917 3918 3919 3920 3921 3922 3923 3924 3925 3926 3927 3928 3929 3930 3931 3932 3933 3934 3935 3936 3937 3938 3939 3940 3941 3942 3943 3944 3945 3946 3947 3948 3949 3950 3951 3952 3953 3954 3955 3956 3957 3958 3959 3960 3961 3962 3963 3964 3965 3966 3967 3968 3969 3970 3971 3972 3973 3974 3975 3976 3977 3978 3979 3980 3981 3982 3983 3984 3985 3986 3987 3988 3989 3990 3991 3992 3993 3994 3995 3996 3997 3998 3999 4000 4001 4002 4003 4004 4005 4006 4007 4008 4009 4010 4011 4012 4013 4014 4015 4016 4017 4018 4019 4020 4021 4022 4023 4024 4025 4026 4027 4028 4029 4030 4031 4032 4033 4034 4035 4036 4037 4038 4039 4040 4041 4042 4043 4044 4045 4046 4047 4048 4049 4050 4051 4052 4053 4054 4055 4056 4057 4058 4059 4060 4061 4062 4063 4064 4065 4066 4067 4068 4069 4070 4071 4072 4073 4074 4075 4076 4077 4078 4079 4080 4081 4082 4083 4084 4085 4086 4087 4088 4089 4090 4091 4092 4093 4094 4095 4096 4097 4098 4099 4100 4101 4102 4103 4104 4105 4106 4107 4108 4109 4110 4111 4112 4113 4114 4115 4116 4117 4118 4119 4120 4121 4122 4123 4124 4125 4126 4127 4128 4129 4130 4131 4132 4133 4134 4135 4136 4137 4138 4139 4140 4141 4142 4143 4144 4145 4146 4147 4148 4149 4150 4151 4152 4153 4154 4155 4156 4157 4158 4159 4160 4161 4162 4163 4164 4165 4166 4167 4168 4169 4170 4171 4172 4173 4174 4175 4176 4177 4178 4179 4180 4181 4182 4183 4184 4185 4186 4187 4188 4189 4190 4191 4192 4193 4194 4195 4196 4197 4198 4199 4200 4201 4202 4203 4204 4205 4206 4207 4208 4209 4210 4211 4212 4213 4214 4215 4216 4217 4218 4219 4220 4221 4222 4223 4224 4225 4226 4227 4228 4229 4230 4231 4232 4233 4234 4235 4236 4237 4238 4239 4240 4241 4242 4243 4244 4245 4246 4247 4248 4249 4250 4251 4252 4253 4254 4255 4256 4257 4258 4259 4260 4261 4262 4263 4264 4265 4266 4267 4268 4269 4270 4271 4272 4273 4274 4275 4276 4277 4278 4279 4280 4281 4282 4283 4284 4285 4286 4287 4288 4289 4290 4291 4292 4293 4294 4295 4296 4297 4298 4299 4300 4301 4302 4303 4304 4305 4306 4307 4308 4309 4310 4311 4312 4313 4314 4315 4316 4317 4318 4319 4320 4321 4322 4323 4324 4325 4326 4327 4328 4329 4330 4331 4332 4333 4334 4335 4336 4337 4338 4339 4340 4341 4342 4343 4344 4345 4346 4347 4348 4349 4350 4351 4352 4353 4354 4355 4356 4357 4358 4359 4360 4361 4362 4363 4364 4365 4366 4367 4368 4369 4370 4371 4372 4373 4374 4375 4376 4377 4378 4379 4380 4381 4382 4383 4384 4385 4386 4387 4388 4389 4390 4391 4392 4393 4394 4395 4396 4397 4398 4399 4400 4401 4402 4403 4404 4405 4406 4407 4408 4409 4410 4411 4412 4413 4414 4415 4416 4417 4418 4419 4420 4421 4422 4423 4424 4425 4426 4427 4428 4429 4430 4431 4432 4433 4434 4435 4436 4437 4438 4439 4440 4441 4442 4443 4444 4445 4446 4447 4448 4449 4450 4451 4452 4453 4454 4455 4456 4457 4458 4459 4460 4461 4462 4463 4464 4465 4466 4467 4468 4469 4470 4471 4472 4473 4474 4475 4476 4477 4478 4479 4480 4481 4482 4483 4484 4485 4486 4487 4488 4489 4490 4491 4492 4493 4494 4495 4496 4497 4498 4499 4500 4501 4502 4503 4504 4505 4506 4507 4508 4509 4510 4511 4512 4513 4514 4515 4516 4517 4518 4519 4520 4521 4522 4523 4524 4525 4526 4527 4528 4529 4530 4531 4532 4533 4534 4535 4536 4537 4538 4539 4540 4541 4542 4543 4544 4545 4546 4547 4548 4549 4550 4551 4552 4553 4554 4555 4556 4557 4558 4559 4560 4561 4562 4563 4564 4565 4566 4567 4568 4569 4570 4571 4572 4573 4574 4575 4576 4577 4578 4579 4580 4581 4582 4583 4584 4585 4586 4587 4588 4589 4590 4591 4592 4593 4594 4595 4596 4597 4598 4599 4600 4601 4602 4603 4604 4605 4606 4607 4608 4609 4610 4611 4612 4613 4614 4615 4616 4617 4618 4619 4620 4621 4622 4623 4624 4625 4626 4627 4628 4629 4630 4631 4632 4633 4634 4635 4636 4637 4638 4639 4640 4641 4642 4643 4644 4645 4646 4647 4648 4649 4650 4651 4652 4653 4654 4655 4656 4657 4658 4659 4660 4661 4662 4663 4664 4665 4666 4667 4668 4669 4670 4671 4672 4673 4674 4675 4676 4677 4678 4679 4680 4681 4682 4683 4684 4685 4686 4687 4688 4689 4690 4691 4692 4693 4694 4695 4696 4697 4698 4699 4700 4701 4702 4703 4704 4705 4706 4707 4708 4709 4710 4711 4712 4713 4714 4715 4716 4717 4718 4719 4720 4721 4722 4723 4724 4725 4726 4727 4728 4729 4730 4731 4732 4733 4734 4735 4736 4737 4738 4739 4740 4741 4742 4743 4744 4745 4746 4747 4748 4749 4750 4751 4752 4753 4754 4755 4756 4757 4758 4759 4760 4761 4762 4763 4764 4765 4766 4767 4768 4769 4770 4771 4772 4773 4774 4775 4776 4777 4778 4779 4780 4781 4782 4783 4784 4785 4786 4787 4788 4789 4790 4791 4792 4793 4794 4795 4796 4797 4798 4799 4800 4801 4802 4803 4804 4805 4806 4807 4808 4809 4810 4811 4812 4813 4814 4815 4816 4817 4818 4819 4820 4821 4822 4823 4824 4825 4826 4827 4828 4829 4830 4831 4832 4833 4834 4835 4836 4837 4838 4839 4840 4841 4842 4843 4844 4845 4846 4847 4848 4849 4850 4851 4852 4853 4854 4855 4856 4857 4858 4859 4860 4861 4862 4863 4864 4865 4866 4867 4868 4869 4870 4871 4872 4873 4874 4875 4876 4877 4878 4879 4880 4881 4882 4883 4884 4885 4886 4887 4888 4889 4890 4891 4892 4893 4894 4895 4896 4897 4898 4899 4900 4901 4902 4903 4904 4905 4906 4907 4908 4909 4910 4911 4912 4913 4914 4915 4916 4917 4918 4919 4920 4921 4922 4923 4924 4925 4926 4927 4928 4929 4930 4931 4932 4933 4934 4935 4936 4937 4938 4939 4940 4941 4942 4943 4944 4945 4946 4947 4948 4949 4950 4951 4952 4953 4954 4955 4956 4957 4958 4959 4960 4961 4962 4963 4964 4965 4966 4967 4968 4969 4970 4971 4972 4973 4974 4975 4976 4977 4978 4979 4980 4981 4982 4983 4984 4985 4986 4987 4988 4989 4990 4991 4992 4993 4994 4995 4996 4997 4998 4999 5000 5001 5002 5003 5004 5005 5006 5007 5008 5009 5010 5011 5012 5013 5014 5015 5016 5017 5018 5019 5020 5021 5022 5023 5024 5025 5026 5027 5028 5029 5030 5031 5032 5033 5034 5035 5036 5037 5038 5039 5040 5041 5042 5043 5044 5045 5046 5047 5048 5049 5050 5051 5052 5053 5054 5055 5056 5057 5058 5059 5060 5061 5062 5063 5064 5065 5066 5067 5068 5069 5070 5071 5072 5073 5074 5075 5076 5077 5078 5079 5080 5081 5082 5083 5084 5085 5086 5087 5088 5089 5090 5091 5092 5093 5094 5095 5096 5097 5098 5099 5100 5101 5102 5103 5104 5105 5106 5107 5108 5109 5110 5111 5112 5113 5114 5115 5116 5117 5118 5119 5120 5121 5122 5123 5124 5125 5126 5127 5128 5129 5130 5131 5132 5133 5134 5135 5136 5137 5138 5139 5140 5141 5142 5143 5144 5145 5146 5147 5148 5149 5150 5151 5152 5153 5154 5155 5156 5157 5158 5159 5160 5161 5162 5163 5164 5165 5166 5167 5168 5169 5170 5171 5172 5173 5174 5175 5176 5177 5178 5179 5180 5181 5182 5183 5184 5185 5186 5187 5188 5189 5190 5191 5192 5193 5194 5195 5196 5197 5198 5199 5200 5201 5202 5203 5204 5205 5206 5207 5208 5209 5210 5211 5212 5213 5214 5215 5216 5217 5218 5219 5220 5221 5222 5223 5224 5225 5226 5227 5228 5229 5230 5231 5232 5233 5234 5235 5236 5237 5238 5239 5240 5241 5242 5243 5244 5245 5246 5247 5248 5249 5250 5251 5252 5253 5254 5255 5256 5257 5258 5259 5260 5261 5262 5263 5264 5265 5266 5267 5268 5269 5270 5271 5272 5273 5274 5275 5276 5277 5278 5279 5280 5281 5282 5283 5284 5285 5286 5287 5288 5289 5290 5291 5292 5293 5294 5295 5296 5297 5298 5299 5300 5301 5302 5303 5304 5305 5306 5307 5308 5309 5310 5311 5312 5313 5314 5315 5316 5317 5318 5319 5320 5321 5322 5323 5324 5325 5326 5327 5328 5329 5330 5331 5332 5333 5334 5335 5336 5337 5338 5339 5340 5341 5342 5343 5344 5345 5346 5347 5348 5349 5350 5351 5352 5353 5354 5355 5356 5357 5358 5359 5360 5361 5362 5363 5364 5365 5366 5367 5368 5369 5370 5371 5372 5373 5374 5375 5376 5377 5378 5379 5380 5381 5382 5383 5384 5385 5386 5387 5388 5389 5390 5391 5392 5393 5394 5395 5396 5397 5398 5399 5400 5401 5402 5403 5404 5405 5406 5407 5408 5409 5410 5411 5412 5413 5414 5415 5416 5417 5418 5419 5420 5421 5422 5423 5424 5425 5426 5427 5428 5429 5430 5431 5432 5433 5434 5435 5436 5437 5438 5439 5440 5441 5442 5443 5444 5445 5446 5447 5448 5449 5450 5451 5452 5453 5454 5455 5456 5457 5458 5459 5460 5461 5462 5463 5464 5465 5466 5467 5468 5469 5470 5471 5472 5473 5474 5475 5476 5477 5478 5479 5480 5481 5482 5483 5484 5485 5486 5487 5488 5489 5490 5491 5492 5493 5494 5495 5496 5497 5498 5499 5500 5501 5502 5503 5504 5505 5506 5507 5508 5509 5510 5511 5512 5513 5514 5515 5516 5517 5518 5519 5520 5521 5522 5523 5524 5525 5526 5527 5528 5529 5530 5531 5532 5533 5534 5535 5536 5537 5538 5539 5540 5541 5542 5543 5544 5545 5546 5547 5548 5549 5550 5551 5552 5553 5554 5555 5556 5557 5558 5559 5560 5561 5562 5563 5564 5565 5566 5567 5568 5569 5570 5571 5572 5573 5574 5575 5576 5577 5578 5579 5580 5581 5582 5583 5584 5585 5586 5587 5588 5589 5590 5591 5592 5593 5594 5595 5596 5597 5598 5599 5600 5601 5602 5603 5604 5605 5606 5607 5608 5609 5610 5611 5612 5613 5614 5615 5616 5617 5618 5619 5620 5621 5622 5623 5624 5625 5626 5627 5628 5629 5630 5631 5632 5633 5634 5635 5636 5637 5638 5639 5640 5641 5642 5643 5644 5645 5646 5647 5648 5649 5650 5651 5652 5653 5654 5655 5656 5657 5658 5659 5660 5661 5662 5663 5664 5665 5666 5667 5668 5669 5670 5671 5672 5673 5674 5675 5676 5677 5678 5679 5680 5681 5682 5683 5684 5685 5686 5687 5688 5689 5690 5691 5692 5693 5694 5695 5696 5697 5698 5699 5700 5701 5702 5703 5704 5705 5706 5707 5708 5709 5710 5711 5712 5713 5714 5715 5716 5717 5718 5719 5720 5721 5722 5723 5724 5725 5726 5727 5728 5729 5730 5731 5732 5733 5734 5735 5736 5737 5738 5739 5740 5741 5742 5743 5744 5745 5746 5747 5748 5749 5750 5751 5752 5753 5754 5755 5756 5757 5758 5759 5760 5761 5762 5763 5764 5765 5766 5767 5768 5769 5770 5771 5772 5773 5774 5775 5776 5777 5778 5779 5780 5781 5782 5783 5784 5785 5786 5787 5788 5789 5790 5791 5792 5793 5794 5795 5796 5797 5798 5799 5800 5801 5802 5803 5804 5805 5806 5807 5808 5809 5810 5811 5812 5813 5814 5815 5816 5817 5818 5819 5820 5821 5822 5823 5824 5825 5826 5827 5828 5829 5830 5831 5832 5833 5834 5835 5836 5837 5838 5839 5840 5841 5842 5843 5844 5845 5846 5847 5848 5849 5850 5851 5852 5853 5854 5855 5856 5857 5858 5859 5860 5861 5862 5863 5864 5865 5866 5867 5868 5869 5870 5871 5872 5873 5874 5875 5876 5877 5878 5879 5880 5881 5882 5883 5884 5885 5886 5887 5888 5889 5890 5891 5892 5893 5894 5895 5896 5897 5898 5899 5900 5901 5902 5903 5904 5905 5906 5907 5908 5909 5910 5911 5912 5913 5914 5915 5916 5917 5918 5919 5920 5921 5922 5923 5924 5925 5926 5927 5928 5929 5930 5931 5932 5933 5934 5935 5936 5937 5938 5939 5940 5941 5942 5943 5944 5945 5946 5947 5948 5949 5950 5951 5952 5953 5954 5955 5956 5957 5958 5959 5960 5961 5962 5963 5964 5965 5966 5967 5968 5969 5970 5971 5972 5973 5974 5975 5976 5977 5978 5979 5980 5981 5982 5983 5984 5985 5986 5987 5988 5989 5990 5991 5992 5993 5994 5995 5996 5997 5998 5999 6000 6001 6002 6003 6004 6005 6006 6007 6008 6009 6010 6011 6012 6013 6014 6015 6016 6017 6018 6019 6020 6021 6022 6023 6024 6025 6026 6027 6028 6029 6030 6031 6032 6033 6034 6035 6036 6037 6038 6039 6040 6041 6042 6043 6044 6045 6046 6047 6048 6049 6050 6051 6052 6053 6054 6055 6056 6057 6058 6059 6060 6061 6062 6063 6064 6065 6066 6067 6068 6069 6070 6071 6072 6073 6074 6075 6076 6077 6078 6079 6080 6081 6082 6083 6084 6085 6086 6087 6088 6089 6090 6091 6092 6093 6094 6095 6096 6097 6098 6099 6100 6101 6102 6103 6104 6105 6106 6107 6108 6109 6110 6111 6112 6113 6114 6115 6116 6117 6118 6119 6120 6121 6122 6123 6124 6125 6126 6127 6128 6129 6130 6131 6132 6133 6134 6135 6136 6137 6138 6139 6140 6141 6142 6143 6144 6145 6146 6147 6148 6149 6150 6151 6152 6153 6154 6155 6156 6157 6158 6159 6160 6161 6162 6163 6164 6165 6166 6167 6168 6169 6170 6171 6172 6173 6174 6175 6176 6177 6178 6179 6180 6181 6182 6183 6184 6185 6186 6187 6188 6189 6190 6191 6192 6193 6194 6195 6196 6197 6198 6199 6200 6201 6202 6203 6204 6205 6206 6207 6208 6209 6210 6211 6212 6213 6214 6215 6216 6217 6218 6219 6220 6221 6222 6223 6224 6225 6226 6227 6228 6229 6230 6231 6232 6233 6234 6235 6236 6237 6238 6239 6240 6241 6242 6243 6244 6245 6246 6247 6248 6249 6250 6251 6252 6253 6254 6255 6256 6257 6258 6259 6260 6261 6262 6263 6264 6265 6266 6267 6268 6269 6270 6271 6272 6273 6274 6275 6276 6277 6278 6279 6280 6281 6282 6283 6284 6285 6286 6287 6288 6289 6290 6291 6292 6293 6294 6295 6296 6297 6298 6299 6300 6301 6302 6303 6304 6305 6306 6307 6308 6309 6310 6311 6312 6313 6314 6315 6316 6317 6318 6319 6320 6321 6322 6323 6324 6325 6326 6327 6328 6329 6330 6331 6332 6333 6334 6335 6336 6337 6338 6339 6340 6341 6342 6343 6344 6345 6346 6347 6348 6349 6350 6351 6352 6353 6354 6355 6356 6357 6358 6359 6360 6361 6362 6363 6364 6365 6366 6367 6368 6369 6370 6371 6372 6373 6374 6375 6376 6377 6378 6379 6380 6381 6382 6383 6384 6385 6386 6387 6388 6389 6390 6391 6392 6393 6394 6395 6396 6397 6398 6399 6400 6401 6402 6403 6404 6405 6406 6407 6408 6409 6410 6411 6412 6413 6414 6415 6416 6417 6418 6419 6420 6421 6422 6423 6424 6425 6426 6427 6428 6429 6430 6431 6432 6433 6434 6435 6436 6437 6438 6439 6440 6441 6442 6443 6444 6445 6446 6447 6448 6449 6450 6451 6452 6453 6454 6455 6456 6457 6458 6459 6460 6461 6462 6463 6464 6465 6466 6467 6468 6469 6470 6471 6472 6473 6474 6475 6476 6477 6478 6479 6480 6481 6482 6483 6484 6485 6486 6487 6488 6489 6490 6491 6492 6493 6494 6495 6496 6497 6498 6499 6500 6501 6502 6503 6504 6505 6506 6507 6508 6509 6510 6511 6512 6513 6514 6515 6516 6517 6518 6519 6520 6521 6522 6523 6524 6525 6526 6527 6528 6529 6530 6531 6532 6533 6534 6535 6536 6537 6538 6539 6540 6541 6542 6543 6544 6545 6546 6547 6548 6549 6550 6551 6552 6553 6554 6555 6556 6557 6558 6559 6560 6561 6562 6563 6564 6565 6566 6567 6568 6569 6570 6571 6572 6573 6574 6575 6576 6577 6578 6579 6580 6581 6582 6583 6584 6585 6586 6587 6588 6589 6590 6591 6592 6593 6594 6595 6596 6597 6598 6599 6600 6601 6602 6603 6604 6605 6606 6607 6608 6609 6610 6611 6612 6613 6614 6615 6616 6617 6618 6619 6620 6621 6622 6623 6624 6625 6626 6627 6628 6629 6630 6631 6632 6633 6634 6635 6636 6637 6638 6639 6640 6641 6642 6643 6644 6645 6646 6647 6648 6649 6650 6651 6652 6653 6654 6655 6656 6657 6658 6659 6660 6661 6662 6663 6664 6665 6666 6667 6668 6669 6670 6671 6672 6673 6674 6675 6676 6677 6678 6679 6680 6681 6682 6683 6684 6685 6686 6687 6688 6689 6690 6691 6692 6693 6694 6695 6696 6697 6698 6699 6700 6701 6702 6703 6704 6705 6706 6707 6708 6709 6710 6711 6712 6713 6714 6715 6716 6717 6718 6719 6720 6721 6722 6723 6724 6725 6726 6727 6728 6729 6730 6731 6732 6733 6734 6735 6736 6737 6738 6739 6740 6741 6742 6743 6744 6745 6746 6747 6748 6749 6750 6751 6752 6753 6754 6755 6756 6757 6758 6759 6760 6761 6762 6763 6764 6765 6766 6767 6768 6769 6770 6771 6772 6773 6774 6775 6776 6777 6778 6779 6780 6781 6782 6783 6784 6785 6786 6787 6788 6789 6790 6791 6792 6793 6794 6795 6796 6797 6798 6799 6800 6801 6802 6803 6804 6805 6806 6807 6808 6809 6810 6811 6812 6813 6814 6815 6816 6817 6818 6819 6820 6821 6822 6823 6824 6825 6826 6827 6828 6829 6830 6831 6832 6833 6834 6835 6836 6837 6838 6839 6840 6841 6842 6843 6844 6845 6846 6847 6848 6849 6850 6851 6852 6853 6854 6855 6856 6857 6858 6859 6860 6861 6862 6863 6864 6865 6866 6867 6868 6869 6870 6871 6872 6873 6874 6875 6876 6877 6878 6879 6880 6881 6882 6883 6884 6885 6886 6887 6888 6889 6890 6891 6892 6893 6894 6895 6896 6897 6898 6899 6900 6901 6902 6903 6904 6905 6906 6907 6908 6909 6910 6911 6912 6913 6914 6915 6916 6917 6918 6919 6920 6921 6922 6923 6924 6925 6926 6927 6928 6929 6930 6931 6932 6933 6934 6935 6936 6937 6938 6939 6940 6941 6942 6943 6944 6945 6946 6947 6948 6949 6950 6951 6952 6953 6954 6955 6956 6957 6958 6959 6960 6961 6962 6963 6964 6965 6966 6967 6968 6969 6970 6971 6972 6973 6974 6975 6976 6977 6978 6979 6980 6981 6982 6983 6984 6985 6986 6987 6988 6989 6990 6991 6992 6993 6994 6995 6996 6997 6998 6999 7000 7001 7002 7003 7004 7005 7006 7007 7008 7009 7010 7011 7012 7013 7014 7015 7016 7017 7018 7019 7020 7021 7022 7023 7024 7025 7026 7027 7028 7029 7030 7031 7032 7033 7034 7035 7036 7037 7038 7039 7040 7041 7042 7043 7044 7045 7046 7047 7048 7049 7050 7051 7052 7053 7054 7055 7056 7057 7058 7059 7060 7061 7062 7063 7064 7065 7066 7067 7068 7069 7070 7071 7072 7073 7074 7075 7076 7077 7078 7079 7080 7081 7082 7083 7084 7085 7086 7087 7088 7089 7090 7091 7092 7093 7094 7095 7096 7097 7098 7099 7100 7101 7102 7103 7104 7105 7106 7107 7108 7109 7110 7111 7112 7113 7114 7115 7116 7117 7118 7119 7120 7121 7122 7123 7124 7125 7126 7127 7128 7129 7130 7131 7132 7133 7134 7135 7136 7137 7138 7139 7140 7141 7142 7143 7144 7145 7146 7147 7148 7149 7150 7151 7152 7153 7154 7155 7156 7157 7158 7159 7160 7161 7162 7163 7164 7165 7166 7167 7168 7169 7170 7171 7172 7173 7174 7175 7176 7177 7178 7179 7180 7181 7182 7183 7184 7185 7186 7187 7188 7189 7190 7191 7192 7193 7194 7195 7196 7197 7198 7199 7200 7201 7202 7203 7204 7205 7206 7207 7208 7209 7210 7211 7212 7213 7214 7215 7216 7217 7218 7219 7220 7221 7222 7223 7224 7225 7226 7227 7228 7229 7230 7231 7232 7233 7234 7235 7236 7237 7238 7239 7240 7241 7242 7243 7244 7245 7246 7247 7248 7249 7250 7251 7252 7253 7254 7255 7256 7257 7258 7259 7260 7261 7262 7263 7264 7265 7266 7267 7268 7269 7270 7271 7272 7273 7274 7275 7276 7277 7278 7279 7280 7281 7282 7283 7284 7285 7286 7287 7288 7289 7290 7291 7292 7293 7294 7295 7296 7297 7298 7299 7300 7301 7302 7303 7304 7305 7306 7307 7308 7309 7310 7311 7312 7313 7314 7315 7316 7317 7318 7319 7320 7321 7322 7323 7324 7325 7326 7327 7328 7329 7330 7331 7332 7333 7334 7335 7336 7337 7338 7339 7340 7341 7342 7343 7344 7345 7346 7347 7348 7349 7350 7351 7352 7353 7354 7355 7356 7357 7358 7359 7360 7361 7362 7363 7364 7365 7366 7367 7368 7369 7370 7371 7372 7373 7374 7375 7376 7377 7378 7379 7380 7381 7382 7383 7384 7385 7386 7387 7388 7389 7390 7391 7392 7393 7394 7395 7396 7397 7398 7399 7400 7401 7402 7403 7404 7405 7406 7407 7408 7409 7410 7411 7412 7413 7414 7415 7416 7417 7418 7419 7420 7421 7422 7423 7424 7425 7426 7427 7428 7429 7430 7431 7432 7433 7434 7435 7436 7437 7438 7439 7440 7441 7442 7443 7444 7445 7446 7447 7448 7449 7450 7451 7452 7453 7454 7455 7456 7457 7458 7459 7460 7461 7462 7463 7464 7465 7466 7467 7468 7469 7470 7471 7472 7473 7474 7475 7476 7477 7478 7479 7480 7481 7482 7483 7484 7485 7486 7487 7488 7489 7490 7491 7492 7493 7494 7495 7496 7497 7498 7499 7500 7501 7502 7503 7504 7505 7506 7507 7508 7509 7510 7511 7512 7513 7514 7515 7516 7517 7518 7519 7520 7521 7522 7523 7524 7525 7526 7527 7528 7529 7530 7531 7532 7533 7534 7535 7536 7537 7538 7539 7540 7541 7542 7543 7544 7545 7546 7547 7548 7549 7550 7551 7552 7553 7554 7555 7556 7557 7558 7559 7560 7561 7562 7563 7564 7565 7566 7567 7568 7569 7570 7571 7572 7573 7574 7575 7576 7577 7578 7579 7580 7581 7582 7583 7584 7585 7586 7587 7588 7589 7590 7591 7592 7593 7594 7595 7596 7597 7598 7599 7600 7601 7602 7603 7604 7605 7606 7607 7608 7609 7610 7611 7612 7613 7614 7615 7616 7617 7618 7619 7620 7621 7622 7623 7624 7625 7626 7627 7628 7629 7630 7631 7632 7633 7634 7635 7636 7637 7638 7639 7640 7641 7642 7643 7644 7645 7646 7647 7648 7649 7650 7651 7652 7653 7654 7655 7656 7657 7658 7659 7660 7661 7662 7663 7664 7665 7666 7667 7668 7669 7670 7671 7672 7673 7674 7675 7676 7677 7678 7679 7680 7681 7682 7683 7684 7685 7686 7687 7688 7689 7690 7691 7692 7693 7694 7695 7696 7697 7698 7699 7700 7701 7702 7703 7704 7705 7706 7707 7708 7709 7710 7711 7712 7713 7714 7715 7716 7717 7718 7719 7720 7721 7722 7723 7724 7725 7726 7727 7728 7729 7730 7731 7732 7733 7734 7735 7736 7737 7738 7739 7740 7741 7742 7743 7744 7745 7746 7747 7748 7749 7750 7751 7752 7753 7754 7755 7756 7757 7758 7759 7760 7761 7762 7763 7764 7765 7766 7767 7768 7769 7770 7771 7772 7773 7774 7775 7776 7777 7778 7779 7780 7781 7782 7783 7784 7785 7786 7787 7788 7789 7790 7791 7792 7793 7794 7795 7796 7797 7798 7799 7800 7801 7802 7803 7804 7805 7806 7807 7808 7809 7810 7811 7812 7813 7814 7815 7816 7817 7818 7819 7820 7821 7822 7823 7824 7825 7826 7827 7828 7829 7830 7831 7832 7833 7834 7835 7836 7837 7838 7839 7840 7841 7842 7843 7844 7845 7846 7847 7848 7849 7850 7851 7852 7853 7854 7855 7856 7857 7858 7859 7860 7861 7862 7863 7864 7865 7866 7867 7868 7869 7870 7871 7872 7873 7874 7875 7876 7877 7878 7879 7880 7881 7882 7883 7884 7885 7886 7887 7888 7889 7890 7891 7892 7893 7894 7895 7896 7897 7898 7899 7900 7901 7902 7903 7904 7905 7906 7907 7908 7909 7910 7911 7912 7913 7914 7915 7916 7917 7918 7919 7920 7921 7922 7923 7924 7925 7926 7927 7928 7929 7930 7931 7932 7933 7934 7935 7936 7937 7938 7939 7940 7941 7942 7943 7944 7945 7946 7947 7948 7949 7950 7951 7952 7953 7954 7955 7956 7957 7958 7959 7960 7961 7962 7963 7964 7965 7966 7967 7968 7969 7970 7971 7972 7973 7974 7975 7976 7977 7978 7979 7980 7981 7982 7983 7984 7985 7986 7987 7988 7989 7990 7991 7992 7993 7994 7995 7996 7997 7998 7999 8000 8001 8002 8003 8004 8005 8006 8007 8008 8009 8010 8011 8012 8013 8014 8015 8016 8017 8018 8019 8020 8021 8022 8023 8024 8025 8026 8027 8028 8029 8030 8031 8032 8033 8034 8035 8036 8037 8038 8039 8040 8041 8042 8043 8044 8045 8046 8047 8048 8049 8050 8051 8052 8053 8054 8055 8056 8057 8058 8059 8060 8061 8062 8063 8064 8065 8066 8067 8068 8069 8070 8071 8072 8073 8074 8075 8076 8077 8078 8079 8080 8081 8082 8083 8084 8085 8086 8087 8088 8089 8090 8091 8092 8093 8094 8095 8096 8097 8098 8099 8100 8101 8102 8103 8104 8105 8106 8107 8108 8109 8110 8111 8112 8113 8114 8115 8116 8117 8118 8119 8120 8121 8122 8123 8124 8125 8126 8127 8128 8129 8130 8131 8132 8133 8134 8135 8136 8137 8138 8139 8140 8141 8142 8143 8144 8145 8146 8147 8148 8149 8150 8151 8152 8153 8154 8155 8156 8157 8158 8159 8160 8161 8162 8163 8164 8165 8166 8167 8168 8169 8170 8171 8172 8173 8174 8175 8176 8177 8178 8179 8180 8181 8182 8183 8184 8185 8186 8187 8188 8189 8190 8191 8192 8193 8194 8195 8196 8197 8198 8199 8200 8201 8202 8203 8204 8205 8206 8207 8208 8209 8210 8211 8212 8213 8214 8215 8216 8217 8218 8219 8220 8221 8222 8223 8224 8225 8226 8227 8228 8229 8230 8231 8232 8233 8234 8235 8236 8237 8238 8239 8240 8241 8242 8243 8244 8245 8246 8247 8248 8249 8250 8251 8252 8253 8254 8255 8256 8257 8258 8259 8260 8261 8262 8263 8264 8265 8266 8267 8268 8269 8270 8271 8272 8273 8274 8275 8276 8277 8278 8279 8280 8281 8282 8283 8284 8285 8286 8287 8288 8289 8290 8291 8292 8293 8294 8295 8296 8297 8298 8299 8300 8301 8302 8303 8304 8305 8306 8307 8308 8309 8310 8311 8312 8313 8314 8315 8316 8317 8318 8319 8320 8321 8322 8323 8324 8325 8326 8327 8328 8329 8330 8331 8332 8333 8334 8335 8336 8337 8338 8339 8340 8341 8342 8343 8344 8345 8346 8347 8348 8349 8350 8351 8352 8353 8354 8355 8356 8357 8358 8359 8360 8361 8362 8363 8364 8365 8366 8367 8368 8369 8370 8371 8372 8373 8374 8375 8376 8377 8378 8379 8380 8381 8382 8383 8384 8385 8386 8387 8388 8389 8390 8391 8392 8393 8394 8395 8396 8397 8398 8399 8400 8401 8402 8403 8404 8405 8406 8407 8408 8409 8410 8411 8412 8413 8414 8415 8416 8417 8418 8419 8420 8421 8422 8423 8424 8425 8426 8427 8428 8429 8430 8431 8432 8433 8434 8435 8436 8437 8438 8439 8440 8441 8442 8443 8444 8445 8446 8447 8448 8449 8450 8451 8452 8453 8454 8455 8456 8457 8458 8459 8460 8461 8462 8463 8464 8465 8466 8467 8468 8469 8470 8471 8472 8473 8474 8475 8476 8477 8478 8479 8480 8481 8482 8483 8484 8485 8486 8487 8488 8489 8490 8491 8492 8493 8494 8495 8496 8497 8498 8499 8500 8501 8502 8503 8504 8505 8506 8507 8508 8509 8510 8511 8512 8513 8514 8515 8516 8517 8518 8519 8520 8521 8522 8523 8524 8525 8526 8527 8528 8529 8530 8531 8532 8533 8534 8535 8536 8537 8538 8539 8540 8541 8542 8543 8544 8545 8546 8547 8548 8549 8550 8551 8552 8553 8554 8555 8556 8557 8558 8559 8560 8561 8562 8563 8564 8565 8566 8567 8568 8569 8570 8571 8572 8573 8574 8575 8576 8577 8578 8579 8580 8581 8582 8583 8584 8585 8586 8587 8588 8589 8590 8591 8592 8593 8594 8595 8596 8597 8598 8599 8600 8601 8602 8603 8604 8605 8606 8607 8608 8609 8610 8611 8612 8613 8614 8615 8616 8617 8618 8619 8620 8621 8622 8623 8624 8625 8626 8627 8628 8629 8630 8631 8632 8633 8634 8635 8636 8637 8638 8639 8640 8641 8642 8643 8644 8645 8646 8647 8648 8649 8650 8651 8652 8653 8654 8655 8656 8657 8658 8659 8660 8661 8662 8663 8664 8665 8666 8667 8668 8669 8670 8671 8672 8673 8674 8675 8676 8677 8678 8679 8680 8681 8682 8683 8684 8685 8686 8687 8688 8689 8690 8691 8692 8693 8694 8695 8696 8697 8698 8699 8700 8701 8702 8703 8704 8705 8706 8707 8708 8709 8710 8711 8712 8713 8714 8715 8716 8717 8718 8719 8720 8721 8722 8723 8724 8725 8726 8727 8728 8729 8730 8731 8732 8733 8734 8735 8736 8737 8738 8739 8740 8741 8742 8743 8744 8745 8746 8747 8748 8749 8750 8751 8752 8753 8754 8755 8756 8757 8758 8759 8760 8761 8762 8763 8764 8765 8766 8767 8768 8769 8770 8771 8772 8773 8774 8775 8776 8777 8778 8779 8780 8781 8782 8783 8784 8785 8786 8787 8788 8789 8790 8791 8792 8793 8794 8795 8796 8797 8798 8799 8800 8801 8802 8803 8804 8805 8806 8807 8808 8809 8810 8811 8812 8813 8814 8815 8816 8817 8818 8819 8820 8821 8822 8823 8824 8825 8826 8827 8828 8829 8830 8831 8832 8833 8834 8835 8836 8837 8838 8839 8840 8841 8842 8843 8844 8845 8846 8847 8848 8849 8850 8851 8852 8853 8854 8855 8856 8857 8858 8859 8860 8861 8862 8863 8864 8865 8866 8867 8868 8869 8870 8871 8872 8873 8874 8875 8876 8877 8878 8879 8880 8881 8882 8883 8884 8885 8886 8887 8888 8889 8890 8891 8892 8893 8894 8895 8896 8897 8898 8899 8900 8901 8902 8903 8904 8905 8906 8907 8908 8909 8910 8911 8912 8913 8914 8915 8916 8917 8918 8919 8920 8921 8922 8923 8924 8925 8926 8927 8928 8929 8930 8931 8932 8933 8934 8935 8936 8937 8938 8939 8940 8941 8942 8943 8944 8945 8946 8947 8948 8949 8950 8951 8952 8953 8954 8955 8956 8957 8958 8959 8960 8961 8962 8963 8964 8965 8966 8967 8968 8969 8970 8971 8972 8973 8974 8975 8976 8977 8978 8979 8980 8981 8982 8983 8984 8985 8986 8987 8988 8989 8990 8991 8992 8993 8994 8995 8996 8997 8998 8999 9000 9001 9002 9003 9004 9005 9006 9007 9008 9009 9010 9011 9012 9013 9014 9015 9016 9017 9018 9019 9020 9021 9022 9023 9024 9025 9026 9027 9028 9029 9030 9031 9032 9033 9034 9035 9036 9037 9038 9039 9040 9041 9042 9043 9044 9045 9046 9047 9048 9049 9050 9051 9052 9053 9054 9055 9056 9057 9058 9059 9060 9061 9062 9063 9064 9065 9066 9067 9068 9069 9070 9071 9072 9073 9074 9075 9076 9077 9078 9079 9080 9081 9082 9083 9084 9085 9086 9087 9088 9089 9090 9091 9092 9093 9094 9095 9096 9097 9098 9099 9100 9101 9102 9103 9104 9105 9106 9107 9108 9109 9110 9111 9112 9113 9114 9115 9116 9117 9118 9119 9120 9121 9122 9123 9124 9125 9126 9127 9128 9129 9130 9131 9132 9133 9134 9135 9136 9137 9138 9139 9140 9141 9142 9143 9144 9145 9146 9147 9148 9149 9150 9151 9152 9153 9154 9155 9156 9157 9158 9159 9160 9161 9162 9163 9164 9165 9166 9167 9168 9169 9170 9171 9172 9173 9174 9175 9176 9177 9178 9179 9180 9181 9182 9183 9184 9185 9186 9187 9188 9189 9190 9191 9192 9193 9194 9195 9196 9197 9198 9199 9200 9201 9202 9203 9204 9205 9206 9207 9208 9209 9210 9211 9212 9213 9214 9215 9216 9217 9218 9219 9220 9221 9222 9223 9224 9225 9226 9227 9228 9229 9230 9231 9232 9233 9234 9235 9236 9237 9238 9239 9240 9241 9242 9243 9244 9245 9246 9247 9248 9249 9250 9251 9252 9253 9254 9255 9256 9257 9258 9259 9260 9261 9262 9263 9264 9265 9266 9267 9268 9269 9270 9271 9272 9273 9274 9275 9276 9277 9278 9279 9280 9281 9282 9283 9284 9285 9286 9287 9288 9289 9290 9291 9292 9293 9294 9295 9296 9297 9298 9299 9300 9301 9302 9303 9304 9305 9306 9307 9308 9309 9310 9311 9312 9313 9314 9315 9316 9317 9318 9319 9320 9321 9322 9323 9324 9325 9326 9327 9328 9329 9330 9331 9332 9333 9334 9335 9336 9337 9338 9339 9340 9341 9342 9343 9344 9345 9346 9347 9348 9349 9350 9351 9352 9353 9354 9355 9356 9357 9358 9359 9360 9361 9362 9363 9364 9365 9366 9367 9368 9369 9370 9371 9372 9373 9374 9375 9376 9377 9378 9379 9380 9381 9382 9383 9384 9385 9386 9387 9388 9389 9390 9391 9392 9393 9394 9395 9396 9397 9398 9399 9400 9401 9402 9403 9404 9405 9406 9407 9408 9409 9410 9411 9412 9413 9414 9415 9416 9417 9418 9419 9420 9421 9422 9423 9424 9425 9426 9427 9428 9429 9430 9431 9432 9433 9434 9435 9436 9437 9438 9439 9440 9441 9442 9443 9444 9445 9446 9447 9448 9449 9450 9451 9452 9453 9454 9455 9456 9457 9458 9459 9460 9461 9462 9463 9464 9465 9466 9467 9468 9469 9470 9471 9472 9473 9474 9475 9476 9477 9478 9479 9480 9481 9482 9483 9484 9485 9486 9487 9488 9489 9490 9491 9492 9493 9494 9495 9496 9497 9498 9499 9500 9501 9502 9503 9504 9505 9506 9507 9508 9509 9510 9511 9512 9513 9514 9515 9516 9517 9518 9519 9520 9521 9522 9523 9524 9525 9526 9527 9528 9529 9530 9531 9532 9533 9534 9535 9536 9537 9538 9539 9540 9541 9542 9543 9544 9545 9546 9547 9548 9549 9550 9551 9552 9553 9554 9555 9556 9557 9558 9559 9560 9561 9562 9563 9564 9565 9566 9567 9568 9569 9570 9571 9572 9573 9574 9575 9576 9577 9578 9579 9580 9581 9582 9583 9584 9585 9586 9587 9588 9589 9590 9591 9592 9593 9594 9595 9596 9597 9598 9599 9600 9601 9602 9603 9604 9605 9606 9607 9608 9609 9610 9611 9612 9613 9614 9615 9616 9617 9618 9619 9620 9621 9622 9623 9624 9625 9626 9627 9628 9629 9630 9631 9632 9633 9634 9635 9636 9637 9638 9639 9640 9641 9642 9643 9644 9645 9646 9647 9648 9649 9650 9651 9652 9653 9654 9655 9656 9657 9658 9659 9660 9661 9662 9663 9664 9665 9666 9667 9668 9669 9670 9671 9672 9673 9674 9675 9676 9677 9678 9679 9680 9681 9682 9683 9684 9685 9686 9687 9688 9689 9690 9691 9692 9693 9694 9695 9696 9697 9698 9699 9700 9701 9702 9703 9704 9705 9706 9707 9708 9709 9710 9711 9712 9713 9714 9715 9716 9717 9718 9719 9720 9721 9722 9723 9724 9725 9726 9727 9728 9729 9730 9731 9732 9733 9734 9735 9736 9737 9738 9739 9740 9741 9742 9743 9744 9745 9746 9747 9748 9749 9750 9751 9752 9753 9754 9755 9756 9757 9758 9759 9760 9761 9762 9763 9764 9765 9766 9767 9768 9769 9770 9771 9772 9773 9774 9775 9776 9777 9778 9779 9780 9781 9782 9783 9784 9785 9786 9787 9788 9789 9790 9791 9792 9793 9794 9795 9796 9797 9798 9799 9800 9801 9802 9803 9804 9805 9806 9807 9808 9809 9810 9811 9812 9813 9814 9815 9816 9817 9818 9819 9820 9821 9822 9823 9824 9825 9826 9827 9828 9829 9830 9831 9832 9833 9834 9835 9836 9837 9838 9839 9840 9841 9842 9843 9844 9845 9846 9847 9848 9849 9850 9851 9852 9853 9854 9855 9856 9857 9858 9859 9860 9861 9862 9863 9864 9865 9866 9867 9868 9869 9870 9871 9872 9873 9874 9875 9876 9877 9878 9879 9880 9881 9882 9883 9884 9885 9886 9887 9888 9889 9890 9891 9892 9893 9894 9895 9896 9897 9898 9899 9900 9901 9902 9903 9904 9905 9906 9907 9908 9909 9910 9911 9912 9913 9914 9915 9916 9917 9918 9919 9920 9921 9922 9923 9924 9925 9926 9927 9928 9929 9930 9931 9932 9933 9934 9935 9936 9937 9938 9939 9940 9941 9942 9943 9944 9945 9946 9947 9948 9949 9950 9951 9952 9953 9954 9955 9956 9957 9958 9959 9960 9961 9962 9963 9964 9965 9966 9967 9968 9969 9970 9971 9972 9973 9974 9975 9976 9977 9978 9979 9980 9981 9982 9983 9984 9985 9986 9987 9988 9989 9990 9991 9992 9993 9994 9995 9996 9997 9998 9999 10000 10001 10002 10003 10004 10005 10006 10007 10008 10009 10010 10011 10012 10013 10014 10015 10016 10017 10018 10019 10020 10021 10022 10023 10024 10025 10026 10027 10028 10029 10030 10031 10032 10033 10034 10035 10036 10037 10038 10039 10040 10041 10042 10043 10044 10045 10046 10047 10048 10049 10050 10051 10052 10053 10054 10055 10056 10057 10058 10059 10060 10061 10062 10063 10064 10065 10066 10067 10068 10069 10070 10071 10072 10073 10074 10075 10076 10077 10078 10079 10080 10081 10082 10083 10084 10085 10086 10087 10088 10089 10090 10091 10092 10093 10094 10095 10096 10097 10098 10099 10100 10101 10102 10103 10104 10105 10106 10107 10108 10109 10110 10111 10112 10113 10114 10115 10116 10117 10118 10119 10120 10121 10122 10123 10124 10125 10126 10127 10128 10129 10130 10131 10132 10133 10134 10135 10136 10137 10138 10139 10140 10141 10142 10143 10144 10145 10146 10147 10148 10149 10150 10151 10152 10153 10154 10155 10156 10157 10158 10159 10160 10161 10162 10163 10164 10165 10166 10167 10168 10169 10170 10171 10172 10173 10174 10175 10176 10177 10178 10179 10180 10181 10182 10183 10184 10185 10186 10187 10188 10189 10190 10191 10192 10193 10194 10195 10196 10197 10198 10199 10200 10201 10202 10203 10204 10205 10206 10207 10208 10209 10210 10211 10212 10213 10214 10215 10216 10217 10218 10219 10220 10221 10222 10223 10224 10225 10226 10227 10228 10229 10230 10231 10232 10233 10234 10235 10236 10237 10238 10239 10240 10241 10242 10243 10244 10245 10246 10247 10248 10249 10250 10251 10252 10253 10254 10255 10256 10257 10258 10259 10260 10261 10262 10263 10264 10265 10266 10267 10268 10269 10270 10271 10272 10273 10274 10275 10276 10277 10278 10279 10280 10281 10282 10283 10284 10285 10286 10287 10288 10289 10290 10291 10292 10293 10294 10295 10296 10297 10298 10299 10300 10301 10302 10303 10304 10305 10306 10307 10308 10309 10310 10311 10312 10313 10314 10315 10316 10317 10318 10319 10320 10321 10322 10323 10324 10325 10326 10327 10328 10329 10330 10331 10332 10333 10334 10335 10336 10337 10338 10339 10340 10341 10342 10343 10344 10345 10346 10347 10348 10349 10350 10351 10352 10353 10354 10355 10356 10357 10358 10359 10360 10361 10362 10363 10364 10365 10366 10367 10368 10369 10370 10371 10372 10373 10374 10375 10376 10377 10378 10379 10380 10381 10382 10383 10384 10385 10386 10387 10388 10389 10390 10391 10392 10393 10394 10395 10396 10397 10398 10399 10400 10401 10402 10403 10404 10405 10406 10407 10408 10409 10410 10411 10412 10413 10414 10415 10416 10417 10418 10419 10420 10421 10422 10423 10424 10425 10426 10427 10428 10429 10430 10431 10432 10433 10434 10435 10436 10437 10438 10439 10440 10441 10442 10443 10444 10445 10446 10447 10448 10449 10450 10451 10452 10453 10454 10455 10456 10457 10458 10459 10460 10461 10462 10463 10464 10465 10466 10467 10468 10469 10470 10471 10472 10473 10474 10475 10476 10477 10478 10479 10480 10481 10482 10483 10484 10485 10486 10487 10488 10489 10490 10491 10492 10493 10494 10495 10496 10497 10498 10499 10500 10501 10502 10503 10504 10505 10506 10507 10508 10509 10510 10511 10512 10513 10514 10515 10516 10517 10518 10519 10520 10521 10522 10523 10524 10525 10526 10527 10528 10529 10530 10531 10532 10533 10534 10535 10536 10537 10538 10539 10540 10541 10542 10543 10544 10545 10546 10547 10548 10549 10550 10551 10552 10553 10554 10555 10556 10557 10558 10559 10560 10561 10562 10563 10564 10565 10566 10567 10568 10569 10570 10571 10572 10573 10574 10575 10576 10577 10578 10579 10580 10581 10582 10583 10584 10585 10586 10587 10588 10589 10590 10591 10592 10593 10594 10595 10596 10597 10598 10599 10600 10601 10602 10603 10604 10605 10606 10607 10608 10609 10610 10611 10612 10613 10614 10615 10616 10617 10618 10619 10620 10621 10622 10623 10624 10625 10626 10627 10628 10629 10630 10631 10632 10633 10634 10635 10636 10637 10638 10639 10640 10641 10642 10643 10644 10645 10646 10647 10648 10649 10650 10651 10652 10653 10654 10655 10656 10657 10658 10659 10660 10661 10662 10663 10664 10665 10666 10667 10668 10669 10670 10671 10672 10673 10674 10675 10676 10677 10678 10679 10680 10681 10682 10683 10684 10685 10686 10687 10688 10689 10690 10691 10692 10693 10694 10695 10696 10697 10698 10699 10700 10701 10702 10703 10704 10705 10706 10707 10708 10709 10710 10711 10712 10713 10714 10715 10716 10717 10718 10719 10720 10721 10722 10723 10724 10725 10726 10727 10728 10729 10730 10731 10732 10733 10734 10735 10736 10737 10738 10739 10740 10741 10742 10743 10744 10745 10746 10747 10748 10749 10750 10751 10752 10753 10754 10755 10756 10757 10758 10759 10760 10761 10762 10763 10764 10765 10766 10767 10768 10769 10770 10771 10772 10773 10774 10775 10776 10777 10778 10779 10780 10781 10782 10783 10784 10785 10786 10787 10788 10789 10790 10791 10792 10793 10794 10795 10796 10797 10798 10799 10800 10801 10802 10803 10804 10805 10806 10807 10808 10809 10810 10811 10812 10813 10814 10815 10816 10817 10818 10819 10820 10821 10822 10823 10824 10825 10826 10827 10828 10829 10830 10831 10832 10833 10834 10835 10836 10837 10838 10839 10840 10841 10842 10843 10844 10845 10846 10847 10848 10849 10850 10851 10852 10853 10854 10855 10856 10857 10858 10859 10860 10861 10862 10863 10864 10865 10866 10867 10868 10869 10870 10871 10872 10873 10874 10875 10876 10877 10878 10879 10880 10881 10882 10883 10884 10885 10886 10887 10888 10889 10890 10891 10892 10893 10894 10895 10896 10897 10898 10899 10900 10901 10902 10903 10904 10905 10906 10907 10908 10909 10910 10911 10912 10913 10914 10915 10916 10917 10918 10919 10920 10921 10922 10923 10924 10925 10926 10927 10928 10929 10930 10931 10932 10933 10934 10935 10936 10937 10938 10939 10940 10941 10942 10943 10944 10945 10946 10947 10948 10949 10950 10951 10952 10953 10954 10955 10956 10957 10958 10959 10960 10961 10962 10963 10964 10965 10966 10967 10968 10969 10970 10971 10972 10973 10974 10975 10976 10977 10978 10979 10980 10981 10982 10983 10984 10985 10986 10987 10988 10989 10990 10991 10992 10993 10994 10995 10996 10997 10998 10999 11000 11001 11002 11003 11004 11005 11006 11007 11008 11009 11010 11011 11012 11013 11014 11015 11016 11017 11018 11019 11020 11021 11022 11023 11024 11025 11026 11027 11028 11029 11030 11031 11032 11033 11034 11035 11036 11037 11038 11039 11040 11041 11042 11043 11044 11045 11046 11047 11048 11049 11050 11051 11052 11053 11054 11055 11056 11057 11058 11059 11060 11061 11062 11063 11064 11065 11066 11067 11068 11069 11070 11071 11072 11073 11074 11075 11076 11077 11078 11079 11080 11081 11082 11083 11084 11085 11086 11087 11088 11089 11090 11091 11092 11093 11094 11095 11096 11097 11098 11099 11100 11101 11102 11103 11104 11105 11106 11107 11108 11109 11110 11111 11112 11113 11114 11115 11116 11117 11118 11119 11120 11121 11122 11123 11124 11125 11126 11127 11128 11129 11130 11131 11132 11133 11134 11135 11136 11137 11138 11139 11140 11141 11142 11143 11144 11145 11146 11147 11148 11149 11150 11151 11152 11153 11154 11155 11156 11157 11158 11159 11160 11161 11162 11163 11164 11165 11166 11167 11168 11169 11170 11171 11172 11173 11174 11175 11176 11177 11178 11179 11180 11181 11182 11183 11184 11185 11186 11187 11188 11189 11190 11191 11192 11193 11194 11195 11196 11197 11198 11199 11200 11201 11202 11203 11204 11205 11206 11207 11208 11209 11210 11211 11212 11213 11214 11215 11216 11217 11218 11219 11220 11221 11222 11223 11224 11225 11226 11227 11228 11229 11230 11231 11232 11233 11234 11235 11236 11237 11238 11239 11240 11241 11242 11243 11244 11245 11246 11247 11248 11249 11250 11251 11252 11253 11254 11255 11256 11257 11258 11259 11260 11261 11262 11263 11264 11265 11266 11267 11268 11269 11270 11271 11272 11273 11274 11275 11276 11277 11278 11279 11280 11281 11282 11283 11284 11285 11286 11287 11288 11289 11290 11291 11292 11293 11294 11295 11296 11297 11298 11299 11300 11301 11302 11303 11304 11305 11306 11307 11308 11309 11310 11311 11312 11313 11314 11315 11316 11317 11318 11319 11320 11321 11322 11323 11324 11325 11326 11327 11328 11329 11330 11331 11332 11333 11334 11335 11336 11337 11338 11339 11340 11341 11342 11343 11344 11345 11346 11347 11348 11349 11350 11351 11352 11353 11354 11355 11356 11357 11358 11359 11360 11361 11362 11363 11364 11365 11366 11367 11368 11369 11370 11371 11372 11373 11374 11375 11376 11377 11378 11379 11380 11381 11382 11383 11384 11385 11386 11387 11388 11389 11390 11391 11392 11393 11394 11395 11396 11397 11398 11399 11400 11401 11402 11403 11404 11405 11406 11407 11408 11409 11410 11411 11412 11413 11414 11415 11416 11417 11418 11419 11420 11421 11422 11423 11424 11425 11426 11427 11428 11429 11430 11431 11432 11433 11434 11435 11436 11437 11438 11439 11440 11441 11442 11443 11444 11445 11446 11447 11448 11449 11450 11451 11452 11453 11454 11455 11456 11457 11458 11459 11460 11461 11462 11463 11464 11465 11466 11467 11468 11469 11470 11471 11472 11473 11474 11475 11476 11477 11478 11479 11480 11481 11482 11483 11484 11485 11486 11487 11488 11489 11490 11491 11492 11493 11494 11495 11496 11497 11498 11499 11500 11501 11502 11503 11504 11505 11506 11507 11508 11509 11510 11511 11512 11513 11514 11515 11516 11517 11518 11519 11520 11521 11522 11523 11524 11525 11526 11527 11528 11529 11530 11531 11532 11533 11534 11535 11536 11537 11538 11539 11540 11541 11542 11543 11544 11545 11546 11547 11548 11549 11550 11551 11552 11553 11554 11555 11556 11557 11558 11559 11560 11561 11562 11563 11564 11565 11566 11567 11568 11569 11570 11571 11572 11573 11574 11575 11576 11577 11578 11579 11580 11581 11582 11583 11584 11585 11586 11587 11588 11589 11590 11591 11592 11593 11594 11595 11596 11597 11598 11599 11600 11601 11602 11603 11604 11605 11606 11607 11608 11609 11610 11611 11612 11613 11614 11615 11616 11617 11618 11619 11620 11621 11622 11623 11624 11625 11626 11627 11628 11629 11630 11631 11632 11633 11634 11635 11636 11637 11638 11639 11640 11641 11642 11643 11644 11645 11646 11647 11648 11649 11650 11651 11652 11653 11654 11655 11656 11657 11658 11659 11660 11661 11662 11663 11664 11665 11666 11667 11668 11669 11670 11671 11672 11673 11674 11675 11676 11677 11678 11679 11680 11681 11682 11683 11684 11685 11686 11687 11688 11689 11690 11691 11692 11693 11694 11695 11696 11697 11698 11699 11700 11701 11702 11703 11704 11705 11706 11707 11708 11709 11710 11711 11712 11713 11714 11715 11716 11717 11718 11719 11720 11721 11722 11723 11724 11725 11726 11727 11728 11729 11730 11731 11732 11733 11734 11735 11736 11737 11738 11739 11740 11741 11742 11743 11744 11745 11746 11747 11748 11749 11750 11751 11752 11753 11754 11755 11756 11757 11758 11759 11760 11761 11762 11763 11764 11765 11766 11767 11768 11769 11770 11771 11772 11773 11774 11775 11776 11777 11778 11779 11780 11781 11782 11783 11784 11785 11786 11787 11788 11789 11790 11791 11792 11793 11794 11795 11796 11797 11798 11799 11800 11801 11802 11803 11804 11805 11806 11807 11808 11809 11810 11811 11812 11813 11814 11815 11816 11817 11818 11819 11820 11821 11822 11823 11824 11825 11826 11827 11828 11829 11830 11831 11832 11833 11834 11835 11836 11837 11838 11839 11840 11841 11842 11843 11844 11845 11846 11847 11848 11849 11850 11851 11852 11853 11854 11855 11856 11857 11858 11859 11860 11861 11862 11863 11864 11865 11866 11867 11868 11869 11870 11871 11872 11873 11874 11875 11876 11877 11878 11879 11880 11881 11882 11883 11884 11885 11886 11887 11888 11889 11890 11891 11892 11893 11894 11895 11896 11897 11898 11899 11900 11901 11902 11903 11904 11905 11906 11907 11908 11909 11910 11911 11912 11913 11914 11915 11916 11917 11918 11919 11920 11921 11922 11923 11924 11925 11926 11927 11928 11929 11930 11931 11932 11933 11934 11935 11936 11937 11938 11939 11940 11941 11942 11943 11944 11945 11946 11947 11948 11949 11950 11951 11952 11953 11954 11955 11956 11957 11958 11959 11960 11961 11962 11963 11964 11965 11966 11967 11968 11969 11970 11971 11972 11973 11974 11975 11976 11977 11978 11979 11980 11981 11982 11983 11984 11985 11986 11987 11988 11989 11990 11991 11992 11993 11994 11995 11996 11997 11998 11999 12000 12001 12002 12003 12004 12005 12006 12007 12008 12009 12010 12011 12012 12013 12014 12015 12016 12017 12018 12019 12020 12021 12022 12023 12024 12025 12026 12027 12028 12029 12030 12031 12032 12033 12034 12035 12036 12037 12038 12039 12040 12041 12042 12043 12044 12045 12046 12047 12048 12049 12050 12051 12052 12053 12054 12055 12056 12057 12058 12059 12060 12061 12062 12063 12064 12065 12066 12067 12068 12069 12070 12071 12072 12073 12074 12075 12076 12077 12078 12079 12080 12081 12082 12083 12084 12085 12086 12087 12088 12089 12090 12091 12092 12093 12094 12095 12096 12097 12098 12099 12100 12101 12102 12103 12104 12105 12106 12107 12108 12109 12110 12111 12112 12113 12114 12115 12116 12117 12118 12119 12120 12121 12122 12123 12124 12125 12126 12127 12128 12129 12130 12131 12132 12133 12134 12135 12136 12137 12138 12139 12140 12141 12142 12143 12144 12145 12146 12147 12148 12149 12150 12151 12152 12153 12154 12155 12156 12157 12158 12159 12160 12161 12162 12163 12164 12165 12166 12167 12168 12169 12170 12171 12172 12173 12174 12175 12176 12177 12178 12179 12180 12181 12182 12183 12184 12185 12186 12187 12188 12189 12190 12191 12192 12193 12194 12195 12196 12197 12198 12199 12200 12201 12202 12203 12204 12205 12206 12207 12208 12209 12210 12211 12212 12213 12214 12215 12216 12217 12218 12219 12220 12221 12222 12223 12224 12225 12226 12227 12228 12229 12230 12231 12232 12233 12234 12235 12236 12237 12238 12239 12240 12241 12242 12243 12244 12245 12246 12247 12248 12249 12250 12251 12252 12253 12254 12255 12256 12257 12258 12259 12260 12261 12262 12263 12264 12265 12266 12267 12268 12269 12270 12271 12272 12273 12274 12275 12276 12277 12278 12279 12280 12281 12282 12283 12284 12285 12286 12287 12288 12289 12290 12291 12292 12293 12294 12295 12296 12297 12298 12299 12300 12301 12302 12303 12304 12305 12306 12307 12308 12309 12310 12311 12312 12313 12314 12315 12316 12317 12318 12319 12320 12321 12322 12323 12324 12325 12326 12327 12328 12329 12330 12331 12332 12333 12334 12335 12336 12337 12338 12339 12340 12341 12342 12343 12344 12345 12346 12347 12348 12349 12350 12351 12352 12353 12354 12355 12356 12357 12358 12359 12360 12361 12362 12363 12364 12365 12366 12367 12368 12369 12370 12371 12372 12373 12374 12375 12376 12377 12378 12379 12380 12381 12382 12383 12384 12385 12386 12387 12388 12389 12390 12391 12392 12393 12394 12395 12396 12397 12398 12399 12400 12401 12402 12403 12404 12405 12406 12407 12408 12409 12410 12411 12412 12413 12414 12415 12416 12417 12418 12419 12420 12421 12422 12423 12424 12425 12426 12427 12428 12429 12430 12431 12432 12433 12434 12435 12436 12437 12438 12439 12440 12441 12442 12443 12444 12445 12446 12447 12448 12449 12450 12451 12452 12453 12454 12455 12456 12457 12458 12459 12460 12461 12462 12463 12464 12465 12466 12467 12468 12469 12470 12471 12472 12473 12474 12475 12476 12477 12478 12479 12480 12481 12482 12483 12484 12485 12486 12487 12488 12489 12490 12491 12492 12493 12494 12495 12496 12497 12498 12499 12500 12501 12502 12503 12504 12505 12506 12507 12508 12509 12510 12511 12512 12513 12514 12515 12516 12517 12518 12519 12520 12521 12522 12523 12524 12525 12526 12527 12528 12529 12530 12531 12532 12533 12534 12535 12536 12537 12538 12539 12540 12541 12542 12543 12544 12545 12546 12547 12548 12549 12550 12551 12552 12553 12554 12555 12556 12557 12558 12559 12560 12561 12562 12563 12564 12565 12566 12567 12568 12569 12570 12571 12572 12573 12574 12575 12576 12577 12578 12579 12580 12581 12582 12583 12584 12585 12586 12587 12588 12589 12590 12591 12592 12593 12594 12595 12596 12597 12598 12599 12600 12601 12602 12603 12604 12605 12606 12607 12608 12609 12610 12611 12612 12613 12614 12615 12616 12617 12618 12619 12620 12621 12622 12623 12624 12625 12626 12627 12628 12629 12630 12631 12632 12633 12634 12635 12636 12637 12638 12639 12640 12641 12642 12643 12644 12645 12646 12647 12648 12649 12650 12651 12652 12653 12654 12655 12656 12657 12658 12659 12660 12661 12662 12663 12664 12665 12666 12667 12668 12669 12670 12671 12672 12673 12674 12675 12676 12677 12678 12679 12680 12681 12682 12683 12684 12685 12686 12687 12688 12689 12690 12691 12692 12693 12694 12695 12696 12697 12698 12699 12700 12701 12702 12703 12704 12705 12706 12707 12708 12709 12710 12711 12712 12713 12714 12715 12716 12717 12718 12719 12720 12721 12722 12723 12724 12725 12726 12727 12728 12729 12730 12731 12732 12733 12734 12735 12736 12737 12738 12739 12740 12741 12742 12743 12744 12745 12746 12747 12748 12749 12750 12751 12752 12753 12754 12755 12756 12757 12758 12759 12760 12761 12762 12763 12764 12765 12766 12767 12768 12769 12770 12771 12772 12773 12774 12775 12776 12777 12778 12779 12780 12781 12782 12783 12784 12785 12786 12787 12788 12789 12790 12791 12792 12793 12794 12795 12796 12797 12798 12799 12800 12801 12802 12803 12804 12805 12806 12807 12808 12809 12810 12811 12812 12813 12814 12815 12816 12817 12818 12819 12820 12821 12822 12823 12824 12825 12826 12827 12828 12829 12830 12831 12832 12833 12834 12835 12836 12837 12838 12839 12840 12841 12842 12843 12844 12845 12846 12847 12848 12849 12850 12851 12852 12853 12854 12855 12856 12857 12858 12859 12860 12861 12862 12863 12864 12865 12866 12867 12868 12869 12870 12871 12872 12873 12874 12875 12876 12877 12878 12879 12880 12881 12882 12883 12884 12885 12886 12887 12888 12889 12890 12891 12892 12893 12894 12895 12896 12897 12898 12899 12900 12901 12902 12903 12904 12905 12906 12907 12908 12909 12910 12911 12912 12913 12914 12915 12916 12917 12918 12919 12920 12921 12922 12923 12924 12925 12926 12927 12928 12929 12930 12931 12932 12933 12934 12935 12936 12937 12938 12939 12940 12941 12942 12943 12944 12945 12946 12947 12948 12949 12950 12951 12952 12953 12954 12955 12956 12957 12958 12959 12960 12961 12962 12963 12964 12965 12966 12967 12968 12969 12970 12971 12972 12973 12974 12975 12976 12977 12978 12979 12980 12981 12982 12983 12984 12985 12986 12987 12988 12989 12990 12991 12992 12993 12994 12995 12996 12997 12998 12999 13000 13001 13002 13003 13004 13005 13006 13007 13008 13009 13010 13011 13012 13013 13014 13015 13016 13017 13018 13019 13020 13021 13022 13023 13024 13025 13026 13027 13028 13029 13030 13031 13032 13033 13034 13035 13036 13037 13038 13039 13040 13041 13042 13043 13044 13045 13046 13047 13048 13049 13050 13051 13052 13053 13054 13055 13056 13057 13058 13059 13060 13061 13062 13063 13064 13065 13066 13067 13068 13069 13070 13071 13072 13073 13074 13075 13076 13077 13078 13079 13080 13081 13082 13083 13084 13085 13086 13087 13088 13089 13090 13091 13092 13093 13094 13095 13096 13097 13098 13099 13100 13101 13102 13103 13104 13105 13106 13107 13108 13109 13110 13111 13112 13113 13114 13115 13116 13117 13118 13119 13120 13121 13122 13123 13124 13125 13126 13127 13128 13129 13130 13131 13132 13133 13134 13135 13136 13137 13138 13139 13140 13141 13142 13143 13144 13145 13146 13147 13148 13149 13150 13151 13152 13153 13154 13155 13156 13157 13158 13159 13160 13161 13162 13163 13164 13165 13166 13167 13168 13169 13170 13171 13172 13173 13174 13175 13176 13177 13178 13179 13180 13181 13182 13183 13184 13185 13186 13187 13188 13189 13190 13191 13192 13193 13194 13195 13196 13197 13198 13199 13200 13201 13202 13203 13204 13205 13206 13207 13208 13209 13210 13211 13212 13213 13214 13215 13216 13217 13218 13219 13220 13221 13222 13223 13224 13225 13226 13227 13228 13229 13230 13231 13232 13233 13234 13235 13236 13237 13238 13239 13240 13241 13242 13243 13244 13245 13246 13247 13248 13249 13250 13251 13252 13253 13254 13255 13256 13257 13258 13259 13260 13261 13262 13263 13264 13265 13266 13267 13268 13269 13270 13271 13272 13273 13274 13275 13276 13277 13278 13279 13280 13281 13282 13283 13284 13285 13286 13287 13288 13289 13290 13291 13292 13293 13294 13295 13296 13297 13298 13299 13300 13301 13302 13303 13304 13305 13306 13307 13308 13309 13310 13311 13312 13313 13314 13315 13316 13317 13318 13319 13320 13321 13322 13323 13324 13325 13326 13327 13328 13329 13330 13331 13332 13333 13334 13335 13336 13337 13338 13339 13340 13341 13342 13343 13344 13345 13346 13347 13348 13349 13350 13351 13352 13353 13354 13355 13356 13357 13358 13359 13360 13361 13362 13363 13364 13365 13366 13367 13368 13369 13370 13371 13372 13373 13374 13375 13376 13377 13378 13379 13380 13381 13382 13383 13384 13385 13386 13387 13388 13389 13390 13391 13392 13393 13394 13395 13396 13397 13398 13399 13400 13401 13402 13403 13404 13405 13406 13407 13408 13409 13410 13411 13412 13413 13414 13415 13416 13417 13418 13419 13420 13421 13422 13423 13424 13425 13426 13427 13428 13429 13430 13431 13432 13433 13434 13435 13436 13437 13438 13439 13440 13441 13442 13443 13444 13445 13446 13447 13448 13449 13450 13451 13452 13453 13454 13455 13456 13457 13458 13459 13460 13461 13462 13463 13464 13465 13466 13467 13468 13469 13470 13471 13472 13473 13474 13475 13476 13477 13478 13479 13480 13481 13482 13483 13484 13485 13486 13487 13488 13489 13490 13491 13492 13493 13494 13495 13496 13497 13498 13499 13500 13501 13502 13503 13504 13505 13506 13507 13508 13509 13510 13511 13512 13513 13514 13515 13516 13517 13518 13519 13520 13521 13522 13523 13524 13525 13526 13527 13528 13529 13530 13531 13532 13533 13534 13535 13536 13537 13538 13539 13540 13541 13542 13543 13544 13545 13546 13547 13548 13549 13550 13551 13552 13553 13554 13555 13556 13557 13558 13559 13560 13561 13562 13563 13564 13565 13566 13567 13568 13569 13570 13571 13572 13573 13574 13575 13576 13577 13578 13579 13580 13581 13582 13583 13584 13585 13586 13587 13588 13589 13590 13591 13592 13593 13594 13595 13596 13597 13598 13599 13600 13601 13602 13603 13604 13605 13606 13607 13608 13609 13610 13611 13612 13613 13614 13615 13616 13617 13618 13619 13620 13621 13622 13623 13624 13625 13626 13627 13628 13629 13630 13631 13632 13633 13634 13635 13636 13637 13638 13639 13640 13641 13642 13643 13644 13645 13646 13647 13648 13649 13650 13651 13652 13653 13654 13655 13656 13657 13658 13659 13660 13661 13662 13663 13664 13665 13666 13667 13668 13669 13670 13671 13672 13673 13674 13675 13676 13677 13678 13679 13680 13681 13682 13683 13684 13685 13686 13687 13688 13689 13690 13691 13692 13693 13694 13695 13696 13697 13698 13699 13700 13701 13702 13703 13704 13705 13706 13707 13708 13709 13710 13711 13712 13713 13714 13715 13716 13717 13718 13719 13720 13721 13722 13723 13724 13725 13726 13727 13728 13729 13730 13731 13732 13733 13734 13735 13736 13737 13738 13739 13740 13741 13742 13743 13744 13745 13746 13747 13748 13749 13750 13751 13752 13753 13754 13755 13756 13757 13758 13759 13760 13761 13762 13763 13764 13765 13766 13767 13768 13769 13770 13771 13772 13773 13774 13775 13776 13777 13778 13779 13780 13781 13782 13783 13784 13785 13786 13787 13788 13789 13790 13791 13792 13793 13794 13795 13796 13797 13798 13799 13800 13801 13802 13803 13804 13805 13806 13807 13808 13809 13810 13811 13812 13813 13814 13815 13816 13817 13818 13819 13820 13821 13822 13823 13824 13825 13826 13827 13828 13829 13830 13831 13832 13833 13834 13835 13836 13837 13838 13839 13840 13841 13842 13843 13844 13845 13846 13847 13848 13849 13850 13851 13852 13853 13854 13855 13856 13857 13858 13859 13860 13861 13862 13863 13864 13865 13866 13867 13868 13869 13870 13871 13872 13873 13874 13875 13876 13877 13878 13879 13880 13881 13882 13883 13884 13885 13886 13887 13888 13889 13890 13891 13892 13893 13894 13895 13896 13897 13898 13899 13900 13901 13902 13903 13904 13905 13906 13907 13908 13909 13910 13911 13912 13913 13914 13915 13916 13917 13918 13919 13920 13921 13922 13923 13924 13925 13926 13927 13928 13929 13930 13931 13932 13933 13934 13935 13936 13937 13938 13939 13940 13941 13942 13943 13944 13945 13946 13947 13948 13949 13950 13951 13952 13953 13954 13955 13956 13957 13958 13959 13960 13961 13962 13963 13964 13965 13966 13967 13968 13969 13970 13971 13972 13973 13974 13975 13976 13977 13978 13979 13980 13981 13982 13983 13984 13985 13986 13987 13988 13989 13990 13991 13992 13993 13994 13995 13996 13997 13998 13999 14000 14001 14002 14003 14004 14005 14006 14007 14008 14009 14010 14011 14012 14013 14014 14015 14016 14017 14018 14019 14020 14021 14022 14023 14024 14025 14026 14027 14028 14029 14030 14031 14032 14033 14034 14035 14036 14037 14038 14039 14040 14041 14042 14043 14044 14045 14046 14047 14048 14049 14050 14051 14052 14053 14054 14055 14056 14057 14058 14059 14060 14061 14062 14063 14064 14065 14066 14067 14068 14069 14070 14071 14072 14073 14074 14075 14076 14077 14078 14079 14080 14081 14082 14083 14084 14085 14086 14087 14088 14089 14090 14091 14092 14093 14094 14095 14096 14097 14098 14099 14100 14101 14102 14103 14104 14105 14106 14107 14108 14109 14110 14111 14112 14113 14114 14115 14116 14117 14118 14119 14120 14121 14122 14123 14124 14125 14126 14127 14128 14129 14130 14131 14132 14133 14134 14135 14136 14137 14138 14139 14140 14141 14142 14143 14144 14145 14146 14147 14148 14149 14150 14151 14152 14153 14154 14155 14156 14157 14158 14159 14160 14161 14162 14163 14164 14165 14166 14167 14168 14169 14170 14171 14172 14173 14174 14175 14176 14177 14178 14179 14180 14181 14182 14183 14184 14185 14186 14187 14188 14189 14190 14191 14192 14193 14194 14195 14196 14197 14198 14199 14200 14201 14202 14203 14204 14205 14206 14207 14208 14209 14210 14211 14212 14213 14214 14215 14216 14217 14218 14219 14220 14221 14222 14223 14224 14225 14226 14227 14228 14229 14230 14231 14232 14233 14234 14235 14236 14237 14238 14239 14240 14241 14242 14243 14244 14245 14246 14247 14248 14249 14250 14251 14252 14253 14254 14255 14256 14257 14258 14259 14260 14261 14262 14263 14264 14265 14266 14267 14268 14269 14270 14271 14272 14273 14274 14275 14276 14277 14278 14279 14280 14281 14282 14283 14284 14285 14286 14287 14288 14289 14290 14291 14292 14293 14294 14295 14296 14297 14298 14299 14300 14301 14302 14303 14304 14305 14306 14307 14308 14309 14310 14311 14312 14313 14314 14315 14316 14317 14318 14319 14320 14321 14322 14323 14324 14325 14326 14327 14328 14329 14330 14331 14332 14333 14334 14335 14336 14337 14338 14339 14340 14341 14342 14343 14344 14345 14346 14347 14348 14349 14350 14351 14352 14353 14354 14355 14356 14357 14358 14359 14360 14361 14362 14363 14364 14365 14366 14367 14368 14369 14370 14371 14372 14373 14374 14375 14376 14377 14378 14379 14380 14381 14382 14383 14384 14385 14386 14387 14388 14389 14390 14391 14392 14393 14394 14395 14396 14397 14398 14399 14400 14401 14402 14403 14404 14405 14406 14407 14408 14409 14410 14411 14412 14413 14414 14415 14416 14417 14418 14419 14420 14421 14422 14423 14424 14425 14426 14427 14428 14429 14430 14431 14432 14433 14434 14435 14436 14437 14438 14439 14440 14441 14442 14443 14444 14445 14446 14447 14448 14449 14450 14451 14452 14453 14454 14455 14456 14457 14458 14459 14460 14461 14462 14463 14464 14465 14466 14467 14468 14469 14470 14471 14472 14473 14474 14475 14476 14477 14478 14479 14480 14481 14482 14483 14484 14485 14486 14487 14488 14489 14490 14491 14492 14493 14494 14495 14496 14497 14498 14499 14500 14501 14502 14503 14504 14505 14506 14507 14508 14509 14510 14511 14512 14513 14514 14515 14516 14517 14518 14519 14520 14521 14522 14523 14524 14525 14526 14527 14528 14529 14530 14531 14532 14533 14534 14535 14536 14537 14538 14539 14540 14541 14542 14543 14544 14545 14546 14547 14548 14549 14550 14551 14552 14553 14554 14555 14556 14557 14558 14559 14560 14561 14562 14563 14564 14565 14566 14567 14568 14569 14570 14571 14572 14573 14574 14575 14576 14577 14578 14579 14580 14581 14582 14583 14584 14585 14586 14587 14588 14589 14590 14591 14592 14593 14594 14595 14596 14597 14598 14599 14600 14601 14602 14603 14604 14605 14606 14607 14608 14609 14610 14611 14612 14613 14614 14615 14616 14617 14618 14619 14620 14621 14622 14623 14624 14625 14626 14627 14628 14629 14630 14631 14632 14633 14634 14635 14636 14637 14638 14639 14640 14641 14642 14643 14644 14645 14646 14647 14648 14649 14650 14651 14652 14653 14654 14655 14656 14657 14658 14659 14660 14661 14662 14663 14664 14665 14666 14667 14668 14669 14670 14671 14672 14673 14674 14675 14676 14677 14678 14679 14680 14681 14682 14683 14684 14685 14686 14687 14688 14689 14690 14691 14692 14693 14694 14695 14696 14697 14698 14699 14700 14701 14702 14703 14704 14705 14706 14707 14708 14709 14710 14711 14712 14713 14714 14715 14716 14717 14718 14719 14720 14721 14722 14723 14724 14725 14726 14727 14728 14729 14730 14731 14732 14733 14734 14735 14736 14737 14738 14739 14740 14741 14742 14743 14744 14745 14746 14747 14748 14749 14750 14751 14752 14753 14754 14755 14756 14757 14758 14759 14760 14761 14762 14763 14764 14765 14766 14767 14768 14769 14770 14771 14772 14773 14774 14775 14776 14777 14778 14779 14780 14781 14782 14783 14784 14785 14786 14787 14788 14789 14790 14791 14792 14793 14794 14795 14796 14797 14798 14799 14800 14801 14802 14803 14804 14805 14806 14807 14808 14809 14810 14811 14812 14813 14814 14815 14816 14817 14818 14819 14820 14821 14822 14823 14824 14825 14826 14827 14828 14829 14830 14831 14832 14833 14834 14835 14836 14837 14838 14839 14840 14841 14842 14843 14844 14845 14846 14847 14848 14849 14850 14851 14852 14853 14854 14855 14856 14857 14858 14859 14860 14861 14862 14863 14864 14865 14866 14867 14868 14869 14870 14871 14872 14873 14874 14875 14876 14877 14878 14879 14880 14881 14882 14883 14884 14885 14886 14887 14888 14889 14890 14891 14892 14893 14894 14895 14896 14897 14898 14899 14900 14901 14902 14903 14904 14905 14906 14907 14908 14909 14910 14911 14912 14913 14914 14915 14916 14917 14918 14919 14920 14921 14922 14923 14924 14925 14926 14927 14928 14929 14930 14931 14932 14933 14934 14935 14936 14937 14938 14939 14940 14941 14942 14943 14944 14945 14946 14947 14948 14949 14950 14951 14952 14953 14954 14955 14956 14957 14958 14959 14960 14961 14962 14963 14964 14965 14966 14967 14968 14969 14970 14971 14972 14973 14974 14975 14976 14977 14978 14979 14980 14981 14982 14983 14984 14985 14986 14987 14988 14989 14990 14991 14992 14993 14994 14995 14996 14997 14998 14999 15000 15001 15002 15003 15004 15005 15006 15007 15008 15009 15010 15011 15012 15013 15014 15015 15016 15017 15018 15019 15020 15021 15022 15023 15024 15025 15026 15027 15028 15029 15030 15031 15032 15033 15034 15035 15036 15037 15038 15039 15040 15041 15042 15043 15044 15045 15046 15047 15048 15049 15050 15051 15052 15053 15054 15055 15056 15057 15058 15059 15060 15061 15062 15063 15064 15065 15066 15067 15068 15069 15070 15071 15072 15073 15074 15075 15076 15077 15078 15079 15080 15081 15082 15083 15084 15085 15086 15087 15088 15089 15090 15091 15092 15093 15094 15095 15096 15097 15098 15099 15100 15101 15102 15103 15104 15105 15106 15107 15108 15109 15110 15111 15112 15113 15114 15115 15116 15117 15118 15119 15120 15121 15122 15123 15124 15125 15126 15127 15128 15129 15130 15131 15132 15133 15134 15135 15136 15137 15138 15139 15140 15141 15142 15143 15144 15145 15146 15147 15148 15149 15150 15151 15152 15153 15154 15155 15156 15157 15158 15159 15160 15161 15162 15163 15164 15165 15166 15167 15168 15169 15170 15171 15172 15173 15174 15175 15176 15177 15178 15179 15180 15181 15182 15183 15184 15185 15186 15187 15188 15189 15190 15191 15192 15193 15194 15195 15196 15197 15198 15199 15200 15201 15202 15203 15204 15205 15206 15207 15208 15209 15210 15211 15212 15213 15214 15215 15216 15217 15218 15219 15220 15221 15222 15223 15224 15225 15226 15227 15228 15229 15230 15231 15232 15233 15234 15235 15236 15237 15238 15239 15240 15241 15242 15243 15244 15245 15246 15247 15248 15249 15250 15251 15252 15253 15254 15255 15256 15257 15258 15259 15260 15261 15262 15263 15264 15265 15266 15267 15268 15269 15270 15271 15272 15273 15274 15275 15276 15277 15278 15279 15280 15281 15282 15283 15284 15285 15286 15287 15288 15289 15290 15291 15292 15293 15294 15295 15296 15297 15298 15299 15300 15301 15302 15303 15304 15305 15306 15307 15308 15309 15310 15311 15312 15313 15314 15315 15316 15317 15318 15319 15320 15321 15322 15323 15324 15325 15326 15327 15328 15329 15330 15331 15332 15333 15334 15335 15336 15337 15338 15339 15340 15341 15342 15343 15344 15345 15346 15347 15348 15349 15350 15351 15352 15353 15354 15355 15356 15357 15358 15359 15360 15361 15362 15363 15364 15365 15366 15367 15368 15369 15370 15371 15372 15373 15374 15375 15376 15377 15378 15379 15380 15381 15382 15383 15384 15385 15386 15387 15388 15389 15390 15391 15392 15393 15394 15395 15396 15397 15398 15399 15400 15401 15402 15403 15404 15405 15406 15407 15408 15409 15410 15411 15412 15413 15414 15415 15416 15417 15418 15419 15420 15421 15422 15423 15424 15425 15426 15427 15428 15429 15430 15431 15432 15433 15434 15435 15436 15437 15438 15439 15440 15441 15442 15443 15444 15445 15446 15447 15448 15449 15450 15451 15452 15453 15454 15455 15456 15457 15458 15459 15460 15461 15462 15463 15464 15465 15466 15467 15468 15469 15470 15471 15472 15473 15474 15475 15476 15477 15478 15479 15480 15481 15482 15483 15484 15485 15486 15487 15488 15489 15490 15491 15492 15493 15494 15495 15496 15497 15498 15499 15500 15501 15502 15503 15504 15505 15506 15507 15508 15509 15510 15511 15512 15513 15514 15515 15516 15517 15518 15519 15520 15521 15522 15523 15524 15525 15526 15527 15528 15529 15530 15531 15532 15533 15534 15535 15536 15537 15538 15539 15540 15541 15542 15543 15544 15545 15546 15547 15548 15549 15550 15551 15552 15553 15554 15555 15556 15557 15558 15559 15560 15561 15562 15563 15564 15565 15566 15567 15568 15569 15570 15571 15572 15573 15574 15575 15576 15577 15578 15579 15580 15581 15582 15583 15584 15585 15586 15587 15588 15589 15590 15591 15592 15593 15594 15595 15596 15597 15598 15599 15600 15601 15602 15603 15604 15605 15606 15607 15608 15609 15610 15611 15612 15613 15614 15615 15616 15617 15618 15619 15620 15621 15622 15623 15624 15625 15626 15627 15628 15629 15630 15631 15632 15633 15634 15635 15636 15637 15638 15639 15640 15641 15642 15643 15644 15645 15646 15647 15648 15649 15650 15651 15652 15653 15654 15655 15656 15657 15658 15659 15660 15661 15662 15663 15664 15665 15666 15667 15668 15669 15670 15671 15672 15673 15674 15675 15676 15677 15678 15679 15680 15681 15682 15683 15684 15685 15686 15687 15688 15689 15690 15691 15692 15693 15694 15695 15696 15697 15698 15699 15700 15701 15702 15703 15704 15705 15706 15707 15708 15709 15710 15711 15712 15713 15714 15715 15716 15717 15718 15719 15720 15721 15722 15723 15724 15725 15726 15727 15728 15729 15730 15731 15732 15733 15734 15735 15736 15737 15738 15739 15740 15741 15742 15743 15744 15745 15746 15747 15748 15749 15750 15751 15752 15753 15754 15755 15756 15757 15758 15759 15760 15761 15762 15763 15764 15765 15766 15767 15768 15769 15770 15771 15772 15773 15774 15775 15776 15777 15778 15779 15780 15781 15782 15783 15784 15785 15786 15787 15788 15789 15790 15791 15792 15793 15794 15795 15796 15797 15798 15799 15800 15801 15802 15803 15804 15805 15806 15807 15808 15809 15810 15811 15812 15813 15814 15815 15816 15817 15818 15819 15820 15821 15822 15823 15824 15825 15826 15827 15828 15829 15830 15831 15832 15833 15834 15835 15836 15837 15838 15839 15840 15841 15842 15843 15844 15845 15846 15847 15848 15849 15850 15851 15852 15853 15854 15855 15856 15857 15858 15859 15860 15861 15862 15863 15864 15865 15866 15867 15868 15869 15870 15871 15872 15873 15874 15875 15876 15877 15878 15879 15880 15881 15882 15883 15884 15885 15886 15887 15888 15889 15890 15891 15892 15893 15894 15895 15896 15897 15898 15899 15900 15901 15902 15903 15904 15905 15906 15907 15908 15909 15910 15911 15912 15913 15914 15915 15916 15917 15918 15919 15920 15921 15922 15923 15924 15925 15926 15927 15928 15929 15930 15931 15932 15933 15934 15935 15936 15937 15938 15939 15940 15941 15942 15943 15944 15945 15946 15947 15948 15949 15950 15951 15952 15953 15954 15955 15956 15957 15958 15959 15960 15961 15962 15963 15964 15965 15966 15967 15968 15969 15970 15971 15972 15973 15974 15975 15976 15977 15978 15979 15980 15981 15982 15983 15984 15985 15986 15987 15988 15989 15990 15991 15992 15993 15994 15995 15996 15997 15998 15999 16000 16001 16002 16003 16004 16005 16006 16007 16008 16009 16010 16011 16012 16013 16014 16015 16016 16017 16018 16019 16020 16021 16022 16023 16024 16025 16026 16027 16028 16029 16030 16031 16032 16033 16034 16035 16036 16037 16038 16039 16040 16041 16042 16043 16044 16045 16046 16047 16048 16049 16050 16051 16052 16053 16054 16055 16056 16057 16058 16059 16060 16061 16062 16063 16064 16065 16066 16067 16068 16069 16070 16071 16072 16073 16074 16075 16076 16077 16078 16079 16080 16081 16082 16083 16084 16085 16086 16087 16088 16089 16090 16091 16092 16093 16094 16095 16096 16097 16098 16099 16100 16101 16102 16103 16104 16105 16106 16107 16108 16109 16110 16111 16112 16113 16114 16115 16116 16117 16118 16119 16120 16121 16122 16123 16124 16125 16126 16127 16128 16129 16130 16131 16132 16133 16134 16135 16136 16137 16138 16139 16140 16141 16142 16143 16144 16145 16146 16147 16148 16149 16150 16151 16152 16153 16154 16155 16156 16157 16158 16159 16160 16161 16162 16163 16164 16165 16166 16167 16168 16169 16170 16171 16172 16173 16174 16175 16176 16177 16178 16179 16180 16181 16182 16183 16184 16185 16186 16187 16188 16189 16190 16191 16192 16193 16194 16195 16196 16197 16198 16199 16200 16201 16202 16203 16204 16205 16206 16207 16208 16209 16210 16211 16212 16213 16214 16215 16216 16217 16218 16219 16220 16221 16222 16223 16224 16225 16226 16227 16228 16229 16230 16231 16232 16233 16234 16235 16236 16237 16238 16239 16240 16241 16242 16243 16244 16245 16246 16247 16248 16249 16250 16251 16252 16253 16254 16255 16256 16257 16258 16259 16260 16261 16262 16263 16264 16265 16266 16267 16268 16269 16270 16271 16272 16273 16274 16275 16276 16277 16278 16279 16280 16281 16282 16283 16284 16285 16286 16287 16288 16289 16290 16291 16292 16293 16294 16295 16296 16297 16298 16299 16300 16301 16302 16303 16304 16305 16306 16307 16308 16309 16310 16311 16312 16313 16314 16315 16316 16317 16318 16319 16320 16321 16322 16323 16324 16325 16326 16327 16328 16329 16330 16331 16332 16333 16334 16335 16336 16337 16338 16339 16340 16341 16342 16343 16344 16345 16346 16347 16348 16349 16350 16351 16352 16353 16354 16355 16356 16357 16358 16359 16360 16361 16362 16363 16364 16365 16366 16367 16368 16369 16370 16371 16372 16373 16374 16375 16376 16377 16378 16379 16380 16381 16382 16383 16384 16385 16386 16387 16388 16389 16390 16391 16392 16393 16394 16395 16396 16397 16398 16399 16400 16401 16402 16403 16404 16405 16406 16407 16408 16409 16410 16411 16412 16413 16414 16415 16416 16417 16418 16419 16420 16421 16422 16423 16424 16425 16426 16427 16428 16429 16430 16431 16432 16433 16434 16435 16436 16437 16438 16439 16440 16441 16442 16443 16444 16445 16446 16447 16448 16449 16450 16451 16452 16453 16454 16455 16456 16457 16458 16459 16460 16461 16462 16463 16464 16465 16466 16467 16468 16469 16470 16471 16472 16473 16474 16475 16476 16477 16478 16479 16480 16481 16482 16483 16484 16485 16486 16487 16488 16489 16490 16491 16492 16493 16494 16495 16496 16497 16498 16499 16500 16501 16502 16503 16504 16505 16506 16507 16508 16509 16510 16511 16512 16513 16514 16515 16516 16517 16518 16519 16520 16521 16522 16523 16524 16525 16526 16527 16528 16529 16530 16531 16532 16533 16534 16535 16536 16537 16538 16539 16540 16541 16542 16543 16544 16545 16546 16547 16548 16549 16550 16551 16552 16553 16554 16555 16556 16557 16558 16559 16560 16561 16562 16563 16564 16565 16566 16567 16568 16569 16570 16571 16572 16573 16574 16575 16576 16577 16578 16579 16580 16581 16582 16583 16584 16585 16586 16587 16588 16589 16590 16591 16592 16593 16594 16595 16596 16597 16598 16599 16600 16601 16602 16603 16604 16605 16606 16607 16608 16609 16610 16611 16612 16613 16614 16615 16616 16617 16618 16619 16620 16621 16622 16623 16624 16625 16626 16627 16628 16629 16630 16631 16632 16633 16634 16635 16636 16637 16638 16639 16640 16641 16642 16643 16644 16645 16646 16647 16648 16649 16650 16651 16652 16653 16654 16655 16656 16657 16658 16659 16660 16661 16662 16663 16664 16665 16666 16667 16668 16669 16670 16671 16672 16673 16674 16675 16676 16677 16678 16679 16680 16681 16682 16683 16684 16685 16686 16687 16688 16689 16690 16691 16692 16693 16694 16695 16696 16697 16698 16699 16700 16701 16702 16703 16704 16705 16706 16707 16708 16709 16710 16711 16712 16713 16714 16715 16716 16717 16718 16719 16720 16721 16722 16723 16724 16725 16726 16727 16728 16729 16730 16731 16732 16733 16734 16735 16736 16737 16738 16739 16740 16741 16742 16743 16744 16745 16746 16747 16748 16749 16750 16751 16752 16753 16754 16755 16756 16757 16758 16759 16760 16761 16762 16763 16764 16765 16766 16767 16768 16769 16770 16771 16772 16773 16774 16775 16776 16777 16778 16779 16780 16781 16782 16783 16784 16785 16786 16787 16788 16789 16790 16791 16792 16793 16794 16795 16796 16797 16798 16799 16800 16801 16802 16803 16804 16805 16806 16807 16808 16809 16810 16811 16812 16813 16814 16815 16816 16817 16818 16819 16820 16821 16822 16823 16824 16825 16826 16827 16828 16829 16830 16831 16832 16833 16834 16835 16836 16837 16838 16839 16840 16841 16842 16843 16844 16845 16846 16847 16848 16849 16850 16851 16852 16853 16854 16855 16856 16857 16858 16859 16860 16861 16862 16863 16864 16865 16866 16867 16868 16869 16870 16871 16872 16873 16874 16875 16876 16877 16878 16879 16880 16881 16882 16883 16884 16885 16886 16887 16888 16889 16890 16891 16892 16893 16894 16895 16896 16897 16898 16899 16900 16901 16902 16903 16904 16905 16906 16907 16908 16909 16910 16911 16912 16913 16914 16915 16916 16917 16918 16919 16920 16921 16922 16923 16924 16925 16926 16927 16928 16929 16930 16931 16932 16933 16934 16935 16936 16937 16938 16939 16940 16941 16942 16943 16944 16945 16946 16947 16948 16949 16950 16951 16952 16953 16954 16955 16956 16957 16958 16959 16960 16961 16962 16963 16964 16965 16966 16967 16968 16969 16970 16971 16972 16973 16974 16975 16976 16977 16978 16979 16980 16981 16982 16983 16984 16985 16986 16987 16988 16989 16990 16991 16992 16993 16994 16995 16996 16997 16998 16999 17000 17001 17002 17003 17004 17005 17006 17007 17008 17009 17010 17011 17012 17013 17014 17015 17016 17017 17018 17019 17020 17021 17022 17023 17024 17025 17026 17027 17028 17029 17030 17031 17032 17033 17034 17035 17036 17037 17038 17039 17040 17041 17042 17043 17044 17045 17046 17047 17048 17049 17050 17051 17052 17053 17054 17055 17056 17057 17058 17059 17060 17061 17062 17063 17064 17065 17066 17067 17068 17069 17070 17071 17072 17073 17074 17075 17076 17077 17078 17079 17080 17081 17082 17083 17084 17085 17086 17087 17088 17089 17090 17091 17092 17093 17094 17095 17096 17097 17098 17099 17100 17101 17102 17103 17104 17105 17106 17107 17108 17109 17110 17111 17112 17113 17114 17115 17116 17117 17118 17119 17120 17121 17122 17123 17124 17125 17126 17127 17128 17129 17130 17131 17132 17133 17134 17135 17136 17137 17138 17139 17140 17141 17142 17143 17144 17145 17146 17147 17148 17149 17150 17151 17152 17153 17154 17155 17156 17157 17158 17159 17160 17161 17162 17163 17164 17165 17166 17167 17168 17169 17170 17171 17172 17173 17174 17175 17176 17177 17178 17179 17180 17181 17182 17183 17184 17185 17186 17187 17188 17189 17190 17191 17192 17193 17194 17195 17196 17197 17198 17199 17200 17201 17202 17203 17204 17205 17206 17207 17208 17209 17210 17211 17212 17213 17214 17215 17216 17217 17218 17219 17220 17221 17222 17223 17224 17225 17226 17227 17228 17229 17230 17231 17232 17233 17234 17235 17236 17237 17238 17239 17240 17241 17242 17243 17244 17245 17246 17247 17248 17249 17250 17251 17252 17253 17254 17255 17256 17257 17258 17259 17260 17261 17262 17263 17264 17265 17266 17267 17268 17269 17270 17271 17272 17273 17274 17275 17276 17277 17278 17279 17280 17281 17282 17283 17284 17285 17286 17287 17288 17289 17290 17291 17292 17293 17294 17295 17296 17297 17298 17299 17300 17301 17302 17303 17304 17305 17306 17307 17308 17309 17310 17311 17312 17313 17314 17315 17316 17317 17318 17319 17320 17321 17322 17323 17324 17325 17326 17327 17328 17329 17330 17331 17332 17333 17334 17335 17336 17337 17338 17339 17340 17341 17342 17343 17344 17345 17346 17347 17348 17349 17350 17351 17352 17353 17354 17355 17356 17357 17358 17359 17360 17361 17362 17363 17364 17365 17366 17367 17368 17369 17370 17371 17372 17373 17374 17375 17376 17377 17378 17379 17380 17381 17382 17383 17384 17385 17386 17387 17388 17389 17390 17391 17392 17393 17394 17395 17396 17397 17398 17399 17400 17401 17402 17403 17404 17405 17406 17407 17408 17409 17410 17411 17412 17413 17414 17415 17416 17417 17418 17419 17420 17421 17422 17423 17424 17425 17426 17427 17428 17429 17430 17431 17432 17433 17434 17435 17436 17437 17438 17439 17440 17441 17442 17443 17444 17445 17446 17447 17448 17449 17450 17451 17452 17453 17454 17455 17456 17457 17458 17459 17460 17461 17462 17463 17464 17465 17466 17467 17468 17469 17470 17471 17472 17473 17474 17475 17476 17477 17478 17479 17480 17481 17482 17483 17484 17485 17486 17487 17488 17489 17490 17491 17492 17493 17494 17495 17496 17497 17498 17499 17500 17501 17502 17503 17504 17505 17506 17507 17508 17509 17510 17511 17512 17513 17514 17515 17516 17517 17518 17519 17520 17521 17522 17523 17524 17525 17526 17527 17528 17529 17530 17531 17532 17533 17534 17535 17536 17537 17538 17539 17540 17541 17542 17543 17544 17545 17546 17547 17548 17549 17550 17551 17552 17553 17554 17555 17556 17557 17558 17559 17560 17561 17562 17563 17564 17565 17566 17567 17568 17569 17570 17571 17572 17573 17574 17575 17576 17577 17578 17579 17580 17581 17582 17583 17584 17585 17586 17587 17588 17589 17590 17591 17592 17593 17594 17595 17596 17597 17598 17599 17600 17601 17602 17603 17604 17605 17606 17607 17608 17609 17610 17611 17612 17613 17614 17615 17616 17617 17618 17619 17620 17621 17622 17623 17624 17625 17626 17627 17628 17629 17630 17631 17632 17633 17634 17635 17636 17637 17638 17639 17640 17641 17642 17643 17644 17645 17646 17647 17648 17649 17650 17651 17652 17653 17654 17655 17656 17657 17658 17659 17660 17661 17662 17663 17664 17665 17666 17667 17668 17669 17670 17671 17672 17673 17674 17675 17676 17677 17678 17679 17680 17681 17682 17683 17684 17685 17686 17687 17688 17689 17690 17691 17692 17693 17694 17695 17696 17697 17698 17699 17700 17701 17702 17703 17704 17705 17706 17707 17708 17709 17710 17711 17712 17713 17714 17715 17716 17717 17718 17719 17720 17721 17722 17723 17724 17725 17726 17727 17728 17729 17730 17731 17732 17733 17734 17735 17736 17737 17738 17739 17740 17741 17742 17743 17744 17745 17746 17747 17748 17749 17750 17751 17752 17753 17754 17755 17756 17757 17758 17759 17760 17761 17762 17763 17764 17765 17766 17767 17768 17769 17770 17771 17772 17773 17774 17775 17776 17777 17778 17779 17780 17781 17782 17783 17784 17785 17786 17787 17788 17789 17790 17791 17792 17793 17794 17795 17796 17797 17798 17799 17800 17801 17802 17803 17804 17805 17806 17807 17808 17809 17810 17811 17812 17813 17814 17815 17816 17817 17818 17819 17820 17821 17822 17823 17824 17825 17826 17827 17828 17829 17830 17831 17832 17833 17834 17835 17836 17837 17838 17839 17840 17841 17842 17843 17844 17845 17846 17847 17848 17849 17850 17851 17852 17853 17854 17855 17856 17857 17858 17859 17860 17861 17862 17863 17864 17865 17866 17867 17868 17869 17870 17871 17872 17873 17874 17875 17876 17877 17878 17879 17880 17881 17882 17883 17884 17885 17886 17887 17888 17889 17890 17891 17892 17893 17894 17895 17896 17897 17898 17899 17900 17901 17902 17903 17904 17905 17906 17907 17908 17909 17910 17911 17912 17913 17914 17915 17916 17917 17918 17919 17920 17921 17922 17923 17924 17925 17926 17927 17928 17929 17930 17931 17932 17933 17934 17935 17936 17937 17938 17939 17940 17941 17942 17943 17944 17945 17946 17947 17948 17949 17950 17951 17952 17953 17954 17955 17956 17957 17958 17959 17960 17961 17962 17963 17964 17965 17966 17967 17968 17969 17970 17971 17972 17973 17974 17975 17976 17977 17978 17979 17980 17981 17982 17983 17984 17985 17986 17987 17988 17989 17990 17991 17992 17993 17994 17995 17996 17997 17998 17999 18000 18001 18002 18003 18004 18005 18006 18007 18008 18009 18010 18011 18012 18013 18014 18015 18016 18017 18018 18019 18020 18021 18022 18023 18024 18025 18026 18027 18028 18029 18030 18031 18032 18033 18034 18035 18036 18037 18038 18039 18040 18041 18042 18043 18044 18045 18046 18047 18048 18049 18050 18051 18052 18053 18054 18055 18056 18057 18058 18059 18060 18061 18062 18063 18064 18065 18066 18067 18068 18069 18070 18071 18072 18073 18074 18075 18076 18077 18078 18079 18080 18081 18082 18083 18084 18085 18086 18087 18088 18089 18090 18091 18092 18093 18094 18095 18096 18097 18098 18099 18100 18101 18102 18103 18104 18105 18106 18107 18108 18109 18110 18111 18112 18113 18114 18115 18116 18117 18118 18119 18120 18121 18122 18123 18124 18125 18126 18127 18128 18129 18130 18131 18132 18133 18134 18135 18136 18137 18138 18139 18140 18141 18142 18143 18144 18145 18146 18147 18148 18149 18150 18151 18152 18153 18154 18155 18156 18157 18158 18159 18160 18161 18162 18163 18164 18165 18166 18167 18168 18169 18170 18171 18172 18173 18174 18175 18176 18177 18178 18179 18180 18181 18182 18183 18184 18185 18186 18187 18188 18189 18190 18191 18192 18193 18194 18195 18196 18197 18198 18199 18200 18201 18202 18203 18204 18205 18206 18207 18208 18209 18210 18211 18212 18213 18214 18215 18216 18217 18218 18219 18220 18221 18222 18223 18224 18225 18226 18227 18228 18229 18230 18231 18232 18233 18234 18235 18236 18237 18238 18239 18240 18241 18242 18243 18244 18245 18246 18247 18248 18249 18250 18251 18252 18253 18254 18255 18256 18257 18258 18259 18260 18261 18262 18263 18264 18265 18266 18267 18268 18269 18270 18271 18272 18273 18274 18275 18276 18277 18278 18279 18280 18281 18282 18283 18284 18285 18286 18287 18288 18289 18290 18291 18292 18293 18294 18295 18296 18297 18298 18299 18300 18301 18302 18303 18304 18305 18306 18307 18308 18309 18310 18311 18312 18313 18314 18315 18316 18317 18318 18319 18320 18321 18322 18323 18324 18325 18326 18327 18328 18329 18330 18331 18332 18333 18334 18335 18336 18337 18338 18339 18340 18341 18342 18343 18344 18345 18346 18347 18348 18349 18350 18351 18352 18353 18354 18355 18356 18357 18358 18359 18360 18361 18362 18363 18364 18365 18366 18367 18368 18369 18370 18371 18372 18373 18374 18375 18376 18377 18378 18379 18380 18381 18382 18383 18384 18385 18386 18387 18388 18389 18390 18391 18392 18393 18394 18395 18396 18397 18398 18399 18400 18401 18402 18403 18404 18405 18406 18407 18408 18409 18410 18411 18412 18413 18414 18415 18416 18417 18418 18419 18420 18421 18422 18423 18424 18425 18426 18427 18428 18429 18430 18431 18432 18433 18434 18435 18436 18437 18438 18439 18440 18441 18442 18443 18444 18445 18446 18447 18448 18449 18450 18451 18452 18453 18454 18455 18456 18457 18458 18459 18460 18461 18462 18463 18464 18465 18466 18467 18468 18469 18470 18471 18472 18473 18474 18475 18476 18477 18478 18479 18480 18481 18482 18483 18484 18485 18486 18487 18488 18489 18490 18491 18492 18493 18494 18495 18496 18497 18498 18499 18500 18501 18502 18503 18504 18505 18506 18507 18508 18509 18510 18511 18512 18513 18514 18515 18516 18517 18518 18519 18520 18521 18522 18523 18524 18525 18526 18527 18528 18529 18530 18531 18532 18533 18534 18535 18536 18537 18538 18539 18540 18541 18542 18543 18544 18545 18546 18547 18548 18549 18550 18551 18552 18553 18554 18555 18556 18557 18558 18559 18560 18561 18562 18563 18564 18565 18566 18567 18568 18569 18570 18571 18572 18573 18574 18575 18576 18577 18578 18579 18580 18581 18582 18583 18584 18585 18586 18587 18588 18589 18590 18591 18592 18593 18594 18595 18596 18597 18598 18599 18600 18601 18602 18603 18604 18605 18606 18607 18608 18609 18610 18611 18612 18613 18614 18615 18616 18617 18618 18619 18620 18621 18622 18623 18624 18625 18626 18627 18628 18629 18630 18631 18632 18633 18634 18635 18636 18637 18638 18639 18640 18641 18642 18643 18644 18645 18646 18647 18648 18649 18650 18651 18652 18653 18654 18655 18656 18657 18658 18659 18660 18661 18662 18663 18664 18665 18666 18667 18668 18669 18670 18671 18672 18673 18674 18675 18676 18677 18678 18679 18680 18681 18682 18683 18684 18685 18686 18687 18688 18689 18690 18691 18692 18693 18694 18695 18696 18697 18698 18699 18700 18701 18702 18703 18704 18705 18706 18707 18708 18709 18710 18711 18712 18713 18714 18715 18716 18717 18718 18719 18720 18721 18722 18723 18724 18725 18726 18727 18728 18729 18730 18731 18732 18733 18734 18735 18736 18737 18738 18739 18740 18741 18742 18743 18744 18745 18746 18747 18748 18749 18750 18751 18752 18753 18754 18755 18756 18757 18758 18759 18760 18761 18762 18763 18764 18765 18766 18767 18768 18769 18770 18771 18772 18773 18774 18775 18776 18777 18778 18779 18780 18781 18782 18783 18784 18785 18786 18787 18788 18789 18790 18791 18792 18793 18794 18795 18796 18797 18798 18799 18800 18801 18802 18803 18804 18805 18806 18807 18808 18809 18810 18811 18812 18813 18814 18815 18816 18817 18818 18819 18820 18821 18822 18823 18824 18825 18826 18827 18828 18829 18830 18831 18832 18833 18834 18835 18836 18837 18838 18839 18840 18841 18842 18843 18844 18845 18846 18847 18848 18849 18850 18851 18852 18853 18854 18855 18856 18857 18858 18859 18860 18861 18862 18863 18864 18865 18866 18867 18868 18869 18870 18871 18872 18873 18874 18875 18876 18877 18878 18879 18880 18881 18882 18883 18884 18885 18886 18887 18888 18889 18890 18891 18892 18893 18894 18895 18896 18897 18898 18899 18900 18901 18902 18903 18904 18905 18906 18907 18908 18909 18910 18911 18912 18913 18914 18915 18916 18917 18918 18919 18920 18921 18922 18923 18924 18925 18926 18927 18928 18929 18930 18931 18932 18933 18934 18935 18936 18937 18938 18939 18940 18941 18942 18943 18944 18945 18946 18947 18948 18949 18950 18951 18952 18953 18954 18955 18956 18957 18958 18959 18960 18961 18962 18963 18964 18965 18966 18967 18968 18969 18970 18971 18972 18973 18974 18975 18976 18977 18978 18979 18980 18981 18982 18983 18984 18985 18986 18987 18988 18989 18990 18991 18992 18993 18994 18995 18996 18997 18998 18999 19000 19001 19002 19003 19004 19005 19006 19007 19008 19009 19010 19011 19012 19013 19014 19015 19016 19017 19018 19019 19020 19021 19022 19023 19024 19025 19026 19027 19028 19029 19030 19031 19032 19033 19034 19035 19036 19037 19038 19039 19040 19041 19042 19043 19044 19045 19046 19047 19048 19049 19050 19051 19052 19053 19054 19055 19056 19057 19058 19059 19060 19061 19062 19063 19064 19065 19066 19067 19068 19069 19070 19071 19072 19073 19074 19075 19076 19077 19078 19079 19080 19081 19082 19083 19084 19085 19086 19087 19088 19089 19090 19091 19092 19093 19094 19095 19096 19097 19098 19099 19100 19101 19102 19103 19104 19105 19106 19107 19108 19109 19110 19111 19112 19113 19114 19115 19116 19117 19118 19119 19120 19121 19122 19123 19124 19125 19126 19127 19128 19129 19130 19131 19132 19133 19134 19135 19136 19137 19138 19139 19140 19141 19142 19143 19144 19145 19146 19147 19148 19149 19150 19151 19152 19153 19154 19155 19156 19157 19158 19159 19160 19161 19162 19163 19164 19165 19166 19167 19168 19169 19170 19171 19172 19173 19174 19175 19176 19177 19178 19179 19180 19181 19182 19183 19184 19185 19186 19187 19188 19189 19190 19191 19192 19193 19194 19195 19196 19197 19198 19199 19200 19201 19202 19203 19204 19205 19206 19207 19208 19209 19210 19211 19212 19213 19214 19215 19216 19217 19218 19219 19220 19221 19222 19223 19224 19225 19226 19227 19228 19229 19230 19231 19232 19233 19234 19235 19236 19237 19238 19239 19240 19241 19242 19243 19244 19245 19246 19247 19248 19249 19250 19251 19252 19253 19254 19255 19256 19257 19258 19259 19260 19261 19262 19263 19264 19265 19266 19267 19268 19269 19270 19271 19272 19273 19274 19275 19276 19277 19278 19279 19280 19281 19282 19283 19284 19285 19286 19287 19288 19289 19290 19291 19292 19293 19294 19295 19296 19297 19298 19299 19300 19301 19302 19303 19304 19305 19306 19307 19308 19309 19310 19311 19312 19313 19314 19315 19316 19317 19318 19319 19320 19321 19322 19323 19324 19325 19326 19327 19328 19329 19330 19331 19332 19333 19334 19335 19336 19337 19338 19339 19340 19341 19342 19343 19344 19345 19346 19347 19348 19349 19350 19351 19352 19353 19354 19355 19356 19357 19358 19359 19360 19361 19362 19363 19364 19365 19366 19367 19368 19369 19370 19371 19372 19373 19374 19375 19376 19377 19378 19379 19380 19381 19382 19383 19384 19385 19386 19387 19388 19389 19390 19391 19392 19393 19394 19395 19396 19397 19398 19399 19400 19401 19402 19403 19404 19405 19406 19407 19408 19409 19410 19411 19412 19413 19414 19415 19416 19417 19418 19419 19420 19421 19422 19423 19424 19425 19426 19427 19428 19429 19430 19431 19432 19433 19434 19435 19436 19437 19438 19439 19440 19441 19442 19443 19444 19445 19446 19447 19448 19449 19450 19451 19452 19453 19454 19455 19456 19457 19458 19459 19460 19461 19462 19463 19464 19465 19466 19467 19468 19469 19470 19471 19472 19473 19474 19475 19476 19477 19478 19479 19480 19481 19482 19483 19484 19485 19486 19487 19488 19489 19490 19491 19492 19493 19494 19495 19496 19497 19498 19499 19500 19501 19502 19503 19504 19505 19506 19507 19508 19509 19510 19511 19512 19513 19514 19515 19516 19517 19518 19519 19520 19521 19522 19523 19524 19525 19526 19527 19528 19529 19530 19531 19532 19533 19534 19535 19536 19537 19538 19539 19540 19541 19542 19543 19544 19545 19546 19547 19548 19549 19550 19551 19552 19553 19554 19555 19556 19557 19558 19559 19560 19561 19562 19563 19564 19565 19566 19567 19568 19569 19570 19571 19572 19573 19574 19575 19576 19577 19578 19579 19580 19581 19582 19583 19584 19585 19586 19587 19588 19589 19590 19591 19592 19593 19594 19595 19596 19597 19598 19599 19600 19601 19602 19603 19604 19605 19606 19607 19608 19609 19610 19611 19612 19613 19614 19615 19616 19617 19618 19619 19620 19621 19622 19623 19624 19625 19626 19627 19628 19629 19630 19631 19632 19633 19634 19635 19636 19637 19638 19639 19640 19641 19642 19643 19644 19645 19646 19647 19648 19649 19650 19651 19652 19653 19654 19655 19656 19657 19658 19659 19660 19661 19662 19663 19664 19665 19666 19667 19668 19669 19670 19671 19672 19673 19674 19675 19676 19677 19678 19679 19680 19681 19682 19683 19684 19685 19686 19687 19688 19689 19690 19691 19692 19693 19694 19695 19696 19697 19698 19699 19700 19701 19702 19703 19704 19705 19706 19707 19708 19709 19710 19711 19712 19713 19714 19715 19716 19717 19718 19719 19720 19721 19722 19723 19724 19725 19726 19727 19728 19729 19730 19731 19732 19733 19734 19735 19736 19737 19738 19739 19740 19741 19742 19743 19744 19745 19746 19747 19748 19749 19750 19751 19752 19753 19754 19755 19756 19757 19758 19759 19760 19761 19762 19763 19764 19765 19766 19767 19768 19769 19770 19771 19772 19773 19774 19775 19776 19777 19778 19779 19780 19781 19782 19783 19784 19785 19786 19787 19788 19789 19790 19791 19792 19793 19794 19795 19796 19797 19798 19799 19800 19801 19802 19803 19804 19805 19806 19807 19808 19809 19810 19811 19812 19813 19814 19815 19816 19817 19818 19819 19820 19821 19822 19823 19824 19825 19826 19827 19828 19829 19830 19831 19832 19833 19834 19835 19836 19837 19838 19839 19840 19841 19842 19843 19844 19845 19846 19847 19848 19849 19850 19851 19852 19853 19854 19855 19856 19857 19858 19859 19860 19861 19862 19863 19864 19865 19866 19867 19868 19869 19870 19871 19872 19873 19874 19875 19876 19877 19878 19879 19880 19881 19882 19883 19884 19885 19886 19887 19888 19889 19890 19891 19892 19893 19894 19895 19896 19897 19898 19899 19900 19901 19902 19903 19904 19905 19906 19907 19908 19909 19910 19911 19912 19913 19914 19915 19916 19917 19918 19919 19920 19921 19922 19923 19924 19925 19926 19927 19928 19929 19930 19931 19932 19933 19934 19935 19936 19937 19938 19939 19940 19941 19942 19943 19944 19945 19946 19947 19948 19949 19950 19951 19952 19953 19954 19955 19956 19957 19958 19959 19960 19961 19962 19963 19964 19965 19966 19967 19968 19969 19970 19971 19972 19973 19974 19975 19976 19977 19978 19979 19980 19981 19982 19983 19984 19985 19986 19987 19988 19989 19990 19991 19992 19993 19994 19995 19996 19997 19998 19999 20000 20001 20002 20003 20004 20005 20006 20007 20008 20009 20010 20011 20012 20013 20014 20015 20016 20017 20018 20019 20020 20021 20022 20023 20024 20025 20026 20027 20028 20029 20030 20031 20032 20033 20034 20035 20036 20037 20038 20039 20040 20041 20042 20043 20044 20045 20046 20047 20048 20049 20050 20051 20052 20053 20054 20055 20056 20057 20058 20059 20060 20061 20062 20063 20064 20065 20066 20067 20068 20069 20070 20071 20072 20073 20074 20075 20076 20077 20078 20079 20080 20081 20082 20083 20084 20085 20086 20087 20088 20089 20090 20091 20092 20093 20094 20095 20096 20097 20098 20099 20100 20101 20102 20103 20104 20105 20106 20107 20108 20109 20110 20111 20112 20113 20114 20115 20116 20117 20118 20119 20120 20121 20122 20123 20124 20125 20126 20127 20128 20129 20130 20131 20132 20133 20134 20135 20136 20137 20138 20139 20140 20141 20142 20143 20144 20145 20146 20147 20148 20149 20150 20151 20152 20153 20154 20155 20156 20157 20158 20159 20160 20161 20162 20163 20164 20165 20166 20167 20168 20169 20170 20171 20172 20173 20174 20175 20176 20177 20178 20179 20180 20181 20182 20183 20184 20185 20186 20187 20188 20189 20190 20191 20192 20193 20194 20195 20196 20197 20198 20199 20200 20201 20202 20203 20204 20205 20206 20207 20208 20209 20210 20211 20212 20213 20214 20215 20216 20217 20218 20219 20220 20221 20222 20223 20224 20225 20226 20227 20228 20229 20230 20231 20232 20233 20234 20235 20236 20237 20238 20239 20240 20241 20242 20243 20244 20245 20246 20247 20248 20249 20250 20251 20252 20253 20254 20255 20256 20257 20258 20259 20260 20261 20262 20263 20264 20265 20266 20267 20268 20269 20270 20271 20272 20273 20274 20275 20276 20277 20278 20279 20280 20281 20282 20283 20284 20285 20286 20287 20288 20289 20290 20291 20292 20293 20294 20295 20296 20297 20298 20299 20300 20301 20302 20303 20304 20305 20306 20307 20308 20309 20310 20311 20312 20313 20314 20315 20316 20317 20318 20319 20320 20321 20322 20323 20324 20325 20326 20327 20328 20329 20330 20331 20332 20333 20334 20335 20336 20337 20338 20339 20340 20341 20342 20343 20344 20345 20346 20347 20348 20349 20350 20351 20352 20353 20354 20355 20356 20357 20358 20359 20360 20361 20362 20363 20364 20365 20366 20367 20368 20369 20370 20371 20372 20373 20374 20375 20376 20377 20378 20379 20380 20381 20382 20383 20384 20385 20386 20387 20388 20389 20390 20391 20392 20393 20394 20395 20396 20397 20398 20399 20400 20401 20402 20403 20404 20405 20406 20407 20408 20409 20410 20411 20412 20413 20414 20415 20416 20417 20418 20419 20420 20421 20422 20423 20424 20425 20426 20427 20428 20429 20430 20431 20432 20433 20434 20435 20436 20437 20438 20439 20440 20441 20442 20443 20444 20445 20446 20447 20448 20449 20450 20451 20452 20453 20454 20455 20456 20457 20458 20459 20460 20461 20462 20463 20464 20465 20466 20467 20468 20469 20470 20471 20472 20473 20474 20475 20476 20477 20478 20479 20480 20481 20482 20483 20484 20485 20486 20487 20488 20489 20490 20491 20492 20493 20494 20495 20496 20497 20498 20499 20500 20501 20502 20503 20504 20505 20506 20507 20508 20509 20510 20511 20512 20513 20514 20515 20516 20517 20518 20519 20520 20521 20522 20523 20524 20525 20526 20527 20528 20529 20530 20531 20532 20533 20534 20535 20536 20537 20538 20539 20540 20541 20542 20543 20544 20545 20546 20547 20548 20549 20550 20551 20552 20553 20554 20555 20556 20557 20558 20559 20560 20561 20562 20563 20564 20565 20566 20567 20568 20569 20570 20571 20572 20573 20574 20575 20576 20577 20578 20579 20580 20581 20582 20583 20584 20585 20586 20587 20588 20589 20590 20591 20592 20593 20594 20595 20596 20597 20598 20599 20600 20601 20602 20603 20604 20605 20606 20607 20608 20609 20610 20611 20612 20613 20614 20615 20616 20617 20618 20619 20620 20621 20622 20623 20624 20625 20626 20627 20628 20629 20630 20631 20632 20633 20634 20635 20636 20637 20638 20639 20640 20641 20642 20643 20644 20645 20646 20647 20648 20649 20650 20651 20652 20653 20654 20655 20656 20657 20658 20659 20660 20661 20662 20663 20664 20665 20666 20667 20668 20669 20670 20671 20672 20673 20674 20675 20676 20677 20678 20679 20680 20681 20682 20683 20684 20685 20686 20687 20688 20689 20690 20691 20692 20693 20694 20695 20696 20697 20698 20699 20700 20701 20702 20703 20704 20705 20706 20707 20708 20709 20710 20711 20712 20713 20714 20715 20716 20717 20718 20719 20720 20721 20722 20723 20724 20725 20726 20727 20728 20729 20730 20731 20732 20733 20734 20735 20736 20737 20738 20739 20740 20741 20742 20743 20744 20745 20746 20747 20748 20749 20750 20751 20752 20753 20754 20755 20756 20757 20758 20759 20760 20761 20762 20763 20764 20765 20766 20767 20768 20769 20770 20771 20772 20773 20774 20775 20776 20777 20778 20779 20780 20781 20782 20783 20784 20785 20786 20787 20788 20789 20790 20791 20792 20793 20794 20795 20796 20797 20798 20799 20800 20801 20802 20803 20804 20805 20806 20807 20808 20809 20810 20811 20812 20813 20814 20815 20816 20817 20818 20819 20820 20821 20822 20823 20824 20825 20826 20827 20828 20829 20830 20831 20832 20833 20834 20835 20836 20837 20838 20839 20840 20841 20842 20843 20844 20845 20846 20847 20848 20849 20850 20851 20852 20853 20854 20855 20856 20857 20858 20859 20860 20861 20862 20863 20864 20865 20866 20867 20868 20869 20870 20871 20872 20873 20874 20875 20876 20877 20878 20879 20880 20881 20882 20883 20884 20885 20886 20887 20888 20889 20890 20891 20892 20893 20894 20895 20896 20897 20898 20899 20900 20901 20902 20903 20904 20905 20906 20907 20908 20909 20910 20911 20912 20913 20914 20915 20916 20917 20918 20919 20920 20921 20922 20923 20924 20925 20926 20927 20928 20929 20930 20931 20932 20933 20934 20935 20936 20937 20938 20939 20940 20941 20942 20943 20944 20945 20946 20947 20948 20949 20950 20951 20952 20953 20954 20955 20956 20957 20958 20959 20960 20961 20962 20963 20964 20965 20966 20967 20968 20969 20970 20971 20972 20973 20974 20975 20976 20977 20978 20979 20980 20981 20982 20983 20984 20985 20986 20987 20988 20989 20990 20991 20992 20993 20994 20995 20996 20997 20998 20999 21000 21001 21002 21003 21004 21005 21006 21007 21008 21009 21010 21011 21012 21013 21014 21015 21016 21017 21018 21019 21020 21021 21022 21023 21024 21025 21026 21027 21028 21029 21030 21031 21032 21033 21034 21035 21036 21037 21038 21039 21040 21041 21042 21043 21044 21045 21046 21047 21048 21049 21050 21051 21052 21053 21054 21055 21056 21057 21058 21059 21060 21061 21062 21063 21064 21065 21066 21067 21068 21069 21070 21071 21072 21073 21074 21075 21076 21077 21078 21079 21080 21081 21082 21083 21084 21085 21086 21087 21088 21089 21090 21091 21092 21093 21094 21095 21096 21097 21098 21099 21100 21101 21102 21103 21104 21105 21106 21107 21108 21109 21110 21111 21112 21113 21114 21115 21116 21117 21118 21119 21120 21121 21122 21123 21124 21125 21126 21127 21128 21129 21130 21131 21132 21133 21134 21135 21136 21137 21138 21139 21140 21141 21142 21143 21144 21145 21146 21147 21148 21149 21150 21151 21152 21153 21154 21155 21156 21157 21158 21159 21160 21161 21162 21163 21164 21165 21166 21167 21168 21169 21170 21171 21172 21173 21174 21175 21176 21177 21178 21179 21180 21181 21182 21183 21184 21185 21186 21187 21188 21189 21190 21191 21192 21193 21194 21195 21196 21197 21198 21199 21200 21201 21202 21203 21204 21205 21206 21207 21208 21209 21210 21211 21212 21213 21214 21215 21216 21217 21218 21219 21220 21221 21222 21223 21224 21225 21226 21227 21228 21229 21230 21231 21232 21233 21234 21235 21236 21237 21238 21239 21240 21241 21242 21243 21244 21245 21246 21247 21248 21249 21250 21251 21252 21253 21254 21255 21256 21257 21258 21259 21260 21261 21262 21263 21264 21265 21266 21267 21268 21269 21270 21271 21272 21273 21274 21275 21276 21277 21278 21279 21280 21281 21282 21283 21284 21285 21286 21287 21288 21289 21290 21291 21292 21293 21294 21295 21296 21297 21298 21299 21300 21301 21302 21303 21304 21305 21306 21307 21308 21309 21310 21311 21312 21313 21314 21315 21316 21317 21318 21319 21320 21321 21322 21323 21324 21325 21326 21327 21328 21329 21330 21331 21332 21333 21334 21335 21336 21337 21338 21339 21340 21341 21342 21343 21344 21345 21346 21347 21348 21349 21350 21351 21352 21353 21354 21355 21356 21357 21358 21359 21360 21361 21362 21363 21364 21365 21366 21367 21368 21369 21370 21371 21372 21373 21374 21375 21376 21377 21378 21379 21380 21381 21382 21383 21384 21385 21386 21387 21388 21389 21390 21391 21392 21393 21394 21395 21396 21397 21398 21399 21400 21401 21402 21403 21404 21405 21406 21407 21408 21409 21410 21411 21412 21413 21414 21415 21416 21417 21418 21419 21420 21421 21422 21423 21424 21425 21426 21427 21428 21429 21430 21431 21432 21433 21434 21435 21436 21437 21438 21439 21440 21441 21442 21443 21444 21445 21446 21447 21448 21449 21450 21451 21452 21453 21454 21455 21456 21457 21458 21459 21460 21461 21462 21463 21464 21465 21466 21467 21468 21469 21470 21471 21472 21473 21474 21475 21476 21477 21478 21479 21480 21481 21482 21483 21484 21485 21486 21487 21488 21489 21490 21491 21492 21493 21494 21495 21496 21497 21498 21499 21500 21501 21502 21503 21504 21505 21506 21507 21508 21509 21510 21511 21512 21513 21514 21515 21516 21517 21518 21519 21520 21521 21522 21523 21524 21525 21526 21527 21528 21529 21530 21531 21532 21533 21534 21535 21536 21537 21538 21539 21540 21541 21542 21543 21544 21545 21546 21547 21548 21549 21550 21551 21552 21553 21554 21555 21556 21557 21558 21559 21560 21561 21562 21563 21564 21565 21566 21567 21568 21569 21570 21571 21572 21573 21574 21575 21576 21577 21578 21579 21580 21581 21582 21583 21584 21585 21586 21587 21588 21589 21590 21591 21592 21593 21594 21595 21596 21597 21598 21599 21600 21601 21602 21603 21604 21605 21606 21607 21608 21609 21610 21611 21612 21613 21614 21615 21616 21617 21618 21619 21620 21621 21622 21623 21624 21625 21626 21627 21628 21629 21630 21631 21632 21633 21634 21635 21636 21637 21638 21639 21640 21641 21642 21643 21644 21645 21646 21647 21648 21649 21650 21651 21652 21653 21654 21655 21656 21657 21658 21659 21660 21661 21662 21663 21664 21665 21666 21667 21668 21669 21670 21671 21672 21673 21674 21675 21676 21677 21678 21679 21680 21681 21682 21683 21684 21685 21686 21687 21688 21689 21690 21691 21692 21693 21694 21695 21696 21697 21698 21699 21700 21701 21702 21703 21704 21705 21706 21707 21708 21709 21710 21711 21712 21713 21714 21715 21716 21717 21718 21719 21720 21721 21722 21723 21724 21725 21726 21727 21728 21729 21730 21731 21732 21733 21734 21735 21736 21737 21738 21739 21740 21741 21742 21743 21744 21745 21746 21747 21748 21749 21750 21751 21752 21753 21754 21755 21756 21757 21758 21759 21760 21761 21762 21763 21764 21765 21766 21767 21768 21769 21770 21771 21772 21773 21774 21775 21776 21777 21778 21779 21780 21781 21782 21783 21784 21785 21786 21787 21788 21789 21790 21791 21792 21793 21794 21795 21796 21797 21798 21799 21800 21801 21802 21803 21804 21805 21806 21807 21808 21809 21810 21811 21812 21813 21814 21815 21816 21817 21818 21819 21820 21821 21822 21823 21824 21825 21826 21827 21828 21829 21830 21831 21832 21833 21834 21835 21836 21837 21838 21839 21840 21841 21842 21843 21844 21845 21846 21847 21848 21849 21850 21851 21852 21853 21854 21855 21856 21857 21858 21859 21860 21861 21862 21863 21864 21865 21866 21867 21868 21869 21870 21871 21872 21873 21874 21875 21876 21877 21878 21879 21880 21881 21882 21883 21884 21885 21886 21887 21888 21889 21890 21891 21892 21893 21894 21895 21896 21897 21898 21899 21900 21901 21902 21903 21904 21905 21906 21907 21908 21909 21910 21911 21912 21913 21914 21915 21916 21917 21918 21919 21920 21921 21922 21923 21924 21925 21926 21927 21928 21929 21930 21931 21932 21933 21934 21935 21936 21937 21938 21939 21940 21941 21942 21943 21944 21945 21946 21947 21948 21949 21950 21951 21952 21953 21954 21955 21956 21957 21958 21959 21960 21961 21962 21963 21964 21965 21966 21967 21968 21969 21970 21971 21972 21973 21974 21975 21976 21977 21978 21979 21980 21981 21982 21983 21984 21985 21986 21987 21988 21989 21990 21991 21992 21993 21994 21995 21996 21997 21998 21999 22000 22001 22002 22003 22004 22005 22006 22007 22008 22009 22010 22011 22012 22013 22014 22015 22016 22017 22018 22019 22020 22021 22022 22023 22024 22025 22026 22027 22028 22029 22030 22031 22032 22033 22034 22035 22036 22037 22038 22039 22040 22041 22042 22043 22044 22045 22046 22047 22048 22049 22050 22051 22052 22053 22054 22055 22056 22057 22058 22059 22060 22061 22062 22063 22064 22065 22066 22067 22068 22069 22070 22071 22072 22073 22074 22075 22076 22077 22078 22079 22080 22081 22082 22083 22084 22085 22086 22087 22088 22089 22090 22091 22092 22093 22094 22095 22096 22097 22098 22099 22100 22101 22102 22103 22104 22105 22106 22107 22108 22109 22110 22111 22112 22113 22114 22115 22116 22117 22118 22119 22120 22121 22122 22123 22124 22125 22126 22127 22128 22129 22130 22131 22132 22133 22134 22135 22136 22137 22138 22139 22140 22141 22142 22143 22144 22145 22146 22147 22148 22149 22150 22151 22152 22153 22154 22155 22156 22157 22158 22159 22160 22161 22162 22163 22164 22165 22166 22167 22168 22169 22170 22171 22172 22173 22174 22175 22176 22177 22178 22179 22180 22181 22182 22183 22184 22185 22186 22187 22188 22189 22190 22191 22192 22193 22194 22195 22196 22197 22198 22199 22200 22201 22202 22203 22204 22205 22206 22207 22208 22209 22210 22211 22212 22213 22214 22215 22216 22217 22218 22219 22220 22221 22222 22223 22224 22225 22226 22227 22228 22229 22230 22231 22232 22233 22234 22235 22236 22237 22238 22239 22240 22241 22242 22243 22244 22245 22246 22247 22248 22249 22250 22251 22252 22253 22254 22255 22256 22257 22258 22259 22260 22261 22262 22263 22264 22265 22266 22267 22268 22269 22270 22271 22272 22273 22274 22275 22276 22277 22278 22279 22280 22281 22282 22283 22284 22285 22286 22287 22288 22289 22290 22291 22292 22293 22294 22295 22296 22297 22298 22299 22300 22301 22302 22303 22304 22305 22306 22307 22308 22309 22310 22311 22312 22313 22314 22315 22316 22317 22318 22319 22320 22321 22322 22323 22324 22325 22326 22327 22328 22329 22330 22331 22332 22333 22334 22335 22336 22337 22338 22339 22340 22341 22342 22343 22344 22345 22346 22347 22348 22349 22350 22351 22352 22353 22354 22355 22356 22357 22358 22359 22360 22361 22362 22363 22364 22365 22366 22367 22368 22369 22370 22371 22372 22373 22374 22375 22376 22377 22378 22379 22380 22381 22382 22383 22384 22385 22386 22387 22388 22389 22390 22391 22392 22393 22394 22395 22396 22397 22398 22399 22400 22401 22402 22403 22404 22405 22406 22407 22408 22409 22410 22411 22412 22413 22414 22415 22416 22417 22418 22419 22420 22421 22422 22423 22424 22425 22426 22427 22428 22429 22430 22431 22432 22433 22434 22435 22436 22437 22438 22439 22440 22441 22442 22443 22444 22445 22446 22447 22448 22449 22450 22451 22452 22453 22454 22455 22456 22457 22458 22459 22460 22461 22462 22463 22464 22465 22466 22467 22468 22469 22470 22471 22472 22473 22474 22475 22476 22477 22478 22479 22480 22481 22482 22483 22484 22485 22486 22487 22488 22489 22490 22491 22492 22493 22494 22495 22496 22497 22498 22499 22500 22501 22502 22503 22504 22505 22506 22507 22508 22509 22510 22511 22512 22513 22514 22515 22516 22517 22518 22519 22520 22521 22522 22523 22524 22525 22526 22527 22528 22529 22530 22531 22532 22533 22534 22535 22536 22537 22538 22539 22540 22541 22542 22543 22544 22545 22546 22547 22548 22549 22550 22551 22552 22553 22554 22555 22556 22557 22558 22559 22560 22561 22562 22563 22564 22565 22566 22567 22568 22569 22570 22571 22572 22573 22574 22575 22576 22577 22578 22579 22580 22581 22582 22583 22584 22585 22586 22587 22588 22589 22590 22591 22592 22593 22594 22595 22596 22597 22598 22599 22600 22601 22602 22603 22604 22605 22606 22607 22608 22609 22610 22611 22612 22613 22614 22615 22616 22617 22618 22619 22620 22621 22622 22623 22624 22625 22626 22627 22628 22629 22630 22631 22632 22633 22634 22635 22636 22637 22638 22639 22640 22641 22642 22643 22644 22645 22646 22647 22648 22649 22650 22651 22652 22653 22654 22655 22656 22657 22658 22659 22660 22661 22662 22663 22664 22665 22666 22667 22668 22669 22670 22671 22672 22673 22674 22675 22676 22677 22678 22679 22680 22681 22682 22683 22684 22685 22686 22687 22688 22689 22690 22691 22692 22693 22694 22695 22696 22697 22698 22699 22700 22701 22702 22703 22704 22705 22706 22707 22708 22709 22710 22711 22712 22713 22714 22715 22716 22717 22718 22719 22720 22721 22722 22723 22724 22725 22726 22727 22728 22729 22730 22731 22732 22733 22734 22735 22736 22737 22738 22739 22740 22741 22742 22743 22744 22745 22746 22747 22748 22749 22750 22751 22752 22753 22754 22755 22756 22757 22758 22759 22760 22761 22762 22763 22764 22765 22766 22767 22768 22769 22770 22771 22772 22773 22774 22775 22776 22777 22778 22779 22780 22781 22782 22783 22784 22785 22786 22787 22788 22789 22790 22791 22792 22793 22794 22795 22796 22797 22798 22799 22800 22801 22802 22803 22804 22805 22806 22807 22808 22809 22810 22811 22812 22813 22814 22815 22816 22817 22818 22819 22820 22821 22822 22823 22824 22825 22826 22827 22828 22829 22830 22831 22832 22833 22834 22835 22836 22837 22838 22839 22840 22841 22842 22843 22844 22845 22846 22847 22848 22849 22850 22851 22852 22853 22854 22855 22856 22857 22858 22859 22860 22861 22862 22863 22864 22865 22866 22867 22868 22869 22870 22871 22872 22873 22874 22875 22876 22877 22878 22879 22880 22881 22882 22883 22884 22885 22886 22887 22888 22889 22890 22891 22892 22893 22894 22895 22896 22897 22898 22899 22900 22901 22902 22903 22904 22905 22906 22907 22908 22909 22910 22911 22912 22913 22914 22915 22916 22917 22918 22919 22920 22921 22922 22923 22924 22925 22926 22927 22928 22929 22930 22931 22932 22933 22934 22935 22936 22937 22938 22939 22940 22941 22942 22943 22944 22945 22946 22947 22948 22949 22950 22951 22952 22953 22954 22955 22956 22957 22958 22959 22960 22961 22962 22963 22964 22965 22966 22967 22968 22969 22970 22971 22972 22973 22974 22975 22976 22977 22978 22979 22980 22981 22982 22983 22984 22985 22986 22987 22988 22989 22990 22991 22992 22993 22994 22995 22996 22997 22998 22999 23000 23001 23002 23003 23004 23005 23006 23007 23008 23009 23010 23011 23012 23013 23014 23015 23016 23017 23018 23019 23020 23021 23022 23023 23024 23025 23026 23027 23028 23029 23030 23031 23032 23033 23034 23035 23036 23037 23038 23039 23040 23041 23042 23043 23044 23045 23046 23047 23048 23049 23050 23051 23052 23053 23054 23055 23056 23057 23058 23059 23060 23061 23062 23063 23064 23065 23066 23067 23068 23069 23070 23071 23072 23073 23074 23075 23076 23077 23078 23079 23080 23081 23082 23083 23084 23085 23086 23087 23088 23089 23090 23091 23092 23093 23094 23095 23096 23097 23098 23099 23100 23101 23102 23103 23104 23105 23106 23107 23108 23109 23110 23111 23112 23113 23114 23115 23116 23117 23118 23119 23120 23121 23122 23123 23124 23125 23126 23127 23128 23129 23130 23131 23132 23133 23134 23135 23136 23137 23138 23139 23140 23141 23142 23143 23144 23145 23146 23147 23148 23149 23150 23151 23152 23153 23154 23155 23156 23157 23158 23159 23160 23161 23162 23163 23164 23165 23166 23167 23168 23169 23170 23171 23172 23173 23174 23175 23176 23177 23178 23179 23180 23181 23182 23183 23184 23185 23186 23187 23188 23189 23190 23191 23192 23193 23194 23195 23196 23197 23198 23199 23200 23201 23202 23203 23204 23205 23206 23207 23208 23209 23210 23211 23212 23213 23214 23215 23216 23217 23218 23219 23220 23221 23222 23223 23224 23225 23226 23227 23228 23229 23230 23231 23232 23233 23234 23235 23236 23237 23238 23239 23240 23241 23242 23243 23244 23245 23246 23247 23248 23249 23250 23251 23252 23253 23254 23255 23256 23257 23258 23259 23260 23261 23262 23263 23264 23265 23266 23267 23268 23269 23270 23271 23272 23273 23274 23275 23276 23277 23278 23279 23280 23281 23282 23283 23284 23285 23286 23287 23288 23289 23290 23291 23292 23293 23294 23295 23296 23297 23298 23299 23300 23301 23302 23303 23304 23305 23306 23307 23308 23309 23310 23311 23312 23313 23314 23315 23316 23317 23318 23319 23320 23321 23322 23323 23324 23325 23326 23327 23328 23329 23330 23331 23332 23333 23334 23335 23336 23337 23338 23339 23340 23341 23342 23343 23344 23345 23346 23347 23348 23349 23350 23351 23352 23353 23354 23355 23356 23357 23358 23359 23360 23361 23362 23363 23364 23365 23366 23367 23368 23369 23370 23371 23372 23373 23374 23375 23376 23377 23378 23379 23380 23381 23382 23383 23384 23385 23386 23387 23388 23389 23390 23391 23392 23393 23394 23395 23396 23397 23398 23399 23400 23401 23402 23403 23404 23405 23406 23407 23408 23409 23410 23411 23412 23413 23414 23415 23416 23417 23418 23419 23420 23421 23422 23423 23424 23425 23426 23427 23428 23429 23430 23431 23432 23433 23434 23435 23436 23437 23438 23439 23440 23441 23442 23443 23444 23445 23446 23447 23448 23449 23450 23451 23452 23453 23454 23455 23456 23457 23458 23459 23460 23461 23462 23463 23464 23465 23466 23467 23468 23469 23470 23471 23472 23473 23474 23475 23476 23477 23478 23479 23480 23481 23482 23483 23484 23485 23486 23487 23488 23489 23490 23491 23492 23493 23494 23495 23496 23497 23498 23499 23500 23501 23502 23503 23504 23505 23506 23507 23508 23509 23510 23511 23512 23513 23514 23515 23516 23517 23518 23519 23520 23521 23522 23523 23524 23525 23526 23527 23528 23529 23530 23531 23532 23533 23534 23535 23536 23537 23538 23539 23540 23541 23542 23543 23544 23545 23546 23547 23548 23549 23550 23551 23552 23553 23554 23555 23556 23557 23558 23559 23560 23561 23562 23563 23564 23565 23566 23567 23568 23569 23570 23571 23572 23573 23574 23575 23576 23577 23578 23579 23580 23581 23582 23583 23584 23585 23586 23587 23588 23589 23590 23591 23592 23593 23594 23595 23596 23597 23598 23599 23600 23601 23602 23603 23604 23605 23606 23607 23608 23609 23610 23611 23612 23613 23614 23615 23616 23617 23618 23619 23620 23621 23622 23623 23624 23625 23626 23627 23628 23629 23630 23631 23632 23633 23634 23635 23636 23637 23638 23639 23640 23641 23642 23643 23644 23645 23646 23647 23648 23649 23650 23651 23652 23653 23654 23655 23656 23657 23658 23659 23660 23661 23662 23663 23664 23665 23666 23667 23668 23669 23670 23671 23672 23673 23674 23675 23676 23677 23678 23679 23680 23681 23682 23683 23684 23685 23686 23687 23688 23689 23690 23691 23692 23693 23694 23695 23696 23697 23698 23699 23700 23701 23702 23703 23704 23705 23706 23707 23708 23709 23710 23711 23712 23713 23714 23715 23716 23717 23718 23719 23720 23721 23722 23723 23724 23725 23726 23727 23728 23729 23730 23731 23732 23733 23734 23735 23736 23737 23738 23739 23740 23741 23742 23743 23744 23745 23746 23747 23748 23749 23750 23751 23752 23753 23754 23755 23756 23757 23758 23759 23760 23761 23762 23763 23764 23765 23766 23767 23768 23769 23770 23771 23772 23773 23774 23775 23776 23777 23778 23779 23780 23781 23782 23783 23784 23785 23786 23787 23788 23789 23790 23791 23792 23793 23794 23795 23796 23797 23798 23799 23800 23801 23802 23803 23804 23805 23806 23807 23808 23809 23810 23811 23812 23813 23814 23815 23816 23817 23818 23819 23820 23821 23822 23823 23824 23825 23826 23827 23828 23829 23830 23831 23832 23833 23834 23835 23836 23837 23838 23839 23840 23841 23842 23843 23844 23845 23846 23847 23848 23849 23850 23851 23852 23853 23854 23855 23856 23857 23858 23859 23860 23861 23862 23863 23864 23865 23866 23867 23868 23869 23870 23871 23872 23873 23874 23875 23876 23877 23878 23879 23880 23881 23882 23883 23884 23885 23886 23887 23888 23889 23890 23891 23892 23893 23894 23895 23896 23897 23898 23899 23900 23901 23902 23903 23904 23905 23906 23907 23908 23909 23910 23911 23912 23913 23914 23915 23916 23917 23918 23919 23920 23921 23922 23923 23924 23925 23926 23927 23928 23929 23930 23931 23932 23933 23934 23935 23936 23937 23938 23939 23940 23941 23942 23943 23944 23945 23946 23947 23948 23949 23950 23951 23952 23953 23954 23955 23956 23957 23958 23959 23960 23961 23962 23963 23964 23965 23966 23967 23968 23969 23970 23971 23972 23973 23974 23975 23976 23977 23978 23979 23980 23981 23982 23983 23984 23985 23986 23987 23988 23989 23990 23991 23992 23993 23994 23995 23996 23997 23998 23999 24000 24001 24002 24003 24004 24005 24006 24007 24008 24009 24010 24011 24012 24013 24014 24015 24016 24017 24018 24019 24020 24021 24022 24023 24024 24025 24026 24027 24028 24029 24030 24031 24032 24033 24034 24035 24036 24037 24038 24039 24040 24041 24042 24043 24044 24045 24046 24047 24048 24049 24050 24051 24052 24053 24054 24055 24056 24057 24058 24059 24060 24061 24062 24063 24064 24065 24066 24067 24068 24069 24070 24071 24072 24073 24074 24075 24076 24077 24078 24079 24080 24081 24082 24083 24084 24085 24086 24087 24088 24089 24090 24091 24092 24093 24094 24095 24096 24097 24098 24099 24100 24101 24102 24103 24104 24105 24106 24107 24108 24109 24110 24111 24112 24113 24114 24115 24116 24117 24118 24119 24120 24121 24122 24123 24124 24125 24126 24127 24128 24129 24130 24131 24132 24133 24134 24135 24136 24137 24138 24139 24140 24141 24142 24143 24144 24145 24146 24147 24148 24149 24150 24151 24152 24153 24154 24155 24156 24157 24158 24159 24160 24161 24162 24163 24164 24165 24166 24167 24168 24169 24170 24171 24172 24173 24174 24175 24176 24177 24178 24179 24180 24181 24182 24183 24184 24185 24186 24187 24188 24189 24190 24191 24192 24193 24194 24195 24196 24197 24198 24199 24200 24201 24202 24203 24204 24205 24206 24207 24208 24209 24210 24211 24212 24213 24214 24215 24216 24217 24218 24219 24220 24221 24222 24223 24224 24225 24226 24227 24228 24229 24230 24231 24232 24233 24234 24235 24236 24237 24238 24239 24240 24241 24242 24243 24244 24245 24246 24247 24248 24249 24250 24251 24252 24253 24254 24255 24256 24257 24258 24259 24260 24261 24262 24263 24264 24265 24266 24267 24268 24269 24270 24271 24272 24273 24274 24275 24276 24277 24278 24279 24280 24281 24282 24283 24284 24285 24286 24287 24288 24289 24290 24291 24292 24293 24294 24295 24296 24297 24298 24299 24300 24301 24302 24303 24304 24305 24306 24307 24308 24309 24310 24311 24312 24313 24314 24315 24316 24317 24318 24319 24320 24321 24322 24323 24324 24325 24326 24327 24328 24329 24330 24331 24332 24333 24334 24335 24336 24337 24338 24339 24340 24341 24342 24343 24344 24345 24346 24347 24348 24349 24350 24351 24352 24353 24354 24355 24356 24357 24358 24359 24360 24361 24362 24363 24364 24365 24366 24367 24368 24369 24370 24371 24372 24373 24374 24375 24376 24377 24378 24379 24380 24381 24382 24383 24384 24385 24386 24387 24388 24389 24390 24391 24392 24393 24394 24395 24396 24397 24398 24399 24400 24401 24402 24403 24404 24405 24406 24407 24408 24409 24410 24411 24412 24413 24414 24415 24416 24417 24418 24419 24420 24421 24422 24423 24424 24425 24426 24427 24428 24429 24430 24431 24432 24433 24434 24435 24436 24437 24438 24439 24440 24441 24442 24443 24444 24445 24446 24447 24448 24449 24450 24451 24452 24453 24454 24455 24456 24457 24458 24459 24460 24461 24462 24463 24464 24465 24466 24467 24468 24469 24470 24471 24472 24473 24474 24475 24476 24477 24478 24479 24480 24481 24482 24483 24484 24485 24486 24487 24488 24489 24490 24491 24492 24493 24494 24495 24496 24497 24498 24499 24500 24501 24502 24503 24504 24505 24506 24507 24508 24509 24510 24511 24512 24513 24514 24515 24516 24517 24518 24519 24520 24521 24522 24523 24524 24525 24526 24527 24528 24529 24530 24531 24532 24533 24534 24535 24536 24537 24538 24539 24540 24541 24542 24543 24544 24545 24546 24547 24548 24549 24550 24551 24552 24553 24554 24555 24556 24557 24558 24559 24560 24561 24562 24563 24564 24565 24566 24567 24568 24569 24570 24571 24572 24573 24574 24575 24576 24577 24578 24579 24580 24581 24582 24583 24584 24585 24586 24587 24588 24589 24590 24591 24592 24593 24594 24595 24596 24597 24598 24599 24600 24601 24602 24603 24604 24605 24606 24607 24608 24609 24610 24611 24612 24613 24614 24615 24616 24617 24618 24619 24620 24621 24622 24623 24624 24625 24626 24627 24628 24629 24630 24631 24632 24633 24634 24635 24636 24637 24638 24639 24640 24641 24642 24643 24644 24645 24646 24647 24648 24649 24650 24651 24652 24653 24654 24655 24656 24657 24658 24659 24660 24661 24662 24663 24664 24665 24666 24667 24668 24669 24670 24671 24672 24673 24674 24675 24676 24677 24678 24679 24680 24681 24682 24683 24684 24685 24686 24687 24688 24689 24690 24691 24692 24693 24694 24695 24696 24697 24698 24699 24700 24701 24702 24703 24704 24705 24706 24707 24708 24709 24710 24711 24712 24713 24714 24715 24716 24717 24718 24719 24720 24721 24722 24723 24724 24725 24726 24727 24728 24729 24730 24731 24732 24733 24734 24735 24736 24737 24738 24739 24740 24741 24742 24743 24744 24745 24746 24747 24748 24749 24750 24751 24752 24753 24754 24755 24756 24757 24758 24759 24760 24761 24762 24763 24764 24765 24766 24767 24768 24769 24770 24771 24772 24773 24774 24775 24776 24777 24778 24779 24780 24781 24782 24783 24784 24785 24786 24787 24788 24789 24790 24791 24792 24793 24794 24795 24796 24797 24798 24799 24800 24801 24802 24803 24804 24805 24806 24807 24808 24809 24810 24811 24812 24813 24814 24815 24816 24817 24818 24819 24820 24821 24822 24823 24824 24825 24826 24827 24828 24829 24830 24831 24832 24833 24834 24835 24836 24837 24838 24839 24840 24841 24842 24843 24844 24845 24846 24847 24848 24849 24850 24851 24852 24853 24854 24855 24856 24857 24858 24859 24860 24861 24862 24863 24864 24865 24866 24867 24868 24869 24870 24871 24872 24873 24874 24875 24876 24877 24878 24879 24880 24881 24882 24883 24884 24885 24886 24887 24888 24889 24890 24891 24892 24893 24894 24895 24896 24897 24898 24899 24900 24901 24902 24903 24904 24905 24906 24907 24908 24909 24910 24911 24912 24913 24914 24915 24916 24917 24918 24919 24920 24921 24922 24923 24924 24925 24926 24927 24928 24929 24930 24931 24932 24933 24934 24935 24936 24937 24938 24939 24940 24941 24942 24943 24944 24945 24946 24947 24948 24949 24950 24951 24952 24953 24954 24955 24956 24957 24958 24959 24960 24961 24962 24963 24964 24965 24966 24967 24968 24969 24970 24971 24972 24973 24974 24975 24976 24977 24978 24979 24980 24981 24982 24983 24984 24985 24986 24987 24988 24989 24990 24991 24992 24993 24994 24995 24996 24997 24998 24999 25000 25001 25002 25003 25004 25005 25006 25007 25008 25009 25010 25011 25012 25013 25014 25015 25016 25017 25018 25019 25020 25021 25022 25023 25024 25025 25026 25027 25028 25029 25030 25031 25032 25033 25034 25035 25036 25037 25038 25039 25040 25041 25042 25043 25044 25045 25046 25047 25048 25049 25050 25051 25052 25053 25054 25055 25056 25057 25058 25059 25060 25061 25062 25063 25064 25065 25066 25067 25068 25069 25070 25071 25072 25073 25074 25075 25076 25077 25078 25079 25080 25081 25082 25083 25084 25085 25086 25087 25088 25089 25090 25091 25092 25093 25094 25095 25096 25097 25098 25099 25100 25101 25102 25103 25104 25105 25106 25107 25108 25109 25110 25111 25112 25113 25114 25115 25116 25117 25118 25119 25120 25121 25122 25123 25124 25125 25126 25127 25128 25129 25130 25131 25132 25133 25134 25135 25136 25137 25138 25139 25140 25141 25142 25143 25144 25145 25146 25147 25148 25149 25150 25151 25152 25153 25154 25155 25156 25157 25158 25159 25160 25161 25162 25163 25164 25165 25166 25167 25168 25169 25170 25171 25172 25173 25174 25175 25176 25177 25178 25179 25180 25181 25182 25183 25184 25185 25186 25187 25188 25189 25190 25191 25192 25193 25194 25195 25196 25197 25198 25199 25200 25201 25202 25203 25204 25205 25206 25207 25208 25209 25210 25211 25212 25213 25214 25215 25216 25217 25218 25219 25220 25221 25222 25223 25224 25225 25226 25227 25228 25229 25230 25231 25232 25233 25234 25235 25236 25237 25238 25239 25240 25241 25242 25243 25244 25245 25246 25247 25248 25249 25250 25251 25252 25253 25254 25255 25256 25257 25258 25259 25260 25261 25262 25263 25264 25265 25266 25267 25268 25269 25270 25271 25272 25273 25274 25275 25276 25277 25278 25279 25280 25281 25282 25283 25284 25285 25286 25287 25288 25289 25290 25291 25292 25293 25294 25295 25296 25297 25298 25299 25300 25301 25302 25303 25304 25305 25306 25307 25308 25309 25310 25311 25312 25313 25314 25315 25316 25317 25318 25319 25320 25321 25322 25323 25324 25325 25326 25327 25328 25329 25330 25331 25332 25333 25334 25335 25336 25337 25338 25339 25340 25341 25342 25343 25344 25345 25346 25347 25348 25349 25350 25351 25352 25353 25354 25355 25356 25357 25358 25359 25360 25361 25362 25363 25364 25365 25366 25367 25368 25369 25370 25371 25372 25373 25374 25375 25376 25377 25378 25379 25380 25381 25382 25383 25384 25385 25386 25387 25388 25389 25390 25391 25392 25393 25394 25395 25396 25397 25398 25399 25400 25401 25402 25403 25404 25405 25406 25407 25408 25409 25410 25411 25412 25413 25414 25415 25416 25417 25418 25419 25420 25421 25422 25423 25424 25425 25426 25427 25428 25429 25430 25431 25432 25433 25434 25435 25436 25437 25438 25439 25440 25441 25442 25443 25444 25445 25446 25447 25448 25449 25450 25451 25452 25453 25454 25455 25456 25457 25458 25459 25460 25461 25462 25463 25464 25465 25466 25467 25468 25469 25470 25471 25472 25473 25474 25475 25476 25477 25478 25479 25480 25481 25482 25483 25484 25485 25486 25487 25488 25489 25490 25491 25492 25493 25494 25495 25496 25497 25498 25499 25500 25501 25502 25503 25504 25505 25506 25507 25508 25509 25510 25511 25512 25513 25514 25515 25516 25517 25518 25519 25520 25521 25522 25523 25524 25525 25526 25527 25528 25529 25530 25531 25532 25533 25534 25535 25536 25537 25538 25539 25540 25541 25542 25543 25544 25545 25546 25547 25548 25549 25550 25551 25552 25553 25554 25555 25556 25557 25558 25559 25560 25561 25562 25563 25564 25565 25566 25567 25568 25569 25570 25571 25572 25573 25574 25575 25576 25577 25578 25579 25580 25581 25582 25583 25584 25585 25586 25587 25588 25589 25590 25591 25592 25593 25594 25595 25596 25597 25598 25599 25600 25601 25602 25603 25604 25605 25606 25607 25608 25609 25610 25611 25612 25613 25614 25615 25616 25617 25618 25619 25620 25621 25622 25623 25624 25625 25626 25627 25628 25629 25630 25631 25632 25633 25634 25635 25636 25637 25638 25639 25640 25641 25642 25643 25644 25645 25646 25647 25648 25649 25650 25651 25652 25653 25654 25655 25656 25657 25658 25659 25660 25661 25662 25663 25664 25665 25666 25667 25668 25669 25670 25671 25672 25673 25674 25675 25676 25677 25678 25679 25680 25681 25682 25683 25684 25685 25686 25687 25688 25689 25690 25691 25692 25693 25694 25695 25696 25697 25698 25699 25700 25701 25702 25703 25704 25705 25706 25707 25708 25709 25710 25711 25712 25713 25714 25715 25716 25717 25718 25719 25720 25721 25722 25723 25724 25725 25726 25727 25728 25729 25730 25731 25732 25733 25734 25735 25736 25737 25738 25739 25740 25741 25742 25743 25744 25745 25746 25747 25748 25749 25750 25751 25752 25753 25754 25755 25756 25757 25758 25759 25760 25761 25762 25763 25764 25765 25766 25767 25768 25769 25770 25771 25772 25773 25774 25775 25776 25777 25778 25779 25780 25781 25782 25783 25784 25785 25786 25787 25788 25789 25790 25791 25792 25793 25794 25795 25796 25797 25798 25799 25800 25801 25802 25803 25804 25805 25806 25807 25808 25809 25810 25811 25812 25813 25814 25815 25816 25817 25818 25819 25820 25821 25822 25823 25824 25825 25826 25827 25828 25829 25830 25831 25832 25833 25834 25835 25836 25837 25838 25839 25840 25841 25842 25843 25844 25845 25846 25847 25848 25849 25850 25851 25852 25853 25854 25855 25856 25857 25858 25859 25860 25861 25862 25863 25864 25865 25866 25867 25868 25869 25870 25871 25872 25873 25874 25875 25876 25877 25878 25879 25880 25881 25882 25883 25884 25885 25886 25887 25888 25889 25890 25891 25892 25893 25894 25895 25896 25897 25898 25899 25900 25901 25902 25903 25904 25905 25906 25907 25908 25909 25910 25911 25912 25913 25914 25915 25916 25917 25918 25919 25920 25921 25922 25923 25924 25925 25926 25927 25928 25929 25930 25931 25932 25933 25934 25935 25936 25937 25938 25939 25940 25941 25942 25943 25944 25945 25946 25947 25948 25949 25950 25951 25952 25953 25954 25955 25956 25957 25958 25959 25960 25961 25962 25963 25964 25965 25966 25967 25968 25969 25970 25971 25972 25973 25974 25975 25976 25977 25978 25979 25980 25981 25982 25983 25984 25985 25986 25987 25988 25989 25990 25991 25992 25993 25994 25995 25996 25997 25998 25999 26000 26001 26002 26003 26004 26005 26006 26007 26008 26009 26010 26011 26012 26013 26014 26015 26016 26017 26018 26019 26020 26021 26022 26023 26024 26025 26026 26027 26028 26029 26030 26031 26032 26033 26034 26035 26036 26037 26038 26039 26040 26041 26042 26043 26044 26045 26046 26047 26048 26049 26050 26051 26052 26053 26054 26055 26056 26057 26058 26059 26060 26061 26062 26063 26064 26065 26066 26067 26068 26069 26070 26071 26072 26073 26074 26075 26076 26077 26078 26079 26080 26081 26082 26083 26084 26085 26086 26087 26088 26089 26090 26091 26092 26093 26094 26095 26096 26097 26098 26099 26100 26101 26102 26103 26104 26105 26106 26107 26108 26109 26110 26111 26112 26113 26114 26115 26116 26117 26118 26119 26120 26121 26122 26123 26124 26125 26126 26127 26128 26129 26130 26131 26132 26133 26134 26135 26136 26137 26138 26139 26140 26141 26142 26143 26144 26145 26146 26147 26148 26149 26150 26151 26152 26153 26154 26155 26156 26157 26158 26159 26160 26161 26162 26163 26164 26165 26166 26167 26168 26169 26170 26171 26172 26173 26174 26175 26176 26177 26178 26179 26180 26181 26182 26183 26184 26185 26186 26187 26188 26189 26190 26191 26192 26193 26194 26195 26196 26197 26198 26199 26200 26201 26202 26203 26204 26205 26206 26207 26208 26209 26210 26211 26212 26213 26214 26215 26216 26217 26218 26219 26220 26221 26222 26223 26224 26225 26226 26227 26228 26229 26230 26231 26232 26233 26234 26235 26236 26237 26238 26239 26240 26241 26242 26243 26244 26245 26246 26247 26248 26249 26250 26251 26252 26253 26254 26255 26256 26257 26258 26259 26260 26261 26262 26263 26264 26265 26266 26267 26268 26269 26270 26271 26272 26273 26274 26275 26276 26277 26278 26279 26280 26281 26282 26283 26284 26285 26286 26287 26288 26289 26290 26291 26292 26293 26294 26295 26296 26297 26298 26299 26300 26301 26302 26303 26304 26305 26306 26307 26308 26309 26310 26311 26312 26313 26314 26315 26316 26317 26318 26319 26320 26321 26322 26323 26324 26325 26326 26327 26328 26329 26330 26331 26332 26333 26334 26335 26336 26337 26338 26339 26340 26341 26342 26343 26344 26345 26346 26347 26348 26349 26350 26351 26352 26353 26354 26355 26356 26357 26358 26359 26360 26361 26362 26363 26364 26365 26366 26367 26368 26369 26370 26371 26372 26373 26374 26375 26376 26377 26378 26379 26380 26381 26382 26383 26384 26385 26386 26387 26388 26389 26390 26391 26392 26393 26394 26395 26396 26397 26398 26399 26400 26401 26402 26403 26404 26405 26406 26407 26408 26409 26410 26411 26412 26413 26414 26415 26416 26417 26418 26419 26420 26421 26422 26423 26424 26425 26426 26427 26428 26429 26430 26431 26432 26433 26434 26435 26436 26437 26438 26439 26440 26441 26442 26443 26444 26445 26446 26447 26448 26449 26450 26451 26452 26453 26454 26455 26456 26457 26458 26459 26460 26461 26462 26463 26464 26465 26466 26467 26468 26469 26470 26471 26472 26473 26474 26475 26476 26477 26478 26479 26480 26481 26482 26483 26484 26485 26486 26487 26488 26489 26490 26491 26492 26493 26494 26495 26496 26497 26498 26499 26500 26501 26502 26503 26504 26505 26506 26507 26508 26509 26510 26511 26512 26513 26514 26515 26516 26517 26518 26519 26520 26521 26522 26523 26524 26525 26526 26527 26528 26529 26530 26531 26532 26533 26534 26535 26536 26537 26538 26539 26540 26541 26542 26543 26544 26545 26546 26547 26548 26549 26550 26551 26552 26553 26554 26555 26556 26557 26558 26559 26560 26561 26562 26563 26564 26565 26566 26567 26568 26569 26570 26571 26572 26573 26574 26575 26576 26577 26578 26579 26580 26581 26582 26583 26584 26585 26586 26587 26588 26589 26590 26591 26592 26593 26594 26595 26596 26597 26598 26599 26600 26601 26602 26603 26604 26605 26606 26607 26608 26609 26610 26611 26612 26613 26614 26615 26616 26617 26618 26619 26620 26621 26622 26623 26624 26625 26626 26627 26628 26629 26630 26631 26632 26633 26634 26635 26636 26637 26638 26639 26640 26641 26642 26643 26644 26645 26646 26647 26648 26649 26650 26651 26652 26653 26654 26655 26656 26657 26658 26659 26660 26661 26662 26663 26664 26665 26666 26667 26668 26669 26670 26671 26672 26673 26674 26675 26676 26677 26678 26679 26680 26681 26682 26683 26684 26685 26686 26687 26688 26689 26690 26691 26692 26693 26694 26695 26696 26697 26698 26699 26700 26701 26702 26703 26704 26705 26706 26707 26708 26709 26710 26711 26712 26713 26714 26715 26716 26717 26718 26719 26720 26721 26722 26723 26724 26725 26726 26727 26728 26729 26730 26731 26732 26733 26734 26735 26736 26737 26738 26739 26740 26741 26742 26743 26744 26745 26746 26747 26748 26749 26750 26751 26752 26753 26754 26755 26756 26757 26758 26759 26760 26761 26762 26763 26764 26765 26766 26767 26768 26769 26770 26771 26772 26773 26774 26775 26776 26777 26778 26779 26780 26781 26782 26783 26784 26785 26786 26787 26788 26789 26790 26791 26792 26793 26794 26795 26796 26797 26798 26799 26800 26801 26802 26803 26804 26805 26806 26807 26808 26809 26810 26811 26812 26813 26814 26815 26816 26817 26818 26819 26820 26821 26822 26823 26824 26825 26826 26827 26828 26829 26830 26831 26832 26833 26834 26835 26836 26837 26838 26839 26840 26841 26842 26843 26844 26845 26846 26847 26848 26849 26850 26851 26852 26853 26854 26855 26856 26857 26858 26859 26860 26861 26862 26863 26864 26865 26866 26867 26868 26869 26870 26871 26872 26873 26874 26875 26876 26877 26878 26879 26880 26881 26882 26883 26884 26885 26886 26887 26888 26889 26890 26891 26892 26893 26894 26895 26896 26897 26898 26899 26900 26901 26902 26903 26904 26905 26906 26907 26908 26909 26910 26911 26912 26913 26914 26915 26916 26917 26918 26919 26920 26921 26922 26923 26924 26925 26926 26927 26928 26929 26930 26931 26932 26933 26934 26935 26936 26937 26938 26939 26940 26941 26942 26943 26944 26945 26946 26947 26948 26949 26950 26951 26952 26953 26954 26955 26956 26957 26958 26959 26960 26961 26962 26963 26964 26965 26966 26967 26968 26969 26970 26971 26972 26973 26974 26975 26976 26977 26978 26979 26980 26981 26982 26983 26984 26985 26986 26987 26988 26989 26990 26991 26992 26993 26994 26995 26996 26997 26998 26999 27000 27001 27002 27003 27004 27005 27006 27007 27008 27009 27010 27011 27012 27013 27014 27015 27016 27017 27018 27019 27020 27021 27022 27023 27024 27025 27026 27027 27028 27029 27030 27031 27032 27033 27034 27035 27036 27037 27038 27039 27040 27041 27042 27043 27044 27045 27046 27047 27048 27049 27050 27051 27052 27053 27054 27055 27056 27057 27058 27059 27060 27061 27062 27063 27064 27065 27066 27067 27068 27069 27070 27071 27072 27073 27074 27075 27076 27077 27078 27079 27080 27081 27082 27083 27084 27085 27086 27087 27088 27089 27090 27091 27092 27093 27094 27095 27096 27097 27098 27099 27100 27101 27102 27103 27104 27105 27106 27107 27108 27109 27110 27111 27112 27113 27114 27115 27116 27117 27118 27119 27120 27121 27122 27123 27124 27125 27126 27127 27128 27129 27130 27131 27132 27133 27134 27135 27136 27137 27138 27139 27140 27141 27142 27143 27144 27145 27146 27147 27148 27149 27150 27151 27152 27153 27154 27155 27156 27157 27158 27159 27160 27161 27162 27163 27164 27165 27166 27167 27168 27169 27170 27171 27172 27173 27174 27175 27176 27177 27178 27179 27180 27181 27182 27183 27184 27185 27186 27187 27188 27189 27190 27191 27192 27193 27194 27195 27196 27197 27198 27199 27200 27201 27202 27203 27204 27205 27206 27207 27208 27209 27210 27211 27212 27213 27214 27215 27216 27217 27218 27219 27220 27221 27222 27223 27224 27225 27226 27227 27228 27229 27230 27231 27232 27233 27234 27235 27236 27237 27238 27239 27240 27241 27242 27243 27244 27245 27246 27247 27248 27249 27250 27251 27252 27253 27254 27255 27256 27257 27258 27259 27260 27261 27262 27263 27264 27265 27266 27267 27268 27269 27270 27271 27272 27273 27274 27275 27276 27277 27278 27279 27280 27281 27282 27283 27284 27285 27286 27287 27288 27289 27290 27291 27292 27293 27294 27295 27296 27297 27298 27299 27300 27301 27302 27303 27304 27305 27306 27307 27308 27309 27310 27311 27312 27313 27314 27315 27316 27317 27318 27319 27320 27321 27322 27323 27324 27325 27326 27327 27328 27329 27330 27331 27332 27333 27334 27335 27336 27337 27338 27339 27340 27341 27342 27343 27344 27345 27346 27347 27348 27349 27350 27351 27352 27353 27354 27355 27356 27357 27358 27359 27360 27361 27362 27363 27364 27365 27366 27367 27368 27369 27370 27371 27372 27373 27374 27375 27376 27377 27378 27379 27380 27381 27382 27383 27384 27385 27386 27387 27388 27389 27390 27391 27392 27393 27394 27395 27396 27397 27398 27399 27400 27401 27402 27403 27404 27405 27406 27407 27408 27409 27410 27411 27412 27413 27414 27415 27416 27417 27418 27419 27420 27421 27422 27423 27424 27425 27426 27427 27428 27429 27430 27431 27432 27433 27434 27435 27436 27437 27438 27439 27440 27441 27442 27443 27444 27445 27446 27447 27448 27449 27450 27451 27452 27453 27454 27455 27456 27457 27458 27459 27460 27461 27462 27463 27464 27465 27466 27467 27468 27469 27470 27471 27472 27473 27474 27475 27476 27477 27478 27479 27480 27481 27482 27483 27484 27485 27486 27487 27488 27489 27490 27491 27492 27493 27494 27495 27496 27497 27498 27499 27500 27501 27502 27503 27504 27505 27506 27507 27508 27509 27510 27511 27512 27513 27514 27515 27516 27517 27518 27519 27520 27521 27522 27523 27524 27525 27526 27527 27528 27529 27530 27531 27532 27533 27534 27535 27536 27537 27538 27539 27540 27541 27542 27543 27544 27545 27546 27547 27548 27549 27550 27551 27552 27553 27554 27555 27556 27557 27558 27559 27560 27561 27562 27563 27564 27565 27566 27567 27568 27569 27570 27571 27572 27573 27574 27575 27576 27577 27578 27579 27580 27581 27582 27583 27584 27585 27586 27587 27588 27589 27590 27591 27592 27593 27594 27595 27596 27597 27598 27599 27600 27601 27602 27603 27604 27605 27606 27607 27608 27609 27610 27611 27612 27613 27614 27615 27616 27617 27618 27619 27620 27621 27622 27623 27624 27625 27626 27627 27628 27629 27630 27631 27632 27633 27634 27635 27636 27637 27638 27639 27640 27641 27642 27643 27644 27645 27646 27647 27648 27649 27650 27651 27652 27653 27654 27655 27656 27657 27658 27659 27660 27661 27662 27663 27664 27665 27666 27667 27668 27669 27670 27671 27672 27673 27674 27675 27676 27677 27678 27679 27680 27681 27682 27683 27684 27685 27686 27687 27688 27689 27690 27691 27692 27693 27694 27695 27696 27697 27698 27699 27700 27701 27702 27703 27704 27705 27706 27707 27708 27709 27710 27711 27712 27713 27714 27715 27716 27717 27718 27719 27720 27721 27722 27723 27724 27725 27726 27727 27728 27729 27730 27731 27732 27733 27734 27735 27736 27737 27738 27739 27740 27741 27742 27743 27744 27745 27746 27747 27748 27749 27750 27751 27752 27753 27754 27755 27756 27757 27758 27759 27760 27761 27762 27763 27764 27765 27766 27767 27768 27769 27770 27771 27772 27773 27774 27775 27776 27777 27778 27779 27780 27781 27782 27783 27784 27785 27786 27787 27788 27789 27790 27791 27792 27793 27794 27795 27796 27797 27798 27799 27800 27801 27802 27803 27804 27805 27806 27807 27808 27809 27810 27811 27812 27813 27814 27815 27816 27817 27818 27819 27820 27821 27822 27823 27824 27825 27826 27827 27828 27829 27830 27831 27832 27833 27834 27835 27836 27837 27838 27839 27840 27841 27842 27843 27844 27845 27846 27847 27848 27849 27850 27851 27852 27853 27854 27855 27856 27857 27858 27859 27860 27861 27862 27863 27864 27865 27866 27867 27868 27869 27870 27871 27872 27873 27874 27875 27876 27877 27878 27879 27880 27881 27882 27883 27884 27885 27886 27887 27888 27889 27890 27891 27892 27893 27894 27895 27896 27897 27898 27899 27900 27901 27902 27903 27904 27905 27906 27907 27908 27909 27910 27911 27912 27913 27914 27915 27916 27917 27918 27919 27920 27921 27922 27923 27924 27925 27926 27927 27928 27929 27930 27931 27932 27933 27934 27935 27936 27937 27938 27939 27940 27941 27942 27943 27944 27945 27946 27947 27948 27949 27950 27951 27952 27953 27954 27955 27956 27957 27958 27959 27960 27961 27962 27963 27964 27965 27966 27967 27968 27969 27970 27971 27972 27973 27974 27975 27976 27977 27978 27979 27980 27981 27982 27983 27984 27985 27986 27987 27988 27989 27990 27991 27992 27993 27994 27995 27996 27997 27998 27999 28000 28001 28002 28003 28004 28005 28006 28007 28008 28009 28010 28011 28012 28013 28014 28015 28016 28017 28018 28019 28020 28021 28022 28023 28024 28025 28026 28027 28028 28029 28030 28031 28032 28033 28034 28035 28036 28037 28038 28039 28040 28041 28042 28043 28044 28045 28046 28047 28048 28049 28050 28051 28052 28053 28054 28055 28056 28057 28058 28059 28060 28061 28062 28063 28064 28065 28066 28067 28068 28069 28070 28071 28072 28073 28074 28075 28076 28077 28078 28079 28080 28081 28082 28083 28084 28085 28086 28087 28088 28089 28090 28091 28092 28093 28094 28095 28096 28097 28098 28099 28100 28101 28102 28103 28104 28105 28106 28107 28108 28109 28110 28111 28112 28113 28114 28115 28116 28117 28118 28119 28120 28121 28122 28123 28124 28125 28126 28127 28128 28129 28130 28131 28132 28133 28134 28135 28136 28137 28138 28139 28140 28141 28142 28143 28144 28145 28146 28147 28148 28149 28150 28151 28152 28153 28154 28155 28156 28157 28158 28159 28160 28161 28162 28163 28164 28165 28166 28167 28168 28169 28170 28171 28172 28173 28174 28175 28176 28177 28178 28179 28180 28181 28182 28183 28184 28185 28186 28187 28188 28189 28190 28191 28192 28193 28194 28195 28196 28197 28198 28199 28200 28201 28202 28203 28204 28205 28206 28207 28208 28209 28210 28211 28212 28213 28214 28215 28216 28217 28218 28219 28220 28221 28222 28223 28224 28225 28226 28227 28228 28229 28230 28231 28232 28233 28234 28235 28236 28237 28238 28239 28240 28241 28242 28243 28244 28245 28246 28247 28248 28249 28250 28251 28252 28253 28254 28255 28256 28257 28258 28259 28260 28261 28262 28263 28264 28265 28266 28267 28268 28269 28270 28271 28272 28273 28274 28275 28276 28277 28278 28279 28280 28281 28282 28283 28284 28285 28286 28287 28288 28289 28290 28291 28292 28293 28294 28295 28296 28297 28298 28299 28300 28301 28302 28303 28304 28305 28306 28307 28308 28309 28310 28311 28312 28313 28314 28315 28316 28317 28318 28319 28320 28321 28322 28323 28324 28325 28326 28327 28328 28329 28330 28331 28332 28333 28334 28335 28336 28337 28338 28339 28340 28341 28342 28343 28344 28345 28346 28347 28348 28349 28350 28351 28352 28353 28354 28355 28356 28357 28358 28359 28360 28361 28362 28363 28364 28365 28366 28367 28368 28369 28370 28371 28372 28373 28374 28375 28376 28377 28378 28379 28380 28381 28382 28383 28384 28385 28386 28387 28388 28389 28390 28391 28392 28393 28394 28395 28396 28397 28398 28399 28400 28401 28402 28403 28404 28405 28406 28407 28408 28409 28410 28411 28412 28413 28414 28415 28416 28417 28418 28419 28420 28421 28422 28423 28424 28425 28426 28427 28428 28429 28430 28431 28432 28433 28434 28435 28436 28437 28438 28439 28440 28441 28442 28443 28444 28445 28446 28447 28448 28449 28450 28451 28452 28453 28454 28455 28456 28457 28458 28459 28460 28461 28462 28463 28464 28465 28466 28467 28468 28469 28470 28471 28472 28473 28474 28475 28476 28477 28478 28479 28480 28481 28482 28483 28484 28485 28486 28487 28488 28489 28490 28491 28492 28493 28494 28495 28496 28497 28498 28499 28500 28501 28502 28503 28504 28505 28506 28507 28508 28509 28510 28511 28512 28513 28514 28515 28516 28517 28518 28519 28520 28521 28522 28523 28524 28525 28526 28527 28528 28529 28530 28531 28532 28533 28534 28535 28536 28537 28538 28539 28540 28541 28542 28543 28544 28545 28546 28547 28548 28549 28550 28551 28552 28553 28554 28555 28556 28557 28558 28559 28560 28561 28562 28563 28564 28565 28566 28567 28568 28569 28570 28571 28572 28573 28574 28575 28576 28577 28578 28579 28580 28581 28582 28583 28584 28585 28586 28587 28588 28589 28590 28591 28592 28593 28594 28595 28596 28597 28598 28599 28600 28601 28602 28603 28604 28605 28606 28607 28608 28609 28610 28611 28612 28613 28614 28615 28616 28617 28618 28619 28620 28621 28622 28623 28624 28625 28626 28627 28628 28629 28630 28631 28632 28633 28634 28635 28636 28637 28638 28639 28640 28641 28642 28643 28644 28645 28646 28647 28648 28649 28650 28651 28652 28653 28654 28655 28656 28657 28658 28659 28660 28661 28662 28663 28664 28665 28666 28667 28668 28669 28670 28671 28672 28673 28674 28675 28676 28677 28678 28679 28680 28681 28682 28683 28684 28685 28686 28687 28688 28689 28690 28691 28692 28693 28694 28695 28696 28697 28698 28699 28700 28701 28702 28703 28704 28705 28706 28707 28708 28709 28710 28711 28712 28713 28714 28715 28716 28717 28718 28719 28720 28721 28722 28723 28724 28725 28726 28727 28728 28729 28730 28731 28732 28733 28734 28735 28736 28737 28738 28739 28740 28741 28742 28743 28744 28745 28746 28747 28748 28749 28750 28751 28752 28753 28754 28755 28756 28757 28758 28759 28760 28761 28762 28763 28764 28765 28766 28767 28768 28769 28770 28771 28772 28773 28774 28775 28776 28777 28778 28779 28780 28781 28782 28783 28784 28785 28786 28787 28788 28789 28790 28791 28792 28793 28794 28795 28796 28797 28798 28799 28800 28801 28802 28803 28804 28805 28806 28807 28808 28809 28810 28811 28812 28813 28814 28815 28816 28817 28818 28819 28820 28821 28822 28823 28824 28825 28826 28827 28828 28829 28830 28831 28832 28833 28834 28835 28836 28837 28838 28839 28840 28841 28842 28843 28844 28845 28846 28847 28848 28849 28850 28851 28852 28853 28854 28855 28856 28857 28858 28859 28860 28861 28862 28863 28864 28865 28866 28867 28868 28869 28870 28871 28872 28873 28874 28875 28876 28877 28878 28879 28880 28881 28882 28883 28884 28885 28886 28887 28888 28889 28890 28891 28892 28893 28894 28895 28896 28897 28898 28899 28900 28901 28902 28903 28904 28905 28906 28907 28908 28909 28910 28911 28912 28913 28914 28915 28916 28917 28918 28919 28920 28921 28922 28923 28924 28925 28926 28927 28928 28929 28930 28931 28932 28933 28934 28935 28936 28937 28938 28939 28940 28941 28942 28943 28944 28945 28946 28947 28948 28949 28950 28951 28952 28953 28954 28955 28956 28957 28958 28959 28960 28961 28962 28963 28964 28965 28966 28967 28968 28969 28970 28971 28972 28973 28974 28975 28976 28977 28978 28979 28980 28981 28982 28983 28984 28985 28986 28987 28988 28989 28990 28991 28992 28993 28994 28995 28996 28997 28998 28999 29000 29001 29002 29003 29004 29005 29006 29007 29008 29009 29010 29011 29012 29013 29014 29015 29016 29017 29018 29019 29020 29021 29022 29023 29024 29025 29026 29027 29028 29029 29030 29031 29032 29033 29034 29035 29036 29037 29038 29039 29040 29041 29042 29043 29044 29045 29046 29047 29048 29049 29050 29051 29052 29053 29054 29055 29056 29057 29058 29059 29060 29061 29062 29063 29064 29065 29066 29067 29068 29069 29070 29071 29072 29073 29074 29075 29076 29077 29078 29079 29080 29081 29082 29083 29084 29085 29086 29087 29088 29089 29090 29091 29092 29093 29094 29095 29096 29097 29098 29099 29100 29101 29102 29103 29104 29105 29106 29107 29108 29109 29110 29111 29112 29113 29114 29115 29116 29117 29118 29119 29120 29121 29122 29123 29124 29125 29126 29127 29128 29129 29130 29131 29132 29133 29134 29135 29136 29137 29138 29139 29140 29141 29142 29143 29144 29145 29146 29147 29148 29149 29150 29151 29152 29153 29154 29155 29156 29157 29158 29159 29160 29161 29162 29163 29164 29165 29166 29167 29168 29169 29170 29171 29172 29173 29174 29175 29176 29177 29178 29179 29180 29181 29182 29183 29184 29185 29186 29187 29188 29189 29190 29191 29192 29193 29194 29195 29196 29197 29198 29199 29200 29201 29202 29203 29204 29205 29206 29207 29208 29209 29210 29211 29212 29213 29214 29215 29216 29217 29218 29219 29220 29221 29222 29223 29224 29225 29226 29227 29228 29229 29230 29231 29232 29233 29234 29235 29236 29237 29238 29239 29240 29241 29242 29243 29244 29245 29246 29247 29248 29249 29250 29251 29252 29253 29254 29255 29256 29257 29258 29259 29260 29261 29262 29263 29264 29265 29266 29267 29268 29269 29270 29271 29272 29273 29274 29275 29276 29277 29278 29279 29280 29281 29282 29283 29284 29285 29286 29287 29288 29289 29290 29291 29292 29293 29294 29295 29296 29297 29298 29299 29300 29301 29302 29303 29304 29305 29306 29307 29308 29309 29310 29311 29312 29313 29314 29315 29316 29317 29318 29319 29320 29321 29322 29323 29324 29325 29326 29327 29328 29329 29330 29331 29332 29333 29334 29335 29336 29337 29338 29339 29340 29341 29342 29343 29344 29345 29346 29347 29348 29349 29350 29351 29352 29353 29354 29355 29356 29357 29358 29359 29360 29361 29362 29363 29364 29365 29366 29367 29368 29369 29370 29371 29372 29373 29374 29375 29376 29377 29378 29379 29380 29381 29382 29383 29384 29385 29386 29387 29388 29389 29390 29391 29392 29393 29394 29395 29396 29397 29398 29399 29400 29401 29402 29403 29404 29405 29406 29407 29408 29409 29410 29411 29412 29413 29414 29415 29416 29417 29418 29419 29420 29421 29422 29423 29424 29425 29426 29427 29428 29429 29430 29431 29432 29433 29434 29435 29436 29437 29438 29439 29440 29441 29442 29443 29444 29445 29446 29447 29448 29449 29450 29451 29452 29453 29454 29455 29456 29457 29458 29459 29460 29461 29462 29463 29464 29465 29466 29467 29468 29469 29470 29471 29472 29473 29474 29475 29476 29477 29478 29479 29480 29481 29482 29483 29484 29485 29486 29487 29488 29489 29490 29491 29492 29493 29494 29495 29496 29497 29498 29499 29500 29501 29502 29503 29504 29505 29506 29507 29508 29509 29510 29511 29512 29513 29514 29515 29516 29517 29518 29519 29520 29521 29522 29523 29524 29525 29526 29527 29528 29529 29530 29531 29532 29533 29534 29535 29536 29537 29538 29539 29540 29541 29542 29543 29544 29545 29546 29547 29548 29549 29550 29551 29552 29553 29554 29555 29556 29557 29558 29559 29560 29561 29562 29563 29564 29565 29566 29567 29568 29569 29570 29571 29572 29573 29574 29575 29576 29577 29578 29579 29580 29581 29582 29583 29584 29585 29586 29587 29588 29589 29590 29591 29592 29593 29594 29595 29596 29597 29598 29599 29600 29601 29602 29603 29604 29605 29606 29607 29608 29609 29610 29611 29612 29613 29614 29615 29616 29617 29618 29619 29620 29621 29622 29623 29624 29625 29626 29627 29628 29629 29630 29631 29632 29633 29634 29635 29636 29637 29638 29639 29640 29641 29642 29643 29644 29645 29646 29647 29648 29649 29650 29651 29652 29653 29654 29655 29656 29657 29658 29659 29660 29661 29662 29663 29664 29665 29666 29667 29668 29669 29670 29671 29672 29673 29674 29675 29676 29677 29678 29679 29680 29681 29682 29683 29684 29685 29686 29687 29688 29689 29690 29691 29692 29693 29694 29695 29696 29697 29698 29699 29700 29701 29702 29703 29704 29705 29706 29707 29708 29709 29710 29711 29712 29713 29714 29715 29716 29717 29718 29719 29720 29721 29722 29723 29724 29725 29726 29727 29728 29729 29730 29731 29732 29733 29734 29735 29736 29737 29738 29739 29740 29741 29742 29743 29744 29745 29746 29747 29748 29749 29750 29751 29752 29753 29754 29755 29756 29757 29758 29759 29760 29761 29762 29763 29764 29765 29766 29767 29768 29769 29770 29771 29772 29773 29774 29775 29776 29777 29778 29779 29780 29781 29782 29783 29784 29785 29786 29787 29788 29789 29790 29791 29792 29793 29794 29795 29796 29797 29798 29799 29800 29801 29802 29803 29804 29805 29806 29807 29808 29809 29810 29811 29812 29813 29814 29815 29816 29817 29818 29819 29820 29821 29822 29823 29824 29825 29826 29827 29828 29829 29830 29831 29832 29833 29834 29835 29836 29837 29838 29839 29840 29841 29842 29843 29844 29845 29846 29847 29848 29849 29850 29851 29852 29853 29854 29855 29856 29857 29858 29859 29860 29861 29862 29863 29864 29865 29866 29867 29868 29869 29870 29871 29872 29873 29874 29875 29876 29877 29878 29879 29880 29881 29882 29883 29884 29885 29886 29887 29888 29889 29890 29891 29892 29893 29894 29895 29896 29897 29898 29899 29900 29901 29902 29903 29904 29905 29906 29907 29908 29909 29910 29911 29912 29913 29914 29915 29916 29917 29918 29919 29920 29921 29922 29923 29924 29925 29926 29927 29928 29929 29930 29931 29932 29933 29934 29935 29936 29937 29938 29939 29940 29941 29942 29943 29944 29945 29946 29947 29948 29949 29950 29951 29952 29953 29954 29955 29956 29957 29958 29959 29960 29961 29962 29963 29964 29965 29966 29967 29968 29969 29970 29971 29972 29973 29974 29975 29976 29977 29978 29979 29980 29981 29982 29983 29984 29985 29986 29987 29988 29989 29990 29991 29992 29993 29994 29995 29996 29997 29998 29999 30000 30001 30002 30003 30004 30005 30006 30007 30008 30009 30010 30011 30012 30013 30014 30015 30016 30017 30018 30019 30020 30021 30022 30023 30024 30025 30026 30027 30028 30029 30030 30031 30032 30033 30034 30035 30036 30037 30038 30039 30040 30041 30042 30043 30044 30045 30046 30047 30048 30049 30050 30051 30052 30053 30054 30055 30056 30057 30058 30059 30060 30061 30062 30063 30064 30065 30066 30067 30068 30069 30070 30071 30072 30073 30074 30075 30076 30077 30078 30079 30080 30081 30082 30083 30084 30085 30086 30087 30088 30089 30090 30091 30092 30093 30094 30095 30096 30097 30098 30099 30100 30101 30102 30103 30104 30105 30106 30107 30108 30109 30110 30111 30112 30113 30114 30115 30116 30117 30118 30119 30120 30121 30122 30123 30124 30125 30126 30127 30128 30129 30130 30131 30132 30133 30134 30135 30136 30137 30138 30139 30140 30141 30142 30143 30144 30145 30146 30147 30148 30149 30150 30151 30152 30153 30154 30155 30156 30157 30158 30159 30160 30161 30162 30163 30164 30165 30166 30167 30168 30169 30170 30171 30172 30173 30174 30175 30176 30177 30178 30179 30180 30181 30182 30183 30184 30185 30186 30187 30188 30189 30190 30191 30192 30193 30194 30195 30196 30197 30198 30199 30200 30201 30202 30203 30204 30205 30206 30207 30208 30209 30210 30211 30212 30213 30214 30215 30216 30217 30218 30219 30220 30221 30222 30223 30224 30225 30226 30227 30228 30229 30230 30231 30232 30233 30234 30235 30236 30237 30238 30239 30240 30241 30242 30243 30244 30245 30246 30247 30248 30249 30250 30251 30252 30253 30254 30255 30256 30257 30258 30259 30260 30261 30262 30263 30264 30265 30266 30267 30268 30269 30270 30271 30272 30273 30274 30275 30276 30277 30278 30279 30280 30281 30282 30283 30284 30285 30286 30287 30288 30289 30290 30291 30292 30293 30294 30295 30296 30297 30298 30299 30300 30301 30302 30303 30304 30305 30306 30307 30308 30309 30310 30311 30312 30313 30314 30315 30316 30317 30318 30319 30320 30321 30322 30323 30324 30325 30326 30327 30328 30329 30330 30331 30332 30333 30334 30335 30336 30337 30338 30339 30340 30341 30342 30343 30344 30345 30346 30347 30348 30349 30350 30351 30352 30353 30354 30355 30356 30357 30358 30359 30360 30361 30362 30363 30364 30365 30366 30367 30368 30369 30370 30371 30372 30373 30374 30375 30376 30377 30378 30379 30380 30381 30382 30383 30384 30385 30386 30387 30388 30389 30390 30391 30392 30393 30394 30395 30396 30397 30398 30399 30400 30401 30402 30403 30404 30405 30406 30407 30408 30409 30410 30411 30412 30413 30414 30415 30416 30417 30418 30419 30420 30421 30422 30423 30424 30425 30426 30427 30428 30429 30430 30431 30432 30433 30434 30435 30436 30437 30438 30439 30440 30441 30442 30443 30444 30445 30446 30447 30448 30449 30450 30451 30452 30453 30454 30455 30456 30457 30458 30459 30460 30461 30462 30463 30464 30465 30466 30467 30468 30469 30470 30471 30472 30473 30474 30475 30476 30477 30478 30479 30480 30481 30482 30483 30484 30485 30486 30487 30488 30489 30490 30491 30492 30493 30494 30495 30496 30497 30498 30499 30500 30501 30502 30503 30504 30505 30506 30507 30508 30509 30510 30511 30512 30513 30514 30515 30516 30517 30518 30519 30520 30521 30522 30523 30524 30525 30526 30527 30528 30529 30530 30531 30532 30533 30534 30535 30536 30537 30538 30539 30540 30541 30542 30543 30544 30545 30546 30547 30548 30549 30550 30551 30552 30553 30554 30555 30556 30557 30558 30559 30560 30561 30562 30563 30564 30565 30566 30567 30568 30569 30570 30571 30572 30573 30574 30575 30576 30577 30578 30579 30580 30581 30582 30583 30584 30585 30586 30587 30588 30589 30590 30591 30592 30593 30594 30595 30596 30597 30598 30599 30600 30601 30602 30603 30604 30605 30606 30607 30608 30609 30610 30611 30612 30613 30614 30615 30616 30617 30618 30619 30620 30621 30622 30623 30624 30625 30626 30627 30628 30629 30630 30631 30632 30633 30634 30635 30636 30637 30638 30639 30640 30641 30642 30643 30644 30645 30646 30647 30648 30649 30650 30651 30652 30653 30654 30655 30656 30657 30658 30659 30660 30661 30662 30663 30664 30665 30666 30667 30668 30669 30670 30671 30672 30673 30674 30675 30676 30677 30678 30679 30680 30681 30682 30683 30684 30685 30686 30687 30688 30689 30690 30691 30692 30693 30694 30695 30696 30697 30698 30699 30700 30701 30702 30703 30704 30705 30706 30707 30708 30709 30710 30711 30712 30713 30714 30715 30716 30717 30718 30719 30720 30721 30722 30723 30724 30725 30726 30727 30728 30729 30730 30731 30732 30733 30734 30735 30736 30737 30738 30739 30740 30741 30742 30743 30744 30745 30746 30747 30748 30749 30750 30751 30752 30753 30754 30755 30756 30757 30758 30759 30760 30761 30762 30763 30764 30765 30766 30767 30768 30769 30770 30771 30772 30773 30774 30775 30776 30777 30778 30779 30780 30781 30782 30783 30784 30785 30786 30787 30788 30789 30790 30791 30792 30793 30794 30795 30796 30797 30798 30799 30800 30801 30802 30803 30804 30805 30806 30807 30808 30809 30810 30811 30812 30813 30814 30815 30816 30817 30818 30819 30820 30821 30822 30823 30824 30825 30826 30827 30828 30829 30830 30831 30832 30833 30834 30835 30836 30837 30838 30839 30840 30841 30842 30843 30844 30845 30846 30847 30848 30849 30850 30851 30852 30853 30854 30855 30856 30857 30858 30859 30860 30861 30862 30863 30864 30865 30866 30867 30868 30869 30870 30871 30872 30873 30874 30875 30876 30877 30878 30879 30880 30881 30882 30883 30884 30885 30886 30887 30888 30889 30890 30891 30892 30893 30894 30895 30896 30897 30898 30899 30900 30901 30902 30903 30904 30905 30906 30907 30908 30909 30910 30911 30912 30913 30914 30915 30916 30917 30918 30919 30920 30921 30922 30923 30924 30925 30926 30927 30928 30929 30930 30931 30932 30933 30934 30935 30936 30937 30938 30939 30940 30941 30942 30943 30944 30945 30946 30947 30948 30949 30950 30951 30952 30953 30954 30955 30956 30957 30958 30959 30960 30961 30962 30963 30964 30965 30966 30967 30968 30969 30970 30971 30972 30973 30974 30975 30976 30977 30978 30979 30980 30981 30982 30983 30984 30985 30986 30987 30988 30989 30990 30991 30992 30993 30994 30995 30996 30997 30998 30999 31000 31001 31002 31003 31004 31005 31006 31007 31008 31009 31010 31011 31012 31013 31014 31015 31016 31017 31018 31019 31020 31021 31022 31023 31024 31025 31026 31027 31028 31029 31030 31031 31032 31033 31034 31035 31036 31037 31038 31039 31040 31041 31042 31043 31044 31045 31046 31047 31048 31049 31050 31051 31052 31053 31054 31055 31056 31057 31058 31059 31060 31061 31062 31063 31064 31065 31066 31067 31068 31069 31070 31071 31072 31073 31074 31075 31076 31077 31078 31079 31080 31081 31082 31083 31084 31085 31086 31087 31088 31089 31090 31091 31092 31093 31094 31095 31096 31097 31098 31099 31100 31101 31102 31103 31104 31105 31106 31107 31108 31109 31110 31111 31112 31113 31114 31115 31116 31117 31118 31119 31120 31121 31122 31123 31124 31125 31126 31127 31128 31129 31130 31131 31132 31133 31134 31135 31136 31137 31138 31139 31140 31141 31142 31143 31144 31145 31146 31147 31148 31149 31150 31151 31152 31153 31154 31155 31156 31157 31158 31159 31160 31161 31162 31163 31164 31165 31166 31167 31168 31169 31170 31171 31172 31173 31174 31175 31176 31177 31178 31179 31180 31181 31182 31183 31184 31185 31186 31187 31188 31189 31190 31191 31192 31193 31194 31195 31196 31197 31198 31199 31200 31201 31202 31203 31204 31205 31206 31207 31208 31209 31210 31211 31212 31213 31214 31215 31216 31217 31218 31219 31220 31221 31222 31223 31224 31225 31226 31227 31228 31229 31230 31231 31232 31233 31234 31235 31236 31237 31238 31239 31240 31241 31242 31243 31244 31245 31246 31247 31248 31249 31250 31251 31252 31253 31254 31255 31256 31257 31258 31259 31260 31261 31262 31263 31264 31265 31266 31267 31268 31269 31270 31271 31272 31273 31274 31275 31276 31277 31278 31279 31280 31281 31282 31283 31284 31285 31286 31287 31288 31289 31290 31291 31292 31293 31294 31295 31296 31297 31298 31299 31300 31301 31302 31303 31304 31305 31306 31307 31308 31309 31310 31311 31312 31313 31314 31315 31316 31317 31318 31319 31320 31321 31322 31323 31324 31325 31326 31327 31328 31329 31330 31331 31332 31333 31334 31335 31336 31337 31338 31339 31340 31341 31342 31343 31344 31345 31346 31347 31348 31349 31350 31351 31352 31353 31354 31355 31356 31357 31358 31359 31360 31361 31362 31363 31364 31365 31366 31367 31368 31369 31370 31371 31372 31373 31374 31375 31376 31377 31378 31379 31380 31381 31382 31383 31384 31385 31386 31387 31388 31389 31390 31391 31392 31393 31394 31395 31396 31397 31398 31399 31400 31401 31402 31403 31404 31405 31406 31407 31408 31409 31410 31411 31412 31413 31414 31415 31416 31417 31418 31419 31420 31421 31422 31423 31424 31425 31426 31427 31428 31429 31430 31431 31432 31433 31434 31435 31436 
</DataArray>
<DataArray type="UInt32" Name="offsets" format="ascii">
3 6 9 12 15 17 20 23 25 28 31 34 37 39 42 45 47 50 53 56 59 62 65 68 70 73 76 79 82 85 88 91 94 96 98 100 103 106 109 112 115 118 120 123 126 129 132 135 138 141 144 147 150 153 156 159 162 164 167 170 173 176 179 182 185 188 191 194 196 199 202 205 208 211 213 216 219 221 223 226 228 231 234 237 240 243 246 249 252 255 258 260 263 266 269 272 274 277 280 283 286 289 291 294 297 300 303 306 309 312 315 317 320 322 325 328 331 334 336 339 342 344 347 350 352 355 357 360 363 365 368 371 373 376 379 382 385 388 391 394 396 399 401 404 407 410 412 415 418 421 423 426 429 432 435 438 441 444 447 449 452 455 458 460 463 466 469 472 475 478 481 484 487 490 492 494 497 499 502 504 507 510 513 516 519 522 525 528 530 533 536 539 542 545 548 551 554 557 560 563 566 569 571 574 577 580 582 585 587 590 593 595 598 601 604 607 609 612 615 618 620 623 625 628 630 633 636 638 641 644 647 650 653 656 659 662 665 667 670 673 676 679 682 684 687 690 693 695 698 701 703 706 709 712 715 718 721 724 727 730 732 735 738 741 743 746 749 752 755 757 759 762 765 768 771 773 776 778 781 784 787 790 792 795 798 800 803 806 808 811 814 817 819 822 824 826 828 830 833 836 839 842 845 848 851 854 856 859 861 864 866 869 871 874 877 880 883 885 887 889 892 895 897 900 903 906 908 910 913 916 918 921 924 927 929 932 935 938 941 944 947 950 953 956 958 961 964 967 969 971 973 976 979 982 985 988 991 994 997 999 1002 1005 1008 1011 1014 1017 1020 1023 1026 1029 1032 1035 1038 1041 1044 1047 1050 1053 1056 1059 1062 1065 1068 1071 1074 1077 1080 1083 1086 1089 1092 1095 1098 1101 1104 1107 1110 1113 1116 1119 1122 1124 1127 1130 1133 1136 1139 1142 1145 1148 1151 1154 1157 1160 1163 1166 1169 1172 1175 1178 1181 1184 1186 1189 1191 1194 1197 1200 1203 1206 1209 1212 1215 1218 1220 1222 1225 1228 1231 1234 1237 1239 1242 1244 1246 1249 1251 1254 1257 1260 1263 1266 1269 1272 1275 1278 1281 1284 1286 1289 1292 1295 1298 1301 1304 1307 1310 1313 1315 1318 1321 1324 1327 1330 1333 1336 1339 1342 1344 1347 1350 1353 1356 1359 1362 1364 1367 1370 1373 1376 1379 1381 1384 1387 1390 1392 1395 1397 1400 1402 1405 1407 1409 1412 1415 1418 1420 1423 1426 1429 1432 1435 1438 1441 1444 1447 1450 1453 1456 1459 1462 1464 1467 1470 1473 1476 1479 1482 1484 1487 1490 1493 1495 1498 1501 1504 1507 1510 1513 1516 1519 1522 1525 1528 1530 1533 1536 1539 1541 1544 1547 1549 1552 1555 1558 1560 1563 1566 1569 1571 1573 1576 1579 1582 1585 1588 1591 1594 1597 1600 1603 1606 1609 1612 1615 1618 1621 1624 1627 1630 1633 1635 1638 1641 1644 1647 1650 1652 1655 1658 1660 1662 1665 1667 1670 1672 1675 1678 1680 1683 1686 1689 1692 1695 1698 1700 1703 1706 1708 1711 1714 1716 1719 1722 1725 1728 1730 1733 1736 1739 1741 1744 1746 1749 1751 1754 1757 1760 1762 1765 1768 1771 1773 1776 1779 1782 1785 1788 1791 1794 1797 1800 1803 1806 1809 1812 1815 1818 1821 1824 1827 1830 1833 1836 1838 1841 1844 1847 1850 1852 1855 1858 1861 1864 1867 1869 1872 1875 1878 1880 1883 1886 1889 1892 1895 1898 1901 1904 1907 1909 1912 1914 1917 1920 1923 1925 1928 1931 1933 1936 1939 1941 1944 1947 1950 1953 1956 1959 1962 1965 1968 1971 1974 1976 1979 1982 1985 1988 1991 1993 1996 1999 2002 2005 2007 2010 2013 2016 2019 2021 2024 2027 2030 2032 2035 2037 2040 2043 2046 2049 2052 2055 2058 2060 2063 2066 2069 2072 2075 2078 2081 2084 2087 2090 2093 2096 2099 2102 2105 2108 2111 2114 2117 2120 2123 2126 2129 2132 2135 2138 2141 2144 2147 2150 2153 2156 2159 2162 2165 2168 2171 2174 2177 2180 2183 2186 2189 2192 2195 2198 2201 2204 2207 2210 2213 2215 2218 2221 2224 2227 2230 2233 2236 2238 2241 2244 2247 2250 2253 2256 2259 2261 2264 2267 2270 2272 2275 2277 2280 2282 2285 2287 2290 2292 2295 2298 2300 2303 2306 2309 2312 2315 2318 2321 2324 2326 2329 2332 2335 2338 2341 2344 2347 2350 2353 2356 2359 2362 2365 2368 2371 2374 2376 2379 2382 2385 2388 2391 2394 2397 2400 2403 2406 2409 2412 2415 2418 2421 2424 2427 2429 2432 2435 2438 2441 2444 2447 2450 2453 2456 2458 2461 2463 2466 2468 2471 2474 2477 2480 2483 2486 2489 2491 2494 2497 2499 2502 2505 2508 2510 2513 2516 2519 2522 2525 2528 2531 2533 2536 2539 2542 2545 2547 2550 2553 2556 2558 2561 2564 2567 2570 2572 2575 2578 2581 2584 2587 2590 2593 2596 2599 2602 2605 2608 2611 2614 2617 2620 2623 2626 2629 2632 2635 2638 2641 2644 2647 2650 2653 2655 2658 2661 2664 2667 2669 2672 2675 2678 2681 2684 2687 2689 2692 2695 2698 2700 2703 2706 2708 2711 2714 2716 2719 2722 2725 2728 2730 2733 2736 2739 2742 2745 2748 2751 2754 2757 2760 2763 2766 2769 2771 2774 2777 2780 2783 2786 2789 2792 2795 2798 2801 2804 2807 2810 2813 2816 2819 2822 2825 2828 2830 2833 2836 2838 2841 2844 2847 2849 2852 2855 2857 2860 2862 2865 2868 2871 2874 2877 2880 2883 2885 2888 2891 2894 2897 2900 2903 2905 2908 2911 2914 2917 2920 2923 2926 2929 2932 2935 2938 2940 2942 2945 2948 2951 2953 2956 2959 2962 2965 2968 2971 2973 2976 2979 2982 2984 2987 2990 2993 2996 2999 3002 3005 3007 3010 3013 3016 3019 3022 3025 3028 3031 3034 3037 3040 3043 3046 3048 3051 3054 3057 3060 3063 3066 3069 3072 3075 3078 3081 3084 3087 3090 3093 3096 3099 3102 3105 3108 3111 3114 3117 3120 3123 3126 3129 3131 3134 3136 3139 3142 3145 3148 3151 3154 3156 3159 3162 3165 3168 3170 3172 3175 3177 3180 3182 3185 3188 3191 3194 3197 3200 3203 3206 3209 3212 3215 3218 3220 3223 3226 3229 3232 3234 3237 3240 3242 3245 3248 3251 3254 3257 3259 3261 3264 3267 3270 3272 3275 3278 3281 3283 3286 3289 3292 3295 3298 3301 3304 3307 3309 3312 3315 3318 3321 3324 3327 3330 3332 3335 3337 3340 3343 3345 3348 3351 3354 3357 3360 3363 3366 3369 3372 3375 3377 3380 3383 3385 3388 3391 3394 3397 3399 3402 3405 3408 3411 3414 3417 3420 3423 3426 3429 3432 3435 3438 3441 3443 3446 3449 3451 3454 3457 3460 3463 3466 3469 3472 3475 3478 3481 3484 3487 3490 3493 3495 3498 3501 3504 3507 3510 3512 3515 3518 3521 3524 3527 3530 3533 3536 3539 3542 3545 3547 3550 3553 3556 3559 3562 3565 3567 3570 3573 3576 3579 3582 3585 3588 3591 3594 3597 3600 3603 3606 3608 3611 3614 3617 3620 3623 3626 3629 3632 3634 3637 3640 3643 3646 3649 3652 3655 3658 3661 3663 3666 3669 3672 3675 3678 3681 3684 3687 3690 3693 3696 3699 3702 3705 3708 3711 3714 3717 3719 3722 3724 3727 3730 3733 3736 3739 3742 3745 3748 3751 3753 3756 3759 3762 3765 3768 3770 3773 3776 3779 3782 3785 3788 3791 3794 3797 3800 3802 3805 3808 3811 3814 3816 3819 3821 3824 3827 3830 3833 3836 3839 3842 3845 3848 3851 3854 3857 3860 3863 3866 3869 3872 3875 3878 3881 3884 3887 3890 3893 3896 3899 3902 3905 3908 3911 3914 3917 3920 3923 3926 3929 3932 3935 3938 3941 3944 3946 3949 3952 3954 3957 3960 3963 3966 3969 3972 3975 3978 3981 3984 3987 3990 3993 3996 3998 4001 4004 4006 4009 4012 4015 4018 4021 4023 4026 4029 4032 4034 4037 4040 4043 4046 4049 4052 4055 4058 4061 4064 4066 4069 4071 4074 4077 4080 4083 4086 4089 4092 4095 4098 4101 4104 4107 4110 4113 4115 4118 4121 4124 4127 4130 4133 4136 4139 4142 4145 4147 4150 4152 4155 4158 4161 4163 4166 4169 4172 4175 4177 4180 4183 4186 4189 4192 4195 4198 4200 4203 4206 4209 4212 4215 4218 4221 4224 4227 4230 4233 4236 4239 4242 4245 4248 4251 4254 4257 4260 4263 4266 4269 4272 4275 4278 4280 4283 4285 4288 4291 4294 4297 4299 4302 4305 4308 4311 4313 4316 4318 4321 4324 4327 4330 4332 4335 4338 4341 4343 4346 4349 4352 4354 4357 4360 4362 4365 4368 4370 4373 4375 4377 4380 4383 4386 4389 4392 4395 4398 4401 4403 4406 4408 4411 4414 4416 4419 4422 4425 4428 4431 4434 4437 4440 4442 4445 4447 4449 4452 4455 4457 4460 4463 4465 4468 4471 4474 4477 4480 4482 4485 4488 4490 4493 4496 4499 4502 4504 4507 4510 4513 4516 4519 4522 4525 4528 4531 4534 4537 4540 4543 4545 4547 4550 4553 4556 4559 4562 4565 4568 4571 4574 4577 4579 4582 4585 4587 4590 4593 4595 4598 4601 4604 4606 4609 4612 4615 4618 4621 4624 4627 4630 4633 4636 4639 4642 4645 4648 4651 4654 4657 4660 4662 4665 4668 4671 4674 4677 4680 4683 4686 4688 4691 4694 4696 4699 4702 4705 4708 4711 4713 4716 4719 4722 4725 4728 4730 4733 4736 4739 4741 4744 4747 4750 4753 4756 4758 4761 4764 4767 4769 4771 4774 4776 4779 4782 4785 4788 4790 4792 4795 4798 4801 4804 4807 4810 4813 4816 4819 4822 4825 4828 4831 4834 4837 4840 4843 4846 4849 4852 4854 4857 4860 4863 4866 4869 4872 4874 4877 4880 4883 4886 4889 4892 4895 4898 4901 4904 4906 4909 4912 4915 4918 4921 4924 4927 4930 4933 4936 4939 4942 4945 4948 4951 4954 4957 4960 4963 4966 4969 4972 4975 4978 4981 4984 4987 4990 4993 4996 4999 5002 5005 5008 5011 5014 5017 5020 5023 5026 5029 5032 5035 5038 5041 5044 5047 5050 5053 5056 5058 5061 5063 5066 5069 5072 5075 5078 5080 5083 5085 5088 5091 5094 5097 5100 5102 5104 5107 5110 5113 5115 5117 5120 5122 5124 5126 5129 5132 5135 5138 5141 5144 5147 5150 5153 5156 5159 5162 5165 5168 5171 5174 5177 5180 5183 5186 5189 5192 5195 5198 5200 5203 5205 5208 5211 5214 5217 5219 5222 5225 5228 5230 5233 5236 5239 5242 5245 5248 5251 5253 5256 5259 5262 5265 5268 5271 5274 5277 5279 5282 5285 5287 5290 5293 5296 5299 5302 5305 5308 5310 5313 5315 5318 5321 5324 5326 5329 5332 5335 5338 5341 5344 5347 5350 5353 5355 5358 5361 5364 5367 5369 5372 5375 5377 5380 5383 5385 5388 5391 5393 5396 5399 5402 5405 5407 5410 5413 5415 5417 5420 5423 5426 5429 5432 5434 5437 5440 5443 5446 5449 5452 5455 5458 5461 5464 5467 5470 5473 5476 5479 5482 5485 5487 5490 5493 5496 5499 5502 5505 5508 5510 5513 5516 5519 5521 5524 5526 5529 5532 5535 5537 5540 5542 5545 5548 5551 5553 5555 5558 5561 5564 5567 5570 5573 5576 5578 5581 5583 5586 5589 5592 5594 5597 5600 5603 5605 5608 5610 5613 5616 5619 5622 5625 5628 5631 5634 5637 5639 5642 5645 5648 5651 5654 5657 5660 5663 5666 5669 5672 5675 5678 5681 5684 5687 5690 5693 5696 5699 5701 5704 5707 5710 5713 5716 5719 5722 5725 5728 5731 5734 5737 5740 5743 5746 5749 5751 5754 5757 5760 5762 5764 5767 5770 5773 5775 5777 5780 5783 5786 5788 5791 5794 5797 5800 5802 5805 5807 5810 5813 5815 5818 5821 5823 5826 5829 5832 5835 5838 5841 5844 5847 5850 5853 5856 5859 5862 5865 5868 5871 5873 5876 5878 5881 5884 5887 5890 5893 5896 5899 5901 5903 5905 5908 5910 5913 5915 5918 5921 5924 5926 5929 5932 5935 5938 5940 5943 5946 5949 5951 5954 5957 5960 5963 5966 5969 5972 5974 5977 5980 5983 5986 5989 5992 5995 5998 6001 6004 6006 6009 6012 6015 6018 6021 6024 6027 6030 6033 6036 6039 6041 6044 6047 6050 6053 6056 6059 6062 6065 6068 6071 6074 6077 6079 6082 6085 6088 6091 6094 6097 6100 6103 6106 6109 6112 6115 6118 6121 6124 6126 6129 6132 6135 6138 6141 6143 6146 6149 6152 6155 6157 6160 6163 6165 6168 6170 6173 6176 6179 6182 6185 6188 6190 6192 6194 6197 6200 6203 6206 6209 6212 6215 6218 6221 6223 6226 6229 6232 6234 6237 6239 6241 6244 6247 6249 6252 6255 6258 6261 6264 6267 6270 6273 6276 6279 6282 6285 6288 6291 6294 6297 6300 6303 6306 6309 6312 6315 6317 6320 6323 6326 6329 6332 6335 6338 6341 6344 6347 6350 6353 6356 6359 6362 6365 6367 6369 6371 6374 6377 6380 6383 6386 6389 6391 6393 6396 6399 6402 6405 6408 6411 6414 6417 6420 6423 6426 6429 6432 6435 6438 6441 6444 6447 6450 6453 6456 6458 6461 6464 6467 6470 6473 6475 6478 6481 6484 6487 6489 6491 6494 6497 6500 6503 6506 6509 6512 6515 6517 6520 6523 6526 6529 6531 6534 6537 6540 6543 6546 6548 6550 6552 6555 6558 6561 6564 6567 6570 6573 6576 6579 6582 6584 6587 6590 6593 6596 6599 6602 6605 6607 6610 6613 6616 6619 6622 6625 6628 6631 6634 6636 6639 6642 6645 6648 6651 6654 6657 6660 6663 6666 6669 6672 6675 6678 6681 6684 6687 6690 6693 6696 6699 6702 6705 6708 6710 6712 6715 6718 6720 6723 6726 6729 6732 6734 6737 6739 6742 6745 6748 6751 6754 6756 6759 6762 6765 6768 6770 6773 6776 6779 6782 6785 6788 6791 6794 6797 6800 6803 6806 6809 6812 6815 6818 6821 6823 6826 6829 6832 6835 6838 6841 6844 6847 6849 6852 6855 6858 6861 6864 6867 6870 6873 6876 6879 6882 6885 6888 6891 6894 6897 6899 6902 6905 6908 6911 6914 6917 6919 6922 6925 6928 6931 6934 6937 6939 6942 6944 6947 6950 6953 6956 6959 6962 6965 6968 6971 6974 6977 6980 6983 6985 6988 6991 6994 6997 7000 7003 7006 7009 7012 7015 7018 7021 7024 7027 7030 7033 7036 7039 7042 7045 7048 7051 7054 7057 7060 7063 7066 7069 7072 7075 7078 7081 7083 7086 7089 7092 7095 7098 7101 7104 7107 7110 7113 7116 7119 7122 7125 7128 7131 7134 7137 7140 7143 7146 7149 7152 7155 7158 7161 7164 7167 7170 7173 7176 7179 7182 7185 7188 7191 7194 7197 7200 7202 7205 7208 7211 7213 7216 7219 7222 7225 7228 7231 7234 7237 7240 7243 7246 7249 7252 7255 7258 7261 7264 7267 7270 7273 7276 7279 7281 7284 7287 7290 7293 7296 7299 7302 7305 7307 7310 7313 7316 7318 7321 7324 7327 7330 7333 7336 7339 7342 7345 7348 7351 7354 7357 7360 7363 7366 7369 7372 7375 7378 7381 7384 7387 7390 7393 7396 7399 7402 7405 7407 7410 7413 7416 7419 7422 7425 7428 7431 7433 7436 7439 7442 7445 7448 7451 7454 7457 7460 7462 7465 7468 7471 7474 7476 7479 7482 7485 7488 7491 7494 7496 7499 7502 7505 7507 7510 7513 7516 7518 7521 7524 7527 7530 7533 7535 7538 7541 7544 7547 7550 7552 7555 7558 7561 7563 7566 7569 7571 7574 7577 7580 7583 7586 7589 7592 7595 7598 7600 7602 7604 7606 7608 7611 7614 7617 7620 7623 7626 7629 7632 7635 7638 7641 7644 7647 7650 7653 7656 7659 7662 7665 7668 7671 7674 7677 7679 7682 7684 7687 7690 7692 7694 7696 7699 7702 7705 7707 7710 7712 7715 7718 7721 7724 7726 7729 7732 7735 7737 7740 7743 7745 7748 7751 7754 7757 7760 7763 7766 7769 7771 7774 7777 7780 7783 7785 7787 7790 7793 7796 7799 7801 7804 7807 7810 7813 7816 7819 7821 7824 7827 7830 7832 7835 7838 7841 7844 7847 7850 7853 7855 7858 7861 7864 7867 7870 7873 7876 7879 7882 7885 7887 7890 7893 7896 7899 7902 7905 7908 7911 7914 7917 7920 7923 7926 7928 7931 7934 7937 7940 7943 7946 7949 7952 7955 7957 7960 7963 7966 7969 7972 7975 7978 7981 7983 7986 7989 7992 7995 7998 8000 8003 8006 8008 8011 8014 8016 8019 8022 8025 8028 8031 8034 8037 8040 8043 8046 8049 8052 8055 8058 8061 8063 8066 8069 8072 8075 8078 8081 8084 8086 8089 8092 8095 8098 8101 8104 8107 8110 8113 8116 8118 8120 8123 8126 8128 8131 8134 8136 8139 8142 8145 8148 8151 8153 8156 8158 8161 8164 8167 8170 8173 8176 8178 8180 8183 8185 8188 8191 8194 8197 8199 8202 8205 8208 8211 8214 8217 8220 8222 8225 8228 8231 8234 8237 8240 8242 8245 8248 8251 8254 8257 8260 8263 8266 8269 8272 8275 8278 8281 8284 8287 8290 8293 8296 8299 8302 8305 8308 8311 8313 8316 8319 8322 8324 8327 8329 8332 8335 8338 8341 8344 8347 8350 8353 8356 8359 8362 8365 8368 8371 8374 8377 8380 8383 8385 8388 8391 8393 8395 8398 8401 8404 8407 8410 8413 8416 8419 8422 8425 8428 8431 8434 8437 8440 8443 8445 8448 8451 8454 8457 8459 8462 8465 8468 8471 8474 8477 8480 8483 8486 8489 8492 8495 8498 8500 8503 8506 8509 8512 8515 8518 8521 8524 8527 8530 8533 8536 8539 8542 8545 8548 8551 8554 8557 8560 8562 8565 8568 8571 8574 8577 8579 8582 8585 8588 8590 8593 8596 8599 8602 8605 8608 8611 8614 8617 8620 8623 8626 8629 8632 8635 8638 8641 8643 8646 8649 8652 8655 8658 8661 8664 8667 8670 8673 8676 8679 8682 8685 8688 8691 8694 8697 8700 8703 8706 8709 8712 8715 8718 8721 8724 8727 8730 8733 8735 8738 8741 8744 8746 8749 8752 8755 8758 8761 8764 8767 8770 8773 8776 8779 8782 8785 8788 8791 8794 8797 8800 8803 8806 8809 8812 8815 8818 8821 8824 8827 8830 8833 8836 8839 8842 8845 8848 8851 8854 8857 8860 8863 8866 8869 8872 8875 8878 8881 8884 8887 8890 8893 8896 8899 8902 8905 8908 8911 8914 8917 8920 8923 8926 8929 8932 8935 8938 8941 8944 8947 8950 8953 8956 8959 8962 8965 8968 8971 8974 8977 8980 8983 8986 8988 8991 8994 8997 9000 9003 9006 9009 9012 9015 9018 9021 9024 9027 9030 9033 9035 9038 9041 9044 9047 9050 9053 9056 9058 9061 9064 9067 9070 9072 9075 9077 9079 9082 9085 9087 9090 9093 9096 9099 9102 9105 9108 9111 9114 9117 9120 9123 9126 9129 9132 9135 9138 9141 9144 9147 9150 9152 9155 9158 9161 9164 9167 9170 9173 9176 9178 9181 9184 9186 9189 9192 9195 9198 9201 9203 9206 9209 9212 9215 9217 9220 9223 9226 9229 9232 9234 9237 9239 9242 9245 9248 9251 9254 9257 9260 9263 9266 9269 9272 9275 9278 9281 9284 9287 9290 9293 9296 9299 9302 9304 9307 9309 9311 9314 9317 9320 9323 9325 9328 9330 9333 9336 9339 9342 9344 9347 9350 9352 9354 9357 9359 9361 9364 9367 9370 9373 9376 9379 9382 9384 9387 9390 9393 9396 9399 9401 9404 9407 9410 9412 9415 9418 9421 9424 9427 9430 9433 9436 9439 9442 9445 9448 9451 9454 9457 9460 9463 9466 9469 9472 9475 9478 9481 9484 9487 9490 9493 9495 9498 9501 9504 9506 9509 9512 9514 9517 9519 9522 9525 9528 9531 9534 9537 9540 9543 9546 9549 9551 9554 9557 9560 9563 9565 9568 9571 9574 9577 9579 9582 9585 9588 9591 9594 9596 9599 9601 9604 9607 9610 9613 9616 9619 9622 9625 9628 9631 9634 9637 9640 9643 9646 9649 9652 9654 9657 9660 9663 9666 9669 9672 9675 9678 9681 9684 9687 9690 9693 9696 9698 9701 9704 9707 9710 9713 9716 9718 9721 9724 9727 9730 9733 9736 9739 9742 9745 9748 9751 9754 9757 9760 9763 9766 9769 9772 9775 9778 9780 9783 9786 9789 9792 9795 9798 9801 9804 9807 9810 9813 9816 9819 9822 9825 9828 9831 9834 9836 9839 9842 9845 9848 9851 9853 9856 9859 9861 9864 9867 9870 9872 9875 9878 9881 9884 9887 9890 9893 9896 9899 9902 9905 9907 9910 9913 9916 9918 9921 9924 9926 9929 9932 9934 9937 9939 9941 9944 9947 9950 9952 9955 9958 9961 9964 9967 9970 9973 9976 9979 9982 9985 9987 9990 9993 9996 9999 10002 10005 10007 10010 10013 10016 10018 10021 10024 10027 10030 10033 10036 10039 10042 10045 10048 10051 10054 10057 10060 10063 10066 10069 10072 10075 10078 10081 10084 10087 10089 10092 10095 10098 10101 10104 10107 10110 10113 10116 10119 10122 10125 10128 10131 10134 10137 10140 10143 10146 10149 10152 10155 10158 10161 10164 10167 10170 10173 10176 10179 10182 10185 10188 10191 10194 10197 10200 10202 10205 10208 10211 10213 10216 10219 10222 10225 10228 10231 10234 10237 10240 10243 10246 10249 10252 10255 10258 10261 10264 10267 10270 10273 10276 10279 10282 10285 10288 10291 10294 10297 10300 10303 10306 10309 10312 10315 10317 10320 10323 10326 10329 10332 10335 10337 10340 10343 10346 10349 10351 10354 10356 10359 10362 10365 10368 10371 10373 10376 10379 10382 10384 10387 10390 10393 10396 10399 10402 10404 10406 10409 10412 10415 10418 10420 10423 10426 10429 10432 10434 10437 10440 10443 10445 10448 10451 10454 10457 10460 10462 10465 10467 10470 10473 10475 10478 10480 10483 10486 10489 10492 10494 10497 10500 10502 10505 10507 10510 10512 10515 10518 10520 10523 10525 10528 10531 10534 10537 10540 10543 10545 10548 10551 10554 10557 10560 10562 10565 10567 10570 10573 10576 10579 10582 10584 10587 10589 10592 10595 10598 10600 10603 10605 10608 10611 10614 10617 10620 10623 10626 10629 10632 10635 10638 10641 10644 10647 10650 10653 10655 10658 10660 10663 10666 10668 10671 10674 10677 10679 10681 10684 10687 10689 10691 10693 10696 10699 10702 10705 10707 10710 10713 10716 10719 10722 10725 10728 10731 10734 10737 10740 10743 10746 10749 10752 10755 10758 10761 10764 10767 10770 10773 10776 10778 10781 10784 10787 10789 10792 10794 10796 10799 10802 10804 10807 10809 10812 10815 10817 10820 10823 10826 10829 10832 10835 10838 10840 10843 10846 10848 10851 10854 10857 10860 10863 10866 10869 10872 10874 10877 10880 10883 10886 10889 10892 10895 10898 10901 10904 10907 10910 10913 10915 10918 10921 10924 10927 10930 10933 10936 10939 10942 10945 10948 10951 10954 10957 10960 10963 10966 10968 10971 10974 10977 10980 10982 10985 10988 10991 10993 10995 10998 11001 11004 11007 11010 11013 11016 11019 11022 11025 11028 11031 11033 11036 11039 11042 11045 11048 11051 11053 11056 11059 11062 11065 11068 11070 11073 11076 11079 11082 11085 11087 11090 11093 11095 11098 11101 11103 11106 11109 11112 11115 11117 11120 11123 11126 11129 11132 11135 11138 11141 11144 11147 11150 11153 11156 11159 11162 11165 11168 11170 11173 11176 11179 11182 11185 11187 11190 11193 11196 11199 11202 11205 11207 11210 11213 11216 11219 11222 11225 11227 11230 11232 11235 11238 11241 11243 11245 11248 11251 11254 11257 11260 11262 11265 11268 11271 11274 11277 11280 11283 11286 11289 11292 11295 11297 11299 11302 11305 11308 11311 11314 11316 11319 11321 11323 11326 11328 11331 11334 11337 11340 11343 11345 11347 11349 11352 11355 11358 11360 11362 11364 11367 11370 11372 11375 11377 11380 11382 11385 11388 11390 11393 11396 11399 11402 11404 11406 11408 11411 11413 11416 11419 11422 11425 11428 11431 11434 11437 11440 11443 11446 11449 11452 11455 11457 11460 11463 11466 11469 11472 11475 11478 11480 11483 11486 11488 11490 11493 11496 11499 11501 11503 11506 11508 11511 11514 11517 11520 11523 11526 11529 11531 11534 11537 11540 11542 11545 11547 11550 11552 11555 11557 11560 11563 11565 11568 11571 11574 11577 11580 11582 11585 11587 11590 11593 11596 11598 11600 11603 11606 11609 11612 11615 11618 11621 11624 11627 11630 11632 11635 11638 11641 11643 11646 11649 11651 11654 11657 11660 11663 11666 11669 11671 11674 11677 11680 11683 11685 11688 11691 11694 11697 11700 11703 11706 11709 11712 11715 11718 11721 11723 11726 11728 11731 11733 11736 11738 11740 11743 11746 11749 11752 11755 11758 11760 11762 11764 11767 11770 11772 11775 11777 11780 11783 11786 11788 11791 11793 11795 11797 11800 11802 11804 11806 11809 11812 11814 11816 11819 11822 11825 11828 11831 11833 11836 11839 11842 11845 11848 11851 11854 11857 11860 11863 11866 11869 11872 11875 11877 11880 11883 11885 11888 11890 11892 11895 11898 11900 11903 11906 11908 11911 11913 11916 11918 11920 11923 11926 11929 11931 11934 11937 11939 11941 11943 11946 11949 11951 11954 11957 11960 11963 11966 11969 11971 11974 11977 11980 11983 11986 11989 11992 11995 11998 12001 12004 12006 12009 12012 12015 12018 12020 12022 12025 12028 12030 12032 12035 12038 12040 12043 12045 12048 12051 12054 12057 12060 12063 12065 12068 12070 12073 12076 12079 12082 12085 12088 12091 12093 12096 12099 12102 12105 12108 12111 12114 12117 12120 12122 12125 12128 12131 12134 12137 12139 12142 12145 12148 12151 12154 12156 12159 12162 12164 12167 12170 12173 12176 12179 12182 12185 12188 12190 12193 12196 12199 12202 12205 12208 12210 12213 12216 12219 12222 12225 12227 12230 12232 12235 12238 12241 12243 12245 12247 12250 12253 12255 12258 12260 12263 12266 12269 12272 12274 12277 12280 12283 12286 12289 12292 12295 12298 12301 12304 12306 12309 12312 12315 12318 12320 12323 12326 12329 12332 12334 12337 12339 12342 12345 12348 12350 12353 12356 12359 12362 12365 12368 12371 12374 12377 12380 12383 12386 12389 12392 12395 12397 12400 12403 12406 12409 12412 12415 12418 12420 12423 12426 12429 12432 12435 12438 12441 12444 12447 12450 12453 12456 12459 12462 12465 12468 12470 12472 12475 12478 12481 12483 12486 12489 12492 12494 12496 12499 12502 12505 12508 12511 12514 12517 12520 12523 12526 12529 12532 12535 12538 12541 12544 12547 12550 12553 12556 12559 12562 12564 12567 12570 12573 12576 12579 12581 12584 12587 12590 12593 12596 12599 12602 12605 12607 12609 12612 12615 12617 12620 12623 12626 12629 12632 12635 12638 12641 12644 12647 12650 12653 12656 12659 12662 12665 12668 12671 12674 12677 12680 12683 12686 12689 12692 12695 12698 12701 12704 12707 12710 12713 12716 12719 12722 12724 12727 12730 12733 12736 12739 12742 12745 12748 12751 12754 12757 12760 12762 12765 12768 12771 12774 12777 12780 12783 12786 12789 12792 12794 12797 12800 12803 12806 12809 12812 12815 12818 12821 12824 12827 12830 12833 12836 12839 12842 12845 12848 12851 12854 12857 12860 12863 12866 12869 12872 12875 12878 12881 12884 12887 12890 12893 12896 12899 12902 12905 12908 12911 12914 12917 12920 12923 12926 12929 12932 12935 12938 12941 12944 12947 12950 12953 12956 12959 12962 12965 12968 12971 12974 12977 12980 12983 12986 12988 12991 12993 12996 12999 13002 13005 13007 13010 13013 13016 13019 13022 13024 13027 13030 13033 13036 13039 13042 13045 13047 13050 13053 13056 13059 13061 13064 13067 13069 13072 13074 13077 13080 13083 13086 13089 13092 13095 13098 13100 13103 13106 13109 13112 13115 13118 13121 13124 13127 13130 13133 13136 13138 13141 13143 13146 13149 13151 13153 13156 13159 13162 13164 13167 13170 13172 13174 13177 13180 13182 13185 13188 13191 13194 13197 13200 13203 13205 13208 13211 13214 13216 13219 13222 13225 13228 13231 13234 13237 13239 13242 13244 13247 13250 13253 13255 13258 13261 13264 13267 13269 13272 13275 13278 13281 13284 13287 13290 13293 13296 13299 13302 13305 13308 13311 13314 13317 13320 13323 13326 13329 13332 13335 13338 13341 13344 13346 13349 13352 13355 13358 13361 13364 13367 13370 13373 13376 13378 13381 13384 13387 13390 13393 13396 13399 13402 13405 13407 13410 13413 13416 13419 13422 13425 13428 13431 13434 13437 13440 13443 13446 13449 13452 13455 13458 13461 13464 13467 13470 13473 13476 13479 13482 13485 13488 13491 13494 13497 13500 13503 13506 13509 13512 13515 13518 13521 13524 13527 13530 13533 13535 13538 13541 13544 13547 13550 13553 13556 13559 13562 13565 13568 13571 13574 13577 13580 13583 13586 13589 13592 13594 13597 13600 13603 13606 13609 13611 13614 13617 13620 13623 13626 13629 13632 13635 13638 13641 13644 13647 13650 13652 13655 13658 13661 13664 13667 13670 13673 13676 13679 13682 13685 13688 13691 13694 13697 13700 13703 13706 13709 13712 13715 13718 13721 13724 13727 13730 13733 13735 13738 13741 13744 13747 13750 13753 13756 13759 13762 13765 13767 13770 13773 13776 13779 13782 13785 13788 13791 13793 13795 13798 13801 13804 13807 13809 13812 13815 13818 13820 13823 13826 13828 13831 13834 13837 13839 13842 13845 13848 13850 13853 13856 13858 13861 13863 13866 13869 13872 13875 13878 13881 13884 13887 13889 13892 13895 13898 13900 13902 13905 13908 13910 13913 13916 13918 13921 13924 13927 13930 13932 13935 13938 13941 13944 13947 13949 13952 13955 13958 13961 13964 13967 13970 13973 13976 13979 13982 13985 13988 13990 13993 13996 13999 14002 14005 14008 14011 14013 14016 14019 14021 14024 14027 14030 14033 14036 14039 14042 14045 14047 14050 14053 14055 14058 14061 14064 14067 14070 14073 14075 14078 14081 14084 14087 14090 14093 14096 14099 14101 14104 14107 14110 14112 14114 14117 14120 14123 14126 14129 14131 14134 14137 14140 14143 14146 14149 14152 14155 14158 14161 14164 14167 14169 14171 14174 14176 14179 14181 14184 14187 14190 14193 14195 14198 14201 14203 14206 14209 14211 14213 14215 14218 14221 14224 14227 14230 14233 14236 14239 14242 14244 14247 14249 14252 14255 14258 14261 14264 14267 14270 14273 14275 14278 14280 14283 14286 14289 14291 14294 14297 14300 14303 14306 14308 14310 14313 14316 14319 14321 14324 14326 14329 14331 14333 14336 14338 14340 14343 14346 14349 14352 14355 14357 14360 14363 14365 14368 14371 14373 14376 14379 14381 14384 14386 14389 14392 14395 14397 14400 14403 14406 14409 14412 14414 14417 14419 14422 14425 14428 14431 14434 14437 14440 14443 14446 14449 14451 14454 14457 14460 14463 14465 14467 14470 14472 14475 14478 14480 14483 14486 14489 14492 14495 14497 14500 14503 14505 14508 14511 14514 14516 14519 14522 14525 14528 14530 14533 14536 14538 14541 14544 14547 14549 14552 14555 14558 14561 14564 14567 14570 14573 14575 14578 14581 14584 14586 14588 14591 14594 14597 14600 14603 14606 14608 14611 14614 14617 14619 14622 14625 14628 14631 14634 14637 14640 14643 14645 14648 14651 14654 14657 14660 14663 14666 14669 14672 14675 14678 14681 14684 14687 14690 14693 14696 14699 14702 14705 14708 14711 14714 14717 14720 14723 14726 14729 14732 14735 14738 14741 14744 14747 14750 14753 14756 14759 14761 14763 14766 14769 14771 14774 14777 14779 14781 14784 14787 14789 14791 14794 14797 14800 14802 14805 14808 14811 14814 14817 14820 14822 14825 14828 14830 14833 14836 14839 14842 14845 14848 14851 14854 14857 14860 14863 14865 14868 14871 14874 14877 14880 14883 14886 14889 14892 14895 14898 14901 14904 14907 14910 14913 14916 14919 14922 14925 14928 14931 14934 14937 14940 14943 14946 14948 14951 14954 14957 14960 14963 14966 14969 14971 14974 14977 14980 14983 14986 14989 14992 14995 14997 15000 15003 15006 15008 15011 15014 15017 15020 15023 15026 15029 15032 15034 15037 15040 15043 15046 15049 15052 15055 15058 15061 15064 15067 15070 15073 15076 15078 15081 15083 15086 15089 15092 15095 15098 15100 15103 15106 15109 15112 15115 15117 15120 15123 15126 15129 15131 15134 15137 15140 15143 15146 15149 15152 15155 15158 15161 15164 15166 15169 15171 15174 15177 15180 15183 15186 15189 15191 15194 15197 15199 15202 15205 15208 15211 15214 15217 15220 15223 15226 15229 15232 15235 15238 15241 15244 15247 15250 15253 15255 15258 15260 15263 15266 15269 15272 15275 15278 15281 15284 15287 15290 15293 15296 15299 15302 15305 15308 15310 15313 15316 15318 15321 15324 15327 15330 15332 15335 15338 15341 15344 15347 15349 15352 15355 15358 15361 15364 15367 15369 15372 15375 15378 15381 15384 15387 15390 15393 15396 15398 15401 15404 15407 15410 15413 15416 15419 15422 15425 15428 15430 15433 15436 15438 15441 15444 15447 15450 15452 15455 15458 15460 15462 15465 15468 15470 15473 15476 15479 15482 15485 15488 15491 15494 15497 15500 15503 15505 15508 15511 15514 15517 15520 15523 15526 15529 15531 15534 15537 15540 15543 15546 15549 15552 15555 15558 15561 15564 15567 15570 15572 15575 15578 15581 15584 15587 15590 15593 15596 15599 15602 15605 15608 15611 15613 15616 15619 15622 15625 15628 15631 15634 15637 15640 15643 15646 15649 15652 15655 15658 15661 15664 15667 15670 15673 15676 15678 15680 15683 15686 15689 15692 15695 15698 15701 15704 15707 15710 15713 15715 15718 15720 15723 15726 15729 15732 15735 15738 15740 15743 15746 15749 15752 15755 15758 15760 15763 15766 15769 15772 15774 15777 15780 15783 15786 15789 15792 15794 15797 15800 15803 15806 15809 15812 15815 15817 15820 15823 15825 15828 15831 15834 15837 15840 15843 15846 15849 15852 15855 15858 15861 15864 15867 15870 15873 15876 15879 15882 15885 15888 15891 15894 15897 15900 15903 15906 15909 15912 15915 15918 15921 15924 15927 15930 15933 15936 15939 15942 15945 15948 15951 15954 15957 15960 15962 15965 15968 15971 15974 15977 15980 15983 15986 15989 15992 15995 15998 16000 16003 16006 16009 16012 16015 16018 16021 16024 16027 16030 16033 16035 16038 16040 16043 16046 16049 16052 16055 16058 16061 16064 16067 16070 16073 16076 16079 16082 16085 16088 16091 16094 16097 16100 16103 16106 16109 16112 16115 16118 16121 16124 16127 16130 16133 16136 16139 16142 16144 16147 16150 16153 16156 16159 16162 16165 16167 16170 16173 16176 16178 16180 16183 16186 16189 16192 16195 16198 16201 16204 16207 16210 16213 16216 16219 16222 16225 16228 16231 16234 16237 16240 16243 16246 16249 16252 16255 16258 16261 16263 16266 16269 16272 16275 16278 16281 16284 16287 16289 16292 16295 16298 16301 16304 16306 16309 16311 16313 16316 16318 16321 16324 16327 16329 16332 16335 16338 16341 16344 16347 16349 16352 16354 16357 16359 16362 16365 16368 16371 16373 16376 16378 16381 16384 16387 16389 16391 16394 16396 16399 16401 16404 16406 16409 16411 16413 16416 16419 16422 16425 16428 16430 16433 16436 16439 16442 16445 16448 16451 16454 16456 16459 16462 16464 16466 16469 16472 16474 16477 16480 16482 16484 16487 16489 16492 16495 16498 16500 16503 16506 16508 16511 16513 16516 16519 16522 16525 16528 16531 16534 16537 16540 16543 16546 16549 16552 16555 16558 16561 16564 16567 16570 16573 16576 16579 16582 16585 16588 16591 16593 16596 16599 16602 16605 16607 16610 16613 16616 16618 16621 16624 16627 16630 16633 16636 16639 16642 16645 16648 16651 16654 16657 16660 16663 16666 16669 16672 16675 16678 16681 16683 16686 16689 16692 16694 16697 16700 16703 16706 16708 16711 16714 16717 16720 16722 16725 16727 16730 16733 16735 16738 16741 16743 16745 16747 16750 16753 16755 16758 16761 16764 16767 16770 16773 16776 16779 16782 16785 16788 16791 16794 16797 16799 16802 16805 16808 16811 16814 16816 16819 16821 16824 16827 16830 16833 16836 16839 16842 16844 16847 16850 16853 16855 16857 16860 16863 16866 16869 16872 16874 16877 16880 16883 16886 16889 16892 16895 16898 16901 16904 16907 16910 16913 16916 16919 16922 16925 16928 16931 16934 16937 16940 16942 16945 16948 16951 16953 16956 16959 16962 16964 16967 16970 16973 16975 16978 16981 16983 16986 16989 16991 16994 16997 17000 17002 17005 17008 17011 17014 17017 17020 17023 17026 17028 17031 17033 17035 17038 17041 17043 17046 17049 17052 17055 17058 17061 17063 17066 17069 17072 17075 17078 17081 17084 17087 17090 17093 17096 17099 17102 17105 17108 17110 17113 17116 17119 17122 17125 17128 17131 17133 17136 17139 17141 17144 17147 17150 17153 17156 17159 17162 17165 17168 17171 17173 17176 17178 17181 17184 17187 17190 17192 17195 17198 17201 17204 17206 17209 17211 17214 17217 17220 17223 17226 17229 17231 17234 17237 17240 17243 17246 17248 17251 17253 17256 17259 17261 17263 17266 17269 17272 17274 17277 17279 17282 17285 17288 17291 17294 17296 17299 17302 17305 17307 17310 17312 17314 17317 17319 17322 17325 17328 17331 17334 17337 17340 17342 17345 17348 17351 17354 17356 17359 17362 17365 17368 17370 17373 17376 17379 17382 17384 17387 17390 17393 17395 17398 17400 17403 17405 17408 17411 17414 17416 17418 17421 17423 17426 17428 17431 17433 17436 17439 17441 17444 17447 17449 17452 17455 17457 17460 17463 17465 17467 17470 17472 17475 17477 17480 17482 17485 17488 17491 17494 17497 17500 17503 17505 17508 17511 17514 17516 17519 17522 17525 17527 17530 17533 17536 17539 17542 17545 17548 17551 17554 17557 17560 17563 17566 17568 17571 17574 17577 17580 17583 17585 17588 17591 17594 17597 17600 17603 17605 17608 17611 17614 17617 17620 17622 17625 17627 17630 17632 17635 17638 17641 17644 17647 17650 17653 17656 17659 17662 17664 17666 17669 17672 17675 17678 17681 17684 17687 17690 17693 17696 17699 17702 17705 17708 17711 17714 17717 17720 17723 17726 17729 17732 17735 17738 17740 17743 17746 17749 17752 17755 17758 17761 17764 17767 17770 17773 17775 17777 17780 17783 17786 17788 17791 17794 17797 17799 17802 17805 17807 17810 17813 17816 17819 17822 17825 17828 17831 17834 17837 17840 17843 17846 17848 17851 17854 17857 17860 17863 17866 17869 17871 17873 17876 17878 17880 17883 17886 17889 17891 17893 17895 17898 17901 17904 17906 17909 17911 17914 17917 17920 17923 17926 17929 17932 17935 17938 17941 17944 17947 17950 17953 17956 17959 17962 17965 17968 17971 17973 17976 17979 17982 17984 17987 17990 17993 17995 17998 18001 18004 18006 18009 18012 18015 18018 18021 18024 18027 18030 18032 18035 18038 18041 18044 18047 18049 18052 18055 18058 18061 18064 18066 18069 18071 18073 18075 18078 18080 18083 18086 18088 18091 18094 18097 18100 18102 18105 18108 18110 18113 18116 18118 18121 18124 18127 18129 18132 18134 18136 18139 18142 18144 18147 18149 18152 18154 18157 18159 18161 18164 18166 18169 18172 18175 18177 18179 18182 18185 18188 18191 18193 18196 18199 18202 18205 18208 18211 18213 18216 18219 18222 18225 18227 18230 18233 18235 18238 18241 18243 18246 18248 18250 18253 18255 18258 18261 18263 18265 18268 18271 18273 18276 18279 18282 18284 18286 18289 18291 18294 18297 18300 18302 18304 18307 18310 18313 18316 18319 18322 18325 18328 18331 18333 18336 18339 18342 18345 18348 18351 18354 18357 18360 18363 18366 18369 18372 18375 18378 18381 18384 18387 18390 18393 18396 18399 18402 18405 18407 18410 18413 18416 18418 18421 18424 18427 18430 18432 18435 18438 18441 18444 18446 18449 18452 18455 18458 18461 18464 18467 18470 18473 18476 18479 18482 18485 18488 18491 18494 18497 18500 18503 18506 18509 18512 18515 18518 18521 18524 18527 18530 18533 18536 18539 18542 18545 18548 18551 18554 18557 18560 18563 18566 18569 18572 18575 18578 18580 18583 18586 18589 18592 18594 18597 18600 18603 18606 18609 18611 18614 18616 18619 18621 18624 18627 18630 18633 18635 18638 18641 18644 18647 18650 18652 18655 18658 18661 18664 18667 18669 18672 18675 18677 18680 18683 18685 18688 18691 18694 18697 18699 18702 18705 18708 18711 18714 18717 18720 18723 18725 18727 18730 18733 18736 18738 18741 18744 18746 18749 18752 18755 18758 18761 18764 18767 18770 18773 18775 18778 18780 18783 18786 18788 18791 18794 18797 18799 18802 18805 18808 18811 18814 18817 18820 18823 18825 18827 18830 18832 18834 18837 18840 18842 18845 18848 18851 18853 18856 18859 18862 18864 18867 18870 18873 18876 18879 18882 18885 18888 18891 18894 18897 18900 18903 18906 18909 18912 18915 18918 18920 18923 18926 18929 18932 18935 18938 18941 18944 18947 18950 18953 18956 18959 18962 18964 18967 18970 18973 18975 18978 18981 18984 18987 18990 18993 18995 18998 19001 19004 19007 19010 19013 19016 19019 19022 19024 19027 19030 19033 19036 19039 19042 19044 19047 19050 19052 19055 19058 19060 19062 19065 19068 19071 19074 19076 19079 19082 19085 19088 19091 19094 19097 19100 19103 19106 19109 19112 19114 19117 19120 19123 19126 19129 19132 19135 19138 19141 19144 19147 19150 19152 19155 19158 19160 19163 19166 19169 19171 19173 19176 19178 19181 19183 19186 19189 19192 19195 19198 19201 19204 19206 19209 19212 19214 19217 19220 19223 19226 19229 19232 19235 19238 19241 19244 19247 19250 19253 19255 19258 19261 19264 19266 19269 19272 19275 19277 19280 19283 19286 19288 19291 19294 19297 19300 19302 19305 19308 19311 19314 19317 19320 19323 19325 19328 19331 19334 19336 19339 19342 19345 19348 19351 19353 19356 19359 19362 19365 19368 19371 19374 19377 19380 19383 19385 19388 19391 19393 19396 19399 19402 19404 19407 19410 19412 19415 19418 19421 19424 19426 19429 19432 19435 19438 19441 19444 19447 19449 19451 19454 19456 19459 19462 19464 19467 19469 19471 19473 19476 19479 19482 19485 19487 19489 19492 19495 19497 19500 19503 19506 19508 19511 19513 19516 19519 19522 19525 19528 19531 19534 19537 19540 19543 19545 19548 19551 19554 19556 19559 19562 19565 19568 19570 19573 19576 19578 19581 19584 19586 19589 19592 19595 19598 19600 19603 19605 19608 19611 19614 19617 19620 19623 19626 19629 19632 19635 19638 19641 19644 19647 19650 19653 19656 19659 19662 19665 19668 19671 19674 19677 19680 19683 19686 19689 19692 19695 19697 19700 19703 19705 19708 19711 19714 19717 19720 19723 19726 19729 19732 19735 19738 19741 19743 19746 19749 19752 19755 19758 19761 19763 19766 19769 19772 19774 19776 19779 19782 19785 19788 19791 19793 19796 19799 19802 19805 19807 19810 19813 19815 19818 19821 19824 19827 19830 19833 19835 19837 19839 19841 19844 19846 19849 19852 19854 19857 19859 19862 19865 19868 19871 19874 19876 19879 19882 19885 19888 19891 19894 19897 19899 19902 19904 19906 19909 19912 19915 19918 19921 19924 19926 19929 19932 19935 19938 19941 19944 19947 19950 19953 19956 19959 19962 19965 19968 19971 19974 19977 19980 19982 19985 19988 19991 19994 19997 20000 20003 20006 20009 20012 20015 20018 20021 20024 20027 20029 20032 20035 20038 20041 20044 20047 20050 20053 20056 20059 20062 20065 20068 20071 20074 20077 20080 20082 20085 20088 20091 20094 20097 20100 20102 20104 20107 20110 20113 20116 20118 20121 20124 20127 20130 20133 20136 20139 20142 20145 20148 20151 20154 20157 20160 20163 20166 20169 20171 20174 20176 20179 20182 20185 20188 20191 20194 20197 20200 20203 20205 20208 20211 20214 20217 20220 20223 20225 20228 20231 20234 20237 20240 20243 20246 20248 20251 20254 20257 20260 20263 20266 20269 20272 20275 20278 20281 20284 20287 20290 20292 20295 20298 20301 20304 20307 20310 20313 20316 20319 20322 20325 20328 20331 20334 20337 20340 20342 20344 20347 20349 20352 20355 20357 20360 20363 20366 20368 20371 20374 20377 20380 20383 20385 20388 20391 20394 20397 20400 20403 20406 20409 20412 20415 20418 20421 20424 20427 20429 20432 20435 20438 20441 20444 20447 20450 20453 20456 20459 20462 20465 20468 20471 20474 20477 20480 20483 20486 20489 20492 20495 20498 20501 20503 20506 20508 20511 20514 20517 20519 20522 20525 20528 20531 20534 20537 20540 20543 20545 20548 20551 20554 20557 20560 20563 20566 20568 20571 20574 20576 20579 20582 20584 20587 20590 20593 20596 20599 20602 20605 20608 20611 20613 20616 20618 20621 20624 20627 20630 20632 20634 20637 20640 20643 20646 20649 20652 20655 20658 20661 20664 20667 20670 20673 20676 20679 20682 20685 20688 20690 20693 20696 20699 20702 20705 20708 20711 20713 20716 20719 20722 20725 20727 20730 20733 20736 20739 20742 20744 20747 20750 20752 20755 20757 20760 20763 20766 20769 20772 20774 20777 20779 20782 20785 20787 20790 20793 20796 20798 20801 20804 20807 20809 20812 20815 20818 20821 20824 20827 20830 20833 20835 20838 20841 20844 20847 20850 20853 20856 20858 20861 20864 20867 20869 20871 20874 20877 20880 20883 20885 20888 20891 20894 20897 20900 20903 20905 20908 20911 20914 20917 20920 20923 20925 20928 20931 20934 20937 20940 20943 20946 20948 20951 20954 20957 20960 20963 20966 20969 20972 20974 20977 20980 20982 20985 20988 20991 20994 20997 21000 21003 21006 21009 21012 21015 21018 21021 21024 21027 21029 21032 21035 21038 21041 21043 21046 21049 21052 21055 21058 21061 21064 21067 21070 21073 21075 21078 21081 21084 21087 21089 21092 21095 21098 21101 21104 21107 21110 21113 21116 21119 21122 21125 21128 21131 21134 21137 21140 21143 21146 21149 21152 21155 21158 21161 21164 21167 21170 21173 21176 21179 21182 21185 21188 21191 21194 21197 21200 21203 21206 21209 21212 21215 21217 21219 21222 21225 21228 21231 21233 21236 21239 21242 21244 21247 21250 21253 21256 21259 21262 21265 21268 21271 21274 21277 21280 21283 21286 21289 21292 21295 21298 21301 21303 21306 21309 21312 21315 21318 21321 21324 21327 21330 21333 21336 21339 21341 21344 21347 21350 21353 21356 21359 21362 21365 21368 21371 21374 21376 21379 21381 21384 21386 21389 21392 21395 21398 21401 21404 21406 21409 21412 21415 21417 21420 21423 21426 21429 21432 21435 21438 21441 21444 21446 21449 21452 21455 21458 21461 21464 21466 21469 21472 21475 21478 21481 21484 21487 21490 21493 21496 21499 21502 21505 21508 21511 21514 21517 21519 21521 21524 21527 21530 21533 21536 21539 21542 21544 21547 21550 21553 21556 21559 21562 21565 21567 21570 21573 21575 21578 21581 21584 21587 21589 21592 21595 21598 21601 21603 21606 21609 21612 21615 21618 21621 21624 21627 21630 21633 21636 21639 21641 21644 21647 21650 21653 21656 21659 21662 21664 21667 21670 21673 21676 21679 21682 21685 21688 21691 21694 21697 21700 21703 21705 21708 21711 21714 21717 21720 21723 21725 21728 21731 21734 21737 21740 21743 21746 21748 21751 21754 21757 21760 21763 21766 21769 21772 21774 21776 21779 21782 21784 21787 21790 21793 21796 21799 21802 21805 21808 21811 21814 21817 21820 21823 21826 21829 21832 21835 21837 21840 21843 21845 21848 21851 21854 21857 21860 21863 21866 21869 21872 21875 21878 21881 21884 21887 21890 21893 21896 21899 21902 21905 21908 21911 21914 21917 21920 21923 21925 21928 21931 21934 21936 21939 21942 21945 21948 21951 21953 21956 21959 21962 21965 21968 21971 21974 21976 21979 21982 21985 21988 21991 21993 21995 21998 22001 22003 22006 22009 22012 22015 22018 22021 22024 22027 22030 22033 22035 22038 22041 22044 22047 22050 22053 22056 22059 22061 22064 22067 22070 22073 22076 22079 22082 22085 22087 22090 22092 22095 22098 22101 22104 22106 22109 22112 22115 22118 22121 22124 22127 22130 22133 22136 22139 22142 22144 22147 22150 22153 22156 22158 22161 22164 22167 22169 22172 22175 22178 22181 22184 22187 22190 22193 22196 22198 22201 22204 22207 22210 22213 22215 22218 22221 22224 22226 22229 22231 22234 22237 22240 22242 22245 22248 22250 22253 22256 22259 22262 22265 22268 22270 22272 22275 22278 22281 22284 22287 22290 22292 22295 22297 22300 22302 22305 22308 22311 22314 22317 22320 22323 22326 22328 22331 22334 22337 22340 22343 22346 22349 22352 22355 22358 22361 22364 22367 22370 22373 22376 22379 22381 22383 22386 22389 22391 22393 22396 22399 22402 22405 22408 22410 22413 22416 22418 22421 22424 22427 22429 22431 22434 22437 22440 22442 22445 22448 22451 22454 22457 22460 22463 22466 22468 22471 22474 22476 22478 22481 22483 22486 22489 22492 22494 22497 22499 22502 22505 22508 22511 22514 22517 22520 22523 22526 22529 22532 22535 22538 22541 22544 22546 22549 22552 22555 22558 22561 22564 22567 22570 22572 22575 22577 22580 22583 22586 22589 22591 22594 22597 22600 22603 22606 22609 22611 22614 22617 22620 22623 22625 22627 22630 22633 22635 22638 22640 22643 22646 22649 22652 22655 22657 22660 22663 22666 22669 22672 22675 22678 22681 22684 22686 22689 22692 22695 22698 22700 22703 22706 22709 22712 22714 22717 22720 22723 22726 22729 22732 22735 22738 22741 22743 22746 22748 22751 22753 22756 22758 22761 22764 22767 22770 22773 22776 22779 22782 22785 22788 22791 22793 22796 22799 22802 22805 22808 22811 22814 22816 22818 22821 22824 22827 22830 22832 22835 22838 22840 22843 22846 22849 22852 22855 22858 22861 22864 22866 22869 22872 22875 22878 22880 22883 22886 22889 22892 22895 22898 22900 22903 22906 22909 22912 22915 22918 22921 22924 22927 22930 22933 22936 22939 22942 22945 22948 22951 22954 22957 22959 22962 22965 22968 22971 22974 22977 22980 22983 22986 22989 22992 22995 22998 23001 23004 23007 23010 23013 23016 23019 23022 23025 23028 23031 23034 23036 23039 23042 23045 23047 23050 23053 23056 23059 23062 23065 23068 23071 23073 23076 23079 23082 23084 23087 23090 23093 23095 23098 23101 23104 23106 23109 23112 23115 23118 23121 23123 23126 23129 23132 23135 23138 23141 23144 23147 23150 23153 23155 23158 23161 23164 23166 23169 23172 23175 23177 23180 23183 23186 23188 23190 23193 23196 23199 23201 23203 23206 23208 23211 23214 23217 23220 23223 23226 23229 23232 23235 23237 23240 23243 23246 23249 23251 23254 23257 23259 23262 23264 23267 23270 23272 23275 23278 23280 23283 23286 23288 23291 23294 23297 23299 23302 23305 23308 23311 23314 23317 23320 23323 23326 23329 23332 23335 23338 23341 23344 23347 23350 23353 23356 23359 23362 23364 23367 23370 23373 23376 23379 23382 23385 23388 23391 23394 23396 23399 23402 23405 23408 23411 23414 23417 23420 23422 23425 23428 23431 23434 23436 23439 23442 23445 23447 23450 23452 23455 23458 23461 23464 23467 23470 23473 23476 23479 23482 23485 23488 23491 23494 23497 23500 23503 23505 23508 23511 23514 23517 23520 23523 23526 23529 23532 23535 23538 23541 23544 23547 23550 23553 23556 23559 23562 23565 23568 23571 23574 23577 23580 23583 23586 23589 23592 23595 23598 23600 23602 23605 23608 23611 23614 23617 23620 23623 23626 23629 23632 23635 23638 23641 23643 23646 23649 23652 23655 23658 23660 23663 23665 23668 23671 23674 23677 23679 23682 23685 23688 23691 23694 23697 23700 23703 23706 23709 23712 23715 23718 23721 23724 23726 23729 23732 23735 23738 23741 23744 23746 23749 23752 23755 23758 23760 23763 23766 23769 23772 23775 23778 23781 23783 23786 23789 23792 23795 23798 23801 23804 23807 23810 23813 23816 23819 23822 23825 23828 23831 23834 23837 23840 23843 23845 23848 23851 23854 23857 23860 23863 23865 23868 23871 23874 23877 23880 23882 23885 23888 23891 23894 23897 23900 23903 23906 23909 23912 23915 23918 23921 23924 23927 23930 23932 23935 23938 23941 23944 23947 23950 23953 23956 23959 23962 23964 23967 23970 23972 23975 23978 23981 23984 23987 23990 23993 23995 23997 24000 24003 24006 24009 24012 24015 24018 24021 24024 24027 24030 24033 24036 24039 24042 24045 24048 24051 24054 24057 24060 24063 24066 24069 24072 24075 24078 24081 24083 24085 24088 24091 24094 24096 24099 24102 24105 24108 24111 24114 24117 24120 24123 24126 24128 24131 24134 24137 24140 24142 24145 24148 24151 24154 24157 24160 24163 24166 24169 24172 24175 24178 24181 24184 24187 24190 24193 24196 24198 24201 24204 24207 24210 24212 24215 24217 24220 24223 24226 24229 24232 24234 24237 24239 24242 24245 24248 24251 24254 24257 24260 24262 24265 24268 24271 24274 24276 24279 24281 24284 24287 24290 24293 24296 24299 24302 24304 24307 24309 24312 24315 24318 24320 24323 24326 24329 24332 24335 24338 24341 24344 24347 24350 24353 24356 24359 24362 24365 24368 24371 24374 24376 24379 24382 24385 24388 24391 24394 24397 24400 24403 24406 24409 24412 24415 24418 24421 24423 24426 24429 24432 24434 24437 24440 24443 24446 24449 24452 24455 24458 24461 24464 24467 24470 24472 24475 24478 24481 24484 24487 24490 24492 24495 24498 24500 24502 24505 24508 24511 24514 24517 24520 24523 24526 24529 24532 24534 24537 24540 24543 24546 24549 24552 24555 24558 24561 24564 24567 24570 24573 24576 24579 24582 24585 24588 24591 24594 24597 24600 24602 24605 24608 24611 24614 24617 24620 24623 24626 24629 24632 24635 24638 24641 24644 24647 24650 24652 24655 24658 24661 24664 24667 24670 24673 24676 24679 24682 24684 24687 24690 24693 24696 24699 24702 24704 24707 24710 24713 24716 24719 24722 24725 24728 24731 24734 24737 24740 24743 24746 24749 24752 24755 24758 24761 24764 24767 24770 24772 24775 24778 24781 24784 24787 24790 24793 24796 24799 24802 24805 24808 24811 24814 24817 24820 24823 24826 24829 24832 24835 24837 24840 24843 24846 24849 24852 24855 24857 24860 24863 24866 24869 24872 24875 24878 24881 24884 24887 24890 24893 24895 24898 24900 24903 24906 24908 24911 24914 24917 24920 24923 24926 24929 24932 24935 24938 24941 24944 24947 24950 24953 24956 24959 24962 24965 24967 24970 24973 24976 24979 24982 24985 24988 24991 24994 24997 25000 25003 25006 25009 25012 25015 25018 25021 25024 25027 25030 25033 25036 25039 25042 25045 25048 25051 25054 25057 25060 25063 25066 25069 25072 25075 25078 25081 25084 25087 25090 25093 25096 25099 25102 25105 25108 25111 25114 25117 25120 25123 25126 25129 25132 25135 25138 25141 25144 25147 25150 25153 25156 25159 25162 25165 25168 25171 25174 25177 25180 25183 25186 25189 25192 25195 25198 25201 25204 25207 25210 25213 25216 25219 25222 25225 25228 25231 25234 25237 25240 25243 25246 25249 25252 25255 25258 25261 25264 25267 25270 25273 25276 25279 25282 25285 25288 25291 25294 25297 25300 25303 25306 25309 25312 25315 25318 25321 25324 25327 25330 25333 25336 25339 25342 25345 25348 25351 25354 25357 25360 25363 25366 25368 25371 25373 25376 25379 25382 25385 25388 25391 25393 25396 25399 25402 25404 25407 25409 25412 25415 25417 25420 25423 25426 25429 25432 25435 25438 25441 25444 25447 25450 25453 25456 25459 25461 25464 25467 25470 25472 25475 25478 25481 25484 25487 25489 25492 25495 25497 25500 25503 25506 25509 25512 25514 25517 25520 25523 25526 25529 25532 25535 25538 25541 25544 25547 25550 25553 25556 25558 25561 25563 25566 25568 25571 25574 25577 25580 25583 25586 25589 25592 25595 25598 25601 25604 25607 25610 25613 25615 25618 25620 25623 25626 25629 25631 25634 25637 25640 25642 25645 25648 25650 25653 25656 25659 25661 25664 25667 25669 25672 25674 25677 25680 25683 25686 25688 25691 25694 25697 25699 25702 25705 25708 25711 25714 25716 25718 25721 25724 25726 25729 25732 25734 25737 25739 25742 25745 25748 25751 25754 25757 25759 25762 25765 25768 25771 25774 25777 25779 25781 25784 25787 25789 25792 25795 25797 25800 25803 25806 25809 25812 25815 25818 25821 25823 25826 25829 25832 25834 25837 25840 25843 25845 25848 25851 25854 25857 25860 25863 25866 25869 25872 25875 25878 25881 25884 25887 25890 25893 25896 25898 25901 25904 25907 25910 25913 25916 25919 25921 25924 25927 25930 25933 25936 25939 25941 25944 25947 25950 25953 25956 25959 25962 25965 25968 25971 25974 25977 25980 25983 25986 25989 25992 25994 25996 25999 26002 26005 26008 26011 26014 26017 26020 26022 26024 26027 26030 26033 26035 26038 26041 26043 26046 26049 26051 26054 26056 26059 26062 26065 26067 26070 26073 26076 26078 26080 26083 26086 26089 26092 26095 26098 26101 26104 26107 26110 26112 26114 26117 26120 26123 26126 26129 26132 26135 26138 26141 26144 26147 26150 26152 26155 26158 26161 26164 26167 26170 26173 26176 26178 26181 26184 26187 26190 26192 26195 26197 26200 26203 26205 26208 26210 26213 26216 26218 26221 26224 26226 26229 26232 26235 26238 26241 26244 26247 26250 26253 26256 26259 26262 26265 26268 26271 26274 26277 26280 26283 26286 26289 26292 26295 26298 26301 26304 26307 26310 26313 26316 26318 26321 26324 26327 26330 26333 26336 26339 26342 26345 26348 26350 26353 26356 26359 26361 26364 26367 26370 26373 26375 26378 26381 26384 26387 26390 26392 26395 26398 26401 26404 26406 26409 26412 26414 26417 26420 26423 26425 26428 26431 26434 26437 26440 26443 26445 26448 26451 26454 26456 26459 26462 26465 26467 26470 26473 26476 26479 26482 26484 26486 26489 26492 26495 26498 26501 26503 26506 26509 26512 26514 26516 26518 26520 26523 26526 26529 26532 26535 26538 26540 26543 26546 26549 26552 26555 26558 26561 26564 26567 26570 26572 26575 26578 26581 26584 26587 26590 26593 26596 26599 26602 26605 26607 26610 26613 26616 26619 26622 26625 26628 26631 26634 26637 26640 26643 26645 26648 26650 26653 26656 26659 26662 26665 26667 26670 26673 26676 26679 26682 26685 26688 26690 26693 26696 26699 26702 26704 26706 26709 26712 26714 26716 26719 26721 26724 26726 26729 26732 26735 26738 26741 26743 26746 26749 26752 26755 26758 26760 26763 26765 26768 26771 26773 26776 26779 26782 26784 26787 26790 26793 26796 26799 26802 26805 26807 26809 26811 26814 26817 26819 26822 26825 26828 26831 26834 26837 26840 26843 26846 26849 26852 26855 26858 26860 26863 26866 26869 26871 26873 26876 26878 26881 26884 26887 26889 26892 26895 26898 26901 26904 26907 26910 26913 26916 26919 26922 26925 26928 26931 26934 26937 26940 26943 26946 26948 26951 26954 26957 26960 26962 26965 26968 26970 26972 26975 26978 26981 26984 26987 26990 26993 26996 26999 27002 27005 27008 27011 27014 27017 27020 27023 27026 27029 27031 27034 27037 27040 27043 27046 27049 27052 27055 27058 27061 27064 27067 27070 27073 27076 27079 27082 27085 27088 27091 27094 27097 27100 27103 27106 27109 27112 27115 27118 27121 27124 27127 27130 27133 27136 27139 27142 27145 27148 27151 27154 27157 27160 27163 27166 27169 27172 27175 27178 27181 27184 27187 27190 27193 27196 27199 27202 27205 27208 27211 27214 27217 27220 27223 27226 27229 27232 27235 27238 27241 27244 27247 27250 27252 27255 27258 27261 27264 27267 27270 27273 27276 27279 27282 27284 27287 27290 27293 27296 27299 27301 27304 27307 27310 27313 27316 27319 27322 27325 27327 27330 27332 27335 27337 27340 27343 27345 27348 27351 27354 27357 27360 27363 27366 27368 27371 27374 27377 27380 27382 27385 27388 27391 27394 27396 27399 27402 27404 27407 27410 27413 27416 27419 27422 27425 27428 27431 27434 27437 27440 27443 27446 27449 27452 27455 27458 27461 27464 27467 27470 27473 27476 27479 27482 27485 27488 27491 27494 27497 27500 27502 27505 27507 27510 27513 27516 27518 27521 27524 27527 27530 27532 27535 27538 27541 27544 27547 27549 27551 27554 27557 27560 27563 27566 27569 27572 27575 27578 27580 27583 27585 27588 27591 27594 27597 27600 27602 27605 27608 27611 27614 27617 27620 27623 27626 27629 27632 27635 27638 27641 27643 27646 27649 27652 27655 27657 27660 27663 27666 27669 27672 27674 27677 27680 27683 27686 27689 27692 27694 27697 27700 27703 27706 27709 27712 27715 27718 27721 27724 27727 27730 27733 27736 27739 27741 27744 27747 27750 27753 27756 27759 27762 27765 27768 27770 27773 27776 27779 27782 27785 27788 27790 27792 27795 27798 27801 27804 27807 27809 27812 27815 27818 27821 27824 27827 27830 27833 27836 27838 27841 27843 27845 27848 27851 27854 27857 27860 27862 27865 27868 27871 27874 27877 27880 27883 27886 27888 27891 27894 27897 27900 27903 27905 27908 27911 27914 27917 27920 27923 27926 27929 27932 27935 27938 27940 27943 27946 27949 27952 27955 27957 27960 27963 27966 27969 27972 27975 27978 27981 27984 27987 27990 27993 27996 27999 28002 28005 28007 28010 28013 28015 28018 28021 28024 28027 28030 28033 28035 28037 28039 28042 28045 28048 28051 28054 28057 28060 28063 28066 28069 28072 28075 28078 28081 28084 28087 28090 28092 28095 28098 28101 28104 28107 28110 28113 28116 28119 28122 28125 28128 28131 28134 28137 28140 28143 28146 28149 28152 28155 28158 28161 28164 28167 28170 28172 28175 28177 28180 28183 28186 28189 28192 28195 28198 28201 28204 28207 28210 28213 28216 28219 28222 28225 28228 28231 28234 28237 28240 28243 28245 28248 28250 28253 28256 28259 28262 28264 28267 28270 28273 28276 28279 28282 28285 28288 28291 28294 28297 28300 28303 28305 28308 28311 28313 28316 28319 28322 28325 28328 28331 28334 28336 28339 28342 28345 28347 28349 28352 28355 28357 28360 28363 28366 28369 28371 28373 28376 28379 28382 28385 28388 28391 28394 28397 28400 28403 28406 28409 28412 28415 28418 28421 28424 28427 28430 28433 28436 28439 28442 28445 28448 28451 28454 28456 28458 28461 28464 28467 28470 28473 28476 28479 28482 28485 28488 28491 28494 28496 28499 28502 28505 28508 28511 28513 28516 28519 28522 28525 28528 28531 28534 28537 28540 28542 28545 28548 28551 28553 28556 28559 28562 28565 28567 28570 28573 28575 28578 28580 28583 28586 28589 28591 28593 28596 28599 28602 28605 28608 28610 28612 28615 28618 28620 28622 28625 28628 28631 28633 28635 28637 28639 28642 28644 28647 28649 28652 28654 28656 28659 28662 28665 28668 28670 28673 28676 28679 28682 28685 28688 28691 28694 28697 28700 28703 28706 28709 28712 28715 28718 28721 28724 28727 28730 28732 28735 28738 28741 28743 28746 28749 28752 28755 28758 28760 28763 28766 28768 28771 28773 28776 28779 28782 28785 28788 28791 28794 28797 28800 28803 28805 28807 28810 28813 28816 28819 28822 28825 28828 28831 28834 28837 28840 28843 28846 28849 28852 28855 28858 28860 28863 28866 28868 28871 28874 28877 28880 28883 28886 28889 28892 28895 28898 28900 28903 28906 28909 28912 28914 28917 28920 28923 28926 28929 28932 28934 28937 28940 28943 28946 28949 28952 28955 28958 28961 28964 28967 28970 28973 28976 28979 28982 28985 28988 28991 28994 28997 29000 29003 29006 29009 29012 29015 29018 29021 29024 29027 29030 29033 29035 29038 29041 29044 29047 29050 29052 29055 29058 29061 29064 29067 29070 29073 29076 29079 29082 29085 29088 29091 29094 29097 29100 29103 29106 29108 29111 29113 29116 29119 29122 29125 29128 29131 29134 29136 29139 29142 29145 29148 29151 29154 29157 29160 29162 29164 29167 29169 29172 29175 29178 29181 29183 29185 29188 29191 29194 29197 29200 29203 29206 29209 29212 29215 29218 29221 29224 29227 29230 29233 29236 29238 29241 29244 29247 29250 29253 29255 29258 29261 29264 29267 29270 29273 29276 29279 29282 29284 29287 29289 29292 29295 29298 29301 29304 29307 29310 29313 29316 29319 29322 29325 29328 29331 29334 29337 29340 29343 29346 29349 29352 29355 29358 29361 29364 29367 29370 29373 29376 29379 29382 29384 29387 29390 29393 29396 29399 29402 29405 29408 29411 29414 29417 29420 29423 29426 29429 29432 29435 29438 29441 29444 29447 29450 29452 29455 29458 29461 29463 29466 29469 29472 29474 29476 29479 29482 29485 29488 29490 29493 29496 29499 29502 29505 29508 29510 29513 29516 29519 29521 29523 29526 29529 29532 29535 29538 29541 29544 29547 29550 29553 29556 29559 29562 29565 29568 29571 29574 29577 29579 29582 29585 29588 29590 29593 29596 29599 29602 29605 29608 29611 29614 29617 29620 29623 29626 29629 29632 29635 29638 29641 29644 29647 29650 29653 29656 29659 29662 29665 29668 29671 29674 29677 29679 29681 29684 29687 29690 29693 29696 29699 29702 29705 29708 29710 29712 29715 29717 29719 29722 29725 29728 29731 29734 29737 29740 29743 29746 29749 29752 29755 29757 29760 29763 29766 29769 29772 29775 29777 29780 29783 29786 29789 29792 29795 29798 29801 29804 29807 29810 29813 29816 29819 29822 29825 29828 29830 29833 29836 29839 29842 29845 29847 29850 29853 29856 29858 29861 29864 29867 29870 29873 29876 29878 29881 29883 29886 29889 29892 29894 29896 29899 29901 29904 29907 29909 29911 29914 29917 29920 29923 29926 29929 29932 29935 29937 29939 29942 29945 29948 29951 29954 29957 29960 29963 29965 29968 29971 29974 29977 29980 29983 29986 29989 29992 29995 29998 30001 30004 30006 30009 30011 30014 30016 30019 30022 30025 30028 30030 30033 30036 30039 30042 30044 30046 30049 30052 30055 30058 30061 30064 30067 30069 30072 30075 30078 30081 30084 30087 30090 30093 30096 30099 30102 30105 30108 30111 30114 30117 30120 30123 30126 30128 30130 30133 30136 30139 30141 30144 30146 30149 30152 30154 30157 30160 30163 30165 30168 30170 30173 30175 30178 30181 30184 30187 30190 30192 30194 30197 30200 30203 30205 30207 30210 30213 30216 30219 30222 30225 30228 30231 30234 30237 30239 30242 30245 30247 30250 30253 30255 30258 30261 30264 30267 30269 30271 30274 30277 30280 30283 30286 30289 30292 30295 30298 30300 30303 30306 30309 30312 30315 30317 30320 30323 30326 30329 30332 30334 30336 30339 30342 30344 30346 30349 30351 30354 30356 30359 30362 30365 30367 30370 30373 30375 30377 30380 30382 30384 30386 30389 30392 30395 30398 30401 30403 30406 30409 30412 30415 30418 30421 30424 30427 30430 30432 30435 30438 30441 30444 30447 30450 30452 30455 30457 30460 30463 30465 30468 30471 30474 30477 30479 30482 30485 30488 30491 30493 30496 30499 30502 30505 30508 30510 30512 30515 30518 30521 30524 30527 30529 30531 30534 30537 30540 30543 30546 30548 30551 30554 30556 30558 30561 30564 30567 30570 30573 30576 30579 30582 30584 30587 30590 30593 30595 30597 30600 30603 30606 30609 30611 30614 30617 30620 30623 30626 30629 30632 30635 30638 30641 30643 30645 30648 30651 30654 30657 30660 30663 30665 30668 30671 30674 30677 30680 30683 30686 30689 30692 30695 30698 30701 30704 30707 30710 30713 30716 30719 30722 30724 30726 30729 30732 30735 30737 30740 30743 30746 30749 30752 30755 30758 30760 30762 30765 30768 30770 30772 30775 30778 30781 30784 30787 30789 30792 30794 30797 30800 30802 30805 30808 30811 30814 30816 30819 30822 30825 30828 30831 30833 30836 30838 30841 30844 30847 30850 30853 30856 30859 30861 30863 30866 30869 30872 30874 30876 30878 30880 30883 30886 30889 30892 30895 30898 30901 30904 30907 30910 30913 30916 30919 30922 30925 30928 30931 30934 30937 30940 30943 30946 30949 30952 30955 30958 30961 30964 30967 30969 30972 30975 30977 30980 30983 30986 30988 30991 30994 30996 30999 31002 31005 31008 31011 31014 31016 31019 31022 31025 31028 31031 31034 31037 31040 31043 31046 31049 31052 31055 31058 31061 31064 31067 31070 31073 31076 31079 31081 31084 31087 31089 31092 31095 31098 31101 31104 31107 31110 31113 31116 31119 31122 31125 31128 31131 31134 31137 31140 31143 31146 31149 31151 31154 31157 31160 31163 31166 31169 31172 31175 31178 31181 31183 31186 31188 31191 31194 31197 31200 31203 31206 31209 31212 31215 31218 31221 31224 31227 31230 31233 31236 31239 31242 31245 31248 31251 31254 31257 31260 31263 31266 31269 31272 31275 31278 31281 31284 31287 31290 31293 31296 31299 31302 31305 31308 31310 31313 31315 31318 31321 31324 31327 31329 31332 31335 31338 31340 31343 31346 31349 31351 31354 31357 31360 31363 31366 31368 31370 31373 31376 31379 31382 31385 31388 31391 31394 31396 31399 31402 31405 31408 31411 31413 31416 31419 31422 31425 31428 31431 31434 31437 
</DataArray>
<DataArray type="UInt32" Name="types" format="ascii">
5 5 5 5 5 3 5 5 3 5 5 5 5 3 5 5 3 5 5 5 5 5 5 5 3 5 5 5 5 5 5 5 5 3 3 3 5 5 5 5 5 5 3 5 5 5 5 5 5 5 5 5 5 5 5 5 5 3 5 5 5 5 5 5 5 5 5 5 3 5 5 5 5 5 3 5 5 3 3 5 3 5 5 5 5 5 5 5 5 5 5 3 5 5 5 5 3 5 5 5 5 5 3 5 5 5 5 5 5 5 5 3 5 3 5 5 5 5 3 5 5 3 5 5 3 5 3 5 5 3 5 5 3 5 5 5 5 5 5 5 3 5 3 5 5 5 3 5 5 5 3 5 5 5 5 5 5 5 5 3 5 5 5 3 5 5 5 5 5 5 5 5 5 5 3 3 5 3 5 3 5 5 5 5 5 5 5 5 3 5 5 5 5 5 5 5 5 5 5 5 5 5 3 5 5 5 3 5 3 5 5 3 5 5 5 5 3 5 5 5 3 5 3 5 3 5 5 3 5 5 5 5 5 5 5 5 5 3 5 5 5 5 5 3 5 5 5 3 5 5 3 5 5 5 5 5 5 5 5 5 3 5 5 5 3 5 5 5 5 3 3 5 5 5 5 3 5 3 5 5 5 5 3 5 5 3 5 5 3 5 5 5 3 5 3 3 3 3 5 5 5 5 5 5 5 5 3 5 3 5 3 5 3 5 5 5 5 3 3 3 5 5 3 5 5 5 3 3 5 5 3 5 5 5 3 5 5 5 5 5 5 5 5 5 3 5 5 5 3 3 3 5 5 5 5 5 5 5 5 3 5 5 5 5 5 5 5 5 5 5 5 5 5 5 5 5 5 5 5 5 5 5 5 5 5 5 5 5 5 5 5 5 5 5 5 5 5 5 5 5 5 3 5 5 5 5 5 5 5 5 5 5 5 5 5 5 5 5 5 5 5 5 3 5 3 5 5 5 5 5 5 5 5 5 3 3 5 5 5 5 5 3 5 3 3 5 3 5 5 5 5 5 5 5 5 5 5 5 3 5 5 5 5 5 5 5 5 5 3 5 5 5 5 5 5 5 5 5 3 5 5 5 5 5 5 3 5 5 5 5 5 3 5 5 5 3 5 3 5 3 5 3 3 5 5 5 3 5 5 5 5 5 5 5 5 5 5 5 5 5 5 3 5 5 5 5 5 5 3 5 5 5 3 5 5 5 5 5 5 5 5 5 5 5 3 5 5 5 3 5 5 3 5 5 5 3 5 5 5 3 3 5 5 5 5 5 5 5 5 5 5 5 5 5 5 5 5 5 5 5 5 3 5 5 5 5 5 3 5 5 3 3 5 3 5 3 5 5 3 5 5 5 5 5 5 3 5 5 3 5 5 3 5 5 5 5 3 5 5 5 3 5 3 5 3 5 5 5 3 5 5 5 3 5 5 5 5 5 5 5 5 5 5 5 5 5 5 5 5 5 5 5 5 5 3 5 5 5 5 3 5 5 5 5 5 3 5 5 5 3 5 5 5 5 5 5 5 5 5 3 5 3 5 5 5 3 5 5 3 5 5 3 5 5 5 5 5 5 5 5 5 5 5 3 5 5 5 5 5 3 5 5 5 5 3 5 5 5 5 3 5 5 5 3 5 3 5 5 5 5 5 5 5 3 5 5 5 5 5 5 5 5 5 5 5 5 5 5 5 5 5 5 5 5 5 5 5 5 5 5 5 5 5 5 5 5 5 5 5 5 5 5 5 5 5 5 5 5 5 5 5 5 5 5 5 3 5 5 5 5 5 5 5 3 5 5 5 5 5 5 5 3 5 5 5 3 5 3 5 3 5 3 5 3 5 5 3 5 5 5 5 5 5 5 5 3 5 5 5 5 5 5 5 5 5 5 5 5 5 5 5 5 3 5 5 5 5 5 5 5 5 5 5 5 5 5 5 5 5 5 3 5 5 5 5 5 5 5 5 5 3 5 3 5 3 5 5 5 5 5 5 5 3 5 5 3 5 5 5 3 5 5 5 5 5 5 5 3 5 5 5 5 3 5 5 5 3 5 5 5 5 3 5 5 5 5 5 5 5 5 5 5 5 5 5 5 5 5 5 5 5 5 5 5 5 5 5 5 5 3 5 5 5 5 3 5 5 5 5 5 5 3 5 5 5 3 5 5 3 5 5 3 5 5 5 5 3 5 5 5 5 5 5 5 5 5 5 5 5 5 3 5 5 5 5 5 5 5 5 5 5 5 5 5 5 5 5 5 5 5 3 5 5 3 5 5 5 3 5 5 3 5 3 5 5 5 5 5 5 5 3 5 5 5 5 5 5 3 5 5 5 5 5 5 5 5 5 5 5 3 3 5 5 5 3 5 5 5 5 5 5 3 5 5 5 3 5 5 5 5 5 5 5 3 5 5 5 5 5 5 5 5 5 5 5 5 5 3 5 5 5 5 5 5 5 5 5 5 5 5 5 5 5 5 5 5 5 5 5 5 5 5 5 5 5 3 5 3 5 5 5 5 5 5 3 5 5 5 5 3 3 5 3 5 3 5 5 5 5 5 5 5 5 5 5 5 5 3 5 5 5 5 3 5 5 3 5 5 5 5 5 3 3 5 5 5 3 5 5 5 3 5 5 5 5 5 5 5 5 3 5 5 5 5 5 5 5 3 5 3 5 5 3 5 5 5 5 5 5 5 5 5 5 3 5 5 3 5 5 5 5 3 5 5 5 5 5 5 5 5 5 5 5 5 5 5 3 5 5 3 5 5 5 5 5 5 5 5 5 5 5 5 5 5 3 5 5 5 5 5 3 5 5 5 5 5 5 5 5 5 5 5 3 5 5 5 5 5 5 3 5 5 5 5 5 5 5 5 5 5 5 5 5 3 5 5 5 5 5 5 5 5 3 5 5 5 5 5 5 5 5 5 3 5 5 5 5 5 5 5 5 5 5 5 5 5 5 5 5 5 5 3 5 3 5 5 5 5 5 5 5 5 5 3 5 5 5 5 5 3 5 5 5 5 5 5 5 5 5 5 3 5 5 5 5 3 5 3 5 5 5 5 5 5 5 5 5 5 5 5 5 5 5 5 5 5 5 5 5 5 5 5 5 5 5 5 5 5 5 5 5 5 5 5 5 5 5 5 5 3 5 5 3 5 5 5 5 5 5 5 5 5 5 5 5 5 5 3 5 5 3 5 5 5 5 5 3 5 5 5 3 5 5 5 5 5 5 5 5 5 5 3 5 3 5 5 5 5 5 5 5 5 5 5 5 5 5 5 3 5 5 5 5 5 5 5 5 5 5 3 5 3 5 5 5 3 5 5 5 5 3 5 5 5 5 5 5 5 3 5 5 5 5 5 5 5 5 5 5 5 5 5 5 5 5 5 5 5 5 5 5 5 5 5 5 3 5 3 5 5 5 5 3 5 5 5 5 3 5 3 5 5 5 5 3 5 5 5 3 5 5 5 3 5 5 3 5 5 3 5 3 3 5 5 5 5 5 5 5 5 3 5 3 5 5 3 5 5 5 5 5 5 5 5 3 5 3 3 5 5 3 5 5 3 5 5 5 5 5 3 5 5 3 5 5 5 5 3 5 5 5 5 5 5 5 5 5 5 5 5 5 3 3 5 5 5 5 5 5 5 5 5 5 3 5 5 3 5 5 3 5 5 5 3 5 5 5 5 5 5 5 5 5 5 5 5 5 5 5 5 5 5 3 5 5 5 5 5 5 5 5 3 5 5 3 5 5 5 5 5 3 5 5 5 5 5 3 5 5 5 3 5 5 5 5 5 3 5 5 5 3 3 5 3 5 5 5 5 3 3 5 5 5 5 5 5 5 5 5 5 5 5 5 5 5 5 5 5 5 5 3 5 5 5 5 5 5 3 5 5 5 5 5 5 5 5 5 5 3 5 5 5 5 5 5 5 5 5 5 5 5 5 5 5 5 5 5 5 5 5 5 5 5 5 5 5 5 5 5 5 5 5 5 5 5 5 5 5 5 5 5 5 5 5 5 5 5 5 5 3 5 3 5 5 5 5 5 3 5 3 5 5 5 5 5 3 3 5 5 5 3 3 5 3 3 3 5 5 5 5 5 5 5 5 5 5 5 5 5 5 5 5 5 5 5 5 5 5 5 5 3 5 3 5 5 5 5 3 5 5 5 3 5 5 5 5 5 5 5 3 5 5 5 5 5 5 5 5 3 5 5 3 5 5 5 5 5 5 5 3 5 3 5 5 5 3 5 5 5 5 5 5 5 5 5 3 5 5 5 5 3 5 5 3 5 5 3 5 5 3 5 5 5 5 3 5 5 3 3 5 5 5 5 5 3 5 5 5 5 5 5 5 5 5 5 5 5 5 5 5 5 5 3 5 5 5 5 5 5 5 3 5 5 5 3 5 3 5 5 5 3 5 3 5 5 5 3 3 5 5 5 5 5 5 5 3 5 3 5 5 5 3 5 5 5 3 5 3 5 5 5 5 5 5 5 5 5 3 5 5 5 5 5 5 5 5 5 5 5 5 5 5 5 5 5 5 5 5 3 5 5 5 5 5 5 5 5 5 5 5 5 5 5 5 5 3 5 5 5 3 3 5 5 5 3 3 5 5 5 3 5 5 5 5 3 5 3 5 5 3 5 5 3 5 5 5 5 5 5 5 5 5 5 5 5 5 5 5 5 3 5 3 5 5 5 5 5 5 5 3 3 3 5 3 5 3 5 5 5 3 5 5 5 5 3 5 5 5 3 5 5 5 5 5 5 5 3 5 5 5 5 5 5 5 5 5 5 3 5 5 5 5 5 5 5 5 5 5 5 3 5 5 5 5 5 5 5 5 5 5 5 5 3 5 5 5 5 5 5 5 5 5 5 5 5 5 5 5 3 5 5 5 5 5 3 5 5 5 5 3 5 5 3 5 3 5 5 5 5 5 5 3 3 3 5 5 5 5 5 5 5 5 5 3 5 5 5 3 5 3 3 5 5 3 5 5 5 5 5 5 5 5 5 5 5 5 5 5 5 5 5 5 5 5 5 5 3 5 5 5 5 5 5 5 5 5 5 5 5 5 5 5 5 3 3 3 5 5 5 5 5 5 3 3 5 5 5 5 5 5 5 5 5 5 5 5 5 5 5 5 5 5 5 5 5 3 5 5 5 5 5 3 5 5 5 5 3 3 5 5 5 5 5 5 5 5 3 5 5 5 5 3 5 5 5 5 5 3 3 3 5 5 5 5 5 5 5 5 5 5 3 5 5 5 5 5 5 5 3 5 5 5 5 5 5 5 5 5 3 5 5 5 5 5 5 5 5 5 5 5 5 5 5 5 5 5 5 5 5 5 5 5 5 3 3 5 5 3 5 5 5 5 3 5 3 5 5 5 5 5 3 5 5 5 5 3 5 5 5 5 5 5 5 5 5 5 5 5 5 5 5 5 5 3 5 5 5 5 5 5 5 5 3 5 5 5 5 5 5 5 5 5 5 5 5 5 5 5 5 3 5 5 5 5 5 5 3 5 5 5 5 5 5 3 5 3 5 5 5 5 5 5 5 5 5 5 5 5 5 3 5 5 5 5 5 5 5 5 5 5 5 5 5 5 5 5 5 5 5 5 5 5 5 5 5 5 5 5 5 5 5 5 3 5 5 5 5 5 5 5 5 5 5 5 5 5 5 5 5 5 5 5 5 5 5 5 5 5 5 5 5 5 5 5 5 5 5 5 5 5 5 5 3 5 5 5 3 5 5 5 5 5 5 5 5 5 5 5 5 5 5 5 5 5 5 5 5 5 5 3 5 5 5 5 5 5 5 5 3 5 5 5 3 5 5 5 5 5 5 5 5 5 5 5 5 5 5 5 5 5 5 5 5 5 5 5 5 5 5 5 5 5 3 5 5 5 5 5 5 5 5 3 5 5 5 5 5 5 5 5 5 3 5 5 5 5 3 5 5 5 5 5 5 3 5 5 5 3 5 5 5 3 5 5 5 5 5 3 5 5 5 5 5 3 5 5 5 3 5 5 3 5 5 5 5 5 5 5 5 5 3 3 3 3 3 5 5 5 5 5 5 5 5 5 5 5 5 5 5 5 5 5 5 5 5 5 5 5 3 5 3 5 5 3 3 3 5 5 5 3 5 3 5 5 5 5 3 5 5 5 3 5 5 3 5 5 5 5 5 5 5 5 3 5 5 5 5 3 3 5 5 5 5 3 5 5 5 5 5 5 3 5 5 5 3 5 5 5 5 5 5 5 3 5 5 5 5 5 5 5 5 5 5 3 5 5 5 5 5 5 5 5 5 5 5 5 5 3 5 5 5 5 5 5 5 5 5 3 5 5 5 5 5 5 5 5 3 5 5 5 5 5 3 5 5 3 5 5 3 5 5 5 5 5 5 5 5 5 5 5 5 5 5 5 3 5 5 5 5 5 5 5 3 5 5 5 5 5 5 5 5 5 5 3 3 5 5 3 5 5 3 5 5 5 5 5 3 5 3 5 5 5 5 5 5 3 3 5 3 5 5 5 5 3 5 5 5 5 5 5 5 3 5 5 5 5 5 5 3 5 5 5 5 5 5 5 5 5 5 5 5 5 5 5 5 5 5 5 5 5 5 5 3 5 5 5 3 5 3 5 5 5 5 5 5 5 5 5 5 5 5 5 5 5 5 5 5 3 5 5 3 3 5 5 5 5 5 5 5 5 5 5 5 5 5 5 5 5 3 5 5 5 5 3 5 5 5 5 5 5 5 5 5 5 5 5 5 3 5 5 5 5 5 5 5 5 5 5 5 5 5 5 5 5 5 5 5 5 3 5 5 5 5 5 3 5 5 5 3 5 5 5 5 5 5 5 5 5 5 5 5 5 5 5 5 5 3 5 5 5 5 5 5 5 5 5 5 5 5 5 5 5 5 5 5 5 5 5 5 5 5 5 5 5 5 5 5 3 5 5 5 3 5 5 5 5 5 5 5 5 5 5 5 5 5 5 5 5 5 5 5 5 5 5 5 5 5 5 5 5 5 5 5 5 5 5 5 5 5 5 5 5 5 5 5 5 5 5 5 5 5 5 5 5 5 5 5 5 5 5 5 5 5 5 5 5 5 5 5 5 5 5 5 5 5 5 5 5 5 5 5 5 3 5 5 5 5 5 5 5 5 5 5 5 5 5 5 5 3 5 5 5 5 5 5 5 3 5 5 5 5 3 5 3 3 5 5 3 5 5 5 5 5 5 5 5 5 5 5 5 5 5 5 5 5 5 5 5 5 3 5 5 5 5 5 5 5 5 3 5 5 3 5 5 5 5 5 3 5 5 5 5 3 5 5 5 5 5 3 5 3 5 5 5 5 5 5 5 5 5 5 5 5 5 5 5 5 5 5 5 5 5 3 5 3 3 5 5 5 5 3 5 3 5 5 5 5 3 5 5 3 3 5 3 3 5 5 5 5 5 5 5 3 5 5 5 5 5 3 5 5 5 3 5 5 5 5 5 5 5 5 5 5 5 5 5 5 5 5 5 5 5 5 5 5 5 5 5 5 5 3 5 5 5 3 5 5 3 5 3 5 5 5 5 5 5 5 5 5 5 3 5 5 5 5 3 5 5 5 5 3 5 5 5 5 5 3 5 3 5 5 5 5 5 5 5 5 5 5 5 5 5 5 5 5 5 3 5 5 5 5 5 5 5 5 5 5 5 5 5 5 3 5 5 5 5 5 5 3 5 5 5 5 5 5 5 5 5 5 5 5 5 5 5 5 5 5 5 5 3 5 5 5 5 5 5 5 5 5 5 5 5 5 5 5 5 5 5 3 5 5 5 5 5 3 5 5 3 5 5 5 3 5 5 5 5 5 5 5 5 5 5 5 3 5 5 5 3 5 5 3 5 5 3 5 3 3 5 5 5 3 5 5 5 5 5 5 5 5 5 5 5 3 5 5 5 5 5 5 3 5 5 5 3 5 5 5 5 5 5 5 5 5 5 5 5 5 5 5 5 5 5 5 5 5 5 5 3 5 5 5 5 5 5 5 5 5 5 5 5 5 5 5 5 5 5 5 5 5 5 5 5 5 5 5 5 5 5 5 5 5 5 5 5 5 3 5 5 5 3 5 5 5 5 5 5 5 5 5 5 5 5 5 5 5 5 5 5 5 5 5 5 5 5 5 5 5 5 5 5 5 5 5 5 3 5 5 5 5 5 5 3 5 5 5 5 3 5 3 5 5 5 5 5 3 5 5 5 3 5 5 5 5 5 5 3 3 5 5 5 5 3 5 5 5 5 3 5 5 5 3 5 5 5 5 5 3 5 3 5 5 3 5 3 5 5 5 5 3 5 5 3 5 3 5 3 5 5 3 5 3 5 5 5 5 5 5 3 5 5 5 5 5 3 5 3 5 5 5 5 5 3 5 3 5 5 5 3 5 3 5 5 5 5 5 5 5 5 5 5 5 5 5 5 5 5 3 5 3 5 5 3 5 5 5 3 3 5 5 3 3 3 5 5 5 5 3 5 5 5 5 5 5 5 5 5 5 5 5 5 5 5 5 5 5 5 5 5 5 5 3 5 5 5 3 5 3 3 5 5 3 5 3 5 5 3 5 5 5 5 5 5 5 3 5 5 3 5 5 5 5 5 5 5 5 3 5 5 5 5 5 5 5 5 5 5 5 5 5 3 5 5 5 5 5 5 5 5 5 5 5 5 5 5 5 5 5 3 5 5 5 5 3 5 5 5 3 3 5 5 5 5 5 5 5 5 5 5 5 5 3 5 5 5 5 5 5 3 5 5 5 5 5 3 5 5 5 5 5 3 5 5 3 5 5 3 5 5 5 5 3 5 5 5 5 5 5 5 5 5 5 5 5 5 5 5 5 5 3 5 5 5 5 5 3 5 5 5 5 5 5 3 5 5 5 5 5 5 3 5 3 5 5 5 3 3 5 5 5 5 5 3 5 5 5 5 5 5 5 5 5 5 5 3 3 5 5 5 5 5 3 5 3 3 5 3 5 5 5 5 5 3 3 3 5 5 5 3 3 3 5 5 3 5 3 5 3 5 5 3 5 5 5 5 3 3 3 5 3 5 5 5 5 5 5 5 5 5 5 5 5 5 5 3 5 5 5 5 5 5 5 3 5 5 3 3 5 5 5 3 3 5 3 5 5 5 5 5 5 5 3 5 5 5 3 5 3 5 3 5 3 5 5 3 5 5 5 5 5 3 5 3 5 5 5 3 3 5 5 5 5 5 5 5 5 5 5 3 5 5 5 3 5 5 3 5 5 5 5 5 5 3 5 5 5 5 3 5 5 5 5 5 5 5 5 5 5 5 5 3 5 3 5 3 5 3 3 5 5 5 5 5 5 3 3 3 5 5 3 5 3 5 5 5 3 5 3 3 3 5 3 3 3 5 5 3 3 5 5 5 5 5 3 5 5 5 5 5 5 5 5 5 5 5 5 5 5 3 5 5 3 5 3 3 5 5 3 5 5 3 5 3 5 3 3 5 5 5 3 5 5 3 3 3 5 5 3 5 5 5 5 5 5 3 5 5 5 5 5 5 5 5 5 5 5 3 5 5 5 5 3 3 5 5 3 3 5 5 3 5 3 5 5 5 5 5 5 3 5 3 5 5 5 5 5 5 5 3 5 5 5 5 5 5 5 5 5 3 5 5 5 5 5 3 5 5 5 5 5 3 5 5 3 5 5 5 5 5 5 5 5 3 5 5 5 5 5 5 3 5 5 5 5 5 3 5 3 5 5 5 3 3 3 5 5 3 5 3 5 5 5 5 3 5 5 5 5 5 5 5 5 5 5 3 5 5 5 5 3 5 5 5 5 3 5 3 5 5 5 3 5 5 5 5 5 5 5 5 5 5 5 5 5 5 5 3 5 5 5 5 5 5 5 3 5 5 5 5 5 5 5 5 5 5 5 5 5 5 5 5 3 3 5 5 5 3 5 5 5 3 3 5 5 5 5 5 5 5 5 5 5 5 5 5 5 5 5 5 5 5 5 5 5 3 5 5 5 5 5 3 5 5 5 5 5 5 5 5 3 3 5 5 3 5 5 5 5 5 5 5 5 5 5 5 5 5 5 5 5 5 5 5 5 5 5 5 5 5 5 5 5 5 5 5 5 5 5 5 3 5 5 5 5 5 5 5 5 5 5 5 5 3 5 5 5 5 5 5 5 5 5 5 3 5 5 5 5 5 5 5 5 5 5 5 5 5 5 5 5 5 5 5 5 5 5 5 5 5 5 5 5 5 5 5 5 5 5 5 5 5 5 5 5 5 5 5 5 5 5 5 5 5 5 5 5 5 5 5 5 5 5 5 5 5 5 5 5 3 5 3 5 5 5 5 3 5 5 5 5 5 3 5 5 5 5 5 5 5 3 5 5 5 5 3 5 5 3 5 3 5 5 5 5 5 5 5 5 3 5 5 5 5 5 5 5 5 5 5 5 5 3 5 3 5 5 3 3 5 5 5 3 5 5 3 3 5 5 3 5 5 5 5 5 5 5 3 5 5 5 3 5 5 5 5 5 5 5 3 5 3 5 5 5 3 5 5 5 5 3 5 5 5 5 5 5 5 5 5 5 5 5 5 5 5 5 5 5 5 5 5 5 5 5 5 3 5 5 5 5 5 5 5 5 5 5 3 5 5 5 5 5 5 5 5 5 3 5 5 5 5 5 5 5 5 5 5 5 5 5 5 5 5 5 5 5 5 5 5 5 5 5 5 5 5 5 5 5 5 5 5 5 5 5 5 5 5 5 5 3 5 5 5 5 5 5 5 5 5 5 5 5 5 5 5 5 5 5 5 3 5 5 5 5 5 3 5 5 5 5 5 5 5 5 5 5 5 5 5 3 5 5 5 5 5 5 5 5 5 5 5 5 5 5 5 5 5 5 5 5 5 5 5 5 5 5 5 3 5 5 5 5 5 5 5 5 5 5 3 5 5 5 5 5 5 5 5 3 3 5 5 5 5 3 5 5 5 3 5 5 3 5 5 5 3 5 5 5 3 5 5 3 5 3 5 5 5 5 5 5 5 5 3 5 5 5 3 3 5 5 3 5 5 3 5 5 5 5 3 5 5 5 5 5 3 5 5 5 5 5 5 5 5 5 5 5 5 5 3 5 5 5 5 5 5 5 3 5 5 3 5 5 5 5 5 5 5 5 3 5 5 3 5 5 5 5 5 5 3 5 5 5 5 5 5 5 5 3 5 5 5 3 3 5 5 5 5 5 3 5 5 5 5 5 5 5 5 5 5 5 5 3 3 5 3 5 3 5 5 5 5 3 5 5 3 5 5 3 3 3 5 5 5 5 5 5 5 5 5 3 5 3 5 5 5 5 5 5 5 5 3 5 3 5 5 5 3 5 5 5 5 5 3 3 5 5 5 3 5 3 5 3 3 5 3 3 5 5 5 5 5 3 5 5 3 5 5 3 5 5 3 5 3 5 5 5 3 5 5 5 5 5 3 5 3 5 5 5 5 5 5 5 5 5 5 3 5 5 5 5 3 3 5 3 5 5 3 5 5 5 5 5 3 5 5 3 5 5 5 3 5 5 5 5 3 5 5 3 5 5 5 3 5 5 5 5 5 5 5 5 3 5 5 5 3 3 5 5 5 5 5 5 3 5 5 5 3 5 5 5 5 5 5 5 5 3 5 5 5 5 5 5 5 5 5 5 5 5 5 5 5 5 5 5 5 5 5 5 5 5 5 5 5 5 5 5 5 5 5 5 5 5 5 5 3 3 5 5 3 5 5 3 3 5 5 3 3 5 5 5 3 5 5 5 5 5 5 3 5 5 3 5 5 5 5 5 5 5 5 5 5 5 3 5 5 5 5 5 5 5 5 5 5 5 5 5 5 5 5 5 5 5 5 5 5 5 5 5 5 5 3 5 5 5 5 5 5 5 3 5 5 5 5 5 5 5 5 3 5 5 5 3 5 5 5 5 5 5 5 5 3 5 5 5 5 5 5 5 5 5 5 5 5 5 5 3 5 3 5 5 5 5 5 3 5 5 5 5 5 3 5 5 5 5 3 5 5 5 5 5 5 5 5 5 5 5 3 5 3 5 5 5 5 5 5 3 5 5 3 5 5 5 5 5 5 5 5 5 5 5 5 5 5 5 5 5 5 3 5 3 5 5 5 5 5 5 5 5 5 5 5 5 5 5 5 5 3 5 5 3 5 5 5 5 3 5 5 5 5 5 3 5 5 5 5 5 5 3 5 5 5 5 5 5 5 5 5 3 5 5 5 5 5 5 5 5 5 5 3 5 5 3 5 5 5 5 3 5 5 3 3 5 5 3 5 5 5 5 5 5 5 5 5 5 5 3 5 5 5 5 5 5 5 5 3 5 5 5 5 5 5 5 5 5 5 5 5 5 3 5 5 5 5 5 5 5 5 5 5 5 5 5 3 5 5 5 5 5 5 5 5 5 5 5 5 5 5 5 5 5 5 5 5 5 3 3 5 5 5 5 5 5 5 5 5 5 5 3 5 3 5 5 5 5 5 5 3 5 5 5 5 5 5 3 5 5 5 5 3 5 5 5 5 5 5 3 5 5 5 5 5 5 5 3 5 5 3 5 5 5 5 5 5 5 5 5 5 5 5 5 5 5 5 5 5 5 5 5 5 5 5 5 5 5 5 5 5 5 5 5 5 5 5 5 5 5 5 5 5 5 5 5 3 5 5 5 5 5 5 5 5 5 5 5 5 3 5 5 5 5 5 5 5 5 5 5 5 3 5 3 5 5 5 5 5 5 5 5 5 5 5 5 5 5 5 5 5 5 5 5 5 5 5 5 5 5 5 5 5 5 5 5 5 5 3 5 5 5 5 5 5 5 3 5 5 5 3 3 5 5 5 5 5 5 5 5 5 5 5 5 5 5 5 5 5 5 5 5 5 5 5 5 5 5 5 3 5 5 5 5 5 5 5 5 3 5 5 5 5 5 3 5 3 3 5 3 5 5 5 3 5 5 5 5 5 5 3 5 3 5 3 5 5 5 5 3 5 3 5 5 5 3 3 5 3 5 3 5 3 5 3 3 5 5 5 5 5 3 5 5 5 5 5 5 5 5 3 5 5 3 3 5 5 3 5 5 3 3 5 3 5 5 5 3 5 5 3 5 3 5 5 5 5 5 5 5 5 5 5 5 5 5 5 5 5 5 5 5 5 5 5 5 5 5 5 3 5 5 5 5 3 5 5 5 3 5 5 5 5 5 5 5 5 5 5 5 5 5 5 5 5 5 5 5 5 5 3 5 5 5 3 5 5 5 5 3 5 5 5 5 3 5 3 5 5 3 5 5 3 3 3 5 5 3 5 5 5 5 5 5 5 5 5 5 5 5 5 5 3 5 5 5 5 5 3 5 3 5 5 5 5 5 5 5 3 5 5 5 3 3 5 5 5 5 5 3 5 5 5 5 5 5 5 5 5 5 5 5 5 5 5 5 5 5 5 5 5 5 3 5 5 5 3 5 5 5 3 5 5 5 3 5 5 3 5 5 3 5 5 5 3 5 5 5 5 5 5 5 5 3 5 3 3 5 5 3 5 5 5 5 5 5 3 5 5 5 5 5 5 5 5 5 5 5 5 5 5 5 3 5 5 5 5 5 5 5 3 5 5 3 5 5 5 5 5 5 5 5 5 5 3 5 3 5 5 5 5 3 5 5 5 5 3 5 3 5 5 5 5 5 5 3 5 5 5 5 5 3 5 3 5 5 3 3 5 5 5 3 5 3 5 5 5 5 5 3 5 5 5 3 5 3 3 5 3 5 5 5 5 5 5 5 3 5 5 5 5 3 5 5 5 5 3 5 5 5 5 3 5 5 5 3 5 3 5 3 5 5 5 3 3 5 3 5 3 5 3 5 5 3 5 5 3 5 5 3 5 5 3 3 5 3 5 3 5 3 5 5 5 5 5 5 5 3 5 5 5 3 5 5 5 3 5 5 5 5 5 5 5 5 5 5 5 5 5 3 5 5 5 5 5 3 5 5 5 5 5 5 3 5 5 5 5 5 3 5 3 5 3 5 5 5 5 5 5 5 5 5 5 3 3 5 5 5 5 5 5 5 5 5 5 5 5 5 5 5 5 5 5 5 5 5 5 5 5 3 5 5 5 5 5 5 5 5 5 5 5 3 3 5 5 5 3 5 5 5 3 5 5 3 5 5 5 5 5 5 5 5 5 5 5 5 5 3 5 5 5 5 5 5 5 3 3 5 3 3 5 5 5 3 3 3 5 5 5 3 5 3 5 5 5 5 5 5 5 5 5 5 5 5 5 5 5 5 5 5 5 5 3 5 5 5 3 5 5 5 3 5 5 5 3 5 5 5 5 5 5 5 5 3 5 5 5 5 5 3 5 5 5 5 5 3 5 3 3 3 5 3 5 5 3 5 5 5 5 3 5 5 3 5 5 3 5 5 5 3 5 3 3 5 5 3 5 3 5 3 5 3 3 5 3 5 5 5 3 3 5 5 5 5 3 5 5 5 5 5 5 3 5 5 5 5 3 5 5 3 5 5 3 5 3 3 5 3 5 5 3 3 5 5 3 5 5 5 3 3 5 3 5 5 5 3 3 5 5 5 5 5 5 5 5 5 3 5 5 5 5 5 5 5 5 5 5 5 5 5 5 5 5 5 5 5 5 5 5 5 5 3 5 5 5 3 5 5 5 5 3 5 5 5 5 3 5 5 5 5 5 5 5 5 5 5 5 5 5 5 5 5 5 5 5 5 5 5 5 5 5 5 5 5 5 5 5 5 5 5 5 5 5 5 5 5 5 5 5 5 3 5 5 5 5 3 5 5 5 5 5 3 5 3 5 3 5 5 5 5 3 5 5 5 5 5 3 5 5 5 5 5 3 5 5 3 5 5 3 5 5 5 5 3 5 5 5 5 5 5 5 5 3 3 5 5 5 3 5 5 3 5 5 5 5 5 5 5 5 5 3 5 3 5 5 3 5 5 5 3 5 5 5 5 5 5 5 5 3 3 5 3 3 5 5 3 5 5 5 3 5 5 5 3 5 5 5 5 5 5 5 5 5 5 5 5 5 5 5 5 5 5 3 5 5 5 5 5 5 5 5 5 5 5 5 5 5 3 5 5 5 3 5 5 5 5 5 5 3 5 5 5 5 5 5 5 5 5 3 5 5 5 5 5 5 3 5 5 3 5 5 3 3 5 5 5 5 3 5 5 5 5 5 5 5 5 5 5 5 5 3 5 5 5 5 5 5 5 5 5 5 5 5 3 5 5 3 5 5 5 3 3 5 3 5 3 5 5 5 5 5 5 5 3 5 5 3 5 5 5 5 5 5 5 5 5 5 5 5 5 3 5 5 5 3 5 5 5 3 5 5 5 3 5 5 5 5 3 5 5 5 5 5 5 5 3 5 5 5 3 5 5 5 5 5 3 5 5 5 5 5 5 5 5 5 5 3 5 5 3 5 5 5 3 5 5 3 5 5 5 5 3 5 5 5 5 5 5 5 3 3 5 3 5 5 3 5 3 3 3 5 5 5 5 3 3 5 5 3 5 5 5 3 5 3 5 5 5 5 5 5 5 5 5 5 3 5 5 5 3 5 5 5 5 3 5 5 3 5 5 3 5 5 5 5 3 5 3 5 5 5 5 5 5 5 5 5 5 5 5 5 5 5 5 5 5 5 5 5 5 5 5 5 5 5 5 5 5 3 5 5 3 5 5 5 5 5 5 5 5 5 5 5 5 3 5 5 5 5 5 5 3 5 5 5 3 3 5 5 5 5 5 3 5 5 5 5 3 5 5 3 5 5 5 5 5 5 3 3 3 3 5 3 5 5 3 5 3 5 5 5 5 5 3 5 5 5 5 5 5 5 3 5 3 3 5 5 5 5 5 5 3 5 5 5 5 5 5 5 5 5 5 5 5 5 5 5 5 5 5 3 5 5 5 5 5 5 5 5 5 5 5 5 5 5 5 3 5 5 5 5 5 5 5 5 5 5 5 5 5 5 5 5 5 3 5 5 5 5 5 5 3 3 5 5 5 5 3 5 5 5 5 5 5 5 5 5 5 5 5 5 5 5 5 5 3 5 3 5 5 5 5 5 5 5 5 5 3 5 5 5 5 5 5 3 5 5 5 5 5 5 5 3 5 5 5 5 5 5 5 5 5 5 5 5 5 5 3 5 5 5 5 5 5 5 5 5 5 5 5 5 5 5 5 3 3 5 3 5 5 3 5 5 5 3 5 5 5 5 5 3 5 5 5 5 5 5 5 5 5 5 5 5 5 5 3 5 5 5 5 5 5 5 5 5 5 5 5 5 5 5 5 5 5 5 5 5 5 5 5 3 5 3 5 5 5 3 5 5 5 5 5 5 5 5 3 5 5 5 5 5 5 5 3 5 5 3 5 5 3 5 5 5 5 5 5 5 5 5 3 5 3 5 5 5 5 3 3 5 5 5 5 5 5 5 5 5 5 5 5 5 5 5 5 5 5 3 5 5 5 5 5 5 5 3 5 5 5 5 3 5 5 5 5 5 3 5 5 3 5 3 5 5 5 5 5 3 5 3 5 5 3 5 5 5 3 5 5 5 3 5 5 5 5 5 5 5 5 3 5 5 5 5 5 5 5 3 5 5 5 3 3 5 5 5 5 3 5 5 5 5 5 5 3 5 5 5 5 5 5 3 5 5 5 5 5 5 5 3 5 5 5 5 5 5 5 5 3 5 5 3 5 5 5 5 5 5 5 5 5 5 5 5 5 5 5 3 5 5 5 5 3 5 5 5 5 5 5 5 5 5 5 3 5 5 5 5 3 5 5 5 5 5 5 5 5 5 5 5 5 5 5 5 5 5 5 5 5 5 5 5 5 5 5 5 5 5 5 5 5 5 5 5 5 5 5 5 5 5 5 3 3 5 5 5 5 3 5 5 5 3 5 5 5 5 5 5 5 5 5 5 5 5 5 5 5 5 5 5 5 3 5 5 5 5 5 5 5 5 5 5 5 5 3 5 5 5 5 5 5 5 5 5 5 5 3 5 3 5 3 5 5 5 5 5 5 3 5 5 5 3 5 5 5 5 5 5 5 5 5 3 5 5 5 5 5 5 3 5 5 5 5 5 5 5 5 5 5 5 5 5 5 5 5 5 3 3 5 5 5 5 5 5 5 3 5 5 5 5 5 5 5 3 5 5 3 5 5 5 5 3 5 5 5 5 3 5 5 5 5 5 5 5 5 5 5 5 5 3 5 5 5 5 5 5 5 3 5 5 5 5 5 5 5 5 5 5 5 5 5 3 5 5 5 5 5 5 3 5 5 5 5 5 5 5 3 5 5 5 5 5 5 5 5 3 3 5 5 3 5 5 5 5 5 5 5 5 5 5 5 5 5 5 5 5 5 3 5 5 3 5 5 5 5 5 5 5 5 5 5 5 5 5 5 5 5 5 5 5 5 5 5 5 5 5 5 3 5 5 5 3 5 5 5 5 5 3 5 5 5 5 5 5 5 3 5 5 5 5 5 3 3 5 5 3 5 5 5 5 5 5 5 5 5 5 3 5 5 5 5 5 5 5 5 3 5 5 5 5 5 5 5 5 3 5 3 5 5 5 5 3 5 5 5 5 5 5 5 5 5 5 5 5 3 5 5 5 5 3 5 5 5 3 5 5 5 5 5 5 5 5 5 3 5 5 5 5 5 3 5 5 5 3 5 3 5 5 5 3 5 5 3 5 5 5 5 5 5 3 3 5 5 5 5 5 5 3 5 3 5 3 5 5 5 5 5 5 5 5 3 5 5 5 5 5 5 5 5 5 5 5 5 5 5 5 5 5 3 3 5 5 3 3 5 5 5 5 5 3 5 5 3 5 5 5 3 3 5 5 5 3 5 5 5 5 5 5 5 5 3 5 5 3 3 5 3 5 5 5 3 5 3 5 5 5 5 5 5 5 5 5 5 5 5 5 5 5 3 5 5 5 5 5 5 5 5 3 5 3 5 5 5 5 3 5 5 5 5 5 5 3 5 5 5 5 3 3 5 5 3 5 3 5 5 5 5 5 3 5 5 5 5 5 5 5 5 5 3 5 5 5 5 3 5 5 5 5 3 5 5 5 5 5 5 5 5 5 3 5 3 5 3 5 3 5 5 5 5 5 5 5 5 5 5 5 3 5 5 5 5 5 5 5 3 3 5 5 5 5 3 5 5 3 5 5 5 5 5 5 5 5 3 5 5 5 5 3 5 5 5 5 5 5 3 5 5 5 5 5 5 5 5 5 5 5 5 5 5 5 5 5 5 5 3 5 5 5 5 5 5 5 5 5 5 5 5 5 5 5 5 5 5 5 5 5 5 5 5 5 3 5 5 5 3 5 5 5 5 5 5 5 5 3 5 5 5 3 5 5 5 3 5 5 5 3 5 5 5 5 5 3 5 5 5 5 5 5 5 5 5 5 3 5 5 5 3 5 5 5 3 5 5 5 3 3 5 5 5 3 3 5 3 5 5 5 5 5 5 5 5 5 3 5 5 5 5 3 5 5 3 5 3 5 5 3 5 5 3 5 5 3 5 5 5 3 5 5 5 5 5 5 5 5 5 5 5 5 5 5 5 5 5 5 5 5 5 3 5 5 5 5 5 5 5 5 5 5 3 5 5 5 5 5 5 5 5 3 5 5 5 5 3 5 5 5 3 5 3 5 5 5 5 5 5 5 5 5 5 5 5 5 5 5 5 5 3 5 5 5 5 5 5 5 5 5 5 5 5 5 5 5 5 5 5 5 5 5 5 5 5 5 5 5 5 5 5 5 3 3 5 5 5 5 5 5 5 5 5 5 5 5 5 3 5 5 5 5 5 3 5 3 5 5 5 5 3 5 5 5 5 5 5 5 5 5 5 5 5 5 5 5 3 5 5 5 5 5 5 3 5 5 5 5 3 5 5 5 5 5 5 5 3 5 5 5 5 5 5 5 5 5 5 5 5 5 5 5 5 5 5 5 5 3 5 5 5 5 5 5 3 5 5 5 5 5 3 5 5 5 5 5 5 5 5 5 5 5 5 5 5 5 5 3 5 5 5 5 5 5 5 5 5 5 3 5 5 3 5 5 5 5 5 5 5 3 3 5 5 5 5 5 5 5 5 5 5 5 5 5 5 5 5 5 5 5 5 5 5 5 5 5 5 5 5 3 3 5 5 5 3 5 5 5 5 5 5 5 5 5 5 3 5 5 5 5 3 5 5 5 5 5 5 5 5 5 5 5 5 5 5 5 5 5 5 3 5 5 5 5 3 5 3 5 5 5 5 5 3 5 3 5 5 5 5 5 5 5 3 5 5 5 5 3 5 3 5 5 5 5 5 5 5 3 5 3 5 5 5 3 5 5 5 5 5 5 5 5 5 5 5 5 5 5 5 5 5 5 3 5 5 5 5 5 5 5 5 5 5 5 5 5 5 5 3 5 5 5 3 5 5 5 5 5 5 5 5 5 5 5 5 3 5 5 5 5 5 5 3 5 5 3 3 5 5 5 5 5 5 5 5 5 5 3 5 5 5 5 5 5 5 5 5 5 5 5 5 5 5 5 5 5 5 5 5 5 3 5 5 5 5 5 5 5 5 5 5 5 5 5 5 5 5 3 5 5 5 5 5 5 5 5 5 5 3 5 5 5 5 5 5 3 5 5 5 5 5 5 5 5 5 5 5 5 5 5 5 5 5 5 5 5 5 5 3 5 5 5 5 5 5 5 5 5 5 5 5 5 5 5 5 5 5 5 5 5 3 5 5 5 5 5 5 3 5 5 5 5 5 5 5 5 5 5 5 5 3 5 3 5 5 3 5 5 5 5 5 5 5 5 5 5 5 5 5 5 5 5 5 5 5 3 5 5 5 5 5 5 5 5 5 5 5 5 5 5 5 5 5 5 5 5 5 5 5 5 5 5 5 5 5 5 5 5 5 5 5 5 5 5 5 5 5 5 5 5 5 5 5 5 5 5 5 5 5 5 5 5 5 5 5 5 5 5 5 5 5 5 5 5 5 5 5 5 5 5 5 5 5 5 5 5 5 5 5 5 5 5 5 5 5 5 5 5 5 5 5 5 5 5 5 5 5 5 5 5 5 5 5 5 5 5 5 5 5 5 5 5 5 5 5 5 5 5 5 5 5 5 5 5 5 5 5 5 5 3 5 3 5 5 5 5 5 5 3 5 5 5 3 5 3 5 5 3 5 5 5 5 5 5 5 5 5 5 5 5 5 5 3 5 5 5 3 5 5 5 5 5 3 5 5 3 5 5 5 5 5 3 5 5 5 5 5 5 5 5 5 5 5 5 5 5 3 5 3 5 3 5 5 5 5 5 5 5 5 5 5 5 5 5 5 5 3 5 3 5 5 5 3 5 5 5 3 5 5 3 5 5 5 3 5 5 3 5 3 5 5 5 5 3 5 5 5 3 5 5 5 5 5 3 3 5 5 3 5 5 3 5 3 5 5 5 5 5 5 3 5 5 5 5 5 5 3 3 5 5 3 5 5 3 5 5 5 5 5 5 5 5 3 5 5 5 3 5 5 5 3 5 5 5 5 5 5 5 5 5 5 5 5 5 5 5 5 5 3 5 5 5 5 5 5 5 3 5 5 5 5 5 5 3 5 5 5 5 5 5 5 5 5 5 5 5 5 5 5 5 5 3 3 5 5 5 5 5 5 5 5 3 3 5 5 5 3 5 5 3 5 5 3 5 3 5 5 5 3 5 5 5 3 3 5 5 5 5 5 5 5 5 5 5 3 3 5 5 5 5 5 5 5 5 5 5 5 5 3 5 5 5 5 5 5 5 5 3 5 5 5 5 3 5 3 5 5 3 5 3 5 5 3 5 5 3 5 5 5 5 5 5 5 5 5 5 5 5 5 5 5 5 5 5 5 5 5 5 5 5 5 5 5 5 5 5 3 5 5 5 5 5 5 5 5 5 5 3 5 5 5 3 5 5 5 5 3 5 5 5 5 5 3 5 5 5 5 3 5 5 3 5 5 5 3 5 5 5 5 5 5 3 5 5 5 3 5 5 5 3 5 5 5 5 5 3 3 5 5 5 5 5 3 5 5 5 3 3 3 3 5 5 5 5 5 5 3 5 5 5 5 5 5 5 5 5 5 3 5 5 5 5 5 5 5 5 5 5 5 3 5 5 5 5 5 5 5 5 5 5 5 5 3 5 3 5 5 5 5 5 3 5 5 5 5 5 5 5 3 5 5 5 5 3 3 5 5 3 3 5 3 5 3 5 5 5 5 5 3 5 5 5 5 5 3 5 3 5 5 3 5 5 5 3 5 5 5 5 5 5 5 3 3 3 5 5 3 5 5 5 5 5 5 5 5 5 5 5 5 5 3 5 5 5 3 3 5 3 5 5 5 3 5 5 5 5 5 5 5 5 5 5 5 5 5 5 5 5 5 5 5 3 5 5 5 5 3 5 5 3 3 5 5 5 5 5 5 5 5 5 5 5 5 5 5 5 5 5 5 5 3 5 5 5 5 5 5 5 5 5 5 5 5 5 5 5 5 5 5 5 5 5 5 5 5 5 5 5 5 5 5 5 5 5 5 5 5 5 5 5 5 5 5 5 5 5 5 5 5 5 5 5 5 5 5 5 5 5 5 5 5 5 5 5 5 5 5 5 5 5 5 5 5 5 3 5 5 5 5 5 5 5 5 5 5 3 5 5 5 5 5 3 5 5 5 5 5 5 5 5 3 5 3 5 3 5 5 3 5 5 5 5 5 5 5 3 5 5 5 5 3 5 5 5 5 3 5 5 3 5 5 5 5 5 5 5 5 5 5 5 5 5 5 5 5 5 5 5 5 5 5 5 5 5 5 5 5 5 5 5 5 3 5 3 5 5 5 3 5 5 5 5 3 5 5 5 5 5 3 3 5 5 5 5 5 5 5 5 5 3 5 3 5 5 5 5 5 3 5 5 5 5 5 5 5 5 5 5 5 5 5 3 5 5 5 5 3 5 5 5 5 5 3 5 5 5 5 5 5 3 5 5 5 5 5 5 5 5 5 5 5 5 5 5 5 3 5 5 5 5 5 5 5 5 5 3 5 5 5 5 5 5 3 3 5 5 5 5 5 3 5 5 5 5 5 5 5 5 5 3 5 3 3 5 5 5 5 5 3 5 5 5 5 5 5 5 5 3 5 5 5 5 5 3 5 5 5 5 5 5 5 5 5 5 5 3 5 5 5 5 5 3 5 5 5 5 5 5 5 5 5 5 5 5 5 5 5 5 3 5 5 3 5 5 5 5 5 5 3 3 3 5 5 5 5 5 5 5 5 5 5 5 5 5 5 5 5 5 3 5 5 5 5 5 5 5 5 5 5 5 5 5 5 5 5 5 5 5 5 5 5 5 5 5 5 3 5 3 5 5 5 5 5 5 5 5 5 5 5 5 5 5 5 5 5 5 5 5 5 5 3 5 3 5 5 5 5 3 5 5 5 5 5 5 5 5 5 5 5 5 5 3 5 5 3 5 5 5 5 5 5 5 3 5 5 5 3 3 5 5 3 5 5 5 5 3 3 5 5 5 5 5 5 5 5 5 5 5 5 5 5 5 5 5 5 5 5 5 5 5 5 5 5 5 3 3 5 5 5 5 5 5 5 5 5 5 5 5 3 5 5 5 5 5 3 5 5 5 5 5 5 5 5 5 3 5 5 5 3 5 5 5 5 3 5 5 3 5 3 5 5 5 3 3 5 5 5 5 5 3 3 5 5 3 3 5 5 5 3 3 3 3 5 3 5 3 5 3 3 5 5 5 5 3 5 5 5 5 5 5 5 5 5 5 5 5 5 5 5 5 5 5 5 5 3 5 5 5 3 5 5 5 5 5 3 5 5 3 5 3 5 5 5 5 5 5 5 5 5 5 3 3 5 5 5 5 5 5 5 5 5 5 5 5 5 5 5 5 5 3 5 5 3 5 5 5 5 5 5 5 5 5 5 3 5 5 5 5 3 5 5 5 5 5 5 3 5 5 5 5 5 5 5 5 5 5 5 5 5 5 5 5 5 5 5 5 5 5 5 5 5 5 5 5 5 5 5 5 5 3 5 5 5 5 5 3 5 5 5 5 5 5 5 5 5 5 5 5 5 5 5 5 5 5 3 5 3 5 5 5 5 5 5 5 3 5 5 5 5 5 5 5 5 3 3 5 3 5 5 5 5 3 3 5 5 5 5 5 5 5 5 5 5 5 5 5 5 5 5 5 3 5 5 5 5 5 3 5 5 5 5 5 5 5 5 5 3 5 3 5 5 5 5 5 5 5 5 5 5 5 5 5 5 5 5 5 5 5 5 5 5 5 5 5 5 5 5 5 5 5 3 5 5 5 5 5 5 5 5 5 5 5 5 5 5 5 5 5 5 5 5 5 5 3 5 5 5 3 5 5 5 3 3 5 5 5 5 3 5 5 5 5 5 5 3 5 5 5 3 3 5 5 5 5 5 5 5 5 5 5 5 5 5 5 5 5 5 5 3 5 5 5 3 5 5 5 5 5 5 5 5 5 5 5 5 5 5 5 5 5 5 5 5 5 5 5 5 5 5 5 5 5 3 3 5 5 5 5 5 5 5 5 5 3 3 5 3 3 5 5 5 5 5 5 5 5 5 5 5 5 3 5 5 5 5 5 5 3 5 5 5 5 5 5 5 5 5 5 5 5 5 5 5 5 5 3 5 5 5 5 5 3 5 5 5 3 5 5 5 5 5 5 3 5 3 5 5 5 3 3 5 3 5 5 3 3 5 5 5 5 5 5 5 5 3 3 5 5 5 5 5 5 5 5 3 5 5 5 5 5 5 5 5 5 5 5 5 5 3 5 3 5 3 5 5 5 5 3 5 5 5 5 3 3 5 5 5 5 5 5 5 3 5 5 5 5 5 5 5 5 5 5 5 5 5 5 5 5 5 5 5 3 3 5 5 5 3 5 3 5 5 3 5 5 5 3 5 3 5 3 5 5 5 5 5 3 3 5 5 5 3 3 5 5 5 5 5 5 5 5 5 5 3 5 5 3 5 5 3 5 5 5 5 3 3 5 5 5 5 5 5 5 5 5 3 5 5 5 5 5 3 5 5 5 5 5 3 3 5 5 3 3 5 3 5 3 5 5 5 3 5 5 3 3 5 3 3 3 5 5 5 5 5 3 5 5 5 5 5 5 5 5 5 3 5 5 5 5 5 5 3 5 3 5 5 3 5 5 5 5 3 5 5 5 5 3 5 5 5 5 5 3 3 5 5 5 5 5 3 3 5 5 5 5 5 3 5 5 3 3 5 5 5 5 5 5 5 5 3 5 5 5 3 3 5 5 5 5 3 5 5 5 5 5 5 5 5 5 5 3 3 5 5 5 5 5 5 3 5 5 5 5 5 5 5 5 5 5 5 5 5 5 5 5 5 5 5 3 3 5 5 5 3 5 5 5 5 5 5 5 3 3 5 5 3 3 5 5 5 5 5 3 5 3 5 5 3 5 5 5 5 3 5 5 5 5 5 3 5 3 5 5 5 5 5 5 5 3 3 5 5 5 3 3 3 3 5 5 5 5 5 5 5 5 5 5 5 5 5 5 5 5 5 5 5 5 5 5 5 5 5 5 5 5 5 3 5 5 3 5 5 5 3 5 5 3 5 5 5 5 5 5 3 5 5 5 5 5 5 5 5 5 5 5 5 5 5 5 5 5 5 5 5 5 3 5 5 3 5 5 5 5 5 5 5 5 5 5 5 5 5 5 5 5 5 5 5 5 3 5 5 5 5 5 5 5 5 5 5 3 5 3 5 5 5 5 5 5 5 5 5 5 5 5 5 5 5 5 5 5 5 5 5 5 5 5 5 5 5 5 5 5 5 5 5 5 5 5 5 5 5 5 3 5 3 5 5 5 5 3 5 5 5 3 5 5 5 3 5 5 5 5 5 3 3 5 5 5 5 5 5 5 5 3 5 5 5 5 5 3 5 5 5 5 5 5 5 5 
</DataArray>
</Cells>
<PointData Scalars="" Vectors="displacement," Tensors="">
<DataArray type="Float64" Name="displacement" NumberOfComponents="3" format="ascii">
-0.014998691784845348 -0.014999103561682098 0 -0.01449682654682468 -0.014532897869515093 0 -0.013026600322529362 -0.014998753732666521 0 -0.014998691784845348 -0.014999103561682098 0 -0.01449682654682468 -0.014532897869515093 0 -0.01502877022533656 -0.013547844928616125 0 -0.014998691784845348 -0.014999103561682098 0 -0.01502877022533656 -0.013547844928616125 0 -0.014999381866837504 -0.013261092524867849 0 -0.01449682654682468 -0.014532897869515093 0 -0.014600877207974589 -0.014209107444751413 0 -0.01502877022533656 -0.013547844928616125 0 -0.014600877207974589 -0.014209107444751413 0 -0.01502877022533656 -0.013547844928616125 0 -0.014493778377089676 -0.014509416499414174 0 -0.014913078135487137 -0.013605902257591682 0 -0.015311514328430899 -0.013805661656136814 0 -0.01502877022533656 -0.013547844928616125 0 -0.014999381866837504 -0.013261092524867849 0 -0.015313308487877058 -0.0128552167366528 0 -0.01449682654682468 -0.014532897869515093 0 -0.014336321795891878 -0.014449441613623581 0 -0.013770474264084721 -0.014701271778998479 0 -0.012778793538905141 -0.014624280667792779 0 -0.014137816268437997 -0.012851820469383964 0 -0.014160583652825505 -0.01450792865149967 0 -0.014336321795891878 -0.014449441613623581 0 -0.014230573063794494 -0.014641266427475187 0 -0.014336321795891878 -0.014449441613623581 0 -0.014493778377089676 -0.014509416499414174 0 -0.014230573063794494 -0.014641266427475187 0 -0.014600877207974589 -0.014209107444751413 0 -0.014336321795891878 -0.014449441613623581 0 -0.014493778377089676 -0.014509416499414174 0 -0.01449682654682468 -0.014532897869515093 0 -0.014600877207974589 -0.014209107444751413 0 -0.014336321795891878 -0.014449441613623581 0 -0.012778793538905141 -0.014624280667792779 0 -0.013056481080811543 -0.014838206185853024 0 -0.014160583652825505 -0.01450792865149967 0 -0.014336321795891878 -0.014449441613623581 0 -0.013770474264084721 -0.014701271778998479 0 -0.01449682654682468 -0.014532897869515093 0 -0.013026600322529362 -0.014998753732666521 0 -0.013770474264084721 -0.014701271778998479 0 -0.01302306695427762 -0.01499981442162825 0 -0.013056481080811543 -0.014838206185853024 0 -0.013021685068646503 -0.015000126830314948 0 -0.012501747392383586 -0.015256667870220562 0 -0.012373924182675113 -0.015232513614950373 0 -0.013021685068646503 -0.015000126830314948 0 -0.012501747392383586 -0.015256667870220562 0 -0.012131243633149272 -0.014999808614182746 0 -0.012501747392383586 -0.015256667870220562 0 -0.012131243633149272 -0.014999808614182746 0 -0.012304859029932173 -0.015257803095882219 0 -0.012501747392383586 -0.015256667870220562 0 -0.012608218077456075 -0.015180267082876807 0 -0.012480231204403305 -0.015046738881886661 0 -0.012501747392383586 -0.015256667870220562 0 -0.012608218077456075 -0.015180267082876807 0 -0.012304859029932173 -0.015257803095882219 0 -0.012501747392383586 -0.015256667870220562 0 -0.012373924182675113 -0.015232513614950373 0 -0.012480231204403305 -0.015046738881886661 0 -0.011555225191547201 -0.015203837039002768 0 -0.012131243633149272 -0.014999808614182746 0 -0.011238180799309746 -0.014999814910450009 0 -0.013022826029448971 -0.015484142493608324 0 -0.01167747042741234 -0.015177409570112132 0 -0.011555225191547201 -0.015203837039002768 0 -0.011660774347121653 -0.015599672156434022 0 -0.011113322494463954 -0.015185114535564405 0 -0.011555225191547201 -0.015203837039002768 0 -0.011986433489304806 -0.015241899884486961 0 -0.011660774347121653 -0.015599672156434022 0 -0.012131243633149272 -0.014999808614182746 0 -0.011986433489304806 -0.015241899884486961 0 -0.012304859029932173 -0.015257803095882219 0 -0.011555225191547201 -0.015203837039002768 0 -0.012131243633149272 -0.014999808614182746 0 -0.011986433489304806 -0.015241899884486961 0 -0.012304859029932173 -0.015257803095882219 0 -0.012060771787464371 -0.01527896806000004 0 -0.012403492343163425 -0.015273414313929668 0 -0.011986433489304806 -0.015241899884486961 0 -0.012304859029932173 -0.015257803095882219 0 -0.012060771787464371 -0.01527896806000004 0 -0.012608218077456075 -0.015180267082876807 0 -0.012304859029932173 -0.015257803095882219 0 -0.012403492343163425 -0.015273414313929668 0 -0.014919415791726063 -0.016479485708294054 0 -0.01489109761626573 -0.015180471169305076 0 -0.013995519680792963 -0.015712500123528712 0 -0.012074113888338551 -0.015559885283649846 0 -0.013022826029448971 -0.015484142493608324 0 -0.013022826029448971 -0.015484142493608324 0 -0.013251962023690682 -0.015493740375193535 0 -0.013022826029448971 -0.015484142493608324 0 -0.014463319988599085 -0.015265274313784704 0 -0.012848916605971565 -0.015269812210386218 0 -0.013002604022058193 -0.015250536694105333 0 -0.012983369592409914 -0.01512915072530038 0 -0.01489109761626573 -0.015180471169305076 0 -0.015374105079667964 -0.014266281206705266 0 -0.015844671484254936 -0.015477924765736647 0 -0.014919415791726063 -0.016479485708294054 0 -0.01489109761626573 -0.015180471169305076 0 -0.015844671484254936 -0.015477924765736647 0 -0.01489109761626573 -0.015180471169305076 0 -0.014333342957918752 -0.014506452260254109 0 -0.015374105079667964 -0.014266281206705266 0 -0.013995519680792963 -0.015712500123528712 0 -0.014333342957918752 -0.014506452260254109 0 -0.012955962266647785 -0.014884808406558673 0 -0.01489109761626573 -0.015180471169305076 0 -0.013995519680792963 -0.015712500123528712 0 -0.014333342957918752 -0.014506452260254109 0 -0.013251962023690682 -0.015493740375193535 0 -0.012876565729991556 -0.014961271003918478 0 -0.012608218077456075 -0.015180267082876807 0 -0.012403492343163425 -0.015273414313929668 0 -0.012955962266647785 -0.014884808406558673 0 -0.013893222922324835 -0.013718729985260884 0 -0.014333342957918752 -0.014506452260254109 0 -0.012955962266647785 -0.014884808406558673 0 -0.013893222922324835 -0.013718729985260884 0 -0.014333342957918752 -0.014506452260254109 0 -0.014768150094320092 -0.013376899333436477 0 -0.014333342957918752 -0.014506452260254109 0 -0.015374105079667964 -0.014266281206705266 0 -0.014768150094320092 -0.013376899333436477 0 -0.015374105079667964 -0.014266281206705266 0 -0.014768150094320092 -0.013376899333436477 0 -0.015877191603884337 -0.013193174481731304 0 -0.011663458282020218 -0.014441308830430405 0 -0.012480231204403305 -0.015046738881886661 0 -0.012444034391518172 -0.014299972102413655 0 -0.011663458282020218 -0.014441308830430405 0 -0.012373924182675113 -0.015232513614950373 0 -0.012480231204403305 -0.015046738881886661 0 -0.012480231204403305 -0.015046738881886661 0 -0.012955962266647785 -0.014884808406558673 0 -0.012444034391518172 -0.014299972102413655 0 -0.012608218077456075 -0.015180267082876807 0 -0.012480231204403305 -0.015046738881886661 0 -0.012955962266647785 -0.014884808406558673 0 -0.013893222922324835 -0.013718729985260884 0 -0.012955962266647785 -0.014884808406558673 0 -0.013020777609476435 -0.01347116425700901 0 -0.012955962266647785 -0.014884808406558673 0 -0.012444034391518172 -0.014299972102413655 0 -0.013020777609476435 -0.01347116425700901 0 -0.012444034391518172 -0.014299972102413655 0 -0.012173869727766141 -0.013418116122132633 0 -0.013020777609476435 -0.01347116425700901 0 -0.011663458282020218 -0.014441308830430405 0 -0.012173869727766141 -0.013418116122132633 0 -0.011250610693492556 -0.012948903626198648 0 -0.011663458282020218 -0.014441308830430405 0 -0.012444034391518172 -0.014299972102413655 0 -0.012173869727766141 -0.013418116122132633 0 -0.013481972613976606 -0.011434852555074933 0 -0.014137816268437997 -0.012851820469383964 0 -0.012173869727766141 -0.013418116122132633 0 -0.012656174989176892 -0.012169742305679916 0 -0.011250610693492556 -0.012948903626198648 0 -0.013020777609476435 -0.01347116425700901 0 -0.012656174989176892 -0.012169742305679916 0 -0.014045564094314657 -0.012714912167076627 0 -0.012173869727766141 -0.013418116122132633 0 -0.013020777609476435 -0.01347116425700901 0 -0.012656174989176892 -0.012169742305679916 0 -0.014689152516072973 -0.010862907198606718 0 -0.014691411408859994 -0.010802790236517616 0 -0.014677227331808094 -0.010845267358338649 0 -0.014689152516072973 -0.010862907198606718 0 -0.014617438457383954 -0.011201993598348831 0 -0.014677227331808094 -0.010845267358338649 0 -0.014689152516072973 -0.010862907198606718 0 -0.014691411408859994 -0.010802790236517616 0 -0.014635480427064947 -0.010897864899065381 0 -0.014768150094320092 -0.013376899333436477 0 -0.014045564094314657 -0.012714912167076627 0 -0.015258948151431733 -0.012227750746482675 0 -0.014768150094320092 -0.013376899333436477 0 -0.015258948151431733 -0.012227750746482675 0 -0.015877191603884337 -0.013193174481731304 0 -0.013893222922324835 -0.013718729985260884 0 -0.014768150094320092 -0.013376899333436477 0 -0.014045564094314657 -0.012714912167076627 0 -0.013893222922324835 -0.013718729985260884 0 -0.013020777609476435 -0.01347116425700901 0 -0.014045564094314657 -0.012714912167076627 0 -0.013481972613976606 -0.011434852555074933 0 -0.014671440816941616 -0.011210816731000424 0 -0.014045564094314657 -0.012714912167076627 0 -0.014617438457383954 -0.011201993598348831 0 -0.015258948151431733 -0.012227750746482675 0 -0.012656174989176892 -0.012169742305679916 0 -0.014045564094314657 -0.012714912167076627 0 -0.014617438457383954 -0.011201993598348831 0 -0.014617438457383954 -0.011201993598348831 0 -0.015258948151431733 -0.012227750746482675 0 -0.0156292633040849 -0.011169636751031451 0 -0.011809927880287233 -0.011095532155472787 0 -0.0120950976299843 -0.0114152527883748 0 -0.012337771363150458 -0.010917589166983247 0 -0.014617438457383954 -0.011201993598348831 0 -0.014861519273558449 -0.010618979583235119 0 -0.0156292633040849 -0.011169636751031451 0 -0.013765056744998243 -0.010665500841073924 0 -0.013798789150902199 -0.011292536443497666 0 -0.014617438457383954 -0.011201993598348831 0 -0.014686871714504387 -0.010815429606332741 0 -0.014677227331808094 -0.010845267358338649 0 -0.014617438457383954 -0.011201993598348831 0 -0.014686871714504387 -0.010815429606332741 0 -0.014861519273558449 -0.010618979583235119 0 -0.014984626580887006 -0.010663928559289467 0 -0.013765056744998243 -0.010665500841073924 0 -0.013765056744998243 -0.010665500841073924 0 -0.014587918849237391 -0.010153839843593459 0 -0.014686871714504387 -0.010815429606332741 0 -0.014808616334902606 -0.010777412521880915 0 -0.014775112088788482 -0.010585128320061636 0 -0.013765056744998243 -0.010665500841073924 0 -0.012681014059643095 -0.010328365008048099 0 -0.014691411408859994 -0.010802790236517616 0 -0.014677227331808094 -0.010845267358338649 0 -0.014715364276787954 -0.010703615463742966 0 -0.014691411408859994 -0.010802790236517616 0 -0.014715364276787954 -0.010703615463742966 0 -0.014715849446295018 -0.010673634566394434 0 -0.014686871714504387 -0.010815429606332741 0 -0.014677227331808094 -0.010845267358338649 0 -0.014725313561155423 -0.010699016348727683 0 -0.014677227331808094 -0.010845267358338649 0 -0.014725313561155423 -0.010699016348727683 0 -0.014715364276787954 -0.010703615463742966 0 -0.014686871714504387 -0.010815429606332741 0 -0.014725313561155423 -0.010699016348727683 0 -0.014775112088788482 -0.010585128320061636 0 -0.014725313561155423 -0.010699016348727683 0 -0.01475398520529103 -0.010541855340145196 0 -0.014775112088788482 -0.010585128320061636 0 -0.014715364276787954 -0.010703615463742966 0 -0.014715849446295018 -0.010673634566394434 0 -0.01475398520529103 -0.010541855340145196 0 -0.014725313561155423 -0.010699016348727683 0 -0.014715364276787954 -0.010703615463742966 0 -0.01475398520529103 -0.010541855340145196 0 -0.014789630184684426 -0.010565747570732672 0 -0.014715849446295018 -0.010673634566394434 0 -0.01475398520529103 -0.010541855340145196 0 -0.014789630184684426 -0.010565747570732672 0 -0.014715849446295018 -0.010673634566394434 0 -0.014637748755587021 -0.010775826725257702 0 -0.015261953480876188 -0.010862104844626599 0 -0.01552067918019949 -0.011159647005951939 0 -0.014691411408859994 -0.010802790236517616 0 -0.014715849446295018 -0.010673634566394434 0 -0.014637748755587021 -0.010775826725257702 0 -0.01574079094516196 -0.010981909921247144 0 -0.016183460277829624 -0.011944040367255125 0 -0.015667508838618158 -0.011482067156759168 0 -0.016183460277829624 -0.011944040367255125 0 -0.015667508838618158 -0.011482067156759168 0 -0.015975587592762922 -0.012148384378495209 0 -0.015730945935716657 -0.011878879351923997 0 -0.015645551516852072 -0.012411330568462347 0 -0.015975587592762922 -0.012148384378495209 0 -0.015514165650615471 -0.01168658035631125 0 -0.015930870887932068 -0.012099302145958772 0 -0.015667508838618158 -0.011482067156759168 0 -0.015241853870542251 -0.011486324801510572 0 -0.015975587592762922 -0.012148384378495209 0 -0.015667508838618158 -0.011482067156759168 0 -0.015305908342428965 -0.010911678995726344 0 -0.015241853870542251 -0.011486324801510572 0 -0.01574079094516196 -0.010981909921247144 0 -0.015667508838618158 -0.011482067156759168 0 -0.015305908342428965 -0.010911678995726344 0 -0.015305908342428965 -0.010911678995726344 0 -0.015034918003454748 -0.011045054949142914 0 -0.015241853870542251 -0.011486324801510572 0 -0.015402916761207083 -0.011476008253249266 0 -0.015000025143091081 -0.011977375926897765 0 -0.01499993007682132 -0.011034582352116512 0 -0.015210636140537397 -0.011274841951849987 0 -0.015514165650615471 -0.01168658035631125 0 -0.015402916761207083 -0.011476008253249266 0 -0.015000025143091081 -0.011977375926897765 0 -0.015426970696696211 -0.012111903191500429 0 -0.015426970696696211 -0.012111903191500429 0 -0.015730945935716657 -0.011878879351923997 0 -0.015645551516852072 -0.012411330568462347 0 -0.015402916761207083 -0.011476008253249266 0 -0.015426970696696211 -0.012111903191500429 0 -0.015730945935716657 -0.011878879351923997 0 -0.014999381866837504 -0.013261092524867849 0 -0.015000025143091081 -0.011977375926897765 0 -0.015313308487877058 -0.0128552167366528 0 -0.015426970696696211 -0.012111903191500429 0 -0.015645551516852072 -0.012411330568462347 0 -0.015313308487877058 -0.0128552167366528 0 -0.015000025143091081 -0.011977375926897765 0 -0.015426970696696211 -0.012111903191500429 0 -0.015313308487877058 -0.0128552167366528 0 -0.015645551516852072 -0.012411330568462347 0 -0.015313308487877058 -0.0128552167366528 0 -0.015761972067661802 -0.013000010715835217 0 -0.01502877022533656 -0.013547844928616125 0 -0.015313308487877058 -0.0128552167366528 0 -0.015761972067661802 -0.013000010715835217 0 -0.015311514328430899 -0.013805661656136814 0 -0.014137816268437997 -0.012851820469383964 0 -0.015645551516852072 -0.012411330568462347 0 -0.015761972067661802 -0.013000010715835217 0 -0.016274949532560982 -0.012696823954387069 0 -0.01552067918019949 -0.011159647005951939 0 -0.014137816268437997 -0.012851820469383964 0 -0.014691411408859994 -0.010802790236517616 0 -0.014637748755587021 -0.010775826725257702 0 -0.014635480427064947 -0.010897864899065381 0 -0.016183460277829624 -0.011944040367255125 0 -0.016274949532560982 -0.012696823954387069 0 -0.015975587592762922 -0.012148384378495209 0 -0.015645551516852072 -0.012411330568462347 0 -0.016274949532560982 -0.012696823954387069 0 -0.015975587592762922 -0.012148384378495209 0 -0.0082169457814138067 -0.016328981528767342 0 -0.0077011641785000862 -0.016138819145400295 0 -0.0073810385326815503 -0.01649950470424847 0 -0.0086047859701859405 -0.016002485312108287 0 -0.0071347679559273921 -0.016323761440140649 0 -0.0074366925666687093 -0.016181456479336654 0 -0.0080571415064419425 -0.015878141925055881 0 -0.0070922013632993995 -0.016103880879721654 0 -0.0074366925666687093 -0.016181456479336654 0 -0.0071322863671242805 -0.016497743644622712 0 -0.0070922013632993995 -0.016103880879721654 0 -0.0077657058885440538 -0.01610310398390891 0 -0.0088600915520818425 -0.015980303384711025 0 -0.0074366925666687093 -0.016181456479336654 0 -0.0079106795787267023 -0.016325958945286288 0 -0.0076279584488827988 -0.016560125900465426 0 -0.0074366925666687093 -0.016181456479336654 0 -0.0079106795787267023 -0.016325958945286288 0 -0.0080571415064419425 -0.015878141925055881 0 -0.0091683313583946387 -0.015914266029490084 0 -0.0096059051951583423 -0.015665776926575937 0 -0.0097899175519814124 -0.015537663191697422 0 -0.009430470832810043 -0.015803062845419553 0 -0.0094697779171740385 -0.015539461683768938 0 -0.0091683313583946387 -0.015914266029490084 0 -0.0086047859701859405 -0.016002485312108287 0 -0.0095341937953975879 -0.015724727585615109 0 -0.0095045859362505782 -0.015823282947411962 0 -0.009430470832810043 -0.015803062845419553 0 -0.0095045859362505782 -0.015823282947411962 0 -0.0094665570269149221 -0.015833766793290315 0 -0.009430470832810043 -0.015803062845419553 0 -0.0086047859701859405 -0.016002485312108287 0 -0.0091527845231875321 -0.015889067080983525 0 -0.0082169457814138067 -0.016328981528767342 0 -0.00798878146360937 -0.015982430403552711 0 -0.0077011641785000862 -0.016138819145400295 0 -0.0095210074131435764 -0.015821945416329336 0 -0.0094665570269149221 -0.015833766793290315 0 -0.0094728440412250869 -0.015973522196285565 0 -0.0086047859701859405 -0.016002485312108287 0 -0.008752751426005019 -0.015895961579283132 0 -0.0082169457814138067 -0.016328981528767342 0 -0.0083421765554515994 -0.015945876223470202 0 -0.00798878146360937 -0.015982430403552711 0 -0.00798878146360937 -0.015982430403552711 0 -0.0077011641785000862 -0.016138819145400295 0 -0.0076876858989957577 -0.015839277685061118 0 -0.0077011641785000862 -0.016138819145400295 0 -0.0076876858989957577 -0.015839277685061118 0 -0.0072247608788947003 -0.016045147600748627 0 -0.0074966347433848687 -0.015481182896275411 0 -0.0076876858989957577 -0.015839277685061118 0 -0.0081055296713925529 -0.015466222993949272 0 -0.0074966347433848687 -0.015481182896275411 0 -0.0076876858989957577 -0.015839277685061118 0 -0.0072247608788947003 -0.016045147600748627 0 -0.0074966347433848687 -0.015481182896275411 0 -0.007907327918817297 -0.014999971778695779 0 -0.0071001794193404849 -0.014999965151100813 0 -0.0074966347433848687 -0.015481182896275411 0 -0.007907327918817297 -0.014999971778695779 0 -0.0081055296713925529 -0.015466222993949272 0 -0.0079075317317682491 -0.015000136390509407 0 -0.0081190763191378492 -0.015476202587454574 0 -0.0079074827445022103 -0.014999996729551709 0 -0.0081651125133026248 -0.01550893218669613 0 -0.0087629213155690656 -0.014999999015703598 0 -0.008752751426005019 -0.015895961579283132 0 -0.0081190763191378492 -0.015476202587454574 0 -0.0084212019887236061 -0.0160143864657558 0 -0.0081651125133026248 -0.01550893218669613 0 -0.0085902636416479734 -0.015508426273361041 0 -0.00798878146360937 -0.015982430403552711 0 -0.0076876858989957577 -0.015839277685061118 0 -0.0081055296713925529 -0.015466222993949272 0 -0.0083421765554515994 -0.015945876223470202 0 -0.00798878146360937 -0.015982430403552711 0 -0.0081055296713925529 -0.015466222993949272 0 -0.008752751426005019 -0.015895961579283132 0 -0.0086587256917131615 -0.01547622911734986 0 -0.0086872244506718942 -0.015807629155557997 0 -0.0087416626478167472 -0.015442619731481659 0 -0.0090112606849992484 -0.015833273203490469 0 -0.0087416626478167472 -0.015442619731481659 0 -0.0091432108424385067 -0.015363764236223383 0 -0.0090112606849992484 -0.015833273203490469 0 -0.0081651125133026248 -0.01550893218669613 0 -0.0085902636416479734 -0.015508426273361041 0 -0.0087629213155690656 -0.014999999015703598 0 -0.0086587256917131615 -0.01547622911734986 0 -0.0087629302170272524 -0.01500010526432841 0 -0.0087416626478167472 -0.015442619731481659 0 -0.0087631927129798674 -0.015000022641372717 0 -0.0091432108424385067 -0.015363764236223383 0 -0.0087631927129798674 -0.015000022641372717 0 -0.0091432108424385067 -0.015363764236223383 0 -0.0095462314593574554 -0.014999950855484586 0 -0.0091432108424385067 -0.015363764236223383 0 -0.0093274846999612682 -0.015760361909005004 0 -0.0095998584124197921 -0.015484722268732817 0 -0.0091432108424385067 -0.015363764236223383 0 -0.0093274846999612682 -0.015760361909005004 0 -0.0090112606849992484 -0.015833273203490469 0 -0.0092710695446604641 -0.015993560250614425 0 -0.0090112606849992484 -0.015833273203490469 0 -0.0091155081676916137 -0.016143864092788025 0 -0.0093274846999612682 -0.015760361909005004 0 -0.0092710695446604641 -0.015993560250614425 0 -0.0090112606849992484 -0.015833273203490469 0 -0.0090112606849992484 -0.015833273203490469 0 -0.008887084830532849 -0.016085579250369294 0 -0.0091155081676916137 -0.016143864092788025 0 -0.0094728440412250869 -0.015973522196285565 0 -0.0093823486626402035 -0.015793760789695514 0 -0.009430470832810043 -0.015803062845419553 0 -0.008752751426005019 -0.015895961579283132 0 -0.0091356030235199993 -0.015950818204984948 0 -0.0086872244506718942 -0.015807629155557997 0 -0.0090112606849992484 -0.015833273203490469 0 -0.008887084830532849 -0.016085579250369294 0 -0.0094665570269149221 -0.015833766793290315 0 -0.0094728440412250869 -0.015973522196285565 0 -0.009430470832810043 -0.015803062845419553 0 -0.0093823486626402035 -0.015793760789695514 0 -0.0094697779171740385 -0.015539461683768938 0 -0.0091908157605407794 -0.015412441785607882 0 -0.0091356030235199993 -0.015950818204984948 0 -0.010005925485150507 -0.015452871729793502 0 -0.008887084830532849 -0.016085579250369294 0 -0.0091155081676916137 -0.016143864092788025 0 -0.0090530488710981911 -0.01634607443940202 0 -0.0093823486626402035 -0.015793760789695514 0 -0.009430470832810043 -0.015803062845419553 0 -0.0094697779171740385 -0.015539461683768938 0 -0.0093174477997134651 -0.016212767137813989 0 -0.0091155081676916137 -0.016143864092788025 0 -0.0090530488710981911 -0.01634607443940202 0 -0.0092710695446604641 -0.015993560250614425 0 -0.0093174477997134651 -0.016212767137813989 0 -0.0094085453683010727 -0.016038225082649078 0 -0.0092710695446604641 -0.015993560250614425 0 -0.0093174477997134651 -0.016212767137813989 0 -0.0091155081676916137 -0.016143864092788025 0 -0.0094935429929356701 -0.015986852386831989 0 -0.0092582020710689841 -0.01597038029268754 0 -0.0096329523456942182 -0.015204325890262212 0 -0.010112212229681955 -0.015762886665711667 0 -0.0094935429929356701 -0.015986852386831989 0 -0.0096329523456942182 -0.015204325890262212 0 -0.0094935429929356701 -0.015986852386831989 0 -0.0094085453683010727 -0.016038225082649078 0 -0.009503946793296832 -0.016000249928576914 0 -0.0094935429929356701 -0.015986852386831989 0 -0.0092582020710689841 -0.01597038029268754 0 -0.009503946793296832 -0.016000249928576914 0 -0.0093174477997134651 -0.016212767137813989 0 -0.0094935429929356701 -0.015986852386831989 0 -0.0094085453683010727 -0.016038225082649078 0 -0.0096544924008064061 -0.015985162643846994 0 -0.0095337725283911982 -0.016002930851684877 0 -0.011270172930598525 -0.014934963093548286 0 -0.013637997298931297 -0.013106854312210427 0 -0.012976232214138243 -0.014589644056113576 0 -0.012764770095374888 -0.014643266210288986 0 -0.012798988524958591 -0.014396881531077462 0 -0.011270172930598525 -0.014934963093548286 0 -0.011491501910725054 -0.015531609789543441 0 -0.012976232214138243 -0.014589644056113576 0 -0.012791535437618346 -0.01485429225397031 0 -0.012764770095374888 -0.014643266210288986 0 -0.011270172930598525 -0.014934963093548286 0 -0.0095405608719064047 -0.016021510623319034 0 -0.010046048718501205 -0.016460259541371595 0 -0.01000822754811756 -0.016161330140542773 0 -0.0096953947758037003 -0.016133143381504855 0 -0.0099931377155995371 -0.015936505813648392 0 -0.010201966273221003 -0.01569391541774082 0 -0.01029454172750296 -0.016114586635402942 0 -0.01000822754811756 -0.016161330140542773 0 -0.0099931377155995371 -0.015936505813648392 0 -0.0096953947758037003 -0.016133143381504855 0 -0.01000822754811756 -0.016161330140542773 0 -0.0099931377155995371 -0.015936505813648392 0 -0.01029454172750296 -0.016114586635402942 0 -0.010046048718501205 -0.016460259541371595 0 -0.01000822754811756 -0.016161330140542773 0 -0.01029454172750296 -0.016114586635402942 0 -0.0099931377155995371 -0.015936505813648392 0 -0.0096953947758037003 -0.016133143381504855 0 -0.0097032501610299342 -0.015780607088591844 0 -0.0092710695446604641 -0.015993560250614425 0 -0.0094085453683010727 -0.016038225082649078 0 -0.009503946793296832 -0.016000249928576914 0 -0.0093274846999612682 -0.015760361909005004 0 -0.0092710695446604641 -0.015993560250614425 0 -0.009503946793296832 -0.016000249928576914 0 -0.0093685821457142691 -0.015812061880222387 0 -0.0095405608719064047 -0.016021510623319034 0 -0.0093274846999612682 -0.015760361909005004 0 -0.0096953947758037003 -0.016133143381504855 0 -0.0097032501610299342 -0.015780607088591844 0 -0.0093274846999612682 -0.015760361909005004 0 -0.0097032501610299342 -0.015780607088591844 0 -0.0095998584124197921 -0.015484722268732817 0 -0.0097032501610299342 -0.015780607088591844 0 -0.0095998584124197921 -0.015484722268732817 0 -0.0098946796683709193 -0.015608498311389 0 -0.0095998584124197921 -0.015484722268732817 0 -0.0095462314593574554 -0.014999950855484586 0 -0.010013497966891717 -0.015340075387610437 0 -0.0091432108424385067 -0.015363764236223383 0 -0.0095998584124197921 -0.015484722268732817 0 -0.0095462314593574554 -0.014999950855484586 0 -0.0095462314593574554 -0.014999950855484586 0 -0.010013497966891717 -0.015340075387610437 0 -0.010329489490258564 -0.014999967194805125 0 -0.010013497966891717 -0.015340075387610437 0 -0.010422132705085 -0.015385408186274447 0 -0.010329489490258564 -0.014999967194805125 0 -0.010013497966891717 -0.015340075387610437 0 -0.010201966273221003 -0.01569391541774082 0 -0.010422132705085 -0.015385408186274447 0 -0.0095998584124197921 -0.015484722268732817 0 -0.010013497966891717 -0.015340075387610437 0 -0.0098946796683709193 -0.015608498311389 0 -0.010013497966891717 -0.015340075387610437 0 -0.0098946796683709193 -0.015608498311389 0 -0.010201966273221003 -0.01569391541774082 0 -0.0099931377155995371 -0.015936505813648392 0 -0.0097032501610299342 -0.015780607088591844 0 -0.0098946796683709193 -0.015608498311389 0 -0.0099931377155995371 -0.015936505813648392 0 -0.0098946796683709193 -0.015608498311389 0 -0.010201966273221003 -0.01569391541774082 0 -0.010623172356127294 -0.015839419496616089 0 -0.010481511643961246 -0.015422742427795741 0 -0.010700548856031087 -0.015301144572983866 0 -0.011719723997466803 -0.015414332044300705 0 -0.010502243392307056 -0.015389394117842911 0 -0.010201966273221003 -0.01569391541774082 0 -0.010544322081241396 -0.015771281191803418 0 -0.010422132705085 -0.015385408186274447 0 -0.010481511643961246 -0.015422742427795741 0 -0.010700548856031087 -0.015301144572983866 0 -0.010329616212168368 -0.014999999258860352 0 -0.010700548856031087 -0.015301144572983866 0 -0.010757980293372944 -0.014999991613529256 0 -0.010329616212168368 -0.014999999258860352 0 -0.010502243392307056 -0.015389394117842911 0 -0.010329629974064926 -0.015000118103699191 0 -0.010757992405287622 -0.014999999222813263 0 -0.011237939187799943 -0.014999999307210877 0 -0.011056526071126884 -0.015254418144386534 0 -0.011238042412975557 -0.015000333527523689 0 -0.01167747042741234 -0.015177409570112132 0 -0.011555225191547201 -0.015203837039002768 0 -0.011238180799309746 -0.014999814910450009 0 -0.011113322494463954 -0.015185114535564405 0 -0.010700548856031087 -0.015301144572983866 0 -0.010757980293372944 -0.014999991613529256 0 -0.011047438167081801 -0.015246388586451205 0 -0.010758044638824484 -0.014999843897600522 0 -0.01167747042741234 -0.015177409570112132 0 -0.013172774487535024 -0.015191503382584504 0 -0.013002604022058193 -0.015250536694105333 0 -0.012983369592409914 -0.01512915072530038 0 -0.013172774487535024 -0.015191503382584504 0 -0.013005511025085152 -0.015411040142393039 0 -0.013002604022058193 -0.015250536694105333 0 -0.012848916605971565 -0.015269812210386218 0 -0.013005511025085152 -0.015411040142393039 0 -0.013002604022058193 -0.015250536694105333 0 -0.010623172356127294 -0.015839419496616089 0 -0.010700548856031087 -0.015301144572983866 0 -0.011047438167081801 -0.015246388586451205 0 -0.011719723997466803 -0.015414332044300705 0 -0.01167747042741234 -0.015177409570112132 0 -0.015374105079667964 -0.014266281206705266 0 -0.015844671484254936 -0.015477924765736647 0 -0.016052090282353063 -0.014478643687014124 0 -0.013172774487535024 -0.015191503382584504 0 -0.012983369592409914 -0.01512915072530038 0 -0.01312255685143786 -0.014985008829680971 0 -0.015844671484254936 -0.015477924765736647 0 -0.016052090282353063 -0.014478643687014124 0 -0.016729771698738155 -0.014487231337423859 0 -0.014463319988599085 -0.015265274313784704 0 -0.014703527237036022 -0.014626954903331435 0 -0.010201966273221003 -0.01569391541774082 0 -0.010544322081241396 -0.015771281191803418 0 -0.01029454172750296 -0.016114586635402942 0 -0.011719723997466803 -0.015414332044300705 0 -0.014703527237036022 -0.014626954903331435 0 -0.012602263950675143 -0.015119561392628844 0 -0.012791535437618346 -0.01485429225397031 0 -0.012491225354853454 -0.014732165143684051 0 -0.011719723997466803 -0.015414332044300705 0 -0.011491501910725054 -0.015531609789543441 0 -0.012764770095374888 -0.014643266210288986 0 -0.012491225354853454 -0.014732165143684051 0 -0.012798988524958591 -0.014396881531077462 0 -0.016582547667057461 -0.014048837317301775 0 -0.016843373845490024 -0.013153736925186 0 -0.017726268455244158 -0.013314346454344289 0 -0.014703527237036022 -0.014626954903331435 0 -0.013637997298931297 -0.013106854312210427 0 -0.016702408816693572 -0.014445830984523714 0 -0.016582547667057461 -0.014048837317301775 0 -0.017726268455244158 -0.013314346454344289 0 -0.012791535437618346 -0.01485429225397031 0 -0.012764770095374888 -0.014643266210288986 0 -0.012491225354853454 -0.014732165143684051 0 -0.016344613452159009 -0.013571976114757786 0 -0.016582547667057461 -0.014048837317301775 0 -0.016843373845490024 -0.013153736925186 0 -0.016344613452159009 -0.013571976114757786 0 -0.016070504772533301 -0.013897281768071803 0 -0.016582547667057461 -0.014048837317301775 0 -0.015374105079667964 -0.014266281206705266 0 -0.016070504772533301 -0.013897281768071803 0 -0.015877191603884337 -0.013193174481731304 0 -0.016344613452159009 -0.013571976114757786 0 -0.016070504772533301 -0.013897281768071803 0 -0.015877191603884337 -0.013193174481731304 0 -0.015374105079667964 -0.014266281206705266 0 -0.016070504772533301 -0.013897281768071803 0 -0.016052090282353063 -0.014478643687014124 0 -0.016052090282353063 -0.014478643687014124 0 -0.016729771698738155 -0.014487231337423859 0 -0.016582547667057461 -0.014048837317301775 0 -0.016070504772533301 -0.013897281768071803 0 -0.016052090282353063 -0.014478643687014124 0 -0.016582547667057461 -0.014048837317301775 0 -0.014703527237036022 -0.014626954903331435 0 -0.015297219480133253 -0.014569056185240983 0 -0.015258948151431733 -0.012227750746482675 0 -0.015877191603884337 -0.013193174481731304 0 -0.0166953810648337 -0.012231328491036027 0 -0.015877191603884337 -0.013193174481731304 0 -0.016843373845490024 -0.013153736925186 0 -0.0166953810648337 -0.012231328491036027 0 -0.016344613452159009 -0.013571976114757786 0 -0.015877191603884337 -0.013193174481731304 0 -0.016843373845490024 -0.013153736925186 0 -0.012727389712453064 -0.012108273210053436 0 -0.012407295761687347 -0.011774284923188601 0 -0.01275511327920751 -0.011704626780948609 0 -0.016843373845490024 -0.013153736925186 0 -0.017726268455244158 -0.013314346454344289 0 -0.0166953810648337 -0.012231328491036027 0 -0.013637997298931297 -0.013106854312210427 0 -0.014739583411369684 -0.012057122761165088 0 -0.012407295761687347 -0.011774284923188601 0 -0.012449882488903162 -0.011390252995411581 0 -0.01275511327920751 -0.011704626780948609 0 -0.012407295761687347 -0.011774284923188601 0 -0.0120950976299843 -0.0114152527883748 0 -0.012449882488903162 -0.011390252995411581 0 -0.015258948151431733 -0.012227750746482675 0 -0.0166953810648337 -0.012231328491036027 0 -0.0156292633040849 -0.011169636751031451 0 -0.014739583411369684 -0.012057122761165088 0 -0.013798789150902199 -0.011292536443497666 0 -0.0120950976299843 -0.0114152527883748 0 -0.012337771363150458 -0.010917589166983247 0 -0.012449882488903162 -0.011390252995411581 0 -0.013840448314394602 -0.0095535432444218606 0 -0.013400201347491175 -0.0097902734163712174 0 -0.013528167446754613 -0.0099514080119008329 0 -0.012681014059643095 -0.010328365008048099 0 -0.013167707097704071 -0.010384237547580121 0 -0.012337771363150458 -0.010917589166983247 0 -0.012776963643109299 -0.011243419060522187 0 -0.012914961734217282 -0.010674280579897499 0 -0.012337771363150458 -0.010917589166983247 0 -0.012449882488903162 -0.011390252995411581 0 -0.012776963643109299 -0.011243419060522187 0 -0.012449882488903162 -0.011390252995411581 0 -0.012776963643109299 -0.011243419060522187 0 -0.01275511327920751 -0.011704626780948609 0 -0.012776963643109299 -0.011243419060522187 0 -0.0131083374650839 -0.011344581453049793 0 -0.012938674789864388 -0.011500987829211714 0 -0.012776963643109299 -0.011243419060522187 0 -0.013021069867694808 -0.011062120200469485 0 -0.0131083374650839 -0.011344581453049793 0 -0.012776963643109299 -0.011243419060522187 0 -0.013021069867694808 -0.011062120200469485 0 -0.012914961734217282 -0.010674280579897499 0 -0.01332444902387237 -0.011056952214808661 0 -0.013608617829061666 -0.010826651451394389 0 -0.012914961734217282 -0.010674280579897499 0 -0.013021069867694808 -0.011062120200469485 0 -0.01332444902387237 -0.011056952214808661 0 -0.012914961734217282 -0.010674280579897499 0 -0.01332444902387237 -0.011056952214808661 0 -0.0131083374650839 -0.011344581453049793 0 -0.013590449896641734 -0.011519808976619443 0 -0.013449791748768355 -0.010889301727119736 0 -0.012001421903133544 -0.012720610702631498 0 -0.013021069867694808 -0.011062120200469485 0 -0.01332444902387237 -0.011056952214808661 0 -0.0131083374650839 -0.011344581453049793 0 -0.013127645871898602 -0.011708492419787024 0 -0.013221284400729678 -0.012158597251033508 0 -0.013590449896641734 -0.011519808976619443 0 -0.0131083374650839 -0.011344581453049793 0 -0.013127645871898602 -0.011708492419787024 0 -0.013590449896641734 -0.011519808976619443 0 -0.011397814012940261 -0.013667093798528976 0 -0.012001421903133544 -0.012720610702631498 0 -0.013127645871898602 -0.011708492419787024 0 -0.01275511327920751 -0.011704626780948609 0 -0.012938674789864388 -0.011500987829211714 0 -0.012776963643109299 -0.011243419060522187 0 -0.01275511327920751 -0.011704626780948609 0 -0.012938674789864388 -0.011500987829211714 0 -0.0131083374650839 -0.011344581453049793 0 -0.013127645871898602 -0.011708492419787024 0 -0.012938674789864388 -0.011500987829211714 0 -0.012307850630509655 -0.012549330907942902 0 -0.013127645871898602 -0.011708492419787024 0 -0.013221284400729678 -0.012158597251033508 0 -0.011270172930598525 -0.014934963093548286 0 -0.011397814012940261 -0.013667093798528976 0 -0.013637997298931297 -0.013106854312210427 0 -0.01277882112811389 -0.011553283468294873 0 -0.012727389712453064 -0.012108273210053436 0 -0.013127645871898602 -0.011708492419787024 0 -0.01275511327920751 -0.011704626780948609 0 -0.012678939642041963 -0.012945742473039838 0 -0.012307850630509655 -0.012549330907942902 0 -0.013221284400729678 -0.012158597251033508 0 -0.010112212229681955 -0.015762886665711667 0 -0.0096329523456942182 -0.015204325890262212 0 -0.010743296577932566 -0.01551407872446289 0 -0.0096329523456942182 -0.015204325890262212 0 -0.010743296577932566 -0.01551407872446289 0 -0.010212601377491594 -0.014382597912073329 0 -0.0096544924008064061 -0.015985162643846994 0 -0.010005925485150507 -0.015452871729793502 0 -0.011204116170664989 -0.014171050731957529 0 -0.011627177366193063 -0.013996359135449398 0 -0.011371164035916813 -0.013541894290496091 0 -0.010005925485150507 -0.015452871729793502 0 -0.010687625927278193 -0.014600585654251126 0 -0.0094697779171740385 -0.015539461683768938 0 -0.0091908157605407794 -0.015412441785607882 0 -0.0095346963634215329 -0.015264859372370354 0 -0.011627177366193063 -0.013996359135449398 0 -0.011371164035916813 -0.013541894290496091 0 -0.011679048468240605 -0.013608006625129189 0 -0.011371164035916813 -0.013541894290496091 0 -0.0117548428524902 -0.013173511164133877 0 -0.011679048468240605 -0.013608006625129189 0 -0.011204116170664989 -0.014171050731957529 0 -0.011371164035916813 -0.013541894290496091 0 -0.010833807707439918 -0.013382136145019884 0 -0.010005925485150507 -0.015452871729793502 0 -0.012001421903133544 -0.012720610702631498 0 -0.011371164035916813 -0.013541894290496091 0 -0.010833807707439918 -0.013382136145019884 0 -0.011146427984432591 -0.012948161279193425 0 -0.01332444902387237 -0.011056952214808661 0 -0.013532598264681719 -0.01151704415987885 0 -0.013796225619406856 -0.01114537952185464 0 -0.012001421903133544 -0.012720610702631498 0 -0.012546394167048227 -0.011939116725954642 0 -0.013608617829061666 -0.010826651451394389 0 -0.014060612184665236 -0.010671303922274654 0 -0.013797337661928716 -0.010553429537211809 0 -0.01332444902387237 -0.011056952214808661 0 -0.013796225619406856 -0.01114537952185464 0 -0.013608617829061666 -0.010826651451394389 0 -0.013940816906263699 -0.010727684948849599 0 -0.013291534984069282 -0.011392583565758667 0 -0.013796225619406856 -0.01114537952185464 0 -0.013608617829061666 -0.010826651451394389 0 -0.0140333651050001 -0.010797612026893656 0 -0.013608617829061666 -0.010826651451394389 0 -0.0140333651050001 -0.010797612026893656 0 -0.014004786876297083 -0.010738256197937786 0 -0.011396175821347736 -0.014118813096824376 0 -0.011352915653161643 -0.014183676443071674 0 -0.011146103925444434 -0.014046236549232574 0 -0.012656382161350113 -0.012154487425931355 0 -0.013291534984069282 -0.011392583565758667 0 -0.01290749715966941 -0.011434749553528351 0 -0.01284042696711122 -0.011527023143499539 0 -0.012939214650124179 -0.011500323261147969 0 -0.012967940235011546 -0.011625798057696889 0 -0.013291534984069282 -0.011392583565758667 0 -0.012656382161350113 -0.012154487425931355 0 -0.012967940235011546 -0.011625798057696889 0 -0.012546394167048227 -0.011939116725954642 0 -0.012656382161350113 -0.012154487425931355 0 -0.012656382161350113 -0.012154487425931355 0 -0.01146647922264959 -0.013540457350069148 0 -0.011371164035916813 -0.013541894290496091 0 -0.011146427984432591 -0.012948161279193425 0 -0.0117548428524902 -0.013173511164133877 0 -0.011146427984432591 -0.012948161279193425 0 -0.011462296065716953 -0.012513255061678082 0 -0.0117548428524902 -0.013173511164133877 0 -0.011195416545550523 -0.013762659200827299 0 -0.010827757672385401 -0.013875510806273068 0 -0.010984592935299358 -0.013436892642071523 0 -0.011195416545550523 -0.013762659200827299 0 -0.011146103925444434 -0.014046236549232574 0 -0.010827757672385401 -0.013875510806273068 0 -0.011396175821347736 -0.014118813096824376 0 -0.011195416545550523 -0.013762659200827299 0 -0.011146103925444434 -0.014046236549232574 0 -0.011352915653161643 -0.014183676443071674 0 -0.011146103925444434 -0.014046236549232574 0 -0.010963723205383811 -0.014303880283652287 0 -0.011146103925444434 -0.014046236549232574 0 -0.010827757672385401 -0.013875510806273068 0 -0.010963723205383811 -0.014303880283652287 0 -0.010827757672385401 -0.013875510806273068 0 -0.010963723205383811 -0.014303880283652287 0 -0.010655388445624428 -0.01436221400569075 0 -0.010668038933198953 -0.014234571054544917 0 -0.010633157299105335 -0.014388658114569287 0 -0.010430711611915831 -0.014702299902152237 0 -0.010493715715691564 -0.014980935851251967 0 -0.010553291315462909 -0.014843265054506161 0 -0.010441551556412571 -0.014483695199857489 0 -0.010337153523248467 -0.015054052980290103 0 -0.010430711611915831 -0.014702299902152237 0 -0.010284891165182006 -0.015060697738256678 0 -0.010493715715691564 -0.014980935851251967 0 -0.010668038933198953 -0.014234571054544917 0 -0.010441551556412571 -0.014483695199857489 0 -0.010226297471735818 -0.015305490194726231 0 -0.010493715715691564 -0.014980935851251967 0 -0.010608740502877375 -0.014975050129375346 0 -0.01146647922264959 -0.013540457350069148 0 -0.010556489358566835 -0.014333389048334684 0 -0.0117548428524902 -0.013173511164133877 0 -0.011679048468240605 -0.013608006625129189 0 -0.012042646818420745 -0.013826126348398204 0 -0.011195416545550523 -0.013762659200827299 0 -0.010984592935299358 -0.013436892642071523 0 -0.01101828774448128 -0.013423688991505102 0 -0.010282722800987784 -0.014444603376566145 0 -0.010291211486764901 -0.014420231118243419 0 -0.010299987004512741 -0.014437841091317953 0 -0.0099188715464784243 -0.015172727460652785 0 -0.0098919681943398612 -0.015114803776330179 0 -0.0097468678601671452 -0.015319382188245641 0 -0.010441551556412571 -0.014483695199857489 0 -0.010556489358566835 -0.014333389048334684 0 -0.010441551556412571 -0.014483695199857489 0 -0.010160513708883356 -0.014909465159910438 0 -0.010160513708883356 -0.014909465159910438 0 -0.010556489358566835 -0.014333389048334684 0 -0.011627177366193063 -0.013996359135449398 0 -0.011679048468240605 -0.013608006625129189 0 -0.012042646818420745 -0.013826126348398204 0 -0.0095346963634215329 -0.015264859372370354 0 -0.0098919681943398612 -0.015114803776330179 0 -0.0097468678601671452 -0.015319382188245641 0 -0.010687625927278193 -0.014600585654251126 0 -0.010556489358566835 -0.014333389048334684 0 -0.0097899175519814124 -0.015537663191697422 0 -0.0094697779171740385 -0.015539461683768938 0 -0.0097468678601671452 -0.015319382188245641 0 -0.0094697779171740385 -0.015539461683768938 0 -0.0095346963634215329 -0.015264859372370354 0 -0.0097468678601671452 -0.015319382188245641 0 -0.0093050133949267415 -0.015979572206624531 0 -0.0095332372823748891 -0.015304668834978332 0 -0.0096967683819175754 -0.015654483981742993 0 -0.0091683313583946387 -0.015914266029490084 0 -0.010160513708883356 -0.014909465159910438 0 -0.0091683313583946387 -0.015914266029490084 0 -0.0088600915520818425 -0.015980303384711025 0 -0.0097899175519814124 -0.015537663191697422 0 -0.0099188715464784243 -0.015172727460652785 0 -0.0097468678601671452 -0.015319382188245641 0 -0.0075884922538002287 -0.016526694425902263 0 -0.0071322863671242805 -0.016497743644622712 0 -0.0069154635364099592 -0.01701944248892924 0 -0.0088600915520818425 -0.015980303384711025 0 -0.0088750398789994734 -0.015989882353945661 0 -0.010180413949913907 -0.015106439256896042 0 -0.010226297471735818 -0.015305490194726231 0 -0.010493715715691564 -0.014980935851251967 0 -0.0074366925666687093 -0.016181456479336654 0 -0.0075884922538002287 -0.016526694425902263 0 -0.0071322863671242805 -0.016497743644622712 0 -0.010180413949913907 -0.015106439256896042 0 -0.010160500507105636 -0.01516501520182067 0 -0.010226297471735818 -0.015305490194726231 0 -0.010160513708883356 -0.014909465159910438 0 -0.0088600915520818425 -0.015980303384711025 0 -0.014609159959055887 -0.0096832211151572888 0 -0.014408444480420678 -0.0095005453371624186 0 -0.014666845568548963 -0.0092748018116234968 0 -0.014408444480420678 -0.0095005453371624186 0 -0.014171020187742694 -0.0097558746233081233 0 -0.014142127149526756 -0.0093167104600127715 0 -0.014408444480420678 -0.0095005453371624186 0 -0.014171020187742694 -0.0097558746233081233 0 -0.01445651680355254 -0.0099392685995285199 0 -0.014171020187742694 -0.0097558746233081233 0 -0.01445651680355254 -0.0099392685995285199 0 -0.014235804704190804 -0.0099906185728747855 0 -0.014609159959055887 -0.0096832211151572888 0 -0.014408444480420678 -0.0095005453371624186 0 -0.01445651680355254 -0.0099392685995285199 0 -0.014609159959055887 -0.0096832211151572888 0 -0.01445651680355254 -0.0099392685995285199 0 -0.014714547252400338 -0.010066478619129125 0 -0.01445651680355254 -0.0099392685995285199 0 -0.014452633519602125 -0.010332685313345752 0 -0.014030080810039527 -0.010398417291604631 0 -0.01445651680355254 -0.0099392685995285199 0 -0.014452633519602125 -0.010332685313345752 0 -0.014714547252400338 -0.010066478619129125 0 -0.010963723205383811 -0.014303880283652287 0 -0.010655388445624428 -0.01436221400569075 0 -0.010616650554295656 -0.014388965221339948 0 -0.01237567828045073 -0.012645896603267016 0 -0.01320515933381811 -0.012214365646938315 0 -0.014452633519602125 -0.010332685313345752 0 -0.014244804349677171 -0.010744773173864471 0 -0.014744707968139963 -0.010554428013916189 0 -0.014452633519602125 -0.010332685313345752 0 -0.014244804349677171 -0.010744773173864471 0 -0.014030080810039527 -0.010398417291604631 0 -0.013632297615701221 -0.010931472765502284 0 -0.014244804349677171 -0.010744773173864471 0 -0.014030080810039527 -0.010398417291604631 0 -0.012967940235011546 -0.011625798057696889 0 -0.01237567828045073 -0.012645896603267016 0 -0.012967940235011546 -0.011625798057696889 0 -0.014327092624543672 -0.010102999343130876 0 -0.014364178890802269 -0.01005137538828892 0 -0.014327092624543672 -0.010102999343130876 0 -0.01445651680355254 -0.0099392685995285199 0 -0.014285477229685813 -0.010213253374659304 0 -0.014235804704190804 -0.0099906185728747855 0 -0.014285477229685813 -0.010213253374659304 0 -0.014235804704190804 -0.0099906185728747855 0 -0.014019062220985612 -0.010083844407086529 0 -0.014019062220985612 -0.010083844407086529 0 -0.013901818653820432 -0.010376829627441995 0 -0.013764463182089315 -0.01017979465408401 0 -0.014285477229685813 -0.010213253374659304 0 -0.014019062220985612 -0.010083844407086529 0 -0.014065266270825567 -0.010306938830625381 0 -0.014055962272188135 -0.010557295965900297 0 -0.014285477229685813 -0.010213253374659304 0 -0.014065266270825567 -0.010306938830625381 0 -0.014019062220985612 -0.010083844407086529 0 -0.014065266270825567 -0.010306938830625381 0 -0.013901818653820432 -0.010376829627441995 0 -0.014060612184665236 -0.010671303922274654 0 -0.013901818653820432 -0.010376829627441995 0 -0.013797337661928716 -0.010553429537211809 0 -0.014055962272188135 -0.010557295965900297 0 -0.013988456292164327 -0.010576499346122778 0 -0.013901818653820432 -0.010376829627441995 0 -0.013291534984069282 -0.011392583565758667 0 -0.013665115811744094 -0.01047337626572328 0 -0.014055962272188135 -0.010557295965900297 0 -0.014065266270825567 -0.010306938830625381 0 -0.013901818653820432 -0.010376829627441995 0 -0.013608617829061666 -0.010826651451394389 0 -0.013797337661928716 -0.010553429537211809 0 -0.013614401403908597 -0.010353297554805938 0 -0.013901818653820432 -0.010376829627441995 0 -0.013797337661928716 -0.010553429537211809 0 -0.013614401403908597 -0.010353297554805938 0 -0.013901818653820432 -0.010376829627441995 0 -0.013614401403908597 -0.010353297554805938 0 -0.013764463182089315 -0.01017979465408401 0 -0.013614401403908597 -0.010353297554805938 0 -0.013764463182089315 -0.01017979465408401 0 -0.013538849288017147 -0.010117770450935112 0 -0.013764463182089315 -0.01017979465408401 0 -0.013740221470190052 -0.010003608404966176 0 -0.013538849288017147 -0.010117770450935112 0 -0.014019062220985612 -0.010083844407086529 0 -0.013764463182089315 -0.01017979465408401 0 -0.013740221470190052 -0.010003608404966176 0 -0.013740221470190052 -0.010003608404966176 0 -0.013542901938203282 -0.0099782472673065007 0 -0.013538849288017147 -0.010117770450935112 0 -0.013740221470190052 -0.010003608404966176 0 -0.013631719959428247 -0.0098383049102353827 0 -0.013542901938203282 -0.0099782472673065007 0 -0.013631719959428247 -0.0098383049102353827 0 -0.01390226732643113 -0.0097980524266133712 0 -0.013734856476639386 -0.0095932064776217268 0 -0.013740221470190052 -0.010003608404966176 0 -0.013631719959428247 -0.0098383049102353827 0 -0.01390226732643113 -0.0097980524266133712 0 -0.014019062220985612 -0.010083844407086529 0 -0.013740221470190052 -0.010003608404966176 0 -0.01390226732643113 -0.0097980524266133712 0 -0.014171020187742694 -0.0097558746233081233 0 -0.014235804704190804 -0.0099906185728747855 0 -0.014019062220985612 -0.010083844407086529 0 -0.014171020187742694 -0.0097558746233081233 0 -0.014019062220985612 -0.010083844407086529 0 -0.01390226732643113 -0.0097980524266133712 0 -0.014171020187742694 -0.0097558746233081233 0 -0.01390226732643113 -0.0097980524266133712 0 -0.013973215676145857 -0.0095499738711953743 0 -0.014171020187742694 -0.0097558746233081233 0 -0.013973215676145857 -0.0095499738711953743 0 -0.014142127149526756 -0.0093167104600127715 0 -0.013973215676145857 -0.0095499738711953743 0 -0.013734856476639386 -0.0095932064776217268 0 -0.013796122561653747 -0.009171983044896536 0 -0.013734856476639386 -0.0095932064776217268 0 -0.013560419425087556 -0.0094573448705422541 0 -0.013796122561653747 -0.009171983044896536 0 -0.013631719959428247 -0.0098383049102353827 0 -0.013734856476639386 -0.0095932064776217268 0 -0.01353973259778613 -0.0097033827178237119 0 -0.01390226732643113 -0.0097980524266133712 0 -0.013973215676145857 -0.0095499738711953743 0 -0.013734856476639386 -0.0095932064776217268 0 -0.013349431196149701 -0.0097217204105121136 0 -0.013560419425087556 -0.0094573448705422541 0 -0.013292494460159248 -0.0091754072787914344 0 -0.013349431196149701 -0.0097217204105121136 0 -0.01353973259778613 -0.0097033827178237119 0 -0.013560419425087556 -0.0094573448705422541 0 -0.013349431196149701 -0.0097217204105121136 0 -0.01353973259778613 -0.0097033827178237119 0 -0.013427176372145659 -0.0098731707437438431 0 -0.013734856476639386 -0.0095932064776217268 0 -0.01353973259778613 -0.0097033827178237119 0 -0.013560419425087556 -0.0094573448705422541 0 -0.013349431196149701 -0.0097217204105121136 0 -0.013109393775801852 -0.0095252779996044031 0 -0.013292494460159248 -0.0091754072787914344 0 -0.013109393775801852 -0.0095252779996044031 0 -0.013193328226857768 -0.0098323985887935304 0 -0.013055697393536549 -0.010014701499700544 0 -0.013349431196149701 -0.0097217204105121136 0 -0.013109393775801852 -0.0095252779996044031 0 -0.013193328226857768 -0.0098323985887935304 0 -0.013349431196149701 -0.0097217204105121136 0 -0.013193328226857768 -0.0098323985887935304 0 -0.013245210409208953 -0.0099794267048677176 0 -0.013349431196149701 -0.0097217204105121136 0 -0.013245210409208953 -0.0099794267048677176 0 -0.013427176372145659 -0.0098731707437438431 0 -0.013193328226857768 -0.0098323985887935304 0 -0.013245210409208953 -0.0099794267048677176 0 -0.013055697393536549 -0.010014701499700544 0 -0.013245210409208953 -0.0099794267048677176 0 -0.013176541705890103 -0.01004190727488736 0 -0.013055697393536549 -0.010014701499700544 0 -0.013245210409208953 -0.0099794267048677176 0 -0.013231602247227116 -0.010064686185744328 0 -0.013176541705890103 -0.01004190727488736 0 -0.013245210409208953 -0.0099794267048677176 0 -0.013398278789656473 -0.01001076828220279 0 -0.013286549628210529 -0.010065304361782218 0 -0.013427176372145659 -0.0098731707437438431 0 -0.013542901938203282 -0.0099782472673065007 0 -0.013398278789656473 -0.01001076828220279 0 -0.013245210409208953 -0.0099794267048677176 0 -0.013427176372145659 -0.0098731707437438431 0 -0.013398278789656473 -0.01001076828220279 0 -0.013631719959428247 -0.0098383049102353827 0 -0.01353973259778613 -0.0097033827178237119 0 -0.013427176372145659 -0.0098731707437438431 0 -0.013631719959428247 -0.0098383049102353827 0 -0.013427176372145659 -0.0098731707437438431 0 -0.013542901938203282 -0.0099782472673065007 0 -0.013542901938203282 -0.0099782472673065007 0 -0.013398278789656473 -0.01001076828220279 0 -0.013538849288017147 -0.010117770450935112 0 -0.013398278789656473 -0.01001076828220279 0 -0.013538849288017147 -0.010117770450935112 0 -0.013329934657301116 -0.010117475425787465 0 -0.013608617829061666 -0.010826651451394389 0 -0.013614401403908597 -0.010353297554805938 0 -0.012914961734217282 -0.010674280579897499 0 -0.013614401403908597 -0.010353297554805938 0 -0.013538849288017147 -0.010117770450935112 0 -0.013329934657301116 -0.010117475425787465 0 -0.01358281342575085 -0.010341454703290847 0 -0.013167707097704071 -0.010384237547580121 0 -0.013614401403908597 -0.010353297554805938 0 -0.013268401099758324 -0.010109239626036133 0 -0.013329934657301116 -0.010117475425787465 0 -0.013268401099758324 -0.010109239626036133 0 -0.013329934657301116 -0.010117475425787465 0 -0.013275239309697469 -0.01005621147572964 0 -0.013286549628210529 -0.010065304361782218 0 -0.013231602247227116 -0.010064686185744328 0 -0.013275239309697469 -0.01005621147572964 0 -0.013329934657301116 -0.010117475425787465 0 -0.013286549628210529 -0.010065304361782218 0 -0.013275239309697469 -0.01005621147572964 0 -0.013398278789656473 -0.01001076828220279 0 -0.013329934657301116 -0.010117475425787465 0 -0.013286549628210529 -0.010065304361782218 0 -0.013245210409208953 -0.0099794267048677176 0 -0.013286549628210529 -0.010065304361782218 0 -0.013231602247227116 -0.010064686185744328 0 -0.013231602247227116 -0.010064686185744328 0 -0.013362004187802368 -0.010079850985121682 0 -0.013232597513873831 -0.010092511326447139 0 -0.013231602247227116 -0.010064686185744328 0 -0.013275239309697469 -0.01005621147572964 0 -0.013362004187802368 -0.010079850985121682 0 -0.013400201347491175 -0.0097902734163712174 0 -0.013268401099758324 -0.010109239626036133 0 -0.013275239309697469 -0.01005621147572964 0 -0.013400201347491175 -0.0097902734163712174 0 -0.013275239309697469 -0.01005621147572964 0 -0.013528167446754613 -0.0099514080119008329 0 -0.013275239309697469 -0.01005621147572964 0 -0.013528167446754613 -0.0099514080119008329 0 -0.013362004187802368 -0.010079850985121682 0 -0.013528167446754613 -0.0099514080119008329 0 -0.013362004187802368 -0.010079850985121682 0 -0.013667977467917234 -0.010202812824631268 0 -0.013362004187802368 -0.010079850985121682 0 -0.013409140380380137 -0.010218696462433872 0 -0.013667977467917234 -0.010202812824631268 0 -0.013409140380380137 -0.010218696462433872 0 -0.013178882793582529 -0.01011224424960505 0 -0.013634003090889239 -0.010555219289404307 0 -0.013362004187802368 -0.010079850985121682 0 -0.013409140380380137 -0.010218696462433872 0 -0.013232597513873831 -0.010092511326447139 0 -0.013231602247227116 -0.010064686185744328 0 -0.013232597513873831 -0.010092511326447139 0 -0.013176541705890103 -0.01004190727488736 0 -0.013232597513873831 -0.010092511326447139 0 -0.013176541705890103 -0.01004190727488736 0 -0.013055697393536549 -0.010014701499700544 0 -0.013232597513873831 -0.010092511326447139 0 -0.013178882793582529 -0.01011224424960505 0 -0.013055697393536549 -0.010014701499700544 0 -0.013409140380380137 -0.010218696462433872 0 -0.013232597513873831 -0.010092511326447139 0 -0.013178882793582529 -0.01011224424960505 0 -0.013178882793582529 -0.01011224424960505 0 -0.013055697393536549 -0.010014701499700544 0 -0.01324872949415442 -0.010354257612530065 0 -0.013014784199811419 -0.0099885701112726114 0 -0.0128590226376105 -0.0097957160195744197 0 -0.013109393775801852 -0.0095252779996044031 0 -0.013055697393536549 -0.010014701499700544 0 -0.012425112218213121 -0.0092373567800489581 0 -0.013226818384144183 -0.010154146104616818 0 -0.01360876364864233 -0.010309883915072959 0 -0.013178882793582529 -0.01011224424960505 0 -0.01324872949415442 -0.010354257612530065 0 -0.013555301757377765 -0.010093303258208819 0 -0.01324872949415442 -0.010354257612530065 0 -0.013555301757377765 -0.010093303258208819 0 -0.013505865786148251 -0.010398310687402388 0 -0.01324872949415442 -0.010354257612530065 0 -0.013400895148978574 -0.010600960051901868 0 -0.013505865786148251 -0.010398310687402388 0 -0.013109393775801852 -0.0095252779996044031 0 -0.012425112218213121 -0.0092373567800489581 0 -0.012858800472705842 -0.0090448899304998876 0 -0.012425112218213121 -0.0092373567800489581 0 -0.012858800472705842 -0.0090448899304998876 0 -0.012546856773003899 -0.0087100203592251346 0 -0.012425112218213121 -0.0092373567800489581 0 -0.012546856773003899 -0.0087100203592251346 0 -0.012057871444737385 -0.0085088991623331455 0 -0.012858800472705842 -0.0090448899304998876 0 -0.012546856773003899 -0.0087100203592251346 0 -0.012898249551415105 -0.0085189599208276307 0 -0.012546856773003899 -0.0087100203592251346 0 -0.012468961351855561 -0.0082629577765757963 0 -0.012898249551415105 -0.0085189599208276307 0 -0.012546856773003899 -0.0087100203592251346 0 -0.012057871444737385 -0.0085088991623331455 0 -0.012468961351855561 -0.0082629577765757963 0 -0.0128590226376105 -0.0097957160195744197 0 -0.012645606891934186 -0.0095356607020096063 0 -0.012645606891934186 -0.0095356607020096063 0 -0.013441622045341432 -0.00925112347020789 0 -0.012057871444737385 -0.0085088991623331455 0 -0.012155553696040171 -0.008039887363417323 0 -0.011744334925466098 -0.0078238042722752459 0 -0.012057871444737385 -0.0085088991623331455 0 -0.012155553696040171 -0.008039887363417323 0 -0.012468961351855561 -0.0082629577765757963 0 -0.012155553696040171 -0.008039887363417323 0 -0.01212466385367335 -0.0076213547612885898 0 -0.01239504268350161 -0.007907879203418941 0 -0.012155553696040171 -0.008039887363417323 0 -0.01212466385367335 -0.0076213547612885898 0 -0.011744334925466098 -0.0078238042722752459 0 -0.013367656431015968 -0.0084173926858284731 0 -0.013227825926171263 -0.0084006417842622302 0 -0.013418992188697939 -0.008309150010060707 0 -0.012460842042909648 -0.0078635694088641343 0 -0.013441622045341432 -0.00925112347020789 0 -0.012293483739052315 -0.0075892560154123987 0 -0.01214130042592705 -0.0074176068652696964 0 -0.01257351273459417 -0.0074451121864149636 0 -0.012460842042909648 -0.0078635694088641343 0 -0.012309520183302143 -0.0077832638849146029 0 -0.012460842042909648 -0.0078635694088641343 0 -0.012516057906597553 -0.0075214617535069783 0 -0.013367656431015968 -0.0084173926858284731 0 -0.013227825926171263 -0.0084006417842622302 0 -0.013339390731123174 -0.0085226036620395709 0 -0.012460842042909648 -0.0078635694088641343 0 -0.013417466602822583 -0.0076379490560146961 0 -0.012165351134558888 -0.0076357698609099654 0 -0.01257351273459417 -0.0074451121864149636 0 -0.01239504268350161 -0.007907879203418941 0 -0.01257351273459417 -0.0074451121864149636 0 -0.012788684616587168 -0.0078104472553457175 0 -0.012963370727800169 -0.0073382496177987061 0 -0.01257351273459417 -0.0074451121864149636 0 -0.012788684616587168 -0.0078104472553457175 0 -0.01239504268350161 -0.007907879203418941 0 -0.012788684616587168 -0.0078104472553457175 0 -0.012468961351855561 -0.0082629577765757963 0 -0.012898249551415105 -0.0085189599208276307 0 -0.012788684616587168 -0.0078104472553457175 0 -0.01239504268350161 -0.007907879203418941 0 -0.012468961351855561 -0.0082629577765757963 0 -0.012155553696040171 -0.008039887363417323 0 -0.01239504268350161 -0.007907879203418941 0 -0.012468961351855561 -0.0082629577765757963 0 -0.012788684616587168 -0.0078104472553457175 0 -0.013248190851499315 -0.0077171771440732815 0 -0.012898249551415105 -0.0085189599208276307 0 -0.013248190851499315 -0.0077171771440732815 0 -0.013465928915457975 -0.0086537924006226431 0 -0.012898249551415105 -0.0085189599208276307 0 -0.012788684616587168 -0.0078104472553457175 0 -0.013248190851499315 -0.0077171771440732815 0 -0.012963370727800169 -0.0073382496177987061 0 -0.013248190851499315 -0.0077171771440732815 0 -0.012963370727800169 -0.0073382496177987061 0 -0.013209773005137565 -0.0072217907096709536 0 -0.013248190851499315 -0.0077171771440732815 0 -0.013239284877939586 -0.0074025784007061739 0 -0.013209773005137565 -0.0072217907096709536 0 -0.013235747204183605 -0.0077150035217088591 0 -0.013575080600437477 -0.0079075396105756056 0 -0.013248190851499315 -0.0077171771440732815 0 -0.013465928915457975 -0.0086537924006226431 0 -0.013972687694258568 -0.00848149623455852 0 -0.013465928915457975 -0.0086537924006226431 0 -0.012898249551415105 -0.0085189599208276307 0 -0.013292494460159248 -0.0091754072787914344 0 -0.012858800472705842 -0.0090448899304998876 0 -0.012898249551415105 -0.0085189599208276307 0 -0.013292494460159248 -0.0091754072787914344 0 -0.013109393775801852 -0.0095252779996044031 0 -0.012858800472705842 -0.0090448899304998876 0 -0.013292494460159248 -0.0091754072787914344 0 -0.013560419425087556 -0.0094573448705422541 0 -0.013292494460159248 -0.0091754072787914344 0 -0.013796122561653747 -0.009171983044896536 0 -0.013465928915457975 -0.0086537924006226431 0 -0.013292494460159248 -0.0091754072787914344 0 -0.013796122561653747 -0.009171983044896536 0 -0.013973215676145857 -0.0095499738711953743 0 -0.013796122561653747 -0.009171983044896536 0 -0.014142127149526756 -0.0093167104600127715 0 -0.014142127149526756 -0.0093167104600127715 0 -0.014071965015263563 -0.0089913329508167581 0 -0.014331166667034489 -0.0089703217077476659 0 -0.013796122561653747 -0.009171983044896536 0 -0.014142127149526756 -0.0093167104600127715 0 -0.014071965015263563 -0.0089913329508167581 0 -0.013575080600437477 -0.0079075396105756056 0 -0.013557866118942963 -0.0079981955655293105 0 -0.014071965015263563 -0.0089913329508167581 0 -0.013972687694258568 -0.00848149623455852 0 -0.014331166667034489 -0.0089703217077476659 0 -0.013796122561653747 -0.009171983044896536 0 -0.014071965015263563 -0.0089913329508167581 0 -0.013972687694258568 -0.00848149623455852 0 -0.013465928915457975 -0.0086537924006226431 0 -0.013796122561653747 -0.009171983044896536 0 -0.013972687694258568 -0.00848149623455852 0 -0.013248190851499315 -0.0077171771440732815 0 -0.013229331610678085 -0.0073579573627935504 0 -0.013239284877939586 -0.0074025784007061739 0 -0.013239284877939586 -0.0074025784007061739 0 -0.013055256610705321 -0.0073551506627075724 0 -0.013100094359993042 -0.0074170256420093613 0 -0.013229331610678085 -0.0073579573627935504 0 -0.013055256610705321 -0.0073551506627075724 0 -0.012895747380021293 -0.0070382311993071713 0 -0.013229331610678085 -0.0073579573627935504 0 -0.013239284877939586 -0.0074025784007061739 0 -0.013055256610705321 -0.0073551506627075724 0 -0.013055256610705321 -0.0073551506627075724 0 -0.012655551931584639 -0.0073056949995843065 0 -0.012895747380021293 -0.0070382311993071713 0 -0.013055256610705321 -0.0073551506627075724 0 -0.013100094359993042 -0.0074170256420093613 0 -0.012655551931584639 -0.0073056949995843065 0 -0.012726351301827275 -0.0074184738020787854 0 -0.012655498314800815 -0.007278253308346274 0 -0.012381615280738507 -0.007496445425513483 0 -0.012334381640891734 -0.0074757273734771144 0 -0.012655551931584639 -0.0073056949995843065 0 -0.012334381640891734 -0.0074757273734771144 0 -0.012655551931584639 -0.0073056949995843065 0 -0.012304389629023258 -0.0071951905572106341 0 -0.012655551931584639 -0.0073056949995843065 0 -0.012895747380021293 -0.0070382311993071713 0 -0.012443886397552412 -0.0068681680920265201 0 -0.012655551931584639 -0.0073056949995843065 0 -0.012443886397552412 -0.0068681680920265201 0 -0.012304389629023258 -0.0071951905572106341 0 -0.014408444480420678 -0.0095005453371624186 0 -0.014142127149526756 -0.0093167104600127715 0 -0.014331166667034489 -0.0089703217077476659 0 -0.014408444480420678 -0.0095005453371624186 0 -0.014331166667034489 -0.0089703217077476659 0 -0.014666845568548963 -0.0092748018116234968 0 -0.013557866118942963 -0.0079981955655293105 0 -0.013789358532991012 -0.0080330140391678077 0 -0.015183993936067106 -0.010413801582520737 0 -0.015151333014282843 -0.010479454180806605 0 -0.015135615764080915 -0.0105738397466169 0 -0.015183993936067106 -0.010413801582520737 0 -0.015151333014282843 -0.010479454180806605 0 -0.015198929303773522 -0.010466421387151145 0 -0.015151333014282843 -0.010479454180806605 0 -0.015004974420611387 -0.010524303767326727 0 -0.015135615764080915 -0.0105738397466169 0 -0.015151333014282843 -0.010479454180806605 0 -0.015004974420611387 -0.010524303767326727 0 -0.015160558119467085 -0.010475536310626359 0 -0.015004974420611387 -0.010524303767326727 0 -0.015135615764080915 -0.0105738397466169 0 -0.014795366299160626 -0.010754684647721308 0 -0.01491023700726001 -0.010363145059585837 0 -0.014550692967853109 -0.01040970168648082 0 -0.014732072107926873 -0.010096312096572441 0 -0.014317592762755564 -0.010085849530730879 0 -0.014511425168123702 -0.010307413426419621 0 -0.015183993936067106 -0.010413801582520737 0 -0.015135615764080915 -0.0105738397466169 0 -0.015200471842044368 -0.010328147740278843 0 -0.014732072107926873 -0.010096312096572441 0 -0.015159441735975571 -0.010113939572325349 0 -0.014986752138124388 -0.010222303958541257 0 -0.01491023700726001 -0.010363145059585837 0 -0.015216918259416913 -0.0099414124768382826 0 -0.014732072107926873 -0.010096312096572441 0 -0.014511425168123702 -0.010307413426419621 0 -0.014986752138124388 -0.010222303958541257 0 -0.015216918259416913 -0.0099414124768382826 0 -0.015097867513067081 -0.0098506977617939216 0 -0.015128173650485001 -0.0097393209470993999 0 -0.015166676828757785 -0.0097382158995279952 0 -0.01510645480442336 -0.0097546624084876975 0 -0.015129057458711825 -0.0095409728672594327 0 -0.015097867513067081 -0.0098506977617939216 0 -0.015183993936067106 -0.010413801582520737 0 -0.015200471842044368 -0.010328147740278843 0 -0.015175665445791549 -0.010256984496270721 0 -0.015216918259416913 -0.0099414124768382826 0 -0.015105195416980034 -0.0099563595462679368 0 -0.015216918259416913 -0.0099414124768382826 0 -0.015129057458711825 -0.0095409728672594327 0 -0.015613939601080118 -0.009560045515381442 0 -0.015054675773503685 -0.0095265859511983707 0 -0.015027056793601674 -0.0099280555773977736 0 -0.015200471842044368 -0.010328147740278843 0 -0.015027056793601674 -0.0099280555773977736 0 -0.015175665445791549 -0.010256984496270721 0 -0.015047577691802122 -0.0095025980152613383 0 -0.014999986381591165 -0.00952176082639428 0 -0.014999968040709339 -0.0091625099863051097 0 -0.015129057458711825 -0.0095409728672594327 0 -0.015000342850458818 -0.0095222859641661949 0 -0.015054675773503685 -0.0095265859511983707 0 -0.015000053922628888 -0.0095223186744728232 0 -0.015027056793601674 -0.0099280555773977736 0 -0.015000053922628888 -0.0095223186744728232 0 -0.015027056793601674 -0.0099280555773977736 0 -0.014999859989120389 -0.010278823760031077 0 -0.015027056793601674 -0.0099280555773977736 0 -0.015129519522142747 -0.010243867952804542 0 -0.015175665445791549 -0.010256984496270721 0 -0.015129519522142747 -0.010243867952804542 0 -0.015175665445791549 -0.010256984496270721 0 -0.015188062759171426 -0.010351011508621831 0 -0.015129519522142747 -0.010243867952804542 0 -0.015188062759171426 -0.010351011508621831 0 -0.015160812968813539 -0.010477253564662385 0 -0.015129519522142747 -0.010243867952804542 0 -0.014999859989120389 -0.010278823760031077 0 -0.015160812968813539 -0.010477253564662385 0 -0.015027056793601674 -0.0099280555773977736 0 -0.015129519522142747 -0.010243867952804542 0 -0.014999859989120389 -0.010278823760031077 0 -0.015188062759171426 -0.010351011508621831 0 -0.015160812968813539 -0.010477253564662385 0 -0.015198929303773522 -0.010466421387151145 0 -0.015183993936067106 -0.010413801582520737 0 -0.015175665445791549 -0.010256984496270721 0 -0.015188062759171426 -0.010351011508621831 0 -0.015183993936067106 -0.010413801582520737 0 -0.015188062759171426 -0.010351011508621831 0 -0.015198929303773522 -0.010466421387151145 0 -0.015160812968813539 -0.010477253564662385 0 -0.015181920861011101 -0.010692243218671526 0 -0.015198929303773522 -0.010466421387151145 0 -0.014999859989120389 -0.010278823760031077 0 -0.015160812968813539 -0.010477253564662385 0 -0.014999728694567293 -0.011033201773801789 0 -0.015160812968813539 -0.010477253564662385 0 -0.014999728694567293 -0.011033201773801789 0 -0.015181920861011101 -0.010692243218671526 0 -0.015034918003454748 -0.011045054949142914 0 -0.014999728694567293 -0.011033201773801789 0 -0.015181920861011101 -0.010692243218671526 0 -0.015210636140537397 -0.011274841951849987 0 -0.015000030191468578 -0.01103426569232566 0 -0.015305908342428965 -0.010911678995726344 0 -0.015034918003454748 -0.011045054949142914 0 -0.015181920861011101 -0.010692243218671526 0 -0.01574079094516196 -0.010981909921247144 0 -0.015305908342428965 -0.010911678995726344 0 -0.015160558119467085 -0.010475536310626359 0 -0.015305908342428965 -0.010911678995726344 0 -0.015181920861011101 -0.010692243218671526 0 -0.015160558119467085 -0.010475536310626359 0 -0.015151333014282843 -0.010479454180806605 0 -0.015198929303773522 -0.010466421387151145 0 -0.015160558119467085 -0.010475536310626359 0 -0.015181920861011101 -0.010692243218671526 0 -0.015198929303773522 -0.010466421387151145 0 -0.015160558119467085 -0.010475536310626359 0 -0.015004974420611387 -0.010524303767326727 0 -0.015160558119467085 -0.010475536310626359 0 -0.014778698798253408 -0.010372039429239777 0 -0.015261953480876188 -0.010862104844626599 0 -0.015182620072197051 -0.010520425713833015 0 -0.014789630184684426 -0.010565747570732672 0 -0.015160558119467085 -0.010475536310626359 0 -0.01475398520529103 -0.010541855340145196 0 -0.01475398520529103 -0.010541855340145196 0 -0.014775112088788482 -0.010585128320061636 0 -0.014778698798253408 -0.010372039429239777 0 -0.015160558119467085 -0.010475536310626359 0 -0.01475398520529103 -0.010541855340145196 0 -0.014778698798253408 -0.010372039429239777 0 -0.014587918849237391 -0.010153839843593459 0 -0.014732379448224735 -0.010375104517749412 0 -0.014252581073045769 -0.009834834891646908 0 -0.014778698798253408 -0.010372039429239777 0 -0.014126414004923015 -0.010316392814526716 0 -0.014778698798253408 -0.010372039429239777 0 -0.014126414004923015 -0.010316392814526716 0 -0.014548521599123407 -0.010534513266564538 0 -0.013840448314394602 -0.0095535432444218606 0 -0.013528167446754613 -0.0099514080119008329 0 -0.013852723400881197 -0.0099565151976216595 0 -0.014252581073045769 -0.009834834891646908 0 -0.013852723400881197 -0.0099565151976216595 0 -0.014126414004923015 -0.010316392814526716 0 -0.013840448314394602 -0.0095535432444218606 0 -0.014252581073045769 -0.009834834891646908 0 -0.013852723400881197 -0.0099565151976216595 0 -0.013528167446754613 -0.0099514080119008329 0 -0.013852723400881197 -0.0099565151976216595 0 -0.013667977467917234 -0.010202812824631268 0 -0.013852723400881197 -0.0099565151976216595 0 -0.014126414004923015 -0.010316392814526716 0 -0.013667977467917234 -0.010202812824631268 0 -0.013409140380380137 -0.010218696462433872 0 -0.013667977467917234 -0.010202812824631268 0 -0.013634003090889239 -0.010555219289404307 0 -0.014126414004923015 -0.010316392814526716 0 -0.013667977467917234 -0.010202812824631268 0 -0.013634003090889239 -0.010555219289404307 0 -0.014126414004923015 -0.010316392814526716 0 -0.014228012147189578 -0.010755615277433628 0 -0.013634003090889239 -0.010555219289404307 0 -0.013930339694932164 -0.010081446641051832 0 -0.013555301757377765 -0.010093303258208819 0 -0.01371038474988588 -0.010279225734594699 0 -0.014084194956297152 -0.010412770410918796 0 -0.01360876364864233 -0.010309883915072959 0 -0.015004974420611387 -0.010524303767326727 0 -0.014778698798253408 -0.010372039429239777 0 -0.014548521599123407 -0.010534513266564538 0 -0.015004974420611387 -0.010524303767326727 0 -0.014548521599123407 -0.010534513266564538 0 -0.014795366299160626 -0.010754684647721308 0 -0.014126414004923015 -0.010316392814526716 0 -0.014228012147189578 -0.010755615277433628 0 -0.014548521599123407 -0.010534513266564538 0 -0.014084194956297152 -0.010412770410918796 0 -0.014550692967853109 -0.01040970168648082 0 -0.013930339694932164 -0.010081446641051832 0 -0.014317592762755564 -0.010085849530730879 0 -0.014067088584761165 -0.010373442570349284 0 -0.014228012147189578 -0.010755615277433628 0 -0.014548521599123407 -0.010534513266564538 0 -0.014795366299160626 -0.010754684647721308 0 -0.014116243262365883 -0.010350492995164658 0 -0.014469217487983063 -0.010334152514993193 0 -0.014317592762755564 -0.010085849530730879 0 -0.014067088584761165 -0.010373442570349284 0 -0.014511425168123702 -0.010307413426419621 0 -0.014067088584761165 -0.010373442570349284 0 -0.014549037983128749 -0.010377839936172837 0 -0.014541520966687085 -0.010249146647719113 0 -0.014067088584761165 -0.010373442570349284 0 -0.013960224203121267 -0.010564240479104377 0 -0.013868232781911223 -0.010376206100358693 0 -0.014351755046338552 -0.010385113177149376 0 -0.014242159631174587 -0.010575538676319449 0 -0.013960224203121267 -0.010564240479104377 0 -0.014186697664809879 -0.010592455821669742 0 -0.013849576990984267 -0.01074540331820579 0 -0.014067088584761165 -0.010373442570349284 0 -0.013960224203121267 -0.010564240479104377 0 -0.014186697664809879 -0.010592455821669742 0 -0.014529716513206973 -0.010202351010372597 0 -0.014536225565204008 -0.010209807793698509 0 -0.014600700543289446 -0.010237365464796618 0 -0.014903270270049082 -0.009698559582163176 0 -0.015007239197275719 -0.0097034381607470251 0 -0.014351755046338552 -0.010385113177149376 0 -0.014571210246115409 -0.010308202104142437 0 -0.014067088584761165 -0.010373442570349284 0 -0.014186697664809879 -0.010592455821669742 0 -0.014549037983128749 -0.010377839936172837 0 -0.015286752422173757 -0.0091962003362362609 0 -0.015305462185432803 -0.0092075063709719795 0 -0.01532747725508994 -0.009202931374723269 0 -0.013555301757377765 -0.010093303258208819 0 -0.013505865786148251 -0.010398310687402388 0 -0.01371038474988588 -0.010279225734594699 0 -0.013505865786148251 -0.010398310687402388 0 -0.01371038474988588 -0.010279225734594699 0 -0.013699503239173478 -0.010443250140033762 0 -0.013930339694932164 -0.010081446641051832 0 -0.014067088584761165 -0.010373442570349284 0 -0.013868232781911223 -0.010376206100358693 0 -0.013930339694932164 -0.010081446641051832 0 -0.01371038474988588 -0.010279225734594699 0 -0.013868232781911223 -0.010376206100358693 0 -0.01371038474988588 -0.010279225734594699 0 -0.013699503239173478 -0.010443250140033762 0 -0.013868232781911223 -0.010376206100358693 0 -0.013960224203121267 -0.010564240479104377 0 -0.013868232781911223 -0.010376206100358693 0 -0.013790615753960343 -0.010558878237351703 0 -0.013960224203121267 -0.010564240479104377 0 -0.013831813160324502 -0.010638939150920576 0 -0.013790615753960343 -0.010558878237351703 0 -0.013960224203121267 -0.010564240479104377 0 -0.013831813160324502 -0.010638939150920576 0 -0.013849576990984267 -0.01074540331820579 0 -0.013831813160324502 -0.010638939150920576 0 -0.013790615753960343 -0.010558878237351703 0 -0.01373057796057043 -0.01068607323563492 0 -0.013699503239173478 -0.010443250140033762 0 -0.013868232781911223 -0.010376206100358693 0 -0.013790615753960343 -0.010558878237351703 0 -0.013400895148978574 -0.010600960051901868 0 -0.013505865786148251 -0.010398310687402388 0 -0.013602645964376832 -0.010601147378112363 0 -0.013699503239173478 -0.010443250140033762 0 -0.013790615753960343 -0.010558878237351703 0 -0.013602645964376832 -0.010601147378112363 0 -0.013790615753960343 -0.010558878237351703 0 -0.013602645964376832 -0.010601147378112363 0 -0.01373057796057043 -0.01068607323563492 0 -0.013505865786148251 -0.010398310687402388 0 -0.013699503239173478 -0.010443250140033762 0 -0.013602645964376832 -0.010601147378112363 0 -0.01373057796057043 -0.01068607323563492 0 -0.013849576990984267 -0.01074540331820579 0 -0.013544125811836139 -0.010876491814915725 0 -0.013400895148978574 -0.010600960051901868 0 -0.013602645964376832 -0.010601147378112363 0 -0.013544125811836139 -0.010876491814915725 0 -0.013602645964376832 -0.010601147378112363 0 -0.01373057796057043 -0.01068607323563492 0 -0.013544125811836139 -0.010876491814915725 0 -0.014525391280553666 -0.010158832005352088 0 -0.014533699166357267 -0.010114954563679621 0 -0.014536769189275402 -0.010125321026271525 0 -0.014242159631174587 -0.010575538676319449 0 -0.013441622045341432 -0.00925112347020789 0 -0.014522705637106597 -0.010154395170785426 0 -0.014525391280553666 -0.010158832005352088 0 -0.014533699166357267 -0.010114954563679621 0 -0.013831813160324502 -0.010638939150920576 0 -0.01373057796057043 -0.01068607323563492 0 -0.013849576990984267 -0.01074540331820579 0 -0.015282983086754477 -0.0091799083261663774 0 -0.015288825718577892 -0.0091552658166441699 0 -0.015305008889982343 -0.0091537461697214356 0 -0.015288825718577892 -0.0091552658166441699 0 -0.015276687604460926 -0.0091630741172392827 0 -0.015292527420679724 -0.0091179955833706056 0 -0.015282983086754477 -0.0091799083261663774 0 -0.015288825718577892 -0.0091552658166441699 0 -0.015276687604460926 -0.0091630741172392827 0 -0.014975213680687122 -0.0097408066202895327 0 -0.014382126704107746 -0.0089430922496584464 0 -0.015288825718577892 -0.0091552658166441699 0 -0.015305008889982343 -0.0091537461697214356 0 -0.015292527420679724 -0.0091179955833706056 0 -0.013367656431015968 -0.0084173926858284731 0 -0.013339390731123174 -0.0085226036620395709 0 -0.013484267453667643 -0.0084372059937956601 0 -0.013417466602822583 -0.0076379490560146961 0 -0.014382126704107746 -0.0089430922496584464 0 -0.014382126704107746 -0.0089430922496584464 0 -0.013441622045341432 -0.00925112347020789 0 -0.013367656431015968 -0.0084173926858284731 0 -0.013484267453667643 -0.0084372059937956601 0 -0.013418992188697939 -0.008309150010060707 0 -0.015387792649573639 -0.008798822678532393 0 -0.015273021394218786 -0.0084888448900400457 0 -0.015280506806569363 -0.0091845730651105763 0 -0.015277447690591806 -0.0091948989804205277 0 -0.015276687604460926 -0.0091630741172392827 0 -0.015206936273475252 -0.009198567739544505 0 -0.015387792649573639 -0.008798822678532393 0 -0.015286752422173757 -0.0091962003362362609 0 -0.015280506806569363 -0.0091845730651105763 0 -0.015305462185432803 -0.0092075063709719795 0 -0.014529716513206973 -0.010202351010372597 0 -0.014536225565204008 -0.010209807793698509 0 -0.014522705637106597 -0.010154395170785426 0 -0.014903270270049082 -0.009698559582163176 0 -0.014975213680687122 -0.0097408066202895327 0 -0.014529716513206973 -0.010202351010372597 0 -0.014522705637106597 -0.010154395170785426 0 -0.014525391280553666 -0.010158832005352088 0 -0.015282983086754477 -0.0091799083261663774 0 -0.015280506806569363 -0.0091845730651105763 0 -0.015276687604460926 -0.0091630741172392827 0 -0.015286752422173757 -0.0091962003362362609 0 -0.015282983086754477 -0.0091799083261663774 0 -0.015280506806569363 -0.0091845730651105763 0 -0.015185366900563723 -0.007924723588304575 0 -0.015220654896880285 -0.0077592925047071225 0 -0.015087162128587432 -0.0077874870771540696 0 -0.015207047591454172 -0.0079128374785544676 0 -0.015175552876442518 -0.0077352031535740445 0 -0.015236675494414698 -0.0075418228480728326 0 -0.015087162128587432 -0.0077874870771540696 0 -0.015207047591454172 -0.0079128374785544676 0 -0.014880208330667076 -0.0076171285776900789 0 -0.015175103162751075 -0.0078693848141342601 0 -0.015064415904682816 -0.0075747052973375592 0 -0.015207047591454172 -0.0079128374785544676 0 -0.015291523034765281 -0.0081101664979962781 0 -0.015224635410888282 -0.0080746073421714051 0 -0.015185366900563723 -0.007924723588304575 0 -0.015207047591454172 -0.0079128374785544676 0 -0.015291523034765281 -0.0081101664979962781 0 -0.015387792649573639 -0.008798822678532393 0 -0.015439452785513185 -0.0085264570190725555 0 -0.015185366900563723 -0.007924723588304575 0 -0.015087162128587432 -0.0077874870771540696 0 -0.015207047591454172 -0.0079128374785544676 0 -0.015728080166122763 -0.008913907742059992 0 -0.015553776133551677 -0.0089998263334279804 0 -0.015591069193200038 -0.0090496786563664475 0 -0.015387792649573639 -0.008798822678532393 0 -0.015480305137317714 -0.0091604672937770915 0 -0.015305462185432803 -0.0092075063709719795 0 -0.01532747725508994 -0.009202931374723269 0 -0.015361344026067991 -0.0092093450922886913 0 -0.014536225565204008 -0.010209807793698509 0 -0.014600700543289446 -0.010237365464796618 0 -0.014633463882059449 -0.010249710162461068 0 -0.015286752422173757 -0.0091962003362362609 0 -0.01532747725508994 -0.009202931374723269 0 -0.015351697126082645 -0.0091963514841753111 0 -0.01532747725508994 -0.009202931374723269 0 -0.015361344026067991 -0.0092093450922886913 0 -0.015351697126082645 -0.0091963514841753111 0 -0.015439452785513185 -0.0085264570190725555 0 -0.015271478084359302 -0.0088380571070512722 0 -0.015553776133551677 -0.0089998263334279804 0 -0.015461013203518493 -0.0091005319200125143 0 -0.015331959387640984 -0.0090920807744130534 0 -0.015553776133551677 -0.0089998263334279804 0 -0.015461013203518493 -0.0091005319200125143 0 -0.015591069193200038 -0.0090496786563664475 0 -0.015351697126082645 -0.0091963514841753111 0 -0.015434377722103185 -0.009252287836132184 0 -0.015419411272860372 -0.0092269144601803462 0 -0.015007239197275719 -0.0097034381607470251 0 -0.015097867513067081 -0.0098506977617939216 0 -0.014766564156008841 -0.010204782558023933 0 -0.014633463882059449 -0.010249710162461068 0 -0.0148230451420715 -0.010187973288176777 0 -0.015480305137317714 -0.0091604672937770915 0 -0.015423723683021731 -0.0092068320123483028 0 -0.014766564156008841 -0.010204782558023933 0 -0.014541520966687085 -0.010249146647719113 0 -0.0148230451420715 -0.010187973288176777 0 -0.014469217487983063 -0.010334152514993193 0 -0.015097867513067081 -0.0098506977617939216 0 -0.015361344026067991 -0.0092093450922886913 0 -0.015351697126082645 -0.0091963514841753111 0 -0.015419411272860372 -0.0092269144601803462 0 -0.015461013203518493 -0.0091005319200125143 0 -0.015591069193200038 -0.0090496786563664475 0 -0.015419411272860372 -0.0092269144601803462 0 -0.014766564156008841 -0.010204782558023933 0 -0.014600700543289446 -0.010237365464796618 0 -0.014633463882059449 -0.010249710162461068 0 -0.014749980075234197 -0.010214493190332255 0 -0.014571210246115409 -0.010308202104142437 0 -0.014766564156008841 -0.010204782558023933 0 -0.014549037983128749 -0.010377839936172837 0 -0.014541520966687085 -0.010249146647719113 0 -0.014999968040709339 -0.0091625099863051097 0 -0.015239958236807327 -0.0092489863153316122 0 -0.015331959387640984 -0.0090920807744130534 0 -0.015047577691802122 -0.0095025980152613383 0 -0.015239958236807327 -0.0092489863153316122 0 -0.015434377722103185 -0.009252287836132184 0 -0.014999991231654608 -0.0091620001984621374 0 -0.015271478084359302 -0.0088380571070512722 0 -0.015047577691802122 -0.0095025980152613383 0 -0.014999968040709339 -0.0091625099863051097 0 -0.015239958236807327 -0.0092489863153316122 0 -0.015239958236807327 -0.0092489863153316122 0 -0.015434377722103185 -0.009252287836132184 0 -0.015356664034249148 -0.0091988628116501936 0 -0.015434377722103185 -0.009252287836132184 0 -0.015419411272860372 -0.0092269144601803462 0 -0.015356664034249148 -0.0091988628116501936 0 -0.015356664034249148 -0.0091988628116501936 0 -0.015396184032692642 -0.0091495353947511921 0 -0.015331959387640984 -0.0090920807744130534 0 -0.015461013203518493 -0.0091005319200125143 0 -0.015419411272860372 -0.0092269144601803462 0 -0.015396184032692642 -0.0091495353947511921 0 -0.015461013203518493 -0.0091005319200125143 0 -0.015396184032692642 -0.0091495353947511921 0 -0.015331959387640984 -0.0090920807744130534 0 -0.015419411272860372 -0.0092269144601803462 0 -0.015356664034249148 -0.0091988628116501936 0 -0.015396184032692642 -0.0091495353947511921 0 -0.015239958236807327 -0.0092489863153316122 0 -0.015356664034249148 -0.0091988628116501936 0 -0.015331959387640984 -0.0090920807744130534 0 -0.015291523034765281 -0.0081101664979962781 0 -0.015296094905404184 -0.0085443338145754135 0 -0.015224635410888282 -0.0080746073421714051 0 -0.015296094905404184 -0.0085443338145754135 0 -0.014999798097959526 -0.0083649211174774106 0 -0.015224635410888282 -0.0080746073421714051 0 -0.014999896977193571 -0.0091615691157206219 0 -0.015296094905404184 -0.0085443338145754135 0 -0.014999798097959526 -0.0083649211174774106 0 -0.014999798097959526 -0.0083649211174774106 0 -0.015224635410888282 -0.0080746073421714051 0 -0.014999842387222049 -0.0075685389986230051 0 -0.015224635410888282 -0.0080746073421714051 0 -0.015175552876442518 -0.0077352031535740445 0 -0.015165125304387749 -0.0076463267831820116 0 -0.015207047591454172 -0.0079128374785544676 0 -0.015224635410888282 -0.0080746073421714051 0 -0.015175552876442518 -0.0077352031535740445 0 -0.015224635410888282 -0.0080746073421714051 0 -0.015165125304387749 -0.0076463267831820116 0 -0.014999842387222049 -0.0075685389986230051 0 -0.014999842387222049 -0.0075685389986230051 0 -0.015117521923194835 -0.0071779068784433514 0 -0.014999807374337534 -0.0067711927833122533 0 -0.015165125304387749 -0.0076463267831820116 0 -0.015117521923194835 -0.0071779068784433514 0 -0.015475121329139713 -0.0066524547090847019 0 -0.015165125304387749 -0.0076463267831820116 0 -0.014999842387222049 -0.0075685389986230051 0 -0.015117521923194835 -0.0071779068784433514 0 -0.015092366460649228 -0.0075402102197412906 0 -0.014933814738936494 -0.0073440556056590068 0 -0.015236675494414698 -0.0075418228480728326 0 -0.015175552876442518 -0.0077352031535740445 0 -0.015165125304387749 -0.0076463267831820116 0 -0.015092366460649228 -0.0075402102197412906 0 -0.015165125304387749 -0.0076463267831820116 0 -0.015092366460649228 -0.0075402102197412906 0 -0.014933814738936494 -0.0073440556056590068 0 -0.01516444172543345 -0.0075921963243951009 0 -0.015187900468360252 -0.0070024195694644445 0 -0.015117521923194835 -0.0071779068784433514 0 -0.015475121329139713 -0.0066524547090847019 0 -0.014999807374337534 -0.0067711927833122533 0 -0.015475121329139713 -0.0066524547090847019 0 -0.014999807374337534 -0.0067711927833122533 0 -0.015238343904129389 -0.0064052730364975129 0 -0.015087162128587432 -0.0077874870771540696 0 -0.014880208330667076 -0.0076171285776900789 0 -0.015001187243754054 -0.007533021918015588 0 -0.015175552876442518 -0.0077352031535740445 0 -0.015092366460649228 -0.0075402102197412906 0 -0.015236675494414698 -0.0075418228480728326 0 -0.015064415904682816 -0.0075747052973375592 0 -0.014917200792609935 -0.0072208473342355523 0 -0.014933814738936494 -0.0073440556056590068 0 -0.015236675494414698 -0.0075418228480728326 0 -0.015082170507938281 -0.0071855168664876692 0 -0.014760805452995917 -0.0072390122093949896 0 -0.014912185949153785 -0.0072150729052715664 0 -0.015001187243754054 -0.007533021918015588 0 -0.014880208330667076 -0.0076171285776900789 0 -0.014760805452995917 -0.0072390122093949896 0 -0.015001187243754054 -0.007533021918015588 0 -0.014760805452995917 -0.0072390122093949896 0 -0.014784316910751652 -0.0069435849954481606 0 -0.014912185949153785 -0.0072150729052715664 0 -0.015082170507938281 -0.0071855168664876692 0 -0.014784316910751652 -0.0069435849954481606 0 -0.014849002818528974 -0.0069792603204918494 0 -0.014917200792609935 -0.0072208473342355523 0 -0.014812887730885224 -0.0069794128983677248 0 -0.014999807374337534 -0.0067711927833122533 0 -0.015160814414625001 -0.0062263619900585722 0 -0.015238343904129389 -0.0064052730364975129 0 -0.014999807374337534 -0.0067711927833122533 0 -0.015160814414625001 -0.0062263619900585722 0 -0.01500009557980859 -0.005974903453712853 0 -0.015160814414625001 -0.0062263619900585722 0 -0.015238343904129389 -0.0064052730364975129 0 -0.015209404893740695 -0.0061607731275638167 0 -0.015187900468360252 -0.0070024195694644445 0 -0.015015142969374473 -0.0065934633543370969 0 -0.014933814738936494 -0.0073440556056590068 0 -0.015082170507938281 -0.0071855168664876692 0 -0.014849002818528974 -0.0069792603204918494 0 -0.015475121329139713 -0.0066524547090847019 0 -0.015209404893740695 -0.0061607731275638167 0 -0.015151175898882874 -0.0061416256735968636 0 -0.015475121329139713 -0.0066524547090847019 0 -0.015238343904129389 -0.0064052730364975129 0 -0.015209404893740695 -0.0061607731275638167 0 -0.015209404893740695 -0.0061607731275638167 0 -0.015151175898882874 -0.0061416256735968636 0 -0.01527236988236266 -0.0061105083963383334 0 -0.01500009557980859 -0.005974903453712853 0 -0.015031367472219724 -0.00590574252919643 0 -0.014999973795639868 -0.005177496492694264 0 -0.015160814414625001 -0.0062263619900585722 0 -0.015209404893740695 -0.0061607731275638167 0 -0.015220919439181371 -0.0060348708029316148 0 -0.015209404893740695 -0.0061607731275638167 0 -0.015220919439181371 -0.0060348708029316148 0 -0.01527236988236266 -0.0061105083963383334 0 -0.015160814414625001 -0.0062263619900585722 0 -0.015220919439181371 -0.0060348708029316148 0 -0.01500009557980859 -0.005974903453712853 0 -0.015220919439181371 -0.0060348708029316148 0 -0.01500009557980859 -0.005974903453712853 0 -0.015031367472219724 -0.00590574252919643 0 -0.015055464763142819 -0.0059047650063359294 0 -0.014976213382086859 -0.0059675887076029764 0 -0.015220919439181371 -0.0060348708029316148 0 -0.015031367472219724 -0.00590574252919643 0 -0.01523382951089922 -0.005941161772580356 0 -0.015012793164353253 -0.0059989684403982096 0 -0.014976213382086859 -0.0059675887076029764 0 -0.015031367472219724 -0.00590574252919643 0 -0.015195424646557803 -0.0057525252247970851 0 -0.014999973795639868 -0.005177496492694264 0 -0.015195424646557803 -0.0057525252247970851 0 -0.014999973795639868 -0.005177496492694264 0 -0.015240743862753205 -0.0049554577394894618 0 -0.014649906972285522 -0.0060711390538354809 0 -0.014665101881801892 -0.0057259366832898987 0 -0.014925371882707148 -0.0058179140758600131 0 -0.014976213382086859 -0.0059675887076029764 0 -0.014950790038140782 -0.0053118924502390244 0 -0.014999973795639868 -0.005177496492694264 0 -0.015240743862753205 -0.0049554577394894618 0 -0.015000005547083483 -0.0043807104477879026 0 -0.014665101881801892 -0.0057259366832898987 0 -0.014925371882707148 -0.0058179140758600131 0 -0.014914663268434325 -0.0055350456505474464 0 -0.014976213382086859 -0.0059675887076029764 0 -0.015007172352894822 -0.0062791446040833393 0 -0.015151175898882874 -0.0061416256735968636 0 -0.01527236988236266 -0.0061105083963383334 0 -0.015030873041534699 -0.0067484342949757688 0 -0.015151175898882874 -0.0061416256735968636 0 -0.015030873041534699 -0.0067484342949757688 0 -0.014889687130116373 -0.0068641494146222644 0 -0.015015142969374473 -0.0065934633543370969 0 -0.014893398619089273 -0.006843910334638513 0 -0.014784316910751652 -0.0069435849954481606 0 -0.014849002818528974 -0.0069792603204918494 0 -0.014768477314458 -0.0069193452165058301 0 -0.014849002818528974 -0.0069792603204918494 0 -0.014768477314458 -0.0069193452165058301 0 -0.014889687130116373 -0.0068641494146222644 0 -0.014784316910751652 -0.0069435849954481606 0 -0.014768477314458 -0.0069193452165058301 0 -0.014655743976238441 -0.0069537364387596912 0 -0.014768477314458 -0.0069193452165058301 0 -0.014655743976238441 -0.0069537364387596912 0 -0.014635497001526054 -0.006999928794687472 0 -0.014655743976238441 -0.0069537364387596912 0 -0.014635497001526054 -0.006999928794687472 0 -0.014526310417495027 -0.007028437454936691 0 -0.014635497001526054 -0.006999928794687472 0 -0.014541533527111844 -0.0070766029098769355 0 -0.014526310417495027 -0.007028437454936691 0 -0.014768477314458 -0.0069193452165058301 0 -0.014635497001526054 -0.006999928794687472 0 -0.014727203264293567 -0.0069845984672687314 0 -0.014621046326059898 -0.0070844178177338606 0 -0.014727203264293567 -0.0069845984672687314 0 -0.014647785087656882 -0.0072398964227548754 0 -0.014635497001526054 -0.006999928794687472 0 -0.014621046326059898 -0.0070844178177338606 0 -0.014727203264293567 -0.0069845984672687314 0 -0.014621046326059898 -0.0070844178177338606 0 -0.014541533527111844 -0.0070766029098769355 0 -0.014613972332785184 -0.0071361278881745581 0 -0.014635497001526054 -0.006999928794687472 0 -0.014621046326059898 -0.0070844178177338606 0 -0.014541533527111844 -0.0070766029098769355 0 -0.015007172352894822 -0.0062791446040833393 0 -0.014673249294702442 -0.0065055903049504645 0 -0.015030873041534699 -0.0067484342949757688 0 -0.014889687130116373 -0.0068641494146222644 0 -0.014647785087656882 -0.0072398964227548754 0 -0.014925371882707148 -0.0058179140758600131 0 -0.015214839234899798 -0.0055603647842071644 0 -0.014914663268434325 -0.0055350456505474464 0 -0.014889687130116373 -0.0068641494146222644 0 -0.014727203264293567 -0.0069845984672687314 0 -0.014647785087656882 -0.0072398964227548754 0 -0.014768477314458 -0.0069193452165058301 0 -0.014889687130116373 -0.0068641494146222644 0 -0.014727203264293567 -0.0069845984672687314 0 -0.015214839234899798 -0.0055603647842071644 0 -0.015094745067749422 -0.0051959289257177054 0 -0.014914663268434325 -0.0055350456505474464 0 -0.014673249294702442 -0.0065055903049504645 0 -0.014214917372073022 -0.0073515958083485459 0 -0.014613972332785184 -0.0071361278881745581 0 -0.014328286290831863 -0.0071597762627051888 0 -0.014407940322758515 -0.0071413757487182776 0 -0.014281297509213897 -0.0071646307116461127 0 -0.014286496496245716 -0.0071327561705003557 0 -0.014328286290831863 -0.0071597762627051888 0 -0.014613972332785184 -0.0071361278881745581 0 -0.014407940322758515 -0.0071413757487182776 0 -0.0144484696604389 -0.0071155618281906301 0 -0.014541533527111844 -0.0070766029098769355 0 -0.014613972332785184 -0.0071361278881745581 0 -0.0144484696604389 -0.0071155618281906301 0 -0.014745331149697633 -0.0070101378550966416 0 -0.014673249294702442 -0.0065055903049504645 0 -0.014281297509213897 -0.0071646307116461127 0 -0.014286496496245716 -0.0071327561705003557 0 -0.014283965061969509 -0.0071164943648903646 0 -0.014286496496245716 -0.0071327561705003557 0 -0.014283965061969509 -0.0071164943648903646 0 -0.014265787530597799 -0.0071254319895068296 0 -0.014286496496245716 -0.0071327561705003557 0 -0.014278942445835777 -0.0071301218271637946 0 -0.014265787530597799 -0.0071254319895068296 0 -0.014286496496245716 -0.0071327561705003557 0 -0.014278942445835777 -0.0071301218271637946 0 -0.014328286290831863 -0.0071597762627051888 0 -0.014673249294702442 -0.0065055903049504645 0 -0.014816314609545517 -0.0065069369084518793 0 -0.015094745067749422 -0.0051959289257177054 0 -0.014677372111628964 -0.0053630170454134042 0 -0.014694479393175147 -0.0049849862322372956 0 -0.015094745067749422 -0.0051959289257177054 0 -0.014677372111628964 -0.0053630170454134042 0 -0.014914663268434325 -0.0055350456505474464 0 -0.015288045060369442 -0.004167052480554892 0 -0.015000005547083483 -0.0043807104477879026 0 -0.014999991236729866 -0.0035837929330017151 0 -0.014953680193846677 -0.0048439496485276319 0 -0.015247401567338842 -0.0038413293053799948 0 -0.014665101881801892 -0.0057259366832898987 0 -0.014677372111628964 -0.0053630170454134042 0 -0.014914663268434325 -0.0055350456505474464 0 -0.014950790038140782 -0.0053118924502390244 0 -0.014953680193846677 -0.0048439496485276319 0 -0.015240743862753205 -0.0049554577394894618 0 -0.015288045060369442 -0.004167052480554892 0 -0.015000005547083483 -0.0043807104477879026 0 -0.014071739870685308 -0.0071453906909623877 0 -0.013868148427917412 -0.007098016943135145 0 -0.013879145649091568 -0.0071675784437864511 0 -0.014071739870685308 -0.0071453906909623877 0 -0.013868148427917412 -0.007098016943135145 0 -0.014143725559773493 -0.0070910799166397894 0 -0.013868148427917412 -0.007098016943135145 0 -0.013879145649091568 -0.0071675784437864511 0 -0.013652581827974398 -0.0070654294298508275 0 -0.013868148427917412 -0.007098016943135145 0 -0.013822486504373241 -0.0070659737058390874 0 -0.013652581827974398 -0.0070654294298508275 0 -0.013879145649091568 -0.0071675784437864511 0 -0.013652581827974398 -0.0070654294298508275 0 -0.013680629409268903 -0.0071380077325482174 0 -0.014071739870685308 -0.0071453906909623877 0 -0.013879145649091568 -0.0071675784437864511 0 -0.01406598260294325 -0.0072799670842192505 0 -0.014275509460546572 -0.0071461929315624114 0 -0.01406388936568851 -0.0071685867682786735 0 -0.014203814365188673 -0.0071719971066432639 0 -0.014305935898077748 -0.0071515728274922242 0 -0.01406598260294325 -0.0072799670842192505 0 -0.014071739870685308 -0.0071453906909623877 0 -0.014203814365188673 -0.0071719971066432639 0 -0.01406598260294325 -0.0072799670842192505 0 -0.014278942445835777 -0.0071301218271637946 0 -0.014305935898077748 -0.0071515728274922242 0 -0.014212223796728627 -0.0071154207387636734 0 -0.014203814365188673 -0.0071719971066432639 0 -0.014305935898077748 -0.0071515728274922242 0 -0.014292215543851551 -0.0071529247401385266 0 -0.014305935898077748 -0.0071515728274922242 0 -0.014331551579078764 -0.0071541215562874764 0 -0.014292215543851551 -0.0071529247401385266 0 -0.014278942445835777 -0.0071301218271637946 0 -0.014305935898077748 -0.0071515728274922242 0 -0.014328286290831863 -0.0071597762627051888 0 -0.014305935898077748 -0.0071515728274922242 0 -0.014331551579078764 -0.0071541215562874764 0 -0.014328286290831863 -0.0071597762627051888 0 -0.014331551579078764 -0.0071541215562874764 0 -0.014328286290831863 -0.0071597762627051888 0 -0.014407940322758515 -0.0071413757487182776 0 -0.014407940322758515 -0.0071413757487182776 0 -0.014347263473096722 -0.0071400941199746895 0 -0.0144484696604389 -0.0071155618281906301 0 -0.014331551579078764 -0.0071541215562874764 0 -0.014407940322758515 -0.0071413757487182776 0 -0.014347263473096722 -0.0071400941199746895 0 -0.014347263473096722 -0.0071400941199746895 0 -0.014292215543851551 -0.0071529247401385266 0 -0.014258793472196683 -0.0071315999547146682 0 -0.014331551579078764 -0.0071541215562874764 0 -0.014347263473096722 -0.0071400941199746895 0 -0.014292215543851551 -0.0071529247401385266 0 -0.014376533809234258 -0.0071099997765034428 0 -0.014258793472196683 -0.0071315999547146682 0 -0.014370614041274776 -0.0070736366501122274 0 -0.014347263473096722 -0.0071400941199746895 0 -0.014376533809234258 -0.0071099997765034428 0 -0.014258793472196683 -0.0071315999547146682 0 -0.014376533809234258 -0.0071099997765034428 0 -0.0144484696604389 -0.0071155618281906301 0 -0.014457646418358562 -0.0070819300811613833 0 -0.014347263473096722 -0.0071400941199746895 0 -0.014376533809234258 -0.0071099997765034428 0 -0.0144484696604389 -0.0071155618281906301 0 -0.014071739870685308 -0.0071453906909623877 0 -0.014258793472196683 -0.0071315999547146682 0 -0.014143725559773493 -0.0070910799166397894 0 -0.014071739870685308 -0.0071453906909623877 0 -0.014203814365188673 -0.0071719971066432639 0 -0.014258793472196683 -0.0071315999547146682 0 -0.014203814365188673 -0.0071719971066432639 0 -0.014292215543851551 -0.0071529247401385266 0 -0.014258793472196683 -0.0071315999547146682 0 -0.014370614041274776 -0.0070736366501122274 0 -0.01430173312771176 -0.0070216621644414168 0 -0.014143725559773493 -0.0070910799166397894 0 -0.014258793472196683 -0.0071315999547146682 0 -0.014370614041274776 -0.0070736366501122274 0 -0.014143725559773493 -0.0070910799166397894 0 -0.014370614041274776 -0.0070736366501122274 0 -0.014496420705450465 -0.0070039788248740719 0 -0.01430173312771176 -0.0070216621644414168 0 -0.014541533527111844 -0.0070766029098769355 0 -0.0144484696604389 -0.0071155618281906301 0 -0.014457646418358562 -0.0070819300811613833 0 -0.014457646418358562 -0.0070819300811613833 0 -0.014370614041274776 -0.0070736366501122274 0 -0.014526310417495027 -0.007028437454936691 0 -0.014541533527111844 -0.0070766029098769355 0 -0.014457646418358562 -0.0070819300811613833 0 -0.014526310417495027 -0.007028437454936691 0 -0.014376533809234258 -0.0071099997765034428 0 -0.014457646418358562 -0.0070819300811613833 0 -0.014370614041274776 -0.0070736366501122274 0 -0.014370614041274776 -0.0070736366501122274 0 -0.014526310417495027 -0.007028437454936691 0 -0.014496420705450465 -0.0070039788248740719 0 -0.014655743976238441 -0.0069537364387596912 0 -0.014496420705450465 -0.0070039788248740719 0 -0.014705190900692583 -0.0069235179163055537 0 -0.014655743976238441 -0.0069537364387596912 0 -0.014526310417495027 -0.007028437454936691 0 -0.014496420705450465 -0.0070039788248740719 0 -0.014496420705450465 -0.0070039788248740719 0 -0.01430173312771176 -0.0070216621644414168 0 -0.014705190900692583 -0.0069235179163055537 0 -0.01430173312771176 -0.0070216621644414168 0 -0.014000468238145786 -0.006957113127404671 0 -0.014183264547977243 -0.006886409798299028 0 -0.01430173312771176 -0.0070216621644414168 0 -0.014000468238145786 -0.006957113127404671 0 -0.013976796829245226 -0.0070430331203161275 0 -0.013868148427917412 -0.007098016943135145 0 -0.014143725559773493 -0.0070910799166397894 0 -0.013976796829245226 -0.0070430331203161275 0 -0.01430173312771176 -0.0070216621644414168 0 -0.014143725559773493 -0.0070910799166397894 0 -0.013976796829245226 -0.0070430331203161275 0 -0.013976796829245226 -0.0070430331203161275 0 -0.013822486504373241 -0.0070659737058390874 0 -0.013763714483462317 -0.0069919093609706199 0 -0.013868148427917412 -0.007098016943135145 0 -0.013976796829245226 -0.0070430331203161275 0 -0.013822486504373241 -0.0070659737058390874 0 -0.014000468238145786 -0.006957113127404671 0 -0.013976796829245226 -0.0070430331203161275 0 -0.013763714483462317 -0.0069919093609706199 0 -0.013763714483462317 -0.0069919093609706199 0 -0.013863568061651795 -0.0068550019849166902 0 -0.013683348225013362 -0.0068970436196973623 0 -0.014000468238145786 -0.006957113127404671 0 -0.013763714483462317 -0.0069919093609706199 0 -0.013863568061651795 -0.0068550019849166902 0 -0.013863568061651795 -0.0068550019849166902 0 -0.013683348225013362 -0.0068970436196973623 0 -0.013681733233882526 -0.00679806869260869 0 -0.013863568061651795 -0.0068550019849166902 0 -0.014183264547977243 -0.006886409798299028 0 -0.014000095666185472 -0.0067359602539404373 0 -0.014000468238145786 -0.006957113127404671 0 -0.013863568061651795 -0.0068550019849166902 0 -0.014183264547977243 -0.006886409798299028 0 -0.014183264547977243 -0.006886409798299028 0 -0.014199485866385692 -0.0066204405880168002 0 -0.014000095666185472 -0.0067359602539404373 0 -0.014199485866385692 -0.0066204405880168002 0 -0.014000095666185472 -0.0067359602539404373 0 -0.01394988803314208 -0.0066340710540126269 0 -0.014000095666185472 -0.0067359602539404373 0 -0.013830524437539116 -0.0067127201000001697 0 -0.01394988803314208 -0.0066340710540126269 0 -0.013863568061651795 -0.0068550019849166902 0 -0.014000095666185472 -0.0067359602539404373 0 -0.013830524437539116 -0.0067127201000001697 0 -0.013863568061651795 -0.0068550019849166902 0 -0.013830524437539116 -0.0067127201000001697 0 -0.013681733233882526 -0.00679806869260869 0 -0.014784316910751652 -0.0069435849954481606 0 -0.014705190900692583 -0.0069235179163055537 0 -0.014912185949153785 -0.0072150729052715664 0 -0.014784316910751652 -0.0069435849954481606 0 -0.014655743976238441 -0.0069537364387596912 0 -0.014705190900692583 -0.0069235179163055537 0 -0.014183264547977243 -0.006886409798299028 0 -0.014199485866385692 -0.0066204405880168002 0 -0.014705190900692583 -0.0069235179163055537 0 -0.01430173312771176 -0.0070216621644414168 0 -0.014183264547977243 -0.006886409798299028 0 -0.014705190900692583 -0.0069235179163055537 0 -0.014760021959031954 -0.0069114013439502235 0 -0.014711730459214152 -0.0069376510876702126 0 -0.01523690380602684 -0.0072062939201664247 0 -0.014705190900692583 -0.0069235179163055537 0 -0.014912185949153785 -0.0072150729052715664 0 -0.014912185949153785 -0.0072150729052715664 0 -0.015148223185229586 -0.007499360964606237 0 -0.015001187243754054 -0.007533021918015588 0 -0.01523690380602684 -0.0072062939201664247 0 -0.014912185949153785 -0.0072150729052715664 0 -0.015257528905751392 -0.0073961312395291303 0 -0.014912185949153785 -0.0072150729052715664 0 -0.015257528905751392 -0.0073961312395291303 0 -0.015148223185229586 -0.007499360964606237 0 -0.015220654896880285 -0.0077592925047071225 0 -0.015148223185229586 -0.007499360964606237 0 -0.015442055765808153 -0.0075273462540538776 0 -0.015220654896880285 -0.0077592925047071225 0 -0.015087162128587432 -0.0077874870771540696 0 -0.015001187243754054 -0.007533021918015588 0 -0.015220654896880285 -0.0077592925047071225 0 -0.015148223185229586 -0.007499360964606237 0 -0.015001187243754054 -0.007533021918015588 0 -0.01442279245940672 -0.0071663795075526783 0 -0.013923171135757754 -0.006723032877576739 0 -0.013867532244894986 -0.0065592901645467674 0 -0.013779655378381023 -0.0066179580249824278 0 -0.013751948675097079 -0.0065268634920161031 0 -0.013779655378381023 -0.0066179580249824278 0 -0.013751948675097079 -0.0065268634920161031 0 -0.013658835117268555 -0.0065356400564451703 0 -0.013830524437539116 -0.0067127201000001697 0 -0.013779655378381023 -0.0066179580249824278 0 -0.013637638609324456 -0.0067104342275139308 0 -0.013830524437539116 -0.0067127201000001697 0 -0.013779655378381023 -0.0066179580249824278 0 -0.01394988803314208 -0.0066340710540126269 0 -0.013916863929254952 -0.0064760487728626739 0 -0.013779655378381023 -0.0066179580249824278 0 -0.01394988803314208 -0.0066340710540126269 0 -0.01523690380602684 -0.0072062939201664247 0 -0.015497493504063218 -0.0074932667782854371 0 -0.015408309767046534 -0.0074532316895029619 0 -0.014199485866385692 -0.0066204405880168002 0 -0.013916863929254952 -0.0064760487728626739 0 -0.01394988803314208 -0.0066340710540126269 0 -0.014760021959031954 -0.0069114013439502235 0 -0.01442279245940672 -0.0071663795075526783 0 -0.01523690380602684 -0.0072062939201664247 0 -0.015257528905751392 -0.0073961312395291303 0 -0.015408309767046534 -0.0074532316895029619 0 -0.015257528905751392 -0.0073961312395291303 0 -0.015148223185229586 -0.007499360964606237 0 -0.015442055765808153 -0.0075273462540538776 0 -0.015257528905751392 -0.0073961312395291303 0 -0.015408309767046534 -0.0074532316895029619 0 -0.015442055765808153 -0.0075273462540538776 0 -0.015273021394218786 -0.0084888448900400457 0 -0.015048381867918861 -0.0079014875564265129 0 -0.015497493504063218 -0.0074932667782854371 0 -0.015408309767046534 -0.0074532316895029619 0 -0.015448125258581059 -0.0075371771073858935 0 -0.01512231417418165 -0.0076805767805583182 0 -0.015048381867918861 -0.0079014875564265129 0 -0.014294708154480997 -0.0079820066634312577 0 -0.014225293626817532 -0.0078930865717192697 0 -0.014209715126500421 -0.0079082125142862902 0 -0.013417466602822583 -0.0076379490560146961 0 -0.01442279245940672 -0.0071663795075526783 0 -0.013703087827881025 -0.0063642249085438729 0 -0.013867532244894986 -0.0065592901645467674 0 -0.013751948675097079 -0.0065268634920161031 0 -0.014382126704107746 -0.0089430922496584464 0 -0.015048381867918861 -0.0079014875564265129 0 -0.014294708154480997 -0.0079820066634312577 0 -0.014253026937809951 -0.0080117740944644425 0 -0.014209715126500421 -0.0079082125142862902 0 -0.01442279245940672 -0.0071663795075526783 0 -0.015048381867918861 -0.0079014875564265129 0 -0.01214130042592705 -0.0074176068652696964 0 -0.01257351273459417 -0.0074451121864149636 0 -0.012553462165438439 -0.0071470702058653848 0 -0.013703087827881025 -0.0063642249085438729 0 -0.013658835117268555 -0.0065356400564451703 0 -0.013447471240035766 -0.0065035460901298305 0 -0.013417466602822583 -0.0076379490560146961 0 -0.012976788804385188 -0.0067954917190822424 0 -0.013658835117268555 -0.0065356400564451703 0 -0.01345025823348512 -0.0067236702898328497 0 -0.013447471240035766 -0.0065035460901298305 0 -0.013703087827881025 -0.0063642249085438729 0 -0.013751948675097079 -0.0065268634920161031 0 -0.013658835117268555 -0.0065356400564451703 0 -0.013779655378381023 -0.0066179580249824278 0 -0.013658835117268555 -0.0065356400564451703 0 -0.013637638609324456 -0.0067104342275139308 0 -0.013658835117268555 -0.0065356400564451703 0 -0.013637638609324456 -0.0067104342275139308 0 -0.01345025823348512 -0.0067236702898328497 0 -0.013637638609324456 -0.0067104342275139308 0 -0.01345025823348512 -0.0067236702898328497 0 -0.0134816777966397 -0.0068136221674861882 0 -0.01330098283966594 -0.0068626818490229186 0 -0.01345025823348512 -0.0067236702898328497 0 -0.013111618017368088 -0.0068913138392735973 0 -0.01345025823348512 -0.0067236702898328497 0 -0.013447471240035766 -0.0065035460901298305 0 -0.013111618017368088 -0.0068913138392735973 0 -0.01330098283966594 -0.0068626818490229186 0 -0.01345025823348512 -0.0067236702898328497 0 -0.0134816777966397 -0.0068136221674861882 0 -0.012976788804385188 -0.0067954917190822424 0 -0.013101564410571639 -0.006869201138400823 0 -0.01257351273459417 -0.0074451121864149636 0 -0.012553462165438439 -0.0071470702058653848 0 -0.012963370727800169 -0.0073382496177987061 0 -0.012553462165438439 -0.0071470702058653848 0 -0.012963370727800169 -0.0073382496177987061 0 -0.013111618017368088 -0.0068913138392735973 0 -0.012963370727800169 -0.0073382496177987061 0 -0.013209773005137565 -0.0072217907096709536 0 -0.013111618017368088 -0.0068913138392735973 0 -0.013209773005137565 -0.0072217907096709536 0 -0.013177781076591977 -0.0069707373973301448 0 -0.013111618017368088 -0.0068913138392735973 0 -0.013209773005137565 -0.0072217907096709536 0 -0.013177781076591977 -0.0069707373973301448 0 -0.013235060159115377 -0.0071342820487355013 0 -0.013177781076591977 -0.0069707373973301448 0 -0.013235060159115377 -0.0071342820487355013 0 -0.013189460687697059 -0.0069909473942736527 0 -0.013177781076591977 -0.0069707373973301448 0 -0.013111618017368088 -0.0068913138392735973 0 -0.013221037698157233 -0.0069148847884423249 0 -0.01330098283966594 -0.0068626818490229186 0 -0.013111618017368088 -0.0068913138392735973 0 -0.013221037698157233 -0.0069148847884423249 0 -0.01330098283966594 -0.0068626818490229186 0 -0.013221037698157233 -0.0069148847884423249 0 -0.013346166882526989 -0.0069060727813854746 0 -0.013221037698157233 -0.0069148847884423249 0 -0.013283304603008774 -0.0069587560117470504 0 -0.013346166882526989 -0.0069060727813854746 0 -0.013221037698157233 -0.0069148847884423249 0 -0.013190544264573207 -0.0069461500691996867 0 -0.013283304603008774 -0.0069587560117470504 0 -0.013177781076591977 -0.0069707373973301448 0 -0.013190544264573207 -0.0069461500691996867 0 -0.013189460687697059 -0.0069909473942736527 0 -0.013177781076591977 -0.0069707373973301448 0 -0.013221037698157233 -0.0069148847884423249 0 -0.013190544264573207 -0.0069461500691996867 0 -0.013190544264573207 -0.0069461500691996867 0 -0.013168457268300911 -0.0069207940093514875 0 -0.013189460687697059 -0.0069909473942736527 0 -0.013190544264573207 -0.0069461500691996867 0 -0.013283304603008774 -0.0069587560117470504 0 -0.013251971000745395 -0.0070082419196453843 0 -0.013190544264573207 -0.0069461500691996867 0 -0.013168457268300911 -0.0069207940093514875 0 -0.013068440369185839 -0.0067677136400478557 0 -0.013182514912574467 -0.0069233196377009075 0 -0.013185477091879691 -0.0069004321130162289 0 -0.013283304603008774 -0.0069587560117470504 0 -0.013439251079547802 -0.0069705518955586448 0 -0.013346166882526989 -0.0069060727813854746 0 -0.013283304603008774 -0.0069587560117470504 0 -0.013439251079547802 -0.0069705518955586448 0 -0.013342608777218696 -0.0070027379242355633 0 -0.013439251079547802 -0.0069705518955586448 0 -0.013526013615477577 -0.0068933614155441197 0 -0.013346166882526989 -0.0069060727813854746 0 -0.013439251079547802 -0.0069705518955586448 0 -0.013526013615477577 -0.0068933614155441197 0 -0.013575889809004715 -0.0069558270474621405 0 -0.013763714483462317 -0.0069919093609706199 0 -0.013575889809004715 -0.0069558270474621405 0 -0.013683348225013362 -0.0068970436196973623 0 -0.013526013615477577 -0.0068933614155441197 0 -0.013575889809004715 -0.0069558270474621405 0 -0.013683348225013362 -0.0068970436196973623 0 -0.013526013615477577 -0.0068933614155441197 0 -0.013683348225013362 -0.0068970436196973623 0 -0.013681733233882526 -0.00679806869260869 0 -0.013526013615477577 -0.0068933614155441197 0 -0.013681733233882526 -0.00679806869260869 0 -0.0134816777966397 -0.0068136221674861882 0 -0.013830524437539116 -0.0067127201000001697 0 -0.013637638609324456 -0.0067104342275139308 0 -0.013681733233882526 -0.00679806869260869 0 -0.013637638609324456 -0.0067104342275139308 0 -0.013681733233882526 -0.00679806869260869 0 -0.0134816777966397 -0.0068136221674861882 0 -0.01330098283966594 -0.0068626818490229186 0 -0.0134816777966397 -0.0068136221674861882 0 -0.013346166882526989 -0.0069060727813854746 0 -0.013526013615477577 -0.0068933614155441197 0 -0.0134816777966397 -0.0068136221674861882 0 -0.013346166882526989 -0.0069060727813854746 0 -0.012255023329185086 -0.0075245460592059683 0 -0.012159352004510902 -0.0074861453181474897 0 -0.012166923794106263 -0.0074790194254057002 0 -0.012255023329185086 -0.0075245460592059683 0 -0.012166923794106263 -0.0074790194254057002 0 -0.012198817914759063 -0.0075283440332679728 0 -0.012381615280738507 -0.007496445425513483 0 -0.012334381640891734 -0.0074757273734771144 0 -0.012255023329185086 -0.0075245460592059683 0 -0.012334381640891734 -0.0074757273734771144 0 -0.012255023329185086 -0.0075245460592059683 0 -0.012198817914759063 -0.0075283440332679728 0 -0.012381615280738507 -0.007496445425513483 0 -0.012255023329185086 -0.0075245460592059683 0 -0.01218780648695013 -0.0075236047022952269 0 -0.012726351301827275 -0.0074184738020787854 0 -0.012729649726209944 -0.0073587497033443406 0 -0.012255023329185086 -0.0075245460592059683 0 -0.01218780648695013 -0.0075236047022952269 0 -0.012159352004510902 -0.0074861453181474897 0 -0.013288654481173601 -0.0072390067348490194 0 -0.013235060159115377 -0.0071342820487355013 0 -0.013315177047388667 -0.0070051175934100866 0 -0.013239284877939586 -0.0074025784007061739 0 -0.013288654481173601 -0.0072390067348490194 0 -0.013235060159115377 -0.0071342820487355013 0 -0.013239284877939586 -0.0074025784007061739 0 -0.013100094359993042 -0.0074170256420093613 0 -0.013288654481173601 -0.0072390067348490194 0 -0.013239284877939586 -0.0074025784007061739 0 -0.013209773005137565 -0.0072217907096709536 0 -0.013235060159115377 -0.0071342820487355013 0 -0.013235060159115377 -0.0071342820487355013 0 -0.013189460687697059 -0.0069909473942736527 0 -0.013243487796399989 -0.006984194621046597 0 -0.013168457268300911 -0.0069207940093514875 0 -0.013189460687697059 -0.0069909473942736527 0 -0.013243487796399989 -0.006984194621046597 0 -0.013168457268300911 -0.0069207940093514875 0 -0.013243487796399989 -0.006984194621046597 0 -0.013278392291043013 -0.0068616995666351639 0 -0.013168457268300911 -0.0069207940093514875 0 -0.013138492633212326 -0.0067891450121935846 0 -0.013068440369185839 -0.0067677136400478557 0 -0.013308156720248007 -0.0068676792130933553 0 -0.012791995768968393 -0.0068647384866557205 0 -0.013243487796399989 -0.006984194621046597 0 -0.013315177047388667 -0.0070051175934100866 0 -0.013278392291043013 -0.0068616995666351639 0 -0.012663736683081793 -0.0072587002265879393 0 -0.012791995768968393 -0.0068647384866557205 0 -0.01203997013286107 -0.0074512796650325801 0 -0.012033082870154711 -0.0073104487576309031 0 -0.011931352341984936 -0.0073060558017750479 0 -0.012729649726209944 -0.0073587497033443406 0 -0.012663736683081793 -0.0072587002265879393 0 -0.013235060159115377 -0.0071342820487355013 0 -0.013243487796399989 -0.006984194621046597 0 -0.013315177047388667 -0.0070051175934100866 0 -0.01203997013286107 -0.0074512796650325801 0 -0.012159352004510902 -0.0074861453181474897 0 -0.012109461003815471 -0.0074048686487229983 0 -0.01218780648695013 -0.0075236047022952269 0 -0.01203997013286107 -0.0074512796650325801 0 -0.012159352004510902 -0.0074861453181474897 0 -0.01203997013286107 -0.0074512796650325801 0 -0.012109461003815471 -0.0074048686487229983 0 -0.012033082870154711 -0.0073104487576309031 0 -0.012109461003815471 -0.0074048686487229983 0 -0.012153382401407103 -0.0074022270063763534 0 -0.012166923794106263 -0.0074790194254057002 0 -0.012159352004510902 -0.0074861453181474897 0 -0.012109461003815471 -0.0074048686487229983 0 -0.012166923794106263 -0.0074790194254057002 0 -0.012048003056410352 -0.0070127557302319364 0 -0.012078335714758325 -0.0072111902116798899 0 -0.012033050060766265 -0.0069349911078324502 0 -0.012148370731569757 -0.0068173847720795645 0 -0.012110901095794742 -0.0068244813261475606 0 -0.012048003056410352 -0.0070127557302319364 0 -0.01202829904301278 -0.00710082082743832 0 -0.012024125217602292 -0.0069130504642551088 0 -0.012048003056410352 -0.0070127557302319364 0 -0.012078335714758325 -0.0072111902116798899 0 -0.01202829904301278 -0.00710082082743832 0 -0.012053151738727416 -0.007208080775576514 0 -0.012060794288182243 -0.0071844557821124175 0 -0.012109461003815471 -0.0074048686487229983 0 -0.012153382401407103 -0.0074022270063763534 0 -0.012078335714758325 -0.0072111902116798899 0 -0.012153382401407103 -0.0074022270063763534 0 -0.012078335714758325 -0.0072111902116798899 0 -0.01215646070661654 -0.0074220050143245205 0 -0.012109461003815471 -0.0074048686487229983 0 -0.012078335714758325 -0.0072111902116798899 0 -0.012033082870154711 -0.0073104487576309031 0 -0.012148370731569757 -0.0068173847720795645 0 -0.012791995768968393 -0.0068647384866557205 0 -0.012078335714758325 -0.0072111902116798899 0 -0.012033082870154711 -0.0073104487576309031 0 -0.01202829904301278 -0.00710082082743832 0 -0.012033082870154711 -0.0073104487576309031 0 -0.01202829904301278 -0.00710082082743832 0 -0.011931352341984936 -0.0073060558017750479 0 -0.012412761396850878 -0.0065580164088877941 0 -0.012711723010789077 -0.0065089161272681604 0 -0.012579382635748084 -0.0067138025741717141 0 -0.012837087821332948 -0.0066764816813482406 0 -0.013029576144519359 -0.0067338428936295656 0 -0.012579382635748084 -0.0067138025741717141 0 -0.012837087821332948 -0.0066764816813482406 0 -0.012711723010789077 -0.0065089161272681604 0 -0.012579382635748084 -0.0067138025741717141 0 -0.012837087821332948 -0.0066764816813482406 0 -0.012711723010789077 -0.0065089161272681604 0 -0.012998716831861934 -0.0066926455217928569 0 -0.012711723010789077 -0.0065089161272681604 0 -0.012807782599742702 -0.0061837935403809483 0 -0.012998716831861934 -0.0066926455217928569 0 -0.012791995768968393 -0.0068647384866557205 0 -0.013026988353026738 -0.0065471669308557008 0 -0.012412761396850878 -0.0065580164088877941 0 -0.012711723010789077 -0.0065089161272681604 0 -0.012807782599742702 -0.0061837935403809483 0 -0.013138492633212326 -0.0067891450121935846 0 -0.012998716831861934 -0.0066926455217928569 0 -0.013068440369185839 -0.0067677136400478557 0 -0.012998716831861934 -0.0066926455217928569 0 -0.013029576144519359 -0.0067338428936295656 0 -0.013068440369185839 -0.0067677136400478557 0 -0.013205894522613438 -0.0071484509588707395 0 -0.013251971000745395 -0.0070082419196453843 0 -0.013281352263727921 -0.0070981077849037568 0 -0.012957835848917586 -0.0068567407449032589 0 -0.013185477091879691 -0.0069004321130162289 0 -0.012837087821332948 -0.0066764816813482406 0 -0.012998716831861934 -0.0066926455217928569 0 -0.013029576144519359 -0.0067338428936295656 0 -0.012784253642929583 -0.0066935259411014325 0 -0.012697961149180887 -0.006892822452667628 0 -0.012894858395981812 -0.0068580449439767516 0 -0.012736674674601319 -0.0067288459821348099 0 -0.012697961149180887 -0.006892822452667628 0 -0.012642727431303088 -0.0067775023584659014 0 -0.012957835848917586 -0.0068567407449032589 0 -0.012695735601390689 -0.0068474310779794677 0 -0.012837364364833282 -0.0070119722413097925 0 -0.012697961149180887 -0.006892822452667628 0 -0.012588916244023585 -0.0070095176947789972 0 -0.012837364364833282 -0.0070119722413097925 0 -0.012697961149180887 -0.006892822452667628 0 -0.012894858395981812 -0.0068580449439767516 0 -0.012697961149180887 -0.006892822452667628 0 -0.012545229384510746 -0.0068430492001431576 0 -0.012642727431303088 -0.0067775023584659014 0 -0.012697961149180887 -0.006892822452667628 0 -0.012545229384510746 -0.0068430492001431576 0 -0.012588916244023585 -0.0070095176947789972 0 -0.012957835848917586 -0.0068567407449032589 0 -0.012565206482552865 -0.0066895121294994883 0 -0.012736674674601319 -0.0067288459821348099 0 -0.012642727431303088 -0.0067775023584659014 0 -0.012579382635748084 -0.0067138025741717141 0 -0.012545229384510746 -0.0068430492001431576 0 -0.012642727431303088 -0.0067775023584659014 0 -0.012579382635748084 -0.0067138025741717141 0 -0.012545229384510746 -0.0068430492001431576 0 -0.012371502964175536 -0.0067816515112480227 0 -0.012579382635748084 -0.0067138025741717141 0 -0.012412761396850878 -0.0065580164088877941 0 -0.012371502964175536 -0.0067816515112480227 0 -0.012579382635748084 -0.0067138025741717141 0 -0.012545229384510746 -0.0068430492001431576 0 -0.012391241273562765 -0.006909558250791324 0 -0.012588916244023585 -0.0070095176947789972 0 -0.012545229384510746 -0.0068430492001431576 0 -0.012371502964175536 -0.0067816515112480227 0 -0.012391241273562765 -0.006909558250791324 0 -0.012371502964175536 -0.0067816515112480227 0 -0.01221106187154823 -0.0069078870739306582 0 -0.012166587306942585 -0.0067387580546369539 0 -0.012371502964175536 -0.0067816515112480227 0 -0.012391241273562765 -0.006909558250791324 0 -0.01221106187154823 -0.0069078870739306582 0 -0.012412761396850878 -0.0065580164088877941 0 -0.012371502964175536 -0.0067816515112480227 0 -0.012166587306942585 -0.0067387580546369539 0 -0.013468914646366324 -0.0070450758444139516 0 -0.013591579669693389 -0.0070863236929378289 0 -0.013584017674697253 -0.0070221829698940497 0 -0.013468914646366324 -0.0070450758444139516 0 -0.013591579669693389 -0.0070863236929378289 0 -0.013492821362214925 -0.0071638911292742288 0 -0.013822486504373241 -0.0070659737058390874 0 -0.013763714483462317 -0.0069919093609706199 0 -0.013685733351163675 -0.0070602775170929112 0 -0.013591579669693389 -0.0070863236929378289 0 -0.013685733351163675 -0.0070602775170929112 0 -0.013652581827974398 -0.0070654294298508275 0 -0.013822486504373241 -0.0070659737058390874 0 -0.013685733351163675 -0.0070602775170929112 0 -0.013652581827974398 -0.0070654294298508275 0 -0.013591579669693389 -0.0070863236929378289 0 -0.013685733351163675 -0.0070602775170929112 0 -0.013584017674697253 -0.0070221829698940497 0 -0.013763714483462317 -0.0069919093609706199 0 -0.013575889809004715 -0.0069558270474621405 0 -0.013584017674697253 -0.0070221829698940497 0 -0.013763714483462317 -0.0069919093609706199 0 -0.013685733351163675 -0.0070602775170929112 0 -0.013584017674697253 -0.0070221829698940497 0 -0.013439251079547802 -0.0069705518955586448 0 -0.013468914646366324 -0.0070450758444139516 0 -0.013584017674697253 -0.0070221829698940497 0 -0.013439251079547802 -0.0069705518955586448 0 -0.013575889809004715 -0.0069558270474621405 0 -0.013584017674697253 -0.0070221829698940497 0 -0.013439251079547802 -0.0069705518955586448 0 -0.013468914646366324 -0.0070450758444139516 0 -0.013342608777218696 -0.0070027379242355633 0 -0.013468914646366324 -0.0070450758444139516 0 -0.013342608777218696 -0.0070027379242355633 0 -0.013349175762576614 -0.0070733487048786729 0 -0.013283304603008774 -0.0069587560117470504 0 -0.013342608777218696 -0.0070027379242355633 0 -0.013251971000745395 -0.0070082419196453843 0 -0.013342608777218696 -0.0070027379242355633 0 -0.013251971000745395 -0.0070082419196453843 0 -0.013349175762576614 -0.0070733487048786729 0 -0.013251971000745395 -0.0070082419196453843 0 -0.013281352263727921 -0.0070981077849037568 0 -0.013349175762576614 -0.0070733487048786729 0 -0.013281352263727921 -0.0070981077849037568 0 -0.013349175762576614 -0.0070733487048786729 0 -0.013323191217058643 -0.0071673978636380966 0 -0.013468914646366324 -0.0070450758444139516 0 -0.013349175762576614 -0.0070733487048786729 0 -0.013492821362214925 -0.0071638911292742288 0 -0.013349175762576614 -0.0070733487048786729 0 -0.013323191217058643 -0.0071673978636380966 0 -0.013492821362214925 -0.0071638911292742288 0 -0.013198096774679782 -0.0069591423524656745 0 -0.013420112712699453 -0.0070048642688413298 0 -0.013057981946749364 -0.0067395016508020461 0 -0.013123503132127595 -0.0070068762153917118 0 -0.013370572599157691 -0.0068444373694627443 0 -0.012784253642929583 -0.0066935259411014325 0 -0.013057981946749364 -0.0067395016508020461 0 -0.012894858395981812 -0.0068580449439767516 0 -0.013057981946749364 -0.0067395016508020461 0 -0.012894858395981812 -0.0068580449439767516 0 -0.013123503132127595 -0.0070068762153917118 0 -0.013205894522613438 -0.0071484509588707395 0 -0.013281352263727921 -0.0070981077849037568 0 -0.013323191217058643 -0.0071673978636380966 0 -0.012957835848917586 -0.0068567407449032589 0 -0.013198096774679782 -0.0069591423524656745 0 -0.012837364364833282 -0.0070119722413097925 0 -0.012894858395981812 -0.0068580449439767516 0 -0.013123503132127595 -0.0070068762153917118 0 -0.013123503132127595 -0.0070068762153917118 0 -0.013453238138411896 -0.0070516338843942105 0 -0.013370572599157691 -0.0068444373694627443 0 -0.013123503132127595 -0.0070068762153917118 0 -0.013453238138411896 -0.0070516338843942105 0 -0.013327256703881008 -0.0072163584612660401 0 -0.013453238138411896 -0.0070516338843942105 0 -0.013680629409268903 -0.0071380077325482174 0 -0.013327256703881008 -0.0072163584612660401 0 -0.013453238138411896 -0.0070516338843942105 0 -0.013370572599157691 -0.0068444373694627443 0 -0.013652581827974398 -0.0070654294298508275 0 -0.013591579669693389 -0.0070863236929378289 0 -0.013492821362214925 -0.0071638911292742288 0 -0.013652581827974398 -0.0070654294298508275 0 -0.013420112712699453 -0.0070048642688413298 0 -0.013614303627541827 -0.0070512844654927256 0 -0.013453238138411896 -0.0070516338843942105 0 -0.013652581827974398 -0.0070654294298508275 0 -0.013680629409268903 -0.0071380077325482174 0 -0.013680629409268903 -0.0071380077325482174 0 -0.013546155468132067 -0.0071658694976849428 0 -0.013781724077284011 -0.0072854456612026905 0 -0.013546155468132067 -0.0071658694976849428 0 -0.013520218618620784 -0.0072657324619890117 0 -0.013781724077284011 -0.0072854456612026905 0 -0.013546062395993456 -0.0072679721829833448 0 -0.013788873563244501 -0.0072005031534568579 0 -0.013546155468132067 -0.0071658694976849428 0 -0.013218990640949519 -0.0072064153352711527 0 -0.013520218618620784 -0.0072657324619890117 0 -0.013546155468132067 -0.0071658694976849428 0 -0.01332839901998569 -0.0070141055066796449 0 -0.013218990640949519 -0.0072064153352711527 0 -0.013651156405238535 -0.0071261070147110965 0 -0.013326591232711923 -0.00711857590208717 0 -0.013680629409268903 -0.0071380077325482174 0 -0.013546155468132067 -0.0071658694976849428 0 -0.01332839901998569 -0.0070141055066796449 0 -0.013123503132127595 -0.0070068762153917118 0 -0.013327256703881008 -0.0072163584612660401 0 -0.012889395567408684 -0.0072218611265747945 0 -0.013326591232711923 -0.00711857590208717 0 -0.012907981525982585 -0.0071163691492508998 0 -0.012837364364833282 -0.0070119722413097925 0 -0.013123503132127595 -0.0070068762153917118 0 -0.012889395567408684 -0.0072218611265747945 0 -0.01292318584975539 -0.0070097061295575722 0 -0.013218990640949519 -0.0072064153352711527 0 -0.012832200964523343 -0.0072059320739877699 0 -0.01332839901998569 -0.0070141055066796449 0 -0.01292318584975539 -0.0070097061295575722 0 -0.013218990640949519 -0.0072064153352711527 0 -0.013218990640949519 -0.0072064153352711527 0 -0.013026284843158681 -0.0073456312718470813 0 -0.012832200964523343 -0.0072059320739877699 0 -0.013016616596532445 -0.0073407413072011608 0 -0.01290660285965059 -0.007481058079835335 0 -0.013026284843158681 -0.0073456312718470813 0 -0.013219627622726991 -0.0074356445719167552 0 -0.013036146296383668 -0.0075137415676848852 0 -0.013218990640949519 -0.0072064153352711527 0 -0.013026284843158681 -0.0073456312718470813 0 -0.013219627622726991 -0.0074356445719167552 0 -0.013219627622726991 -0.0074356445719167552 0 -0.013520218618620784 -0.0072657324619890117 0 -0.013420944787296791 -0.0074964415559090969 0 -0.013520218618620784 -0.0072657324619890117 0 -0.013420944787296791 -0.0074964415559090969 0 -0.01367245038439736 -0.0073922018426814456 0 -0.013218990640949519 -0.0072064153352711527 0 -0.013219627622726991 -0.0074356445719167552 0 -0.013520218618620784 -0.0072657324619890117 0 -0.012330497300953392 -0.0070605977667952879 0 -0.012159281310454437 -0.0071930503303187484 0 -0.012088388259499892 -0.0070382739017539608 0 -0.01221106187154823 -0.0069078870739306582 0 -0.012330497300953392 -0.0070605977667952879 0 -0.012088388259499892 -0.0070382739017539608 0 -0.012391241273562765 -0.006909558250791324 0 -0.01221106187154823 -0.0069078870739306582 0 -0.012330497300953392 -0.0070605977667952879 0 -0.012391241273562765 -0.006909558250791324 0 -0.012330497300953392 -0.0070605977667952879 0 -0.012588916244023585 -0.0070095176947789972 0 -0.012330497300953392 -0.0070605977667952879 0 -0.012534527830203377 -0.007148044438856806 0 -0.01236427559955936 -0.0072063891808275167 0 -0.012330497300953392 -0.0070605977667952879 0 -0.012534527830203377 -0.007148044438856806 0 -0.012588916244023585 -0.0070095176947789972 0 -0.012837364364833282 -0.0070119722413097925 0 -0.012889395567408684 -0.0072218611265747945 0 -0.012588916244023585 -0.0070095176947789972 0 -0.01292318584975539 -0.0070097061295575722 0 -0.012534527830203377 -0.007148044438856806 0 -0.012832200964523343 -0.0072059320739877699 0 -0.012907981525982585 -0.0071163691492508998 0 -0.012563092457875506 -0.0071520862780958469 0 -0.012889395567408684 -0.0072218611265747945 0 -0.012534527830203377 -0.007148044438856806 0 -0.012588916244023585 -0.0070095176947789972 0 -0.013026284843158681 -0.0073456312718470813 0 -0.012832200964523343 -0.0072059320739877699 0 -0.012608327012101806 -0.0073154151739805665 0 -0.012534527830203377 -0.007148044438856806 0 -0.012832200964523343 -0.0072059320739877699 0 -0.012608327012101806 -0.0073154151739805665 0 -0.013026284843158681 -0.0073456312718470813 0 -0.012608327012101806 -0.0073154151739805665 0 -0.012760843527575096 -0.0074803279760128827 0 -0.012608327012101806 -0.0073154151739805665 0 -0.012321348335611831 -0.0073228784829039309 0 -0.012495604144272331 -0.0074454781570468904 0 -0.012534527830203377 -0.007148044438856806 0 -0.012608327012101806 -0.0073154151739805665 0 -0.01236427559955936 -0.0072063891808275167 0 -0.012608327012101806 -0.0073154151739805665 0 -0.01236427559955936 -0.0072063891808275167 0 -0.012321348335611831 -0.0073228784829039309 0 -0.012321348335611831 -0.0073228784829039309 0 -0.012159281310454437 -0.0071930503303187484 0 -0.012119108186096659 -0.0073205548139655867 0 -0.012330497300953392 -0.0070605977667952879 0 -0.01236427559955936 -0.0072063891808275167 0 -0.012159281310454437 -0.0071930503303187484 0 -0.01236427559955936 -0.0072063891808275167 0 -0.012321348335611831 -0.0073228784829039309 0 -0.012159281310454437 -0.0071930503303187484 0 -0.012221299643417768 -0.0074273369894790973 0 -0.012217646275923063 -0.0075037905060190511 0 -0.012042986305404053 -0.007470712984062401 0 -0.012321348335611831 -0.0073228784829039309 0 -0.012221299643417768 -0.0074273369894790973 0 -0.012119108186096659 -0.0073205548139655867 0 -0.012221299643417768 -0.0074273369894790973 0 -0.012119108186096659 -0.0073205548139655867 0 -0.011984818311602571 -0.0073761004133885309 0 -0.012321348335611831 -0.0073228784829039309 0 -0.012221299643417768 -0.0074273369894790973 0 -0.012495604144272331 -0.0074454781570468904 0 -0.012221299643417768 -0.0074273369894790973 0 -0.012444525362820794 -0.0075129517471384053 0 -0.012350246705999926 -0.0075457792130684664 0 -0.012221299643417768 -0.0074273369894790973 0 -0.012444525362820794 -0.0075129517471384053 0 -0.012495604144272331 -0.0074454781570468904 0 -0.012221299643417768 -0.0074273369894790973 0 -0.012350246705999926 -0.0075457792130684664 0 -0.012217646275923063 -0.0075037905060190511 0 -0.012444525362820794 -0.0075129517471384053 0 -0.012495604144272331 -0.0074454781570468904 0 -0.01258308731288953 -0.0075655795936665814 0 -0.012608327012101806 -0.0073154151739805665 0 -0.012495604144272331 -0.0074454781570468904 0 -0.012760843527575096 -0.0074803279760128827 0 -0.012801579755143675 -0.0075953035996451585 0 -0.01290660285965059 -0.007481058079835335 0 -0.013015109627346441 -0.0076121919196378693 0 -0.013036146296383668 -0.0075137415676848852 0 -0.013093087740161401 -0.007622592274196734 0 -0.012495604144272331 -0.0074454781570468904 0 -0.01258308731288953 -0.0075655795936665814 0 -0.012760843527575096 -0.0074803279760128827 0 -0.012801579755143675 -0.0075953035996451585 0 -0.01270333838641231 -0.0076425251789999614 0 -0.013015109627346441 -0.0076121919196378693 0 -0.013061467839916603 -0.0076889437214072405 0 -0.013093087740161401 -0.007622592274196734 0 -0.013015109627346441 -0.0076121919196378693 0 -0.013061467839916603 -0.0076889437214072405 0 -0.012962412713684375 -0.0077191884167040802 0 -0.012942329759669174 -0.0075564674848523109 0 -0.012867099406362938 -0.0076548026448696651 0 -0.01270403290656948 -0.0075447419641112715 0 -0.013021065917014598 -0.007621572951814988 0 -0.01270333838641231 -0.0076425251789999614 0 -0.012867099406362938 -0.0076548026448696651 0 -0.01270403290656948 -0.0075447419641112715 0 -0.012618495798667643 -0.0076394759375448974 0 -0.01269015986622125 -0.0074856633058202424 0 -0.012430093520896936 -0.0075599499942010625 0 -0.012618495798667643 -0.0076394759375448974 0 -0.01270333838641231 -0.0076425251789999614 0 -0.012358613573762781 -0.0076211689306424973 0 -0.012466950924581617 -0.0076680062639357741 0 -0.012381012651286055 -0.0076212212210556227 0 -0.012321802541313811 -0.0076768362693043308 0 -0.01270333838641231 -0.0076425251789999614 0 -0.012663403599284964 -0.0076090861195145798 0 -0.01258308731288953 -0.0075655795936665814 0 -0.012466950924581617 -0.0076680062639357741 0 -0.012447271903146784 -0.0075827369344155897 0 -0.012466950924581617 -0.0076680062639357741 0 -0.012381012651286055 -0.0076212212210556227 0 -0.012447271903146784 -0.0075827369344155897 0 -0.012381012651286055 -0.0076212212210556227 0 -0.012447271903146784 -0.0075827369344155897 0 -0.012350246705999926 -0.0075457792130684664 0 -0.012444525362820794 -0.0075129517471384053 0 -0.01258308731288953 -0.0075655795936665814 0 -0.012447271903146784 -0.0075827369344155897 0 -0.012444525362820794 -0.0075129517471384053 0 -0.012447271903146784 -0.0075827369344155897 0 -0.012350246705999926 -0.0075457792130684664 0 -0.012381012651286055 -0.0076212212210556227 0 -0.012350246705999926 -0.0075457792130684664 0 -0.012226060684632492 -0.0075803738873891123 0 -0.012350246705999926 -0.0075457792130684664 0 -0.012226060684632492 -0.0075803738873891123 0 -0.012217646275923063 -0.0075037905060190511 0 -0.012358613573762781 -0.0076211689306424973 0 -0.012219874179559715 -0.007649744387630864 0 -0.012381012651286055 -0.0076212212210556227 0 -0.012321802541313811 -0.0076768362693043308 0 -0.012226060684632492 -0.0075803738873891123 0 -0.012321802541313811 -0.0076768362693043308 0 -0.012226060684632492 -0.0075803738873891123 0 -0.012186578047257479 -0.0076522323273025194 0 -0.012226060684632492 -0.0075803738873891123 0 -0.012044101532642675 -0.0075733318534357717 0 -0.012186578047257479 -0.0076522323273025194 0 -0.012226060684632492 -0.0075803738873891123 0 -0.012042986305404053 -0.007470712984062401 0 -0.012044101532642675 -0.0075733318534357717 0 -0.012226060684632492 -0.0075803738873891123 0 -0.012217646275923063 -0.0075037905060190511 0 -0.012042986305404053 -0.007470712984062401 0 -0.013420944787296791 -0.0074964415559090969 0 -0.013217303775235853 -0.0075480715031131891 0 -0.013334117908083762 -0.0076670299717723385 0 -0.012493135243338623 -0.0046307027986205625 0 -0.012706029043489653 -0.0045578031218178779 0 -0.013420944787296791 -0.0074964415559090969 0 -0.013334117908083762 -0.0076670299717723385 0 -0.013600914283179291 -0.0076079893943516372 0 -0.011669504659236905 -0.0016277526089622371 0 -0.011805857395996463 -0.0015118377361106161 0 -0.011844497531751349 -0.0015216820704527085 0 -0.013420944787296791 -0.0074964415559090969 0 -0.013600914283179291 -0.0076079893943516372 0 -0.01367245038439736 -0.0073922018426814456 0 -0.013219627622726991 -0.0074356445719167552 0 -0.013420944787296791 -0.0074964415559090969 0 -0.013217303775235853 -0.0075480715031131891 0 -0.013219627622726991 -0.0074356445719167552 0 -0.013217303775235853 -0.0075480715031131891 0 -0.013036146296383668 -0.0075137415676848852 0 -0.013217303775235853 -0.0075480715031131891 0 -0.013036146296383668 -0.0075137415676848852 0 -0.013163223238811105 -0.0076024893092708377 0 -0.013036146296383668 -0.0075137415676848852 0 -0.013163223238811105 -0.0076024893092708377 0 -0.013093087740161401 -0.007622592274196734 0 -0.013217303775235853 -0.0075480715031131891 0 -0.013163223238811105 -0.0076024893092708377 0 -0.013334117908083762 -0.0076670299717723385 0 -0.013163223238811105 -0.0076024893092708377 0 -0.013158837384604591 -0.0076366758324235813 0 -0.013334117908083762 -0.0076670299717723385 0 -0.011676689563355392 -0.0015916427212466896 0 -0.011642574819709399 -0.0015864397587237163 0 -0.011637225371487658 -0.0016039269075522656 0 -0.013158837384604591 -0.0076366758324235813 0 -0.01313507789005461 -0.0076458936219264374 0 -0.013334117908083762 -0.0076670299717723385 0 -0.01240978616415706 -0.0046133841926160185 0 -0.012493135243338623 -0.0046307027986205625 0 -0.013021065917014598 -0.007621572951814988 0 -0.013122134058496214 -0.0076305736426203596 0 -0.012942329759669174 -0.0075564674848523109 0 -0.013158837384604591 -0.0076366758324235813 0 -0.01313507789005461 -0.0076458936219264374 0 -0.013061467839916603 -0.0076889437214072405 0 -0.013158837384604591 -0.0076366758324235813 0 -0.013093087740161401 -0.007622592274196734 0 -0.013163223238811105 -0.0076024893092708377 0 -0.013158837384604591 -0.0076366758324235813 0 -0.013093087740161401 -0.007622592274196734 0 -0.01232478770674739 -0.0045769356847618027 0 -0.01240978616415706 -0.0046133841926160185 0 -0.011779344886088356 -0.0014929971783821734 0 -0.011676689563355392 -0.0015916427212466896 0 -0.011695456616151552 -0.0014821634929792246 0 -0.012942329759669174 -0.0075564674848523109 0 -0.012867099406362938 -0.0076548026448696651 0 -0.01313507789005461 -0.0076458936219264374 0 -0.011676689563355392 -0.0015916427212466896 0 -0.011642574819709399 -0.0015864397587237163 0 -0.011616512448471242 -0.0015239217852631214 0 -0.011676689563355392 -0.0015916427212466896 0 -0.011616512448471242 -0.0015239217852631214 0 -0.011695456616151552 -0.0014821634929792246 0 -0.011813854934818175 -0.0015042946038710033 0 -0.011795377283296441 -0.0014630022997803253 0 -0.01178233838016784 -0.001415913930649037 0 -0.011642574819709399 -0.0015864397587237163 0 -0.011669504659236905 -0.0016277526089622371 0 -0.011616512448471242 -0.0015239217852631214 0 -0.011743460915128233 -0.0015597651705380219 0 -0.011699489264954581 -0.0014686982873587094 0 -0.011642574819709399 -0.0015864397587237163 0 -0.011637225371487658 -0.0016039269075522656 0 -0.011669504659236905 -0.0016277526089622371 0 -0.011813854934818175 -0.0015042946038710033 0 -0.011837484484066536 -0.0015280375014435821 0 -0.011838969942615997 -0.0015234450399664425 0 -0.011813854934818175 -0.0015042946038710033 0 -0.011813973409761687 -0.0015004675752474871 0 -0.011837484484066536 -0.0015280375014435821 0 -0.011743460915128233 -0.0015597651705380219 0 -0.011835877576783624 -0.0015213198563095041 0 -0.011813854934818175 -0.0015042946038710033 0 -0.011838969942615997 -0.0015234450399664425 0 -0.011844497531751349 -0.0015216820704527085 0 -0.011637225371487658 -0.0016039269075522656 0 -0.011669504659236905 -0.0016277526089622371 0 -0.011805857395996463 -0.0015118377361106161 0 -0.011813973409761687 -0.0015004675752474871 0 -0.011795377283296441 -0.0014630022997803253 0 -0.011810413927996737 -0.0015034430941312975 0 -0.011795377283296441 -0.0014630022997803253 0 -0.011810413927996737 -0.0015034430941312975 0 -0.011784673597026975 -0.0014433298363125285 0 -0.011813854934818175 -0.0015042946038710033 0 -0.011813973409761687 -0.0015004675752474871 0 -0.011795377283296441 -0.0014630022997803253 0 -0.011813973409761687 -0.0015004675752474871 0 -0.011810413927996737 -0.0015034430941312975 0 -0.011837484484066536 -0.0015280375014435821 0 -0.011883379587174838 -0.0017029542894292748 0 -0.011975137889248064 -0.0017077452302812245 0 -0.011915131547600329 -0.0017543108992010969 0 -0.011805248310872795 -0.0016862574649702785 0 -0.011942073162838168 -0.0015288480019929084 0 -0.011883379587174838 -0.0017029542894292748 0 -0.011975137889248064 -0.0017077452302812245 0 -0.01192905208461493 -0.0015746069032812184 0 -0.011975137889248064 -0.0017077452302812245 0 -0.01192905208461493 -0.0015746069032812184 0 -0.01203453238560229 -0.0016222841249753268 0 -0.011810413927996737 -0.0015034430941312975 0 -0.01192905208461493 -0.0015746069032812184 0 -0.011837484484066536 -0.0015280375014435821 0 -0.01192905208461493 -0.0015746069032812184 0 -0.011837484484066536 -0.0015280375014435821 0 -0.011879988578570757 -0.0015370718857234762 0 -0.011837484484066536 -0.0015280375014435821 0 -0.011838969942615997 -0.0015234450399664425 0 -0.011879988578570757 -0.0015370718857234762 0 -0.011844497531751349 -0.0015216820704527085 0 -0.011879988578570757 -0.0015370718857234762 0 -0.011942176821679234 -0.0015169908897065879 0 -0.011838969942615997 -0.0015234450399664425 0 -0.011844497531751349 -0.0015216820704527085 0 -0.011879988578570757 -0.0015370718857234762 0 -0.011844497531751349 -0.0015216820704527085 0 -0.011942176821679234 -0.0015169908897065879 0 -0.011970480138435539 -0.001446523533318215 0 -0.011942176821679234 -0.0015169908897065879 0 -0.011970480138435539 -0.001446523533318215 0 -0.012069416067485392 -0.0015292859475862905 0 -0.01192905208461493 -0.0015746069032812184 0 -0.011879988578570757 -0.0015370718857234762 0 -0.011942176821679234 -0.0015169908897065879 0 -0.01192905208461493 -0.0015746069032812184 0 -0.011942176821679234 -0.0015169908897065879 0 -0.012069416067485392 -0.0015292859475862905 0 -0.013600914283179291 -0.0076079893943516372 0 -0.013878420703001004 -0.0074990137874671389 0 -0.01367245038439736 -0.0073922018426814456 0 -0.011805857395996463 -0.0015118377361106161 0 -0.011844497531751349 -0.0015216820704527085 0 -0.011970480138435539 -0.001446523533318215 0 -0.012706029043489653 -0.0045578031218178779 0 -0.012916565131479369 -0.0044752834799521779 0 -0.011970480138435539 -0.001446523533318215 0 -0.012069416067485392 -0.0015292859475862905 0 -0.012129158687590539 -0.0014010944079263488 0 -0.012194876278483844 -0.0014943602527330154 0 -0.012069416067485392 -0.0015292859475862905 0 -0.012129158687590539 -0.0014010944079263488 0 -0.012194876278483844 -0.0014943602527330154 0 -0.012259075224491978 -0.0014358124991830413 0 -0.012129158687590539 -0.0014010944079263488 0 -0.012194876278483844 -0.0014943602527330154 0 -0.012069416067485392 -0.0015292859475862905 0 -0.012207180346678313 -0.0015806577645125679 0 -0.012069416067485392 -0.0015292859475862905 0 -0.012125873114089995 -0.0016231800540978847 0 -0.012207180346678313 -0.0015806577645125679 0 -0.012125873114089995 -0.0016231800540978847 0 -0.012207180346678313 -0.0015806577645125679 0 -0.01220495835270175 -0.0016436434924008193 0 -0.012069416067485392 -0.0015292859475862905 0 -0.012125873114089995 -0.0016231800540978847 0 -0.01203453238560229 -0.0016222841249753268 0 -0.01192905208461493 -0.0015746069032812184 0 -0.012069416067485392 -0.0015292859475862905 0 -0.01203453238560229 -0.0016222841249753268 0 -0.011975137889248064 -0.0017077452302812245 0 -0.01203453238560229 -0.0016222841249753268 0 -0.012066616518767049 -0.0016934540836500186 0 -0.012125873114089995 -0.0016231800540978847 0 -0.01203453238560229 -0.0016222841249753268 0 -0.012066616518767049 -0.0016934540836500186 0 -0.012066616518767049 -0.0016934540836500186 0 -0.012092453744959188 -0.001753211147289786 0 -0.012029041996418572 -0.0017390133522373992 0 -0.011975137889248064 -0.0017077452302812245 0 -0.012066616518767049 -0.0016934540836500186 0 -0.012029041996418572 -0.0017390133522373992 0 -0.012125873114089995 -0.0016231800540978847 0 -0.012066616518767049 -0.0016934540836500186 0 -0.012155054485088648 -0.0017076957993518802 0 -0.012125873114089995 -0.0016231800540978847 0 -0.012155054485088648 -0.0017076957993518802 0 -0.01220495835270175 -0.0016436434924008193 0 -0.012066616518767049 -0.0016934540836500186 0 -0.012155054485088648 -0.0017076957993518802 0 -0.012092453744959188 -0.001753211147289786 0 -0.01224399378250824 -0.0016971368613697658 0 -0.012287278772329248 -0.0016136553447246825 0 -0.01220495835270175 -0.0016436434924008193 0 -0.01224399378250824 -0.0016971368613697658 0 -0.012320052129081691 -0.0016700483899158936 0 -0.012287278772329248 -0.0016136553447246825 0 -0.012155054485088648 -0.0017076957993518802 0 -0.01224399378250824 -0.0016971368613697658 0 -0.012241975921281923 -0.0017368750110116817 0 -0.012155054485088648 -0.0017076957993518802 0 -0.01224399378250824 -0.0016971368613697658 0 -0.01220495835270175 -0.0016436434924008193 0 -0.01224399378250824 -0.0016971368613697658 0 -0.01230073934708345 -0.0017175935817197554 0 -0.012241975921281923 -0.0017368750110116817 0 -0.01230073934708345 -0.0017175935817197554 0 -0.012320052129081691 -0.0016700483899158936 0 -0.012386964857435482 -0.0017093254476908035 0 -0.01224399378250824 -0.0016971368613697658 0 -0.01230073934708345 -0.0017175935817197554 0 -0.012320052129081691 -0.0016700483899158936 0 -0.012320052129081691 -0.0016700483899158936 0 -0.012386964857435482 -0.0017093254476908035 0 -0.012372216497587919 -0.0016144425968594041 0 -0.012320052129081691 -0.0016700483899158936 0 -0.012287278772329248 -0.0016136553447246825 0 -0.012372216497587919 -0.0016144425968594041 0 -0.012287278772329248 -0.0016136553447246825 0 -0.012372216497587919 -0.0016144425968594041 0 -0.012354077397384993 -0.0015638905593068769 0 -0.012287278772329248 -0.0016136553447246825 0 -0.012207180346678313 -0.0015806577645125679 0 -0.01220495835270175 -0.0016436434924008193 0 -0.013841452932041134 -0.00068942959247277513 0 -0.013998627432297921 -0.00071227985686961835 0 -0.013973337893553024 -0.00092229362997184924 0 -0.01465656851935793 -0.00049841379238232909 0 -0.013487129731675519 -0.0012334612864842011 0 -0.013841452932041134 -0.00068942959247277513 0 -0.013998627432297921 -0.00071227985686961835 0 -0.01400515159970314 -0.00055203623610789322 0 -0.013202839610154388 -0.0012226945690689739 0 -0.013487129731675519 -0.0012334612864842011 0 -0.013998627432297921 -0.00071227985686961835 0 -0.014174679625525245 -0.0006852556607182328 0 -0.013973337893553024 -0.00092229362997184924 0 -0.013998627432297921 -0.00071227985686961835 0 -0.014174679625525245 -0.0006852556607182328 0 -0.01400515159970314 -0.00055203623610789322 0 -0.012386964857435482 -0.0017093254476908035 0 -0.012372216497587919 -0.0016144425968594041 0 -0.012467291608451111 -0.0016131409286510206 0 -0.012372216497587919 -0.0016144425968594041 0 -0.012467291608451111 -0.0016131409286510206 0 -0.012403742696397586 -0.0015320343894253583 0 -0.014992011536714693 -0.00011437025926043605 0 -0.015348550194560953 -0.00069404951918481728 0 -0.01499997345496412 -0.00061407889903464501 0 -0.015170101959844307 -0.00090169038374478987 0 -0.01499997345496412 -0.00061407889903464501 0 -0.015000007948575072 -0.0011071949890570129 0 -0.013487129731675519 -0.0012334612864842011 0 -0.014401684067451032 -0.0012455719748441017 0 -0.015348550194560953 -0.00069404951918481728 0 -0.015170101959844307 -0.00090169038374478987 0 -0.01499997345496412 -0.00061407889903464501 0 -0.015167485545949048 -0.00090557357933300454 0 -0.014999983582400627 -0.0011072169147801761 0 -0.01541153202253681 -0.0016064828898056304 0 -0.012557389541088334 -0.0017373637488046251 0 -0.012602998614575108 -0.0016845124661038653 0 -0.012454283961301951 -0.0016016121851354327 0 -0.012602998614575108 -0.0016845124661038653 0 -0.012454283961301951 -0.0016016121851354327 0 -0.012515889910562147 -0.0015160880294967662 0 -0.014401684067451032 -0.0012455719748441017 0 -0.013925761408795439 -0.0016390294043746182 0 -0.014401684067451032 -0.0012455719748441017 0 -0.014999886615390017 -0.0011068667243593964 0 -0.012372216497587919 -0.0016144425968594041 0 -0.012403742696397586 -0.0015320343894253583 0 -0.012354077397384993 -0.0015638905593068769 0 -0.013487129731675519 -0.0012334612864842011 0 -0.012351245608224846 -0.0015807731931097831 0 -0.012454283961301951 -0.0016016121851354327 0 -0.012515889910562147 -0.0015160880294967662 0 -0.012361592037958093 -0.0014684875045269633 0 -0.012351245608224846 -0.0015807731931097831 0 -0.012381708898546619 -0.001478758970277706 0 -0.014999983582400627 -0.0011072169147801761 0 -0.01541153202253681 -0.0016064828898056304 0 -0.014999989948094756 -0.001932721171296968 0 -0.012287278772329248 -0.0016136553447246825 0 -0.012207180346678313 -0.0015806577645125679 0 -0.012304720540489936 -0.0015326965794096273 0 -0.012194876278483844 -0.0014943602527330154 0 -0.012207180346678313 -0.0015806577645125679 0 -0.012304720540489936 -0.0015326965794096273 0 -0.012403742696397586 -0.0015320343894253583 0 -0.012304720540489936 -0.0015326965794096273 0 -0.012354077397384993 -0.0015638905593068769 0 -0.012287278772329248 -0.0016136553447246825 0 -0.012304720540489936 -0.0015326965794096273 0 -0.012354077397384993 -0.0015638905593068769 0 -0.012304720540489936 -0.0015326965794096273 0 -0.012361592037958093 -0.0014684875045269633 0 -0.012259075224491978 -0.0014358124991830413 0 -0.012403742696397586 -0.0015320343894253583 0 -0.012304720540489936 -0.0015326965794096273 0 -0.012361592037958093 -0.0014684875045269633 0 -0.012194876278483844 -0.0014943602527330154 0 -0.012304720540489936 -0.0015326965794096273 0 -0.012259075224491978 -0.0014358124991830413 0 -0.012259075224491978 -0.0014358124991830413 0 -0.012345269745258616 -0.001392155941211874 0 -0.012273756717258588 -0.0013607458223774357 0 -0.012259075224491978 -0.0014358124991830413 0 -0.012273756717258588 -0.0013607458223774357 0 -0.012129158687590539 -0.0014010944079263488 0 -0.012361592037958093 -0.0014684875045269633 0 -0.012259075224491978 -0.0014358124991830413 0 -0.012345269745258616 -0.001392155941211874 0 -0.012361592037958093 -0.0014684875045269633 0 -0.012345269745258616 -0.001392155941211874 0 -0.012432573861250826 -0.0013930659330357623 0 -0.013116064981372006 -0.0043300439968897743 0 -0.014117140720619958 -0.0042055005140816705 0 -0.012345269745258616 -0.001392155941211874 0 -0.012273756717258588 -0.0013607458223774357 0 -0.012397469115041887 -0.0013260164864381918 0 -0.01541153202253681 -0.0016064828898056304 0 -0.015259519280861993 -0.0023220818097404419 0 -0.014999989948094756 -0.001932721171296968 0 -0.01541153202253681 -0.0016064828898056304 0 -0.015259519280861993 -0.0023220818097404419 0 -0.01564928914745525 -0.0023111524073521528 0 -0.015259519280861993 -0.0023220818097404419 0 -0.014999989948094756 -0.001932721171296968 0 -0.014999981624459226 -0.0027582601867109668 0 -0.013925761408795439 -0.0016390294043746182 0 -0.013981372607577406 -0.0014421679255673945 0 -0.012515889910562147 -0.0015160880294967662 0 -0.012361592037958093 -0.0014684875045269633 0 -0.012432573861250826 -0.0013930659330357623 0 -0.01564928914745525 -0.0023111524073521528 0 -0.015351049630145665 -0.0029547368474589679 0 -0.015884687095283026 -0.0030194186708831432 0 -0.013981372607577406 -0.0014421679255673945 0 -0.014117140720619958 -0.0042055005140816705 0 -0.012345269745258616 -0.001392155941211874 0 -0.012432573861250826 -0.0013930659330357623 0 -0.012397469115041887 -0.0013260164864381918 0 -0.015259519280861993 -0.0023220818097404419 0 -0.01564928914745525 -0.0023111524073521528 0 -0.015351049630145665 -0.0029547368474589679 0 -0.015259519280861993 -0.0023220818097404419 0 -0.014999981624459226 -0.0027582601867109668 0 -0.015351049630145665 -0.0029547368474589679 0 -0.014999981624459226 -0.0027582601867109668 0 -0.015330962481883247 -0.0033734103725951169 0 -0.014999997749922375 -0.003583773257781012 0 -0.014999981624459226 -0.0027582601867109668 0 -0.015351049630145665 -0.0029547368474589679 0 -0.015330962481883247 -0.0033734103725951169 0 -0.015347559900285492 -0.0028989924672664876 0 -0.015247401567338842 -0.0038413293053799948 0 -0.014117140720619958 -0.0042055005140816705 0 -0.015247401567338842 -0.0038413293053799948 0 -0.015351049630145665 -0.0029547368474589679 0 -0.015884687095283026 -0.0030194186708831432 0 -0.015321508417866508 -0.0033719853202153205 0 -0.015094745067749422 -0.0051959289257177054 0 -0.014963876302986649 -0.0048162280845779728 0 -0.014694479393175147 -0.0049849862322372956 0 -0.015288045060369442 -0.004167052480554892 0 -0.015334956028812807 -0.0033800975202792102 0 -0.014999991236729866 -0.0035837929330017151 0 -0.015247401567338842 -0.0038413293053799948 0 -0.015000316981760964 -0.0035837158599706987 0 -0.014272433877262489 -0.007219891544914485 0 -0.014281863994332501 -0.0071458854509031319 0 -0.014236233418732706 -0.0071526693724938894 0 -0.014281863994332501 -0.0071458854509031319 0 -0.014265787530597799 -0.0071254319895068296 0 -0.014236233418732706 -0.0071526693724938894 0 -0.014272433877262489 -0.007219891544914485 0 -0.014317345327171268 -0.0071335406146576042 0 -0.014281863994332501 -0.0071458854509031319 0 -0.014816314609545517 -0.0065069369084518793 0 -0.014117140720619958 -0.0042055005140816705 0 -0.014283965061969509 -0.0071164943648903646 0 -0.014317345327171268 -0.0071335406146576042 0 -0.014281863994332501 -0.0071458854509031319 0 -0.014283965061969509 -0.0071164943648903646 0 -0.014281863994332501 -0.0071458854509031319 0 -0.014265787530597799 -0.0071254319895068296 0 -0.014278942445835777 -0.0071301218271637946 0 -0.014265787530597799 -0.0071254319895068296 0 -0.014212223796728627 -0.0071154207387636734 0 -0.014265787530597799 -0.0071254319895068296 0 -0.014212223796728627 -0.0071154207387636734 0 -0.014236233418732706 -0.0071526693724938894 0 -0.014272433877262489 -0.007219891544914485 0 -0.014236233418732706 -0.0071526693724938894 0 -0.014127730308706943 -0.0071871793734765588 0 -0.014212223796728627 -0.0071154207387636734 0 -0.014236233418732706 -0.0071526693724938894 0 -0.014127730308706943 -0.0071871793734765588 0 -0.014305935898077748 -0.0071515728274922242 0 -0.014212223796728627 -0.0071154207387636734 0 -0.014060395071296451 -0.0070518425887991908 0 -0.014212223796728627 -0.0071154207387636734 0 -0.014127730308706943 -0.0071871793734765588 0 -0.014060395071296451 -0.0070518425887991908 0 -0.01406388936568851 -0.0071685867682786735 0 -0.013788873563244501 -0.0072005031534568579 0 -0.014127730308706943 -0.0071871793734765588 0 -0.014060395071296451 -0.0070518425887991908 0 -0.013792841446183812 -0.007117784334314454 0 -0.014127730308706943 -0.0071871793734765588 0 -0.013792841446183812 -0.007117784334314454 0 -0.01392227384421987 -0.0073003405296350951 0 -0.013879145649091568 -0.0071675784437864511 0 -0.01406598260294325 -0.0072799670842192505 0 -0.013781724077284011 -0.0072854456612026905 0 -0.013879145649091568 -0.0071675784437864511 0 -0.013680629409268903 -0.0071380077325482174 0 -0.013781724077284011 -0.0072854456612026905 0 -0.013792841446183812 -0.007117784334314454 0 -0.01392227384421987 -0.0073003405296350951 0 -0.01367245038439736 -0.0073922018426814456 0 -0.013520218618620784 -0.0072657324619890117 0 -0.013792841446183812 -0.007117784334314454 0 -0.01367245038439736 -0.0073922018426814456 0 -0.013878420703001004 -0.0074990137874671389 0 -0.01392227384421987 -0.0073003405296350951 0 -0.01367245038439736 -0.0073922018426814456 0 -0.012916565131479369 -0.0044752834799521779 0 -0.013152910565202113 -0.0043656763130577782 0 -0.013878420703001004 -0.0074990137874671389 0 -0.01392227384421987 -0.0073003405296350951 0 -0.014121090174628042 -0.0073537574489605838 0 -0.013116064981372006 -0.0043300439968897743 0 -0.013152910565202113 -0.0043656763130577782 0 -0.014272433877262489 -0.007219891544914485 0 -0.014127730308706943 -0.0071871793734765588 0 -0.014121090174628042 -0.0073537574489605838 0 -0.014127730308706943 -0.0071871793734765588 0 -0.01392227384421987 -0.0073003405296350951 0 -0.014121090174628042 -0.0073537574489605838 0 -0.0072646537650918608 -0.0049931176207713805 0 -0.0067027965301881178 -0.004688497916930272 0 -0.0063181885225286607 -0.0029742215597264093 0 -0.0056477131795100513 -0.0030341823289150027 0 -0.005531934038644412 -0.0024885735593836405 0 -0.0063181885225286607 -0.0029742215597264093 0 -0.0056477131795100513 -0.0030341823289150027 0 -0.0059845348030313703 -0.0034002045963939793 0 -0.0052046287392041668 -0.0029420600574946816 0 -0.0056477131795100513 -0.0030341823289150027 0 -0.005531934038644412 -0.0024885735593836405 0 -0.0052046287392041668 -0.0029420600574946816 0 -0.0056477131795100513 -0.0030341823289150027 0 -0.0051844472493298632 -0.0035478770461920715 0 -0.0056477131795100513 -0.0030341823289150027 0 -0.0051844472493298632 -0.0035478770461920715 0 -0.0059845348030313703 -0.0034002045963939793 0 -0.0063181885225286607 -0.0029742215597264093 0 -0.0059845348030313703 -0.0034002045963939793 0 -0.0064725470320623124 -0.00358161700884168 0 -0.0051844472493298632 -0.0035478770461920715 0 -0.0059845348030313703 -0.0034002045963939793 0 -0.0060468930664101103 -0.0039911607269371239 0 -0.0059845348030313703 -0.0034002045963939793 0 -0.0064725470320623124 -0.00358161700884168 0 -0.0060468930664101103 -0.0039911607269371239 0 -0.0081286674615597913 -0.0069508393481837799 0 -0.0082201208290337384 -0.0069782454764940978 0 -0.0082179954449198914 -0.0069432337733697285 0 -0.0063181885225286607 -0.0029742215597264093 0 -0.0064725470320623124 -0.00358161700884168 0 -0.0072547093996950755 -0.0035441513571786618 0 -0.0072646537650918608 -0.0049931176207713805 0 -0.0076092583134809589 -0.0051855639348155772 0 -0.0082201208290337384 -0.0069782454764940978 0 -0.0082179954449198914 -0.0069432337733697285 0 -0.0082732327809299164 -0.0069758108319307498 0 -0.0082179954449198914 -0.0069432337733697285 0 -0.0082765182008345105 -0.0069356131405108167 0 -0.0082732327809299164 -0.0069758108319307498 0 -0.0090107011843502359 -0.0074322246083092704 0 -0.01034630582458315 -0.0072963483395107678 0 -0.0082179954449198914 -0.0069432337733697285 0 -0.0082027455655775267 -0.0068951524071551862 0 -0.0082765182008345105 -0.0069356131405108167 0 -0.0081286674615597913 -0.0069508393481837799 0 -0.0082179954449198914 -0.0069432337733697285 0 -0.0082027455655775267 -0.0068951524071551862 0 -0.0081286674615597913 -0.0069508393481837799 0 -0.0082027455655775267 -0.0068951524071551862 0 -0.0081210068211631271 -0.0068970954844878671 0 -0.0082027455655775267 -0.0068951524071551862 0 -0.0080875372432769564 -0.0068128629317317562 0 -0.0081210068211631271 -0.0068970954844878671 0 -0.0090107011843502359 -0.0074322246083092704 0 -0.008678339416186006 -0.0071526334663259989 0 -0.01009367354944809 -0.0079420288519014715 0 -0.0098488107373294297 -0.0073394526844542301 0 -0.0092599589358887367 -0.0075351661379312145 0 -0.01009367354944809 -0.0079420288519014715 0 -0.010791911293965452 -0.0083619370043282824 0 -0.01076002615332418 -0.0076486690532403968 0 -0.01009367354944809 -0.0079420288519014715 0 -0.01030759327805823 -0.0072786274180220833 0 -0.01076002615332418 -0.0076486690532403968 0 -0.01030759327805823 -0.0072786274180220833 0 -0.01076002615332418 -0.0076486690532403968 0 -0.010738021453042345 -0.0068955311338387412 0 -0.01009367354944809 -0.0079420288519014715 0 -0.01030759327805823 -0.0072786274180220833 0 -0.0098488107373294297 -0.0073394526844542301 0 -0.01030759327805823 -0.0072786274180220833 0 -0.0098488107373294297 -0.0073394526844542301 0 -0.010068043233513116 -0.0070143595819156888 0 -0.0098488107373294297 -0.0073394526844542301 0 -0.0097569338012294931 -0.0070426457907267551 0 -0.010068043233513116 -0.0070143595819156888 0 -0.0098488107373294297 -0.0073394526844542301 0 -0.0097569338012294931 -0.0070426457907267551 0 -0.0094295326609413581 -0.0070446670581678006 0 -0.0094295326609413581 -0.0070446670581678006 0 -0.0092599589358887367 -0.0075351661379312145 0 -0.0078359649037540707 -0.0065770786372013629 0 -0.0098488107373294297 -0.0073394526844542301 0 -0.0094295326609413581 -0.0070446670581678006 0 -0.0092599589358887367 -0.0075351661379312145 0 -0.0080875372432769564 -0.0068128629317317562 0 -0.0081210068211631271 -0.0068970954844878671 0 -0.0079679673826995347 -0.0069246526614658794 0 -0.0081286674615597913 -0.0069508393481837799 0 -0.0081210068211631271 -0.0068970954844878671 0 -0.0079679673826995347 -0.0069246526614658794 0 -0.0052046287392041668 -0.0029420600574946816 0 -0.005531934038644412 -0.0024885735593836405 0 -0.0048764057060316536 -0.0025896583791210769 0 -0.0080875372432769564 -0.0068128629317317562 0 -0.0079679673826995347 -0.0069246526614658794 0 -0.007874362009676894 -0.0067657824451096572 0 -0.0067027965301881178 -0.004688497916930272 0 -0.00635401597620734 -0.00439299568689204 0 -0.0080875372432769564 -0.0068128629317317562 0 -0.007874362009676894 -0.0067657824451096572 0 -0.0078359649037540707 -0.0065770786372013629 0 -0.0079679673826995347 -0.0069246526614658794 0 -0.007874362009676894 -0.0067657824451096572 0 -0.0074546192460056707 -0.0067657139533253904 0 -0.008678339416186006 -0.0071526334663259989 0 -0.0078771446108763937 -0.0066206223622224721 0 -0.007874362009676894 -0.0067657824451096572 0 -0.0074546192460056707 -0.0067657139533253904 0 -0.0078359649037540707 -0.0065770786372013629 0 -0.0074546192460056707 -0.0067657139533253904 0 -0.0078359649037540707 -0.0065770786372013629 0 -0.0075446164555113913 -0.0063832280696388194 0 -0.0042781771844789106 -0.0020212686843683447 0 -0.0044550525604469919 -0.0024013694754027389 0 -0.003958334604317942 -0.0025378590134020186 0 -0.0048608121479161298 -0.0020083514847599776 0 -0.0042781771844789106 -0.0020212686843683447 0 -0.0044550525604469919 -0.0024013694754027389 0 -0.0044550525604469919 -0.0024013694754027389 0 -0.0048764057060316536 -0.0025896583791210769 0 -0.0042898564358038798 -0.0028645270055451966 0 -0.0044550525604469919 -0.0024013694754027389 0 -0.003958334604317942 -0.0025378590134020186 0 -0.0042898564358038798 -0.0028645270055451966 0 -0.0048608121479161298 -0.0020083514847599776 0 -0.0044550525604469919 -0.0024013694754027389 0 -0.0048764057060316536 -0.0025896583791210769 0 -0.005531934038644412 -0.0024885735593836405 0 -0.0048608121479161298 -0.0020083514847599776 0 -0.0048764057060316536 -0.0025896583791210769 0 -0.0025580396654339417 -0.0036396134526344272 0 -0.0025562819974966856 -0.0036401547593522001 0 -0.0025749400182148289 -0.0036072854430516123 0 -0.0042781771844789106 -0.0020212686843683447 0 -0.0036940268201103503 -0.0020754317611369126 0 -0.0042327316820742079 -0.0014756584292204833 0 -0.0042781771844789106 -0.0020212686843683447 0 -0.0036940268201103503 -0.0020754317611369126 0 -0.003958334604317942 -0.0025378590134020186 0 -0.0036940268201103503 -0.0020754317611369126 0 -0.003958334604317942 -0.0025378590134020186 0 -0.0032792764444480919 -0.0028287121448082693 0 -0.003958334604317942 -0.0025378590134020186 0 -0.0032792764444480919 -0.0028287121448082693 0 -0.0037254966514232348 -0.0031119242952000292 0 -0.0036940268201103503 -0.0020754317611369126 0 -0.0032792764444480919 -0.0028287121448082693 0 -0.0031360528534351275 -0.0027859040837657036 0 -0.0030999372561976387 -0.0026528359457044237 0 -0.0028612155758477053 -0.0032364480935333116 0 -0.0025580396654339417 -0.0036396134526344272 0 -0.0025803044799525099 -0.0035932398379480775 0 -0.0025749400182148289 -0.0036072854430516123 0 -0.0032792764444480919 -0.0028287121448082693 0 -0.0031360528534351275 -0.0027859040837657036 0 -0.0031134151935223466 -0.0032627958619801923 0 -0.0031134151935223466 -0.0032627958619801923 0 -0.0033540170033076041 -0.0037930027925006608 0 -0.0026803554184634533 -0.0036199222005721915 0 -0.0032792764444480919 -0.0028287121448082693 0 -0.0037254966514232348 -0.0031119242952000292 0 -0.0034451152358474946 -0.0035582716051632611 0 -0.0032792764444480919 -0.0028287121448082693 0 -0.0031134151935223466 -0.0032627958619801923 0 -0.0033540170033076041 -0.0037930027925006608 0 -0.0032776000721872526 -0.0028678029768820952 0 -0.0033978797256218104 -0.003657892529418766 0 -0.003958334604317942 -0.0025378590134020186 0 -0.0037254966514232348 -0.0031119242952000292 0 -0.0042898564358038798 -0.0028645270055451966 0 -0.0037254966514232348 -0.0031119242952000292 0 -0.0034451152358474946 -0.0035582716051632611 0 -0.0041610566290359152 -0.0037106788784586845 0 -0.0052046287392041668 -0.0029420600574946816 0 -0.0048764057060316536 -0.0025896583791210769 0 -0.0047778775036663905 -0.003093503046113181 0 -0.0052046287392041668 -0.0029420600574946816 0 -0.0051844472493298632 -0.0035478770461920715 0 -0.0047778775036663905 -0.003093503046113181 0 -0.0048764057060316536 -0.0025896583791210769 0 -0.0047778775036663905 -0.003093503046113181 0 -0.0042898564358038798 -0.0028645270055451966 0 -0.0037254966514232348 -0.0031119242952000292 0 -0.0042898564358038798 -0.0028645270055451966 0 -0.0041610566290359152 -0.0037106788784586845 0 -0.0047778775036663905 -0.003093503046113181 0 -0.0042898564358038798 -0.0028645270055451966 0 -0.0041610566290359152 -0.0037106788784586845 0 -0.0051844472493298632 -0.0035478770461920715 0 -0.0047778775036663905 -0.003093503046113181 0 -0.0041610566290359152 -0.0037106788784586845 0 -0.0051844472493298632 -0.0035478770461920715 0 -0.0041610566290359152 -0.0037106788784586845 0 -0.0046804838427966008 -0.0044690504360013674 0 -0.0039039959761552304 -0.0046502403131959257 0 -0.0046804838427966008 -0.0044690504360013674 0 -0.0042084928734219731 -0.0048994009969408944 0 -0.0041610566290359152 -0.0037106788784586845 0 -0.0039039959761552304 -0.0046502403131959257 0 -0.0046804838427966008 -0.0044690504360013674 0 -0.0033978797256218104 -0.003657892529418766 0 -0.0034881738224371924 -0.0043779213386501313 0 -0.0033540170033076041 -0.0037930027925006608 0 -0.0034306428117205873 -0.0043190927864903781 0 -0.002931863965506563 -0.0042948230041011531 0 -0.0034451152358474946 -0.0035582716051632611 0 -0.0041610566290359152 -0.0037106788784586845 0 -0.0035483331454434401 -0.0044099528589547944 0 -0.0041610566290359152 -0.0037106788784586845 0 -0.0039039959761552304 -0.0046502403131959257 0 -0.0035483331454434401 -0.0044099528589547944 0 -0.0034306428117205873 -0.0043190927864903781 0 -0.0030955509175995305 -0.0045336318601218372 0 -0.002931863965506563 -0.0042948230041011531 0 -0.0034306428117205873 -0.0043190927864903781 0 -0.0030955509175995305 -0.0045336318601218372 0 -0.0032129406382243181 -0.0048288113352629464 0 -0.0030955509175995305 -0.0045336318601218372 0 -0.0032129406382243181 -0.0048288113352629464 0 -0.002917055043524853 -0.0046798050476965876 0 -0.0034881738224371924 -0.0043779213386501313 0 -0.0035495418668648792 -0.0049659204292087766 0 -0.0039039959761552304 -0.0046502403131959257 0 -0.0035483331454434401 -0.0044099528589547944 0 -0.0035418643944029196 -0.0049963189543113023 0 -0.0039039959761552304 -0.0046502403131959257 0 -0.0035418643944029196 -0.0049963189543113023 0 -0.0037341187770230815 -0.0051026472500131925 0 -0.0034306428117205873 -0.0043190927864903781 0 -0.0032129406382243181 -0.0048288113352629464 0 -0.0035418643944029196 -0.0049963189543113023 0 -0.0032129406382243181 -0.0048288113352629464 0 -0.0035418643944029196 -0.0049963189543113023 0 -0.003395270888376998 -0.0050213039385220079 0 -0.0035418643944029196 -0.0049963189543113023 0 -0.003568358765879652 -0.0050673300951750736 0 -0.0037341187770230815 -0.0051026472500131925 0 -0.0035418643944029196 -0.0049963189543113023 0 -0.003568358765879652 -0.0050673300951750736 0 -0.003395270888376998 -0.0050213039385220079 0 -0.0032129406382243181 -0.0048288113352629464 0 -0.0031631024412969288 -0.0049775074368227385 0 -0.002917055043524853 -0.0046798050476965876 0 -0.0032129406382243181 -0.0048288113352629464 0 -0.003395270888376998 -0.0050213039385220079 0 -0.0031631024412969288 -0.0049775074368227385 0 -0.0046804838427966008 -0.0044690504360013674 0 -0.0046531551706762075 -0.0052926023331870617 0 -0.0042084928734219731 -0.0048994009969408944 0 -0.0046804838427966008 -0.0044690504360013674 0 -0.0046531551706762075 -0.0052926023331870617 0 -0.0054495186747641937 -0.0051706686663137123 0 -0.0039039959761552304 -0.0046502403131959257 0 -0.0042084928734219731 -0.0048994009969408944 0 -0.0037341187770230815 -0.0051026472500131925 0 -0.0046531551706762075 -0.0052926023331870617 0 -0.0042084928734219731 -0.0048994009969408944 0 -0.0037341187770230815 -0.0051026472500131925 0 -0.0046531551706762075 -0.0052926023331870617 0 -0.0037341187770230815 -0.0051026472500131925 0 -0.0044778410998498165 -0.0062322632645341915 0 -0.0037418191758424152 -0.0051671906053341321 0 -0.0040514115415131082 -0.0056367975662663583 0 -0.003568358765879652 -0.0050673300951750736 0 -0.0037341187770230815 -0.0051026472500131925 0 -0.0035916602314151921 -0.0050653853305505023 0 -0.0046531551706762075 -0.0052926023331870617 0 -0.0044778410998498165 -0.0062322632645341915 0 -0.0053825530782484927 -0.0061520650513135558 0 -0.0046531551706762075 -0.0052926023331870617 0 -0.0053825530782484927 -0.0061520650513135558 0 -0.0054495186747641937 -0.0051706686663137123 0 -0.0053825530782484927 -0.0061520650513135558 0 -0.0062070721153576584 -0.0059053772067072224 0 -0.0061988791482062372 -0.006663146463582301 0 -0.0053825530782484927 -0.0061520650513135558 0 -0.0062070721153576584 -0.0059053772067072224 0 -0.0054495186747641937 -0.0051706686663137123 0 -0.0062070721153576584 -0.0059053772067072224 0 -0.0070562232489851506 -0.0060326666004717503 0 -0.0061988791482062372 -0.006663146463582301 0 -0.0062070721153576584 -0.0059053772067072224 0 -0.0070460475382974003 -0.0054627652691611999 0 -0.0070562232489851506 -0.0060326666004717503 0 -0.0054495186747641937 -0.0051706686663137123 0 -0.0061203698223159285 -0.0047892291266519388 0 -0.0065735206581167696 -0.0056950540496243027 0 -0.0055300441643248042 -0.0052049388678598943 0 -0.0068037286173416502 -0.0055826817800971526 0 -0.0062070721153576584 -0.0059053772067072224 0 -0.0054495186747641937 -0.0051706686663137123 0 -0.0070460475382974003 -0.0054627652691611999 0 -0.0046804838427966008 -0.0044690504360013674 0 -0.0054495186747641937 -0.0051706686663137123 0 -0.0054872488142075878 -0.0043818280067809117 0 -0.0054495186747641937 -0.0051706686663137123 0 -0.0054872488142075878 -0.0043818280067809117 0 -0.0061203698223159285 -0.0047892291266519388 0 -0.0054872488142075878 -0.0043818280067809117 0 -0.0061203698223159285 -0.0047892291266519388 0 -0.0060468930664101103 -0.0039911607269371239 0 -0.0061203698223159285 -0.0047892291266519388 0 -0.0060468930664101103 -0.0039911607269371239 0 -0.0065728441863176831 -0.004501627799739733 0 -0.0051844472493298632 -0.0035478770461920715 0 -0.0054872488142075878 -0.0043818280067809117 0 -0.0060468930664101103 -0.0039911607269371239 0 -0.0051844472493298632 -0.0035478770461920715 0 -0.0046804838427966008 -0.0044690504360013674 0 -0.0054872488142075878 -0.0043818280067809117 0 -0.0072547093996950755 -0.0035441513571786618 0 -0.0074666908382698969 -0.0042256823256552715 0 -0.0067951639671140051 -0.0040333653032046538 0 -0.0072547093996950755 -0.0035441513571786618 0 -0.0074666908382698969 -0.0042256823256552715 0 -0.008335473746859565 -0.0042816976651841778 0 -0.0076092583134809589 -0.0051855639348155772 0 -0.0089920318111087558 -0.0059359365150190259 0 -0.0074666908382698969 -0.0042256823256552715 0 -0.0067951639671140051 -0.0040333653032046538 0 -0.0072020236319693754 -0.0046896428107240148 0 -0.0064725470320623124 -0.00358161700884168 0 -0.0072547093996950755 -0.0035441513571786618 0 -0.0067951639671140051 -0.0040333653032046538 0 -0.0060468930664101103 -0.0039911607269371239 0 -0.0067951639671140051 -0.0040333653032046538 0 -0.0065728441863176831 -0.004501627799739733 0 -0.0064725470320623124 -0.00358161700884168 0 -0.0060468930664101103 -0.0039911607269371239 0 -0.0067951639671140051 -0.0040333653032046538 0 -0.0067951639671140051 -0.0040333653032046538 0 -0.0065728441863176831 -0.004501627799739733 0 -0.0072020236319693754 -0.0046896428107240148 0 -0.0061203698223159285 -0.0047892291266519388 0 -0.0065728441863176831 -0.004501627799739733 0 -0.0067609742119799504 -0.0050478063958134993 0 -0.0067609742119799504 -0.0050478063958134993 0 -0.0072020236319693754 -0.0046896428107240148 0 -0.0073960122393554231 -0.0054477048643633737 0 -0.0065728441863176831 -0.004501627799739733 0 -0.0067609742119799504 -0.0050478063958134993 0 -0.0072020236319693754 -0.0046896428107240148 0 -0.0074666908382698969 -0.0042256823256552715 0 -0.0077817202663057455 -0.0045956274161684215 0 -0.008335473746859565 -0.0042816976651841778 0 -0.0072020236319693754 -0.0046896428107240148 0 -0.0079157249512859448 -0.0051501027642699565 0 -0.0073960122393554231 -0.0054477048643633737 0 -0.0074666908382698969 -0.0042256823256552715 0 -0.0072020236319693754 -0.0046896428107240148 0 -0.0077817202663057455 -0.0045956274161684215 0 -0.0072020236319693754 -0.0046896428107240148 0 -0.0077817202663057455 -0.0045956274161684215 0 -0.0079157249512859448 -0.0051501027642699565 0 -0.0079157249512859448 -0.0051501027642699565 0 -0.0073960122393554231 -0.0054477048643633737 0 -0.0080425848627948219 -0.0062271308415659653 0 -0.0073960122393554231 -0.0054477048643633737 0 -0.0065735206581167696 -0.0056950540496243027 0 -0.0080425848627948219 -0.0062271308415659653 0 -0.0067609742119799504 -0.0050478063958134993 0 -0.0073960122393554231 -0.0054477048643633737 0 -0.0065735206581167696 -0.0056950540496243027 0 -0.0061203698223159285 -0.0047892291266519388 0 -0.0067609742119799504 -0.0050478063958134993 0 -0.0065735206581167696 -0.0056950540496243027 0 -0.0070460475382974003 -0.0054627652691611999 0 -0.0070562232489851506 -0.0060326666004717503 0 -0.0086628404445035657 -0.0060077629823646339 0 -0.0070562232489851506 -0.0060326666004717503 0 -0.0086628404445035657 -0.0060077629823646339 0 -0.0078507208258016773 -0.0068864781478435331 0 -0.0068037286173416502 -0.0055826817800971526 0 -0.0083619465154240718 -0.0061182868358715262 0 -0.0080425848627948219 -0.0062271308415659653 0 -0.0087676200225489734 -0.0056548496997675625 0 -0.0098187451315778981 -0.0065917500750201832 0 -0.0083619465154240718 -0.0061182868358715262 0 -0.0097318628801983994 -0.0065482557842527446 0 -0.0079157249512859448 -0.0051501027642699565 0 -0.0080425848627948219 -0.0062271308415659653 0 -0.0087676200225489734 -0.0056548496997675625 0 -0.0087676200225489734 -0.0056548496997675625 0 -0.008448556378091077 -0.0047985376595563499 0 -0.0095196417023379644 -0.005098042328852785 0 -0.0079157249512859448 -0.0051501027642699565 0 -0.0087676200225489734 -0.0056548496997675625 0 -0.008448556378091077 -0.0047985376595563499 0 -0.0096206659679053536 -0.005866375790558865 0 -0.010486275713060666 -0.0060921231849908729 0 -0.0095196417023379644 -0.005098042328852785 0 -0.0087676200225489734 -0.0056548496997675625 0 -0.0096206659679053536 -0.005866375790558865 0 -0.0095196417023379644 -0.005098042328852785 0 -0.0087676200225489734 -0.0056548496997675625 0 -0.0096206659679053536 -0.005866375790558865 0 -0.0098187451315778981 -0.0065917500750201832 0 -0.0086628404445035657 -0.0060077629823646339 0 -0.0098187451315778981 -0.0065917500750201832 0 -0.0095403689167455376 -0.0072499861665238181 0 -0.0096206659679053536 -0.005866375790558865 0 -0.0098187451315778981 -0.0065917500750201832 0 -0.010486275713060666 -0.0060921231849908729 0 -0.0098187451315778981 -0.0065917500750201832 0 -0.010497521151882159 -0.0069402203244228683 0 -0.010486275713060666 -0.0060921231849908729 0 -0.010905704992554324 -0.0067133129136986219 0 -0.011218399694972049 -0.0071474863653563604 0 -0.010497521151882159 -0.0069402203244228683 0 -0.010486275713060666 -0.0060921231849908729 0 -0.011220025265249386 -0.0072079560502455609 0 -0.011404605933288573 -0.0073608145811409793 0 -0.011411828283173615 -0.0073369788993923862 0 -0.011220025265249386 -0.0072079560502455609 0 -0.011404605933288573 -0.0073608145811409793 0 -0.01146441864087229 -0.0073618451551253437 0 -0.011220025265249386 -0.0072079560502455609 0 -0.011404605933288573 -0.0073608145811409793 0 -0.011411828283173615 -0.0073369788993923862 0 -0.011392012144513254 -0.0073569402214743382 0 -0.011411828283173615 -0.0073369788993923862 0 -0.011392012144513254 -0.0073569402214743382 0 -0.01133157661382684 -0.0073623710344741036 0 -0.010905704992554324 -0.0067133129136986219 0 -0.010537934251560438 -0.006249039838321856 0 -0.011392012144513254 -0.0073569402214743382 0 -0.011320550319115243 -0.0073255318575716714 0 -0.01133157661382684 -0.0073623710344741036 0 -0.011392012144513254 -0.0073569402214743382 0 -0.011384063331413686 -0.0073187946637936537 0 -0.011320550319115243 -0.0073255318575716714 0 -0.011392012144513254 -0.0073569402214743382 0 -0.011465444420823236 -0.007341673852327299 0 -0.011384063331413686 -0.0073187946637936537 0 -0.011404605933288573 -0.0073608145811409793 0 -0.011465444420823236 -0.007341673852327299 0 -0.01146441864087229 -0.0073618451551253437 0 -0.011404605933288573 -0.0073608145811409793 0 -0.011392012144513254 -0.0073569402214743382 0 -0.011465444420823236 -0.007341673852327299 0 -0.011465444420823236 -0.007341673852327299 0 -0.011384063331413686 -0.0073187946637936537 0 -0.011455120259316172 -0.0072718324460802437 0 -0.011465444420823236 -0.007341673852327299 0 -0.011603971490384359 -0.0072881249563605437 0 -0.011455120259316172 -0.0072718324460802437 0 -0.011384063331413686 -0.0073187946637936537 0 -0.011320550319115243 -0.0073255318575716714 0 -0.011286541926371029 -0.0072893343533537679 0 -0.011320550319115243 -0.0073255318575716714 0 -0.011274454476168197 -0.0073033594427039617 0 -0.011286541926371029 -0.0072893343533537679 0 -0.011320550319115243 -0.0073255318575716714 0 -0.011274454476168197 -0.0073033594427039617 0 -0.011244704505878047 -0.0073237043587383978 0 -0.0089920318111087558 -0.0059359365150190259 0 -0.009771899208491662 -0.0073131689762264401 0 -0.011274454476168197 -0.0073033594427039617 0 -0.011244704505878047 -0.0073237043587383978 0 -0.011242094251169423 -0.0072876279589616658 0 -0.0082201208290337384 -0.0069782454764940978 0 -0.0082807735472069741 -0.0070000881627586987 0 -0.0082732327809299164 -0.0069758108319307498 0 -0.0084061703649072148 -0.0041371847068614413 0 -0.008448556378091077 -0.0047985376595563499 0 -0.0095196417023379644 -0.005098042328852785 0 -0.0077817202663057455 -0.0045956274161684215 0 -0.008335473746859565 -0.0042816976651841778 0 -0.008448556378091077 -0.0047985376595563499 0 -0.0089920318111087558 -0.0059359365150190259 0 -0.0085803654665454372 -0.0044203810496320772 0 -0.0077817202663057455 -0.0045956274161684215 0 -0.0079157249512859448 -0.0051501027642699565 0 -0.008448556378091077 -0.0047985376595563499 0 -0.0089920318111087558 -0.0059359365150190259 0 -0.010537934251560438 -0.006249039838321856 0 -0.011320550319115243 -0.0073255318575716714 0 -0.011244704505878047 -0.0073237043587383978 0 -0.01133157661382684 -0.0073623710344741036 0 -0.012042986305404053 -0.007470712984062401 0 -0.012044101532642675 -0.0075733318534357717 0 -0.011800931248787056 -0.0074695673074182695 0 -0.012044101532642675 -0.0075733318534357717 0 -0.011800931248787056 -0.0074695673074182695 0 -0.011914629915214676 -0.0076184145776293346 0 -0.011800931248787056 -0.0074695673074182695 0 -0.011683709899656556 -0.007527376661558954 0 -0.011914629915214676 -0.0076184145776293346 0 -0.011800931248787056 -0.0074695673074182695 0 -0.011626728831109068 -0.0073865059297487596 0 -0.011791538793975574 -0.0073821628310718453 0 -0.012042986305404053 -0.007470712984062401 0 -0.011800931248787056 -0.0074695673074182695 0 -0.011791538793975574 -0.0073821628310718453 0 -0.011800931248787056 -0.0074695673074182695 0 -0.011626728831109068 -0.0073865059297487596 0 -0.011516799494167557 -0.0073847516996944761 0 -0.011800931248787056 -0.0074695673074182695 0 -0.011516799494167557 -0.0073847516996944761 0 -0.011683709899656556 -0.007527376661558954 0 -0.011516799494167557 -0.0073847516996944761 0 -0.01146441864087229 -0.0073618451551253437 0 -0.011220025265249386 -0.0072079560502455609 0 -0.011626728831109068 -0.0073865059297487596 0 -0.01146441864087229 -0.0073618451551253437 0 -0.011607586149437564 -0.007343552398697533 0 -0.011626728831109068 -0.0073865059297487596 0 -0.011516799494167557 -0.0073847516996944761 0 -0.01146441864087229 -0.0073618451551253437 0 -0.011465444420823236 -0.007341673852327299 0 -0.01146441864087229 -0.0073618451551253437 0 -0.011607586149437564 -0.007343552398697533 0 -0.011465444420823236 -0.007341673852327299 0 -0.011603971490384359 -0.0072881249563605437 0 -0.011607586149437564 -0.007343552398697533 0 -0.011603971490384359 -0.0072881249563605437 0 -0.011607586149437564 -0.007343552398697533 0 -0.011800953945726745 -0.007304337014755872 0 -0.011626728831109068 -0.0073865059297487596 0 -0.011607586149437564 -0.007343552398697533 0 -0.011791538793975574 -0.0073821628310718453 0 -0.011607586149437564 -0.007343552398697533 0 -0.011791538793975574 -0.0073821628310718453 0 -0.011800953945726745 -0.007304337014755872 0 -0.011791538793975574 -0.0073821628310718453 0 -0.011800953945726745 -0.007304337014755872 0 -0.011984818311602571 -0.0073761004133885309 0 -0.011800953945726745 -0.007304337014755872 0 -0.011984818311602571 -0.0073761004133885309 0 -0.011958330622631576 -0.0072569524883852104 0 -0.012119108186096659 -0.0073205548139655867 0 -0.011984818311602571 -0.0073761004133885309 0 -0.011958330622631576 -0.0072569524883852104 0 -0.012221299643417768 -0.0074273369894790973 0 -0.012042986305404053 -0.007470712984062401 0 -0.011984818311602571 -0.0073761004133885309 0 -0.012042986305404053 -0.007470712984062401 0 -0.011791538793975574 -0.0073821628310718453 0 -0.011984818311602571 -0.0073761004133885309 0 -0.012159281310454437 -0.0071930503303187484 0 -0.011958330622631576 -0.0072569524883852104 0 -0.01187578607952313 -0.0071541088463221306 0 -0.012159281310454437 -0.0071930503303187484 0 -0.012119108186096659 -0.0073205548139655867 0 -0.011958330622631576 -0.0072569524883852104 0 -0.011958330622631576 -0.0072569524883852104 0 -0.01187578607952313 -0.0071541088463221306 0 -0.011748293360646972 -0.0072392960416792426 0 -0.011800953945726745 -0.007304337014755872 0 -0.011958330622631576 -0.0072569524883852104 0 -0.011748293360646972 -0.0072392960416792426 0 -0.01187578607952313 -0.0071541088463221306 0 -0.011604220010146441 -0.0072005757284905958 0 -0.011712171962971151 -0.0070537755191927027 0 -0.01187578607952313 -0.0071541088463221306 0 -0.011748293360646972 -0.0072392960416792426 0 -0.011604220010146441 -0.0072005757284905958 0 -0.011603971490384359 -0.0072881249563605437 0 -0.011800953945726745 -0.007304337014755872 0 -0.011748293360646972 -0.0072392960416792426 0 -0.011603971490384359 -0.0072881249563605437 0 -0.011748293360646972 -0.0072392960416792426 0 -0.011604220010146441 -0.0072005757284905958 0 -0.011603971490384359 -0.0072881249563605437 0 -0.011604220010146441 -0.0072005757284905958 0 -0.011455120259316172 -0.0072718324460802437 0 -0.011604220010146441 -0.0072005757284905958 0 -0.011712171962971151 -0.0070537755191927027 0 -0.01144116705792414 -0.007152762070065947 0 -0.011712171962971151 -0.0070537755191927027 0 -0.01168307547011941 -0.0069151004167501452 0 -0.011524077421492961 -0.0070067748970102962 0 -0.011712171962971151 -0.0070537755191927027 0 -0.01168307547011941 -0.0069151004167501452 0 -0.011926655347723709 -0.0068953369447583568 0 -0.011712171962971151 -0.0070537755191927027 0 -0.011898708307520992 -0.0070372486237193508 0 -0.011926655347723709 -0.0068953369447583568 0 -0.01187578607952313 -0.0071541088463221306 0 -0.011712171962971151 -0.0070537755191927027 0 -0.011898708307520992 -0.0070372486237193508 0 -0.01187578607952313 -0.0071541088463221306 0 -0.011898708307520992 -0.0070372486237193508 0 -0.012088388259499892 -0.0070382739017539608 0 -0.011898708307520992 -0.0070372486237193508 0 -0.012088388259499892 -0.0070382739017539608 0 -0.011926655347723709 -0.0068953369447583568 0 -0.01221106187154823 -0.0069078870739306582 0 -0.012088388259499892 -0.0070382739017539608 0 -0.011926655347723709 -0.0068953369447583568 0 -0.012159281310454437 -0.0071930503303187484 0 -0.01187578607952313 -0.0071541088463221306 0 -0.012088388259499892 -0.0070382739017539608 0 -0.011022473029317427 -0.0072386133762719603 0 -0.011286541926371029 -0.0072893343533537679 0 -0.011085596147144341 -0.0071539706760232998 0 -0.011286541926371029 -0.0072893343533537679 0 -0.011240543233956719 -0.0071363530810363883 0 -0.011085596147144341 -0.0071539706760232998 0 -0.01034630582458315 -0.0072963483395107678 0 -0.009771899208491662 -0.0073131689762264401 0 -0.011232177671682997 -0.007250966987545778 0 -0.011242094251169423 -0.0072876279589616658 0 -0.011286541926371029 -0.0072893343533537679 0 -0.011274454476168197 -0.0073033594427039617 0 -0.011242094251169423 -0.0072876279589616658 0 -0.011286541926371029 -0.0072893343533537679 0 -0.01034630582458315 -0.0072963483395107678 0 -0.011560656302452125 -0.0073360690907733435 0 -0.011286541926371029 -0.0072893343533537679 0 -0.011455120259316172 -0.0072718324460802437 0 -0.01144116705792414 -0.007152762070065947 0 -0.011384063331413686 -0.0073187946637936537 0 -0.011286541926371029 -0.0072893343533537679 0 -0.011455120259316172 -0.0072718324460802437 0 -0.011604220010146441 -0.0072005757284905958 0 -0.011455120259316172 -0.0072718324460802437 0 -0.01144116705792414 -0.007152762070065947 0 -0.011286541926371029 -0.0072893343533537679 0 -0.01144116705792414 -0.007152762070065947 0 -0.011240543233956719 -0.0071363530810363883 0 -0.01144116705792414 -0.007152762070065947 0 -0.011320925430683231 -0.0070117643589459018 0 -0.011240543233956719 -0.0071363530810363883 0 -0.01144116705792414 -0.007152762070065947 0 -0.011524077421492961 -0.0070067748970102962 0 -0.011320925430683231 -0.0070117643589459018 0 -0.011712171962971151 -0.0070537755191927027 0 -0.01144116705792414 -0.007152762070065947 0 -0.011524077421492961 -0.0070067748970102962 0 -0.01168307547011941 -0.0069151004167501452 0 -0.011524077421492961 -0.0070067748970102962 0 -0.011471395469145542 -0.0068810191708021211 0 -0.011524077421492961 -0.0070067748970102962 0 -0.011320925430683231 -0.0070117643589459018 0 -0.011471395469145542 -0.0068810191708021211 0 -0.011320925430683231 -0.0070117643589459018 0 -0.011222271929975033 -0.0068132131413508913 0 -0.011471395469145542 -0.0068810191708021211 0 -0.011320925430683231 -0.0070117643589459018 0 -0.011074802177222504 -0.0070073580136479968 0 -0.011222271929975033 -0.0068132131413508913 0 -0.011074802177222504 -0.0070073580136479968 0 -0.011240543233956719 -0.0071363530810363883 0 -0.011085596147144341 -0.0071539706760232998 0 -0.011320925430683231 -0.0070117643589459018 0 -0.011074802177222504 -0.0070073580136479968 0 -0.011240543233956719 -0.0071363530810363883 0 -0.011022473029317427 -0.0072386133762719603 0 -0.010939430914464789 -0.007087707268172181 0 -0.011085596147144341 -0.0071539706760232998 0 -0.01034630582458315 -0.0072963483395107678 0 -0.010888547179030279 -0.0074629014739553785 0 -0.011074802177222504 -0.0070073580136479968 0 -0.010939430914464789 -0.007087707268172181 0 -0.011085596147144341 -0.0071539706760232998 0 -0.011074802177222504 -0.0070073580136479968 0 -0.010939430914464789 -0.007087707268172181 0 -0.010738021453042345 -0.0068955311338387412 0 -0.010888547179030279 -0.0074629014739553785 0 -0.01075092345730627 -0.0068734544882589396 0 -0.011074802177222504 -0.0070073580136479968 0 -0.010738021453042345 -0.0068955311338387412 0 -0.010967265142040467 -0.0067343600836900159 0 -0.010738021453042345 -0.0068955311338387412 0 -0.010765891197619492 -0.0066939441330266039 0 -0.010550173708700272 -0.0066704107882107197 0 -0.010738021453042345 -0.0068955311338387412 0 -0.010967265142040467 -0.0067343600836900159 0 -0.010765891197619492 -0.0066939441330266039 0 -0.010765891197619492 -0.0066939441330266039 0 -0.010834453929785935 -0.0065455882119037556 0 -0.010651036854391586 -0.0064803347124381934 0 -0.010834453929785935 -0.0065455882119037556 0 -0.011127002152225295 -0.0064478629443358616 0 -0.010638695778794198 -0.0063886500955203165 0 -0.011060174128179357 -0.0069184220087029989 0 -0.010752549825271686 -0.006680835113425659 0 -0.010765891197619492 -0.0066939441330266039 0 -0.010651036854391586 -0.0064803347124381934 0 -0.010550173708700272 -0.0066704107882107197 0 -0.010967265142040467 -0.0067343600836900159 0 -0.010765891197619492 -0.0066939441330266039 0 -0.010834453929785935 -0.0065455882119037556 0 -0.010834453929785935 -0.0065455882119037556 0 -0.010651036854391586 -0.0064803347124381934 0 -0.010638695778794198 -0.0063886500955203165 0 -0.010700259567599828 -0.0065230364539170674 0 -0.010752549825271686 -0.006680835113425659 0 -0.010967265142040467 -0.0067343600836900159 0 -0.011222271929975033 -0.0068132131413508913 0 -0.011127002152225295 -0.0064478629443358616 0 -0.010967265142040467 -0.0067343600836900159 0 -0.010834453929785935 -0.0065455882119037556 0 -0.011127002152225295 -0.0064478629443358616 0 -0.011074802177222504 -0.0070073580136479968 0 -0.010967265142040467 -0.0067343600836900159 0 -0.011222271929975033 -0.0068132131413508913 0 -0.011222271929975033 -0.0068132131413508913 0 -0.011471395469145542 -0.0068810191708021211 0 -0.01141579612633933 -0.0067005627457643029 0 -0.01168307547011941 -0.0069151004167501452 0 -0.011471395469145542 -0.0068810191708021211 0 -0.011606036197473813 -0.0068091659315478881 0 -0.011471395469145542 -0.0068810191708021211 0 -0.01141579612633933 -0.0067005627457643029 0 -0.011606036197473813 -0.0068091659315478881 0 -0.01141579612633933 -0.0067005627457643029 0 -0.011606036197473813 -0.0068091659315478881 0 -0.011663238978988938 -0.0066983406038953518 0 -0.01141579612633933 -0.0067005627457643029 0 -0.011451815624349047 -0.0065158647731178186 0 -0.011663238978988938 -0.0066983406038953518 0 -0.01141579612633933 -0.0067005627457643029 0 -0.011451815624349047 -0.0065158647731178186 0 -0.011127002152225295 -0.0064478629443358616 0 -0.011222271929975033 -0.0068132131413508913 0 -0.01141579612633933 -0.0067005627457643029 0 -0.011127002152225295 -0.0064478629443358616 0 -0.011245616314596505 -0.0069054538107092998 0 -0.011060174128179357 -0.0069184220087029989 0 -0.011134142468746007 -0.0073294334764423853 0 -0.01105915821563128 -0.0072452084103824688 0 -0.011000873923287221 -0.0073443381773934668 0 -0.011245616314596505 -0.0069054538107092998 0 -0.011716134353603589 -0.0071092679134619283 0 -0.011134142468746007 -0.0073294334764423853 0 -0.011175908583560162 -0.0072158586266175863 0 -0.011274278366557117 -0.0073091568724540281 0 -0.011134142468746007 -0.0073294334764423853 0 -0.011175908583560162 -0.0072158586266175863 0 -0.01105915821563128 -0.0072452084103824688 0 -0.01105915821563128 -0.0072452084103824688 0 -0.010961942964086551 -0.0072627032242980486 0 -0.011001003508657188 -0.0071945225087406434 0 -0.010961942964086551 -0.0072627032242980486 0 -0.010932800975651014 -0.0072050131051668324 0 -0.011001003508657188 -0.0071945225087406434 0 -0.010932800975651014 -0.0072050131051668324 0 -0.010882148691529642 -0.0072137012475746469 0 -0.010902236402767706 -0.0072567082035443339 0 -0.010882148691529642 -0.0072137012475746469 0 -0.010902236402767706 -0.0072567082035443339 0 -0.010868321548819598 -0.0072527089039692433 0 -0.010902236402767706 -0.0072567082035443339 0 -0.010868321548819598 -0.0072527089039692433 0 -0.010859090117743442 -0.0072806731384906006 0 -0.010961942964086551 -0.0072627032242980486 0 -0.010932800975651014 -0.0072050131051668324 0 -0.010902236402767706 -0.0072567082035443339 0 -0.010918970800318549 -0.0073010034383702632 0 -0.011000873923287221 -0.0073443381773934668 0 -0.010872808403413037 -0.007356761757563288 0 -0.010961942964086551 -0.0072627032242980486 0 -0.010902236402767706 -0.0072567082035443339 0 -0.010918970800318549 -0.0073010034383702632 0 -0.010902236402767706 -0.0072567082035443339 0 -0.010918970800318549 -0.0073010034383702632 0 -0.010859090117743442 -0.0072806731384906006 0 -0.010918970800318549 -0.0073010034383702632 0 -0.010859090117743442 -0.0072806731384906006 0 -0.010872808403413037 -0.007356761757563288 0 -0.01105915821563128 -0.0072452084103824688 0 -0.010961942964086551 -0.0072627032242980486 0 -0.011000873923287221 -0.0073443381773934668 0 -0.010961942964086551 -0.0072627032242980486 0 -0.010918970800318549 -0.0073010034383702632 0 -0.011000873923287221 -0.0073443381773934668 0 -0.012110901095794742 -0.0068244813261475606 0 -0.011933529390000162 -0.0068971439003532951 0 -0.01221106187154823 -0.0069078870739306582 0 -0.012166587306942585 -0.0067387580546369539 0 -0.011926655347723709 -0.0068953369447583568 0 -0.011926655347723709 -0.0068953369447583568 0 -0.011941550303950881 -0.00684405543482626 0 -0.011796033390123214 -0.0068173718785134139 0 -0.012024125217602292 -0.0069130504642551088 0 -0.011926655347723709 -0.0068953369447583568 0 -0.011941550303950881 -0.00684405543482626 0 -0.011941550303950881 -0.00684405543482626 0 -0.011796033390123214 -0.0068173718785134139 0 -0.011833646686827501 -0.0067355855641771526 0 -0.01168307547011941 -0.0069151004167501452 0 -0.011926655347723709 -0.0068953369447583568 0 -0.011796033390123214 -0.0068173718785134139 0 -0.01168307547011941 -0.0069151004167501452 0 -0.011796033390123214 -0.0068173718785134139 0 -0.011606036197473813 -0.0068091659315478881 0 -0.011796033390123214 -0.0068173718785134139 0 -0.011663238978988938 -0.0066983406038953518 0 -0.011833646686827501 -0.0067355855641771526 0 -0.011796033390123214 -0.0068173718785134139 0 -0.011606036197473813 -0.0068091659315478881 0 -0.011663238978988938 -0.0066983406038953518 0 -0.011451815624349047 -0.0065158647731178186 0 -0.011663238978988938 -0.0066983406038953518 0 -0.011734729713761509 -0.0065691666817738392 0 -0.011663238978988938 -0.0066983406038953518 0 -0.011734729713761509 -0.0065691666817738392 0 -0.011833646686827501 -0.0067355855641771526 0 -0.011716134353603589 -0.0071092679134619283 0 -0.011717071795206096 -0.0067313148583584559 0 -0.011828388042270056 -0.0075792888253589452 0 -0.012021330665082784 -0.0075556145967665333 0 -0.012011607799097553 -0.0075008103627244999 0 -0.011501990271608396 -0.0074471496012329099 0 -0.011716134353603589 -0.0071092679134619283 0 -0.011828388042270056 -0.0075792888253589452 0 -0.011962950073919515 -0.007628087061516348 0 -0.012021330665082784 -0.0075556145967665333 0 -0.012021330665082784 -0.0075556145967665333 0 -0.012123104293457355 -0.0074688830197056676 0 -0.012011607799097553 -0.0075008103627244999 0 -0.012021330665082784 -0.0075556145967665333 0 -0.012087836644886722 -0.0075501131130333507 0 -0.012123104293457355 -0.0074688830197056676 0 -0.011716134353603589 -0.0071092679134619283 0 -0.012022184039297572 -0.0071747030463824042 0 -0.011824249952911727 -0.0067282493832567991 0 -0.011833646686827501 -0.0067355855641771526 0 -0.011909296924050058 -0.0067887493060426463 0 -0.011962950073919515 -0.007628087061516348 0 -0.012021330665082784 -0.0075556145967665333 0 -0.012087836644886722 -0.0075501131130333507 0 -0.011941550303950881 -0.00684405543482626 0 -0.011833646686827501 -0.0067355855641771526 0 -0.011909296924050058 -0.0067887493060426463 0 -0.011941550303950881 -0.00684405543482626 0 -0.011909296924050058 -0.0067887493060426463 0 -0.012033050060766265 -0.0069349911078324502 0 -0.012022184039297572 -0.0071747030463824042 0 -0.012060794288182243 -0.0071844557821124175 0 -0.012087836644886722 -0.0075501131130333507 0 -0.01215646070661654 -0.0074220050143245205 0 -0.012123104293457355 -0.0074688830197056676 0 -0.012153382401407103 -0.0074022270063763534 0 -0.01215646070661654 -0.0074220050143245205 0 -0.012123104293457355 -0.0074688830197056676 0 -0.012024125217602292 -0.0069130504642551088 0 -0.011941550303950881 -0.00684405543482626 0 -0.012033050060766265 -0.0069349911078324502 0 -0.012048003056410352 -0.0070127557302319364 0 -0.012024125217602292 -0.0069130504642551088 0 -0.012033050060766265 -0.0069349911078324502 0 -0.012166923794106263 -0.0074790194254057002 0 -0.012140181340590197 -0.0075061204193283713 0 -0.012123104293457355 -0.0074688830197056676 0 -0.012153382401407103 -0.0074022270063763534 0 -0.012166923794106263 -0.0074790194254057002 0 -0.012123104293457355 -0.0074688830197056676 0 -0.012140181340590197 -0.0075061204193283713 0 -0.012123104293457355 -0.0074688830197056676 0 -0.012092332371677818 -0.0074895481265356409 0 -0.012067523716290841 -0.0074841632358533076 0 -0.011938746484224071 -0.0074406280207060856 0 -0.012123104293457355 -0.0074688830197056676 0 -0.012092332371677818 -0.0074895481265356409 0 -0.012011607799097553 -0.0075008103627244999 0 -0.012092332371677818 -0.0074895481265356409 0 -0.012011607799097553 -0.0075008103627244999 0 -0.011903006358200128 -0.0074430641553521366 0 -0.011828388042270056 -0.0075792888253589452 0 -0.012011607799097553 -0.0075008103627244999 0 -0.011903006358200128 -0.0074430641553521366 0 -0.011903006358200128 -0.0074430641553521366 0 -0.011942522305950739 -0.0072896179536584343 0 -0.011752670313263805 -0.0073222272025434921 0 -0.012092332371677818 -0.0074895481265356409 0 -0.011903006358200128 -0.0074430641553521366 0 -0.011942522305950739 -0.0072896179536584343 0 -0.011944060818504031 -0.0076056060585458045 0 -0.011922520963938293 -0.0075355071575613211 0 -0.011808681144885168 -0.0075583693452016612 0 -0.011922520963938293 -0.0075355071575613211 0 -0.012058600344605147 -0.0075364113347396256 0 -0.011971722854165198 -0.0074573990491263722 0 -0.012092332371677818 -0.0074895481265356409 0 -0.011944060818504031 -0.0076056060585458045 0 -0.012058600344605147 -0.0075364113347396256 0 -0.011944060818504031 -0.0076056060585458045 0 -0.011922520963938293 -0.0075355071575613211 0 -0.012058600344605147 -0.0075364113347396256 0 -0.012140181340590197 -0.0075061204193283713 0 -0.012058600344605147 -0.0075364113347396256 0 -0.012198817914759063 -0.0075283440332679728 0 -0.012140181340590197 -0.0075061204193283713 0 -0.012092332371677818 -0.0074895481265356409 0 -0.012058600344605147 -0.0075364113347396256 0 -0.012058600344605147 -0.0075364113347396256 0 -0.012198817914759063 -0.0075283440332679728 0 -0.012096990020844368 -0.007442051359275113 0 -0.012166923794106263 -0.0074790194254057002 0 -0.012140181340590197 -0.0075061204193283713 0 -0.012198817914759063 -0.0075283440332679728 0 -0.010961430550812772 -0.0071353839029505628 0 -0.011081392509975937 -0.0071310869530406568 0 -0.010998454475919215 -0.0070539832434203366 0 -0.010929336658426802 -0.0070821444286961466 0 -0.010961430550812772 -0.0071353839029505628 0 -0.010998454475919215 -0.0070539832434203366 0 -0.010929336658426802 -0.0070821444286961466 0 -0.010868332036405234 -0.0070588379104139353 0 -0.010864608632092322 -0.0070925238916510064 0 -0.010929336658426802 -0.0070821444286961466 0 -0.010895735654418473 -0.007118865137906303 0 -0.010864608632092322 -0.0070925238916510064 0 -0.010929336658426802 -0.0070821444286961466 0 -0.010895735654418473 -0.007118865137906303 0 -0.010961430550812772 -0.0071353839029505628 0 -0.010895735654418473 -0.007118865137906303 0 -0.010885624802808375 -0.0071662811782545232 0 -0.010961430550812772 -0.0071353839029505628 0 -0.010932800975651014 -0.0072050131051668324 0 -0.010882148691529642 -0.0072137012475746469 0 -0.010885624802808375 -0.0071662811782545232 0 -0.010932800975651014 -0.0072050131051668324 0 -0.010885624802808375 -0.0071662811782545232 0 -0.010961430550812772 -0.0071353839029505628 0 -0.010961430550812772 -0.0071353839029505628 0 -0.011001003508657188 -0.0071945225087406434 0 -0.011081392509975937 -0.0071310869530406568 0 -0.010932800975651014 -0.0072050131051668324 0 -0.010961430550812772 -0.0071353839029505628 0 -0.011001003508657188 -0.0071945225087406434 0 -0.011175908583560162 -0.0072158586266175863 0 -0.01105915821563128 -0.0072452084103824688 0 -0.011081392509975937 -0.0071310869530406568 0 -0.01105915821563128 -0.0072452084103824688 0 -0.011001003508657188 -0.0071945225087406434 0 -0.011081392509975937 -0.0071310869530406568 0 -0.011828388042270056 -0.0075792888253589452 0 -0.011903006358200128 -0.0074430641553521366 0 -0.011590553355714397 -0.0074716162180408809 0 -0.011501990271608396 -0.0074471496012329099 0 -0.011330340505051639 -0.007288595085436657 0 -0.011903006358200128 -0.0074430641553521366 0 -0.011590553355714397 -0.0074716162180408809 0 -0.011752670313263805 -0.0073222272025434921 0 -0.011330340505051639 -0.007288595085436657 0 -0.011142741443712181 -0.0071488974776259566 0 -0.011590553355714397 -0.0074716162180408809 0 -0.011752670313263805 -0.0073222272025434921 0 -0.011290877014666759 -0.0072573027301476552 0 -0.011752670313263805 -0.0073222272025434921 0 -0.011672609301312328 -0.0070767566518011461 0 -0.011290877014666759 -0.0072573027301476552 0 -0.011672609301312328 -0.0070767566518011461 0 -0.01127633313599374 -0.0068679932433154183 0 -0.011290877014666759 -0.0072573027301476552 0 -0.011942522305950739 -0.0072896179536584343 0 -0.011752670313263805 -0.0073222272025434921 0 -0.011672609301312328 -0.0070767566518011461 0 -0.011938746484224071 -0.0074406280207060856 0 -0.011673426144550827 -0.0073579842964490447 0 -0.011944060818504031 -0.0076056060585458045 0 -0.011747052484254075 -0.0076249917114562336 0 -0.011808681144885168 -0.0075583693452016612 0 -0.011747052484254075 -0.0076249917114562336 0 -0.011808681144885168 -0.0075583693452016612 0 -0.011699268716429746 -0.0075641072129473703 0 -0.011699268716429746 -0.0075641072129473703 0 -0.011604664012875561 -0.0075958932224003241 0 -0.01163675813286663 -0.0075305315436619618 0 -0.011747052484254075 -0.0076249917114562336 0 -0.011699268716429746 -0.0075641072129473703 0 -0.011604664012875561 -0.0075958932224003241 0 -0.011673426144550827 -0.0073579842964490447 0 -0.011621343638624028 -0.0070999157646906954 0 -0.01127633313599374 -0.0068679932433154183 0 -0.011290877014666759 -0.0072573027301476552 0 -0.01095178936642038 -0.0069546474127645825 0 -0.011142741443712181 -0.0071488974776259566 0 -0.010961023390559994 -0.0069647496341141164 0 -0.010929336658426802 -0.0070821444286961466 0 -0.010998454475919215 -0.0070539832434203366 0 -0.010922463113805368 -0.0070317259872239267 0 -0.010998454475919215 -0.0070539832434203366 0 -0.010922463113805368 -0.0070317259872239267 0 -0.01095178936642038 -0.0069546474127645825 0 -0.010929336658426802 -0.0070821444286961466 0 -0.010922463113805368 -0.0070317259872239267 0 -0.010868332036405234 -0.0070588379104139353 0 -0.010922463113805368 -0.0070317259872239267 0 -0.01095178936642038 -0.0069546474127645825 0 -0.010823950635708108 -0.0070040690961076651 0 -0.011621343638624028 -0.0070999157646906954 0 -0.0099920874255176872 -0.0085285283606201141 0 -0.01127633313599374 -0.0068679932433154183 0 -0.01095178936642038 -0.0069546474127645825 0 -0.010874992531570126 -0.0067334278763095381 0 -0.01095178936642038 -0.0069546474127645825 0 -0.010835556256159794 -0.0069111892526955796 0 -0.010874992531570126 -0.0067334278763095381 0 -0.010835556256159794 -0.0069111892526955796 0 -0.01070280241506808 -0.0069212267071850943 0 -0.010874992531570126 -0.0067334278763095381 0 -0.0084672768670609726 -0.0077814154329846584 0 -0.0099920874255176872 -0.0085285283606201141 0 -0.01095178936642038 -0.0069546474127645825 0 -0.010835556256159794 -0.0069111892526955796 0 -0.010823950635708108 -0.0070040690961076651 0 -0.010835556256159794 -0.0069111892526955796 0 -0.01070280241506808 -0.0069212267071850943 0 -0.010823950635708108 -0.0070040690961076651 0 -0.0064744832892339272 -0.0068962653669042218 0 -0.0069623420361709376 -0.007687677222147641 0 -0.0071383025001005504 -0.0075493015945655812 0 -0.005371587614782276 -0.0083284323345810367 0 -0.0060024044902313618 -0.0085415627529250981 0 -0.0064744832892339272 -0.0068962653669042218 0 -0.0065954756596257914 -0.0065755377184871086 0 -0.0071383025001005504 -0.0075493015945655812 0 -0.0066813964761579716 -0.0075814963126164623 0 -0.0067665471612820185 -0.0075137176349481995 0 -0.0067811935283217271 -0.0079828836398793332 0 -0.0084672768670609726 -0.0077814154329846584 0 -0.0072342716658433679 -0.0071912947983041207 0 -0.0064744832892339272 -0.0068962653669042218 0 -0.006542005099369308 -0.0064763087770611195 0 -0.0062567896406716854 -0.006002872226581666 0 -0.0087047208189717541 -0.0073322284519222666 0 -0.0087942639553758827 -0.0072614200742732492 0 -0.008563459355385189 -0.0068016729142401661 0 -0.0072342716658433679 -0.0071912947983041207 0 -0.0084849214197317176 -0.0063855689311956591 0 -0.0064744832892339272 -0.0068962653669042218 0 -0.0065954756596257914 -0.0065755377184871086 0 -0.006542005099369308 -0.0064763087770611195 0 -0.005371587614782276 -0.0083284323345810367 0 -0.0053722511162533973 -0.0079633845744320163 0 -0.0084672768670609726 -0.0077814154329846584 0 -0.010289946533236585 -0.0068873046466781445 0 -0.01070280241506808 -0.0069212267071850943 0 -0.010823950635708108 -0.0070040690961076651 0 -0.010815971224057946 -0.0071155236804377109 0 -0.0087942639553758827 -0.0072614200742732492 0 -0.0086816753711202958 -0.0067798765013564587 0 -0.008563459355385189 -0.0068016729142401661 0 -0.010868332036405234 -0.0070588379104139353 0 -0.010823950635708108 -0.0070040690961076651 0 -0.010815971224057946 -0.0071155236804377109 0 -0.010922463113805368 -0.0070317259872239267 0 -0.010868332036405234 -0.0070588379104139353 0 -0.010823950635708108 -0.0070040690961076651 0 -0.0045482124538403119 -0.0099841855865101976 0 -0.0045686800628059535 -0.01016639489181081 0 -0.0043180535679956771 -0.010099604112043371 0 -0.0045482124538403119 -0.0099841855865101976 0 -0.0044539192238892836 -0.0098447557145459313 0 -0.0043180535679956771 -0.010099604112043371 0 -0.0042333179715290364 -0.0098579029638735851 0 -0.0044539192238892836 -0.0098447557145459313 0 -0.0043180535679956771 -0.010099604112043371 0 -0.0065667020233008237 -0.0065293700341660186 0 -0.006542005099369308 -0.0064763087770611195 0 -0.0070957926448745384 -0.0063213653155510356 0 -0.005371587614782276 -0.0083284323345810367 0 -0.0056802437789176567 -0.0080950467966396048 0 -0.006542005099369308 -0.0064763087770611195 0 -0.0070957926448745384 -0.0063213653155510356 0 -0.0068689305715259504 -0.0059318362870370515 0 -0.0056802437789176567 -0.0080950467966396048 0 -0.006543619687407176 -0.0078213201323522451 0 -0.0045482124538403119 -0.0099841855865101976 0 -0.0044539192238892836 -0.0098447557145459313 0 -0.0046704981459219216 -0.0098278501444173452 0 -0.0070957926448745384 -0.0063213653155510356 0 -0.0068689305715259504 -0.0059318362870370515 0 -0.007300680525344808 -0.0058029548726832806 0 -0.0074995074886646945 -0.0056377255157999181 0 -0.0077232161034199512 -0.0056644081696854724 0 -0.0070957926448745384 -0.0063213653155510356 0 -0.007300680525344808 -0.0058029548726832806 0 -0.0075113968877700043 -0.0059142971875912652 0 -0.0084087586613307494 -0.0056978234175464222 0 -0.0087348948067045174 -0.005638852022183497 0 -0.0086375830706714816 -0.0060081859707458258 0 -0.0084760915634062 -0.0054430149024461468 0 -0.0084087586613307494 -0.0056978234175464222 0 -0.0087348948067045174 -0.005638852022183497 0 -0.0084087586613307494 -0.0056978234175464222 0 -0.0080541696221547738 -0.005530333237359129 0 -0.0081386904937279063 -0.0058035806188824713 0 -0.0084760915634062 -0.0054430149024461468 0 -0.0084087586613307494 -0.0056978234175464222 0 -0.0080541696221547738 -0.005530333237359129 0 -0.010778332977025315 -0.0070789165847578075 0 -0.010839664215923642 -0.0071185485613667141 0 -0.010820082473846398 -0.0070711919301462084 0 -0.010839664215923642 -0.0071185485613667141 0 -0.010864608632092322 -0.0070925238916510064 0 -0.010834910002103341 -0.0070941500208503384 0 -0.010895735654418473 -0.007118865137906303 0 -0.010839664215923642 -0.0071185485613667141 0 -0.010864608632092322 -0.0070925238916510064 0 -0.010591427517466084 -0.0071632752052154282 0 -0.010289946533236585 -0.0068873046466781445 0 -0.010868332036405234 -0.0070588379104139353 0 -0.010864608632092322 -0.0070925238916510064 0 -0.010815971224057946 -0.0071155236804377109 0 -0.010755174543472574 -0.0069261681612938844 0 -0.010289946533236585 -0.0068873046466781445 0 -0.0084849214197317176 -0.0063855689311956591 0 -0.010289946533236585 -0.0068873046466781445 0 -0.006542005099369308 -0.0064763087770611195 0 -0.0068689305715259504 -0.0059318362870370515 0 -0.0062567896406716854 -0.006002872226581666 0 -0.0084760915634062 -0.0054430149024461468 0 -0.0089392808130327166 -0.0053625800149166248 0 -0.0087348948067045174 -0.005638852022183497 0 -0.0074995074886646945 -0.0056377255157999181 0 -0.0084849214197317176 -0.0063855689311956591 0 -0.0087348948067045174 -0.005638852022183497 0 -0.0090625635944287537 -0.0057675985243047607 0 -0.0086375830706714816 -0.0060081859707458258 0 -0.0089392808130327166 -0.0053625800149166248 0 -0.0087348948067045174 -0.005638852022183497 0 -0.0090625635944287537 -0.0057675985243047607 0 -0.0084849214197317176 -0.0063855689311956591 0 -0.010032346006129129 -0.0065226368929620212 0 -0.010778332977025315 -0.0070789165847578075 0 -0.010839664215923642 -0.0071185485613667141 0 -0.010822855104008627 -0.0071860356666916085 0 -0.010895735654418473 -0.007118865137906303 0 -0.010885624802808375 -0.0071662811782545232 0 -0.010839664215923642 -0.0071185485613667141 0 -0.010885624802808375 -0.0071662811782545232 0 -0.010839664215923642 -0.0071185485613667141 0 -0.010822855104008627 -0.0071860356666916085 0 -0.010882148691529642 -0.0072137012475746469 0 -0.010885624802808375 -0.0071662811782545232 0 -0.010822855104008627 -0.0071860356666916085 0 -0.0090625635944287537 -0.0057675985243047607 0 -0.0091866335761960124 -0.0061930149618898292 0 -0.0086375830706714816 -0.0060081859707458258 0 -0.010032346006129129 -0.0065226368929620212 0 -0.010074059079494518 -0.0065582428374530832 0 -0.010882148691529642 -0.0072137012475746469 0 -0.010822855104008627 -0.0071860356666916085 0 -0.010868321548819598 -0.0072527089039692433 0 -0.010822855104008627 -0.0071860356666916085 0 -0.010868321548819598 -0.0072527089039692433 0 -0.010851475115586632 -0.0072778961794795049 0 -0.010074059079494518 -0.0065582428374530832 0 -0.010752549825271686 -0.006680835113425659 0 -0.010868321548819598 -0.0072527089039692433 0 -0.010859090117743442 -0.0072806731384906006 0 -0.010851475115586632 -0.0072778961794795049 0 -0.010417690728374529 -0.0057597290303851101 0 -0.010429444677473547 -0.0060524395617084685 0 -0.010565740905516239 -0.0063062227419028163 0 -0.010859090117743442 -0.0072806731384906006 0 -0.010850751046691033 -0.0072777688945117307 0 -0.010872808403413037 -0.007356761757563288 0 -0.010303630957705619 -0.0059346734183882898 0 -0.010417690728374529 -0.0057597290303851101 0 -0.010429444677473547 -0.0060524395617084685 0 -0.010165585488228745 -0.0065997595927687943 0 -0.010074059079494518 -0.0065582428374530832 0 -0.010303630957705619 -0.0059346734183882898 0 -0.010417690728374529 -0.0057597290303851101 0 -0.010071752270243666 -0.0059289617078873459 0 -0.010303630957705619 -0.0059346734183882898 0 -0.010071752270243666 -0.0059289617078873459 0 -0.010275104438489269 -0.0060437741671416226 0 -0.010071752270243666 -0.0059289617078873459 0 -0.010275104438489269 -0.0060437741671416226 0 -0.010185761756108585 -0.0061675667485019247 0 -0.010275104438489269 -0.0060437741671416226 0 -0.010185761756108585 -0.0061675667485019247 0 -0.010352634973938051 -0.0061590487584185722 0 -0.010352634973938051 -0.0061590487584185722 0 -0.010448772676154683 -0.0062045557696248123 0 -0.010429444677473547 -0.0060524395617084685 0 -0.010185761756108585 -0.0061675667485019247 0 -0.010352634973938051 -0.0061590487584185722 0 -0.010424645072874108 -0.0063188583317456372 0 -0.010448772676154683 -0.0062045557696248123 0 -0.010429444677473547 -0.0060524395617084685 0 -0.010565740905516239 -0.0063062227419028163 0 -0.010275104438489269 -0.0060437741671416226 0 -0.010352634973938051 -0.0061590487584185722 0 -0.010429444677473547 -0.0060524395617084685 0 -0.010303630957705619 -0.0059346734183882898 0 -0.010275104438489269 -0.0060437741671416226 0 -0.010429444677473547 -0.0060524395617084685 0 -0.010071752270243666 -0.0059289617078873459 0 -0.0097561860681705109 -0.006141731822490613 0 -0.009435751971003388 -0.0055243950521904079 0 -0.0097561860681705109 -0.006141731822490613 0 -0.009435751971003388 -0.0055243950521904079 0 -0.0092051569334411186 -0.0061208345739429482 0 -0.010417690728374529 -0.0057597290303851101 0 -0.010071752270243666 -0.0059289617078873459 0 -0.009435751971003388 -0.0055243950521904079 0 -0.010071752270243666 -0.0059289617078873459 0 -0.010185761756108585 -0.0061675667485019247 0 -0.0097561860681705109 -0.006141731822490613 0 -0.010074059079494518 -0.0065582428374530832 0 -0.0089676446173896224 -0.0056844270285419385 0 -0.0089676446173896224 -0.0056844270285419385 0 -0.0083323428324785353 -0.0056319810795536062 0 -0.0084087586613307494 -0.0056978234175464222 0 -0.0086375830706714816 -0.0060081859707458258 0 -0.0081386904937279063 -0.0058035806188824713 0 -0.009435751971003388 -0.0055243950521904079 0 -0.0084597601290907435 -0.0053998256594755796 0 -0.0086575397775217489 -0.0059730583402655083 0 -0.0084597601290907435 -0.0053998256594755796 0 -0.0083052047022351382 -0.0058662726398575034 0 -0.0086575397775217489 -0.0059730583402655083 0 -0.0084597601290907435 -0.0053998256594755796 0 -0.0083052047022351382 -0.0058662726398575034 0 -0.0081899096257860727 -0.0056704634465656384 0 -0.0083052047022351382 -0.0058662726398575034 0 -0.0085426968399970622 -0.0066137018536050239 0 -0.008129675621478762 -0.0061095160459365113 0 -0.0083052047022351382 -0.0058662726398575034 0 -0.0086575397775217489 -0.0059730583402655083 0 -0.0085426968399970622 -0.0066137018536050239 0 -0.009435751971003388 -0.0055243950521904079 0 -0.0086575397775217489 -0.0059730583402655083 0 -0.0092051569334411186 -0.0061208345739429482 0 -0.0086575397775217489 -0.0059730583402655083 0 -0.0092051569334411186 -0.0061208345739429482 0 -0.0089501271888501668 -0.0063433484062858491 0 -0.0089501271888501668 -0.0063433484062858491 0 -0.0094090089855102862 -0.0066792344517512285 0 -0.0085426968399970622 -0.0066137018536050239 0 -0.0095813825050789364 -0.0064073602152886922 0 -0.0088548752734772564 -0.006343049556057071 0 -0.0091742557899179254 -0.0067296277542797673 0 -0.0095636413489321014 -0.0065749479442026356 0 -0.008429712702338327 -0.006147570725865522 0 -0.0092051569334411186 -0.0061208345739429482 0 -0.0089501271888501668 -0.0063433484062858491 0 -0.0094090089855102862 -0.0066792344517512285 0 -0.0086575397775217489 -0.0059730583402655083 0 -0.0089501271888501668 -0.0063433484062858491 0 -0.0085426968399970622 -0.0066137018536050239 0 -0.008429712702338327 -0.006147570725865522 0 -0.00618376469278791 -0.0049043042349420328 0 -0.0081152468718778716 -0.0054509658132564209 0 -0.0087279304732121501 -0.006130300332379884 0 -0.0077119174496159204 -0.0060048358010143278 0 -0.0078359649037540707 -0.0065770786372013629 0 -0.0087279304732121501 -0.006130300332379884 0 -0.0077119174496159204 -0.0060048358010143278 0 -0.008429712702338327 -0.006147570725865522 0 -0.0089390501662773656 -0.0064337383119624373 0 -0.0094295326609413581 -0.0070446670581678006 0 -0.0091742557899179254 -0.0067296277542797673 0 -0.0096875885307784043 -0.0067972639046726003 0 -0.0094295326609413581 -0.0070446670581678006 0 -0.0078359649037540707 -0.0065770786372013629 0 -0.0087279304732121501 -0.006130300332379884 0 -0.0095813825050789364 -0.0064073602152886922 0 -0.0091742557899179254 -0.0067296277542797673 0 -0.0096875885307784043 -0.0067972639046726003 0 -0.0093721097922211272 -0.0069644564305444941 0 -0.0089390501662773656 -0.0064337383119624373 0 -0.0097569338012294931 -0.0070426457907267551 0 -0.0094295326609413581 -0.0070446670581678006 0 -0.0096875885307784043 -0.0067972639046726003 0 -0.0095813825050789364 -0.0064073602152886922 0 -0.0096875885307784043 -0.0067972639046726003 0 -0.010012681165670478 -0.0067247158055707126 0 -0.0097569338012294931 -0.0070426457907267551 0 -0.0096875885307784043 -0.0067972639046726003 0 -0.010068043233513116 -0.0070143595819156888 0 -0.0096875885307784043 -0.0067972639046726003 0 -0.010012681165670478 -0.0067247158055707126 0 -0.010068043233513116 -0.0070143595819156888 0 -0.010012681165670478 -0.0067247158055707126 0 -0.010068043233513116 -0.0070143595819156888 0 -0.010348505783040125 -0.0068539719965024773 0 -0.01030759327805823 -0.0072786274180220833 0 -0.010068043233513116 -0.0070143595819156888 0 -0.010348505783040125 -0.0068539719965024773 0 -0.01030759327805823 -0.0072786274180220833 0 -0.010738021453042345 -0.0068955311338387412 0 -0.010348505783040125 -0.0068539719965024773 0 -0.010738021453042345 -0.0068955311338387412 0 -0.010348505783040125 -0.0068539719965024773 0 -0.010550173708700272 -0.0066704107882107197 0 -0.010348505783040125 -0.0068539719965024773 0 -0.010550173708700272 -0.0066704107882107197 0 -0.010334080871862219 -0.0065931476328212448 0 -0.010012681165670478 -0.0067247158055707126 0 -0.010348505783040125 -0.0068539719965024773 0 -0.010334080871862219 -0.0065931476328212448 0 -0.010334080871862219 -0.0065931476328212448 0 -0.010453091974000897 -0.0064932048012037741 0 -0.010106154004652014 -0.0063927441765128474 0 -0.010651036854391586 -0.0064803347124381934 0 -0.010550173708700272 -0.0066704107882107197 0 -0.010453091974000897 -0.0064932048012037741 0 -0.010550173708700272 -0.0066704107882107197 0 -0.010334080871862219 -0.0065931476328212448 0 -0.010453091974000897 -0.0064932048012037741 0 -0.010453091974000897 -0.0064932048012037741 0 -0.010424645072874108 -0.0063188583317456372 0 -0.010106154004652014 -0.0063927441765128474 0 -0.010651036854391586 -0.0064803347124381934 0 -0.010530544597463404 -0.006400291777947314 0 -0.010599424354318047 -0.006281634702271402 0 -0.010453091974000897 -0.0064932048012037741 0 -0.010530544597463404 -0.006400291777947314 0 -0.010424645072874108 -0.0063188583317456372 0 -0.010651036854391586 -0.0064803347124381934 0 -0.010453091974000897 -0.0064932048012037741 0 -0.010530544597463404 -0.006400291777947314 0 -0.010352634973938051 -0.0061590487584185722 0 -0.010448772676154683 -0.0062045557696248123 0 -0.010424645072874108 -0.0063188583317456372 0 -0.010630617754288045 -0.0066245235258297896 0 -0.010752549825271686 -0.006680835113425659 0 -0.010530544597463404 -0.006400291777947314 0 -0.010424645072874108 -0.0063188583317456372 0 -0.010599424354318047 -0.006281634702271402 0 -0.010448772676154683 -0.0062045557696248123 0 -0.010424645072874108 -0.0063188583317456372 0 -0.010565740905516239 -0.0063062227419028163 0 -0.010185761756108585 -0.0061675667485019247 0 -0.010424645072874108 -0.0063188583317456372 0 -0.010106154004652014 -0.0063927441765128474 0 -0.010185761756108585 -0.0061675667485019247 0 -0.0097561860681705109 -0.006141731822490613 0 -0.010106154004652014 -0.0063927441765128474 0 -0.0097561860681705109 -0.006141731822490613 0 -0.0094090089855102862 -0.0066792344517512285 0 -0.010106154004652014 -0.0063927441765128474 0 -0.0097561860681705109 -0.006141731822490613 0 -0.0092051569334411186 -0.0061208345739429482 0 -0.0094090089855102862 -0.0066792344517512285 0 -0.0094090089855102862 -0.0066792344517512285 0 -0.010334080871862219 -0.0065931476328212448 0 -0.010106154004652014 -0.0063927441765128474 0 -0.0095813825050789364 -0.0064073602152886922 0 -0.010012681165670478 -0.0067247158055707126 0 -0.010334080871862219 -0.0065931476328212448 0 -0.0095636413489321014 -0.0065749479442026356 0 -0.010231816877149635 -0.006583394441551876 0 -0.0025701695454496951 -0.0036757138416362331 0 -0.0025959852136104547 -0.003676908412224328 0 -0.002569380263084375 -0.0036689022337675742 0 -0.0025701695454496951 -0.0036757138416362331 0 -0.0025959852136104547 -0.003676908412224328 0 -0.0025665284996351039 -0.0036786211967596732 0 -0.0023247489593306611 -0.0034762668231732895 0 -0.0040693664314744261 -0.0039658573296972588 0 -0.0025959852136104547 -0.003676908412224328 0 -0.002569380263084375 -0.0036689022337675742 0 -0.0025693989160249227 -0.0036713158159550436 0 -0.0027854384449092118 -0.0037144851629539346 0 -0.0025959852136104547 -0.003676908412224328 0 -0.0029207193149860143 -0.004048552067104672 0 -0.0027854384449092118 -0.0037144851629539346 0 -0.0026308798982435195 -0.0036065480773405266 0 -0.0025959852136104547 -0.003676908412224328 0 -0.0026308798982435195 -0.0036065480773405266 0 -0.0025959852136104547 -0.003676908412224328 0 -0.0025665284996351039 -0.0036786211967596732 0 -0.0025266582286308124 -0.0036902816754037951 0 -0.0025665284996351039 -0.0036786211967596732 0 -0.0025533176583504452 -0.0036723085277565949 0 -0.0025621562898469423 -0.003758990372716862 0 -0.0026568191937605653 -0.0038240923768898265 0 -0.0026308798982435195 -0.0036065480773405266 0 -0.0025266582286308124 -0.0036902816754037951 0 -0.0025665284996351039 -0.0036786211967596732 0 -0.0025701695454496951 -0.0036757138416362331 0 -0.0025665284996351039 -0.0036786211967596732 0 -0.0025533176583504452 -0.0036723085277565949 0 -0.0025701695454496951 -0.0036757138416362331 0 -0.0025533176583504452 -0.0036723085277565949 0 -0.002569380263084375 -0.0036689022337675742 0 -0.0025580396654339417 -0.0036396134526344272 0 -0.0025533176583504452 -0.0036723085277565949 0 -0.0025562819974966856 -0.0036401547593522001 0 -0.0025580396654339417 -0.0036396134526344272 0 -0.002569380263084375 -0.0036689022337675742 0 -0.0025693989160249227 -0.0036713158159550436 0 -0.0030999372561976387 -0.0026528359457044237 0 -0.0040693664314744261 -0.0039658573296972588 0 -0.0025580396654339417 -0.0036396134526344272 0 -0.0025533176583504452 -0.0036723085277565949 0 -0.002569380263084375 -0.0036689022337675742 0 -0.0048608121479161298 -0.0020083514847599776 0 -0.0042781771844789106 -0.0020212686843683447 0 -0.0042327316820742079 -0.0014756584292204833 0 -0.0063833044499676406 -0.005961057707853803 0 -0.0071974739381439976 -0.0061194820558932292 0 -0.0068697244190591205 -0.0053798518596915867 0 -0.00635401597620734 -0.00439299568689204 0 -0.0040693664314744261 -0.0039658573296972588 0 -0.0071974739381439976 -0.0061194820558932292 0 -0.0077119174496159204 -0.0060048358010143278 0 -0.0068697244190591205 -0.0053798518596915867 0 -0.0074546192460056707 -0.0067657139533253904 0 -0.0063833044499676406 -0.005961057707853803 0 -0.0071974739381439976 -0.0061194820558932292 0 -0.0074546192460056707 -0.0067657139533253904 0 -0.0075446164555113913 -0.0063832280696388194 0 -0.0071974739381439976 -0.0061194820558932292 0 -0.0078359649037540707 -0.0065770786372013629 0 -0.0075446164555113913 -0.0063832280696388194 0 -0.0077119174496159204 -0.0060048358010143278 0 -0.0075446164555113913 -0.0063832280696388194 0 -0.0071974739381439976 -0.0061194820558932292 0 -0.0077119174496159204 -0.0060048358010143278 0 -0.008429712702338327 -0.006147570725865522 0 -0.0046828188274227094 -0.0045437566419889138 0 -0.0076594482321643616 -0.0058476366694326376 0 -0.0061184922032716093 -0.004948248808558149 0 -0.0046390980612481874 -0.0056124869888076901 0 -0.0081152468718778716 -0.0054509658132564209 0 -0.0077119174496159204 -0.0060048358010143278 0 -0.0068697244190591205 -0.0053798518596915867 0 -0.0052256977328458071 -0.0049270263548789398 0 -0.0061184922032716093 -0.004948248808558149 0 -0.0046390980612481874 -0.0056124869888076901 0 -0.004221690470525459 -0.004456267964714245 0 -0.0046828188274227094 -0.0045437566419889138 0 -0.004221690470525459 -0.004456267964714245 0 -0.0056142789698570561 -0.0046579072529979526 0 -0.0076594482321643616 -0.0058476366694326376 0 -0.0061184922032716093 -0.004948248808558149 0 -0.0060917949724527106 -0.0039376969018699876 0 -0.0025621562898469423 -0.003758990372716862 0 -0.004221690470525459 -0.004456267964714245 0 -0.0028847118257027131 -0.0040445582135582563 0 -0.0031423544878166195 -0.0040829074432906769 0 -0.002988041870309027 -0.0040090597200108657 0 -0.0027854384449092118 -0.0037144851629539346 0 -0.0026308798982435195 -0.0036065480773405266 0 -0.0033595253202795125 -0.003578449337788264 0 -0.0027854384449092118 -0.0037144851629539346 0 -0.0033595253202795125 -0.003578449337788264 0 -0.0032220209984654721 -0.0037443541059639781 0 -0.0027854384449092118 -0.0037144851629539346 0 -0.0029207193149860143 -0.004048552067104672 0 -0.0031969113482734168 -0.0037449304922741755 0 -0.0040693664314744261 -0.0039658573296972588 0 -0.0046828188274227094 -0.0045437566419889138 0 -0.0024136761288344024 -0.0037617543645473632 0 -0.0046828188274227094 -0.0045437566419889138 0 -0.002988041870309027 -0.0040090597200108657 0 -0.0029702998291684093 -0.0039630347255947976 0 -0.0029169254802925704 -0.0039678017990046393 0 -0.0030124008956106067 -0.0039872079311362536 0 -0.002988041870309027 -0.0040090597200108657 0 -0.0029702998291684093 -0.0039630347255947976 0 -0.0030124008956106067 -0.0039872079311362536 0 -0.002988041870309027 -0.0040090597200108657 0 -0.0030768179646571397 -0.0040079279287713373 0 -0.0031423544878166195 -0.0040829074432906769 0 -0.002988041870309027 -0.0040090597200108657 0 -0.0030768179646571397 -0.0040079279287713373 0 -0.0030768179646571397 -0.0040079279287713373 0 -0.0030548219721056179 -0.0039723000339001082 0 -0.0031078412893351375 -0.0039628134757543768 0 -0.0030124008956106067 -0.0039872079311362536 0 -0.0030768179646571397 -0.0040079279287713373 0 -0.0030548219721056179 -0.0039723000339001082 0 -0.0030610745580528509 -0.0039411132639643482 0 -0.0031078412893351375 -0.0039628134757543768 0 -0.0030735603540685318 -0.0038994320492094924 0 -0.0030124008956106067 -0.0039872079311362536 0 -0.0030548219721056179 -0.0039723000339001082 0 -0.0030186746895972303 -0.0039493194494341979 0 -0.0030548219721056179 -0.0039723000339001082 0 -0.0030610745580528509 -0.0039411132639643482 0 -0.0030186746895972303 -0.0039493194494341979 0 -0.0030548219721056179 -0.0039723000339001082 0 -0.0030610745580528509 -0.0039411132639643482 0 -0.0031078412893351375 -0.0039628134757543768 0 -0.0030610745580528509 -0.0039411132639643482 0 -0.0030242015379056048 -0.0039108032449848588 0 -0.0030186746895972303 -0.0039493194494341979 0 -0.0030610745580528509 -0.0039411132639643482 0 -0.0030242015379056048 -0.0039108032449848588 0 -0.0030735603540685318 -0.0038994320492094924 0 -0.0030242015379056048 -0.0039108032449848588 0 -0.0029847216876795471 -0.0039197988764809516 0 -0.0030186746895972303 -0.0039493194494341979 0 -0.0029847216876795471 -0.0039197988764809516 0 -0.0029475094910961252 -0.0038962854293537966 0 -0.0029330712062474564 -0.0039290849767841902 0 -0.0029847216876795471 -0.0039197988764809516 0 -0.0029702998291684093 -0.0039630347255947976 0 -0.0029330712062474564 -0.0039290849767841902 0 -0.0030124008956106067 -0.0039872079311362536 0 -0.0029702998291684093 -0.0039630347255947976 0 -0.0030186746895972303 -0.0039493194494341979 0 -0.0029847216876795471 -0.0039197988764809516 0 -0.0029702998291684093 -0.0039630347255947976 0 -0.0030186746895972303 -0.0039493194494341979 0 -0.005222415633135382 -0.004930295031055517 0 -0.0061184922032716093 -0.004948248808558149 0 -0.0060917949724527106 -0.0039376969018699876 0 -0.0031423544878166195 -0.0040829074432906769 0 -0.0030768179646571397 -0.0040079279287713373 0 -0.0031428793683004491 -0.0039992968051164235 0 -0.0031423544878166195 -0.0040829074432906769 0 -0.0032266988524297826 -0.0039999753883042432 0 -0.0031428793683004491 -0.0039992968051164235 0 -0.004221690470525459 -0.004456267964714245 0 -0.00618376469278791 -0.0049043042349420328 0 -0.0032266988524297826 -0.0039999753883042432 0 -0.0031428793683004491 -0.0039992968051164235 0 -0.0031638912676620842 -0.0039354809711695969 0 -0.0030768179646571397 -0.0040079279287713373 0 -0.0031428793683004491 -0.0039992968051164235 0 -0.0031078412893351375 -0.0039628134757543768 0 -0.0031078412893351375 -0.0039628134757543768 0 -0.0031638912676620842 -0.0039354809711695969 0 -0.0030735603540685318 -0.0038994320492094924 0 -0.0031428793683004491 -0.0039992968051164235 0 -0.0031078412893351375 -0.0039628134757543768 0 -0.0031638912676620842 -0.0039354809711695969 0 -0.0083052047022351382 -0.0058662726398575034 0 -0.0079981551211274256 -0.0059079173917861664 0 -0.0080586665013771056 -0.0057548350877919992 0 -0.0083052047022351382 -0.0058662726398575034 0 -0.008129675621478762 -0.0061095160459365113 0 -0.0079981551211274256 -0.0059079173917861664 0 -0.00618376469278791 -0.0049043042349420328 0 -0.0056664461370053553 -0.0048853438753159442 0 -0.0084597601290907435 -0.0053998256594755796 0 -0.0079439842488455321 -0.0056041185220331909 0 -0.0080876496375317502 -0.0056400363665404336 0 -0.0083052047022351382 -0.0058662726398575034 0 -0.0081899096257860727 -0.0056704634465656384 0 -0.0080586665013771056 -0.0057548350877919992 0 -0.0081899096257860727 -0.0056704634465656384 0 -0.0080586665013771056 -0.0057548350877919992 0 -0.0080876496375317502 -0.0056400363665404336 0 -0.0079981551211274256 -0.0059079173917861664 0 -0.0080586665013771056 -0.0057548350877919992 0 -0.0079158576753730163 -0.0056981432244835638 0 -0.0080586665013771056 -0.0057548350877919992 0 -0.0080876496375317502 -0.0056400363665404336 0 -0.0079158576753730163 -0.0056981432244835638 0 -0.0079439842488455321 -0.0056041185220331909 0 -0.0080876496375317502 -0.0056400363665404336 0 -0.0079158576753730163 -0.0056981432244835638 0 -0.0084597601290907435 -0.0053998256594755796 0 -0.0081899096257860727 -0.0056704634465656384 0 -0.0080876496375317502 -0.0056400363665404336 0 -0.0079981551211274256 -0.0059079173917861664 0 -0.0079158576753730163 -0.0056981432244835638 0 -0.0077799896193798844 -0.0055564490138825294 0 -0.0031638912676620842 -0.0039354809711695969 0 -0.0030735603540685318 -0.0038994320492094924 0 -0.0029667250945129738 -0.0037986742174346876 0 -0.0030735603540685318 -0.0038994320492094924 0 -0.0029975109414026105 -0.0038438663558761467 0 -0.0029667250945129738 -0.0037986742174346876 0 -0.0056664461370053553 -0.0048853438753159442 0 -0.0055874023407636256 -0.0044880220512796961 0 -0.0029784134242825454 -0.0038755066108671177 0 -0.0030217083261865401 -0.0038815443178811309 0 -0.0029975109414026105 -0.0038438663558761467 0 -0.0029784134242825454 -0.0038755066108671177 0 -0.002958688045819655 -0.0038426230976060351 0 -0.0029361722693361067 -0.003865815449139243 0 -0.0029784134242825454 -0.0038755066108671177 0 -0.0029475094910961252 -0.0038962854293537966 0 -0.0029361722693361067 -0.003865815449139243 0 -0.0029847216876795471 -0.0039197988764809516 0 -0.0029784134242825454 -0.0038755066108671177 0 -0.0029475094910961252 -0.0038962854293537966 0 -0.0030242015379056048 -0.0039108032449848588 0 -0.0029847216876795471 -0.0039197988764809516 0 -0.0029784134242825454 -0.0038755066108671177 0 -0.0030242015379056048 -0.0039108032449848588 0 -0.0029784134242825454 -0.0038755066108671177 0 -0.0030217083261865401 -0.0038815443178811309 0 -0.0030735603540685318 -0.0038994320492094924 0 -0.0030217083261865401 -0.0038815443178811309 0 -0.0029975109414026105 -0.0038438663558761467 0 -0.0030242015379056048 -0.0039108032449848588 0 -0.0030735603540685318 -0.0038994320492094924 0 -0.0030217083261865401 -0.0038815443178811309 0 -0.0079158576753730163 -0.0056981432244835638 0 -0.0078513755466137827 -0.00561121462754814 0 -0.0077799896193798844 -0.0055564490138825294 0 -0.0079439842488455321 -0.0056041185220331909 0 -0.0079158576753730163 -0.0056981432244835638 0 -0.0078513755466137827 -0.00561121462754814 0 -0.0029975109414026105 -0.0038438663558761467 0 -0.0029700830002247344 -0.0038264898078459396 0 -0.0029667250945129738 -0.0037986742174346876 0 -0.0029975109414026105 -0.0038438663558761467 0 -0.002958688045819655 -0.0038426230976060351 0 -0.0029700830002247344 -0.0038264898078459396 0 -0.0029784134242825454 -0.0038755066108671177 0 -0.0029975109414026105 -0.0038438663558761467 0 -0.002958688045819655 -0.0038426230976060351 0 -0.0029700830002247344 -0.0038264898078459396 0 -0.0029476221641369952 -0.0038157450507165973 0 -0.0029667250945129738 -0.0037986742174346876 0 -0.002958688045819655 -0.0038426230976060351 0 -0.0029700830002247344 -0.0038264898078459396 0 -0.0029476221641369952 -0.0038157450507165973 0 -0.0029476221641369952 -0.0038157450507165973 0 -0.0029269918906272684 -0.0038126253975275439 0 -0.0029478202962477289 -0.0038021236705366858 0 -0.0029269918906272684 -0.0038126253975275439 0 -0.0028857954492581767 -0.0038047937694711299 0 -0.0029247790046284848 -0.0038323589746323571 0 -0.0029476221641369952 -0.0038157450507165973 0 -0.0029269918906272684 -0.0038126253975275439 0 -0.0029247790046284848 -0.0038323589746323571 0 -0.0028857954492581767 -0.0038047937694711299 0 -0.0029247790046284848 -0.0038323589746323571 0 -0.0028891039697296586 -0.003850873481182765 0 -0.002958688045819655 -0.0038426230976060351 0 -0.0029247790046284848 -0.0038323589746323571 0 -0.0029361722693361067 -0.003865815449139243 0 -0.002958688045819655 -0.0038426230976060351 0 -0.0029476221641369952 -0.0038157450507165973 0 -0.0029247790046284848 -0.0038323589746323571 0 -0.0028857954492581767 -0.0038047937694711299 0 -0.0028309123227526342 -0.0038293291231196679 0 -0.0027893249656185913 -0.0037648728114457177 0 -0.0028857954492581767 -0.0038047937694711299 0 -0.0028309123227526342 -0.0038293291231196679 0 -0.0028891039697296586 -0.003850873481182765 0 -0.0028309123227526342 -0.0038293291231196679 0 -0.0028320876271961237 -0.0038751904008342006 0 -0.0028891039697296586 -0.003850873481182765 0 -0.0028320876271961237 -0.0038751904008342006 0 -0.0028891039697296586 -0.003850873481182765 0 -0.0029054852099313242 -0.0038934786803167644 0 -0.0029361722693361067 -0.003865815449139243 0 -0.0028891039697296586 -0.003850873481182765 0 -0.0029054852099313242 -0.0038934786803167644 0 -0.0029247790046284848 -0.0038323589746323571 0 -0.0029361722693361067 -0.003865815449139243 0 -0.0028891039697296586 -0.003850873481182765 0 -0.0029475094910961252 -0.0038962854293537966 0 -0.0029361722693361067 -0.003865815449139243 0 -0.0029054852099313242 -0.0038934786803167644 0 -0.0029475094910961252 -0.0038962854293537966 0 -0.0029054852099313242 -0.0038934786803167644 0 -0.0029330712062474564 -0.0039290849767841902 0 -0.0029702998291684093 -0.0039630347255947976 0 -0.0029330712062474564 -0.0039290849767841902 0 -0.0029169254802925704 -0.0039678017990046393 0 -0.0029330712062474564 -0.0039290849767841902 0 -0.0028656088492509083 -0.0039267896619011181 0 -0.0029169254802925704 -0.0039678017990046393 0 -0.0029054852099313242 -0.0038934786803167644 0 -0.0029330712062474564 -0.0039290849767841902 0 -0.0028656088492509083 -0.0039267896619011181 0 -0.0028656088492509083 -0.0039267896619011181 0 -0.0028335435228690419 -0.0039683431928871828 0 -0.002770814863521215 -0.0039088320634465754 0 -0.0028320876271961237 -0.0038751904008342006 0 -0.0029054852099313242 -0.0038934786803167644 0 -0.0028656088492509083 -0.0039267896619011181 0 -0.0028320876271961237 -0.0038751904008342006 0 -0.0028656088492509083 -0.0039267896619011181 0 -0.002770814863521215 -0.0039088320634465754 0 -0.0028847118257027131 -0.0040445582135582563 0 -0.0028335435228690419 -0.0039683431928871828 0 -0.0029066836522410613 -0.0040009585524786182 0 -0.0028847118257027131 -0.0040445582135582563 0 -0.002988041870309027 -0.0040090597200108657 0 -0.0029066836522410613 -0.0040009585524786182 0 -0.002988041870309027 -0.0040090597200108657 0 -0.0029066836522410613 -0.0040009585524786182 0 -0.0029169254802925704 -0.0039678017990046393 0 -0.0028335435228690419 -0.0039683431928871828 0 -0.0029066836522410613 -0.0040009585524786182 0 -0.0029169254802925704 -0.0039678017990046393 0 -0.0028656088492509083 -0.0039267896619011181 0 -0.0028335435228690419 -0.0039683431928871828 0 -0.0029169254802925704 -0.0039678017990046393 0 -0.0028847118257027131 -0.0040445582135582563 0 -0.0026651958622890713 -0.0039495247932494655 0 -0.0028335435228690419 -0.0039683431928871828 0 -0.0026651958622890713 -0.0039495247932494655 0 -0.0028335435228690419 -0.0039683431928871828 0 -0.002770814863521215 -0.0039088320634465754 0 -0.0026651958622890713 -0.0039495247932494655 0 -0.002770814863521215 -0.0039088320634465754 0 -0.0026981650525579551 -0.0038835744516590048 0 -0.002770814863521215 -0.0039088320634465754 0 -0.0026981650525579551 -0.0038835744516590048 0 -0.0027355789690909037 -0.0038428757125745106 0 -0.0026981650525579551 -0.0038835744516590048 0 -0.0027355789690909037 -0.0038428757125745106 0 -0.0026398310659612569 -0.0038499558220664656 0 -0.0027355789690909037 -0.0038428757125745106 0 -0.0027893249656185913 -0.0037648728114457177 0 -0.0026507222686881697 -0.0037878579968240985 0 -0.0028320876271961237 -0.0038751904008342006 0 -0.002770814863521215 -0.0039088320634465754 0 -0.0027355789690909037 -0.0038428757125745106 0 -0.0028309123227526342 -0.0038293291231196679 0 -0.0028320876271961237 -0.0038751904008342006 0 -0.0027355789690909037 -0.0038428757125745106 0 -0.0028309123227526342 -0.0038293291231196679 0 -0.0027355789690909037 -0.0038428757125745106 0 -0.0027893249656185913 -0.0037648728114457177 0 -0.0028147019428000257 -0.0038155880624446072 0 -0.0028605287523772328 -0.0038735838361063772 0 -0.0027103254448129985 -0.0039126108734227937 0 -0.0031231761708992961 -0.0037929076927055547 0 -0.0010746047614011225 -0.0051062458970141623 0 -0.0010170800551896682 -0.0077431419147937029 0 -0.00078849084566509067 -0.007969372874539268 0 -0.00082236596580974525 -0.0077223682092986048 0 -0.0018631318886034778 -0.0058736833349398269 0 -0.0010746047614011225 -0.0051062458970141623 0 -0.0010170800551896682 -0.0077431419147937029 0 -0.00094701037740531672 -0.0075392470387182524 0 -0.00082236596580974525 -0.0077223682092986048 0 -0.0028147019428000257 -0.0038155880624446072 0 -0.0029024731239472783 -0.003806507283627642 0 -0.002882313829811794 -0.0037910750203735753 0 -0.0028147019428000257 -0.0038155880624446072 0 -0.0028605287523772328 -0.0038735838361063772 0 -0.0029024731239472783 -0.003806507283627642 0 -0.0029024731239472783 -0.003806507283627642 0 -0.002882313829811794 -0.0037910750203735753 0 -0.0029667250945129738 -0.0037986742174346876 0 -0.0080591863332258058 -0.0058727038385779267 0 -0.0077799896193798844 -0.0055564490138825294 0 -0.0078358310516965859 -0.0057197203744929741 0 -0.0036921066156879205 -0.0064315851618765053 0 -0.0055874023407636256 -0.0044880220512796961 0 -0.0028605287523772328 -0.0038735838361063772 0 -0.0029478202962477289 -0.0038021236705366858 0 -0.0029024731239472783 -0.003806507283627642 0 -0.0031231761708992961 -0.0037929076927055547 0 -0.002823995253759615 -0.003815829825991982 0 -0.0028857954492581767 -0.0038047937694711299 0 -0.0027893249656185913 -0.0037648728114457177 0 -0.0029478202962477289 -0.0038021236705366858 0 -0.0029478202962477289 -0.0038021236705366858 0 -0.0029024731239472783 -0.003806507283627642 0 -0.0029667250945129738 -0.0037986742174346876 0 -0.0029269918906272684 -0.0038126253975275439 0 -0.0028857954492581767 -0.0038047937694711299 0 -0.0029478202962477289 -0.0038021236705366858 0 -0.0080591863332258058 -0.0058727038385779267 0 -0.0078941401305372035 -0.005866942906421444 0 -0.0078358310516965859 -0.0057197203744929741 0 -0.0080591863332258058 -0.0058727038385779267 0 -0.0078941401305372035 -0.005866942906421444 0 -0.0079415246245938265 -0.0060446284797235801 0 -0.0036921066156879205 -0.0064315851618765053 0 -0.0044329167353091949 -0.0093856905220056422 0 -0.0016694578701606695 -0.0098207979281171951 0 -0.0044329167353091949 -0.0093856905220056422 0 -0.0032657862304870723 -0.0091538328292701254 0 -0.0029277163491943023 -0.0087510542673156517 0 -0.0037234399588647184 -0.0086625312464843132 0 -0.0011183602500724284 -0.0073549845105172944 0 -0.00094701037740531672 -0.0075392470387182524 0 -0.00075764551557672383 -0.0073998672633396271 0 -0.0012524283670187512 -0.0075069988205129232 0 -0.0011183602500724284 -0.0073549845105172944 0 -0.00094701037740531672 -0.0075392470387182524 0 -0.0016694578701606695 -0.0098207979281171951 0 -0.00075179261895972 -0.010028479050272364 0 -0.0036921066156879205 -0.0064315851618765053 0 -0.0016694578701606695 -0.0098207979281171951 0 -0.0010170800551896682 -0.0077431419147937029 0 -0.0012524283670187512 -0.0075069988205129232 0 -0.00094701037740531672 -0.0075392470387182524 0 -0.0018631318886034778 -0.0058736833349398269 0 -0.0036921066156879205 -0.0064315851618765053 0 -0.0077232161034199512 -0.0056644081696854724 0 -0.0077452170697807545 -0.0056322790842823628 0 -0.0083323428324785353 -0.0056319810795536062 0 -0.0078327366682826097 -0.0055889703026046501 0 -0.0084597601290907435 -0.0053998256594755796 0 -0.0079439842488455321 -0.0056041185220331909 0 -0.0077871539900555469 -0.0056077146203521713 0 -0.0080541696221547738 -0.005530333237359129 0 -0.0077577180702700626 -0.005625203948222096 0 -0.0077871539900555469 -0.0056077146203521713 0 -0.0080541696221547738 -0.005530333237359129 0 -0.0081386904937279063 -0.0058035806188824713 0 -0.0077871539900555469 -0.0056077146203521713 0 -0.0077577180702700626 -0.005625203948222096 0 -0.0077871539900555469 -0.0056077146203521713 0 -0.0077823343790354811 -0.0056054282989336131 0 -0.0078513755466137827 -0.00561121462754814 0 -0.0078124015659737792 -0.0055910136388040111 0 -0.0077799896193798844 -0.0055564490138825294 0 -0.0079439842488455321 -0.0056041185220331909 0 -0.0078513755466137827 -0.00561121462754814 0 -0.0078456387055541883 -0.0056026803024587114 0 -0.0079439842488455321 -0.0056041185220331909 0 -0.0077871539900555469 -0.0056077146203521713 0 -0.0078456387055541883 -0.0056026803024587114 0 -0.0077871539900555469 -0.0056077146203521713 0 -0.0078456387055541883 -0.0056026803024587114 0 -0.0078124015659737792 -0.0055910136388040111 0 -0.0078513755466137827 -0.00561121462754814 0 -0.0078456387055541883 -0.0056026803024587114 0 -0.0078124015659737792 -0.0055910136388040111 0 -0.0077871539900555469 -0.0056077146203521713 0 -0.0078124015659737792 -0.0055910136388040111 0 -0.0077823343790354811 -0.0056054282989336131 0 -0.0077823343790354811 -0.0056054282989336131 0 -0.0077799896193798844 -0.0055564490138825294 0 -0.0078358310516965859 -0.0057197203744929741 0 -0.0078124015659737792 -0.0055910136388040111 0 -0.0077823343790354811 -0.0056054282989336131 0 -0.0077799896193798844 -0.0055564490138825294 0 -0.0029476221641369952 -0.0038157450507165973 0 -0.0029478202962477289 -0.0038021236705366858 0 -0.0029667250945129738 -0.0037986742174346876 0 -0.0077577180702700626 -0.005625203948222096 0 -0.0077823343790354811 -0.0056054282989336131 0 -0.0078358310516965859 -0.0057197203744929741 0 -0.0077548358800782445 -0.0058928822981488983 0 -0.0075465461421451475 -0.0061641990737786468 0 -0.0079415246245938265 -0.0060446284797235801 0 -0.0077577180702700626 -0.005625203948222096 0 -0.0078358310516965859 -0.0057197203744929741 0 -0.0077548358800782445 -0.0058928822981488983 0 -0.0078941401305372035 -0.005866942906421444 0 -0.0078358310516965859 -0.0057197203744929741 0 -0.0077548358800782445 -0.0058928822981488983 0 -0.0078941401305372035 -0.005866942906421444 0 -0.0077548358800782445 -0.0058928822981488983 0 -0.0079415246245938265 -0.0060446284797235801 0 -0.0077577180702700626 -0.005625203948222096 0 -0.0077548358800782445 -0.0058928822981488983 0 -0.0075113968877700043 -0.0059142971875912652 0 -0.007300680525344808 -0.0058029548726832806 0 -0.0077577180702700626 -0.005625203948222096 0 -0.0075113968877700043 -0.0059142971875912652 0 -0.0077548358800782445 -0.0058928822981488983 0 -0.0075113968877700043 -0.0059142971875912652 0 -0.0075465461421451475 -0.0061641990737786468 0 -0.0070957926448745384 -0.0063213653155510356 0 -0.0075113968877700043 -0.0059142971875912652 0 -0.0075465461421451475 -0.0061641990737786468 0 -0.0045482124538403119 -0.0099841855865101976 0 -0.0046704981459219216 -0.0098278501444173452 0 -0.0047253909552982861 -0.0099845738175328661 0 -0.0046704981459219216 -0.0098278501444173452 0 -0.0047253909552982861 -0.0099845738175328661 0 -0.0048789787594361146 -0.0098017531692715636 0 -0.0026662734818881473 -0.01189650503638707 0 -0.0044329167353091949 -0.0093856905220056422 0 -0.001156370272124341 -0.013085416411013354 0 -0.0013811000653045421 -0.012782279560565683 0 -0.0013809727080797546 -0.012977192342089007 0 -0.006543619687407176 -0.0078213201323522451 0 -0.0044329167353091949 -0.0093856905220056422 0 -0.001156370272124341 -0.013085416411013354 0 -0.0013809727080797546 -0.012977192342089007 0 -0.001308722166860026 -0.013103756996575362 0 -0.001156370272124341 -0.013085416411013354 0 -0.001308722166860026 -0.013103756996575362 0 -0.0012647897106817189 -0.013237903197976089 0 -0.001156370272124341 -0.013085416411013354 0 -0.0012647897106817189 -0.013237903197976089 0 -0.0011151680045560516 -0.013226387203425446 0 -0.001156370272124341 -0.013085416411013354 0 -0.0010206011088890771 -0.013292240123226252 0 -0.0011151680045560516 -0.013226387203425446 0 -0.0026662734818881473 -0.01189650503638707 0 -0.0026865261358912057 -0.011778638929567632 0 -0.0045482124538403119 -0.0099841855865101976 0 -0.0047253909552982861 -0.0099845738175328661 0 -0.0045686800628059535 -0.01016639489181081 0 -0.00057941487551082572 -0.010849135086360644 0 -0.0017286042013653199 -0.010719467164979384 0 -0.0014151566009383842 -0.011887470277581138 0 -0.0015775312421520049 -0.012756406833483176 0 -0.0015464297086743442 -0.012971007964576509 0 -0.0017423532398120483 -0.012985742761297853 0 -0.0016694578701606695 -0.0098207979281171951 0 -0.0012508663570451105 -0.013523001575680161 0 -0.0015775312421520049 -0.012756406833483176 0 -0.0015464297086743442 -0.012971007964576509 0 -0.0013811000653045421 -0.012782279560565683 0 -0.0015464297086743442 -0.012971007964576509 0 -0.0013811000653045421 -0.012782279560565683 0 -0.0013809727080797546 -0.012977192342089007 0 -0.0015464297086743442 -0.012971007964576509 0 -0.0013809727080797546 -0.012977192342089007 0 -0.0014257774112219094 -0.013132973400199704 0 -0.0013809727080797546 -0.012977192342089007 0 -0.001308722166860026 -0.013103756996575362 0 -0.0014257774112219094 -0.013132973400199704 0 -0.001308722166860026 -0.013103756996575362 0 -0.0014257774112219094 -0.013132973400199704 0 -0.0012647897106817189 -0.013237903197976089 0 -0.0014257774112219094 -0.013132973400199704 0 -0.0014222901013311569 -0.013305264710418336 0 -0.0012647897106817189 -0.013237903197976089 0 -0.0015464297086743442 -0.012971007964576509 0 -0.0016089926624988796 -0.01336131934562082 0 -0.0017423532398120483 -0.012985742761297853 0 -0.0014029974638340719 -0.013802048345052305 0 -0.0012508663570451105 -0.013523001575680161 0 -0.0015464297086743442 -0.012971007964576509 0 -0.0014257774112219094 -0.013132973400199704 0 -0.0016089926624988796 -0.01336131934562082 0 -0.0016089926624988796 -0.01336131934562082 0 -0.0014222901013311569 -0.013305264710418336 0 -0.0012928531333106896 -0.013465660367398586 0 -0.0014222901013311569 -0.013305264710418336 0 -0.0012928531333106896 -0.013465660367398586 0 -0.0012647897106817189 -0.013237903197976089 0 -0.0014257774112219094 -0.013132973400199704 0 -0.0016089926624988796 -0.01336131934562082 0 -0.0014222901013311569 -0.013305264710418336 0 -0.0012928531333106896 -0.013465660367398586 0 -0.001326074238991935 -0.013627348497326266 0 -0.0012444109325619225 -0.013693329209012695 0 -0.0016089926624988796 -0.01336131934562082 0 -0.0012928531333106896 -0.013465660367398586 0 -0.001326074238991935 -0.013627348497326266 0 -0.0016089926624988796 -0.01336131934562082 0 -0.001326074238991935 -0.013627348497326266 0 -0.0013929293044780478 -0.013730599559052561 0 -0.0011668985031206183 -0.014229863766638887 0 -0.0011963834695019641 -0.013938357048435841 0 -0.00095247741335284346 -0.014148996752736002 0 -0.0014029974638340719 -0.013802048345052305 0 -0.0013943873948799768 -0.013719465659081991 0 -0.0011668985031206183 -0.014229863766638887 0 -0.0011963834695019641 -0.013938357048435841 0 -0.0013929293044780478 -0.013730599559052561 0 -0.0012794453428922304 -0.013663597490562306 0 -0.0013929293044780478 -0.013730599559052561 0 -0.0013461411041341864 -0.013745698962071212 0 -6.9899414998628225e-05 -0.015393524785576875 0 -0.00048699163070298104 -0.015255675215872882 0 -0.0011963834695019641 -0.013938357048435841 0 -0.0012794453428922304 -0.013663597490562306 0 -0.0013929293044780478 -0.013730599559052561 0 -0.0012794453428922304 -0.013663597490562306 0 -0.0013461411041341864 -0.013745698962071212 0 -0.0013294129823537262 -0.01384978017534853 0 -0.0013461411041341864 -0.013745698962071212 0 -0.0013294129823537262 -0.01384978017534853 0 -0.0012444109325619225 -0.013693329209012695 0 -0.001326074238991935 -0.013627348497326266 0 -0.0013929293044780478 -0.013730599559052561 0 -0.0013461411041341864 -0.013745698962071212 0 -0.001326074238991935 -0.013627348497326266 0 -0.0013461411041341864 -0.013745698962071212 0 -0.0012444109325619225 -0.013693329209012695 0 0.0011322477604251938 -0.017127838231756017 0 0.00027860408128716353 -0.016574728620243812 0 0.0011276478824224837 -0.016362450461647162 0 -0.0012840287695908446 -0.013957072937487967 0 -0.00087287002651317554 -0.013953243240049845 0 -0.0010623426375204964 -0.014466367685825663 0 -0.001206332833077463 -0.013788449179146655 0 -0.0009320893286806776 -0.014759118725709137 0 -0.0012840287695908446 -0.013957072937487967 0 -0.0010623426375204964 -0.014466367685825663 0 -0.0013226826636487455 -0.014539187074555449 0 -0.00048699163070298104 -0.015255675215872882 0 -0.0009320893286806776 -0.014759118725709137 0 -0.0013294129823537262 -0.01384978017534853 0 -0.0010874541749801747 -0.013801322635688833 0 -0.001080717627939982 -0.014057885559788742 0 -0.0010874541749801747 -0.013801322635688833 0 -0.0012444109325619225 -0.013693329209012695 0 -0.0010757426634477717 -0.01355861176598569 0 -0.0013294129823537262 -0.01384978017534853 0 -0.0010874541749801747 -0.013801322635688833 0 -0.0012444109325619225 -0.013693329209012695 0 -0.001206332833077463 -0.013788449179146655 0 -0.0011406824210920918 -0.013558455762009824 0 -0.0012840287695908446 -0.013957072937487967 0 -0.0010669252324237821 -0.013731655860008086 0 -0.001206132470406524 -0.013513048653390829 0 -0.0012840287695908446 -0.013957072937487967 0 -0.0010669252324237821 -0.013731655860008086 0 -0.00087287002651317554 -0.013953243240049845 0 -0.0010669252324237821 -0.013731655860008086 0 -0.001206132470406524 -0.013513048653390829 0 -0.0010129341947815965 -0.013514955108549474 0 -0.001206132470406524 -0.013513048653390829 0 -0.0010129341947815965 -0.013514955108549474 0 -0.0010206011088890771 -0.013292240123226252 0 -0.0012928531333106896 -0.013465660367398586 0 -0.0012444109325619225 -0.013693329209012695 0 -0.0010757426634477717 -0.01355861176598569 0 -0.0012928531333106896 -0.013465660367398586 0 -0.0010757426634477717 -0.01355861176598569 0 -0.0011794272936333236 -0.013390534737036764 0 -0.0012928531333106896 -0.013465660367398586 0 -0.0011794272936333236 -0.013390534737036764 0 -0.0012647897106817189 -0.013237903197976089 0 -0.0010757426634477717 -0.01355861176598569 0 -0.0011794272936333236 -0.013390534737036764 0 -0.0011151680045560516 -0.013226387203425446 0 -0.0011794272936333236 -0.013390534737036764 0 -0.0012647897106817189 -0.013237903197976089 0 -0.0011151680045560516 -0.013226387203425446 0 -0.0011406824210920918 -0.013558455762009824 0 -0.0011208366419721174 -0.013247074389898581 0 -0.001206132470406524 -0.013513048653390829 0 -0.0010206011088890771 -0.013292240123226252 0 -0.0011151680045560516 -0.013226387203425446 0 -0.0045686800628059535 -0.01016639489181081 0 -0.0043180535679956771 -0.010099604112043371 0 -0.0044045750882895449 -0.01035248926749335 0 -0.0069623420361709376 -0.007687677222147641 0 -0.0069888173010677944 -0.0081588845502977101 0 -0.0068924957789065133 -0.008036634773776424 0 -0.0069623420361709376 -0.007687677222147641 0 -0.0071383025001005504 -0.0075493015945655812 0 -0.0076681576160667359 -0.0089171040131002348 0 -0.0060024044902313618 -0.0085415627529250981 0 -0.0034950002919653276 -0.011473916380179706 0 -0.0069623420361709376 -0.007687677222147641 0 -0.0069888173010677944 -0.0081588845502977101 0 -0.0071136087212250315 -0.0084173882133324416 0 -0.0069623420361709376 -0.007687677222147641 0 -0.0076681576160667359 -0.0089171040131002348 0 -0.0073539360305534063 -0.0092580222996352154 0 -0.0075316528329492285 -0.0068382125171144231 0 -0.0048302391327473557 -0.011287395423166429 0 -0.0069888173010677944 -0.0081588845502977101 0 -0.0068924957789065133 -0.008036634773776424 0 -0.0070879507365925725 -0.0083603248281469249 0 -0.0069888173010677944 -0.0081588845502977101 0 -0.0070879507365925725 -0.0083603248281469249 0 -0.0071136087212250315 -0.0084173882133324416 0 -0.0034950002919653276 -0.011473916380179706 0 -0.0048302391327473557 -0.011287395423166429 0 -0.0010129341947815965 -0.013514955108549474 0 -0.0010206011088890771 -0.013292240123226252 0 -0.00075837178240580408 -0.013545724426124438 0 -0.0010669252324237821 -0.013731655860008086 0 -0.0010129341947815965 -0.013514955108549474 0 -0.00075837178240580408 -0.013545724426124438 0 -0.0026865261358912057 -0.011778638929567632 0 -0.0034950002919653276 -0.011473916380179706 0 -0.0076852041532211928 -0.0104795603485836 0 -0.0080940291058080958 -0.0096521382061891692 0 -0.0085216820218161869 -0.0098464557151956879 0 -0.0076852041532211928 -0.0104795603485836 0 -0.0080940291058080958 -0.0096521382061891692 0 -0.0077234219238235709 -0.0097136314111168735 0 -0.0080940291058080958 -0.0096521382061891692 0 -0.0081991090062348317 -0.0091733890443533479 0 -0.008602596778430319 -0.0095143265885751799 0 -0.0080940291058080958 -0.0096521382061891692 0 -0.008602979513433532 -0.0099905676819579126 0 -0.008602596778430319 -0.0095143265885751799 0 -0.0084648861263431976 -0.0090654390079180063 0 -0.0099920874255176872 -0.0085285283606201141 0 -0.0080940291058080958 -0.0096521382061891692 0 -0.0077852721787256881 -0.0092669784827622368 0 -0.0081991090062348317 -0.0091733890443533479 0 -0.0080940291058080958 -0.0096521382061891692 0 -0.0077234219238235709 -0.0097136314111168735 0 -0.0077852721787256881 -0.0092669784827622368 0 -0.0072342716658433679 -0.0071912947983041207 0 -0.0066920065019021877 -0.0079808996794433033 0 -0.0084672768670609726 -0.0077814154329846584 0 -0.0069899869544266038 -0.0089111014169034053 0 -0.0076852041532211928 -0.0104795603485836 0 -0.0077234219238235709 -0.0097136314111168735 0 -0.0073333033119076128 -0.0094348378020017842 0 -0.0064744832892339272 -0.0068962653669042218 0 -0.0069623420361709376 -0.007687677222147641 0 -0.0068924957789065133 -0.008036634773776424 0 -0.0067665471612820185 -0.0075137176349481995 0 -0.0068924957789065133 -0.008036634773776424 0 -0.0067811935283217271 -0.0079828836398793332 0 -0.0077234219238235709 -0.0097136314111168735 0 -0.0073333033119076128 -0.0094348378020017842 0 -0.0077852721787256881 -0.0092669784827622368 0 -0.0068924957789065133 -0.008036634773776424 0 -0.0067811935283217271 -0.0079828836398793332 0 -0.0070879507365925725 -0.0083603248281469249 0 -0.0069899869544266038 -0.0089111014169034053 0 -0.0070652625584412578 -0.0083067646150991412 0 -0.0073333033119076128 -0.0094348378020017842 0 -0.0074796518773036667 -0.0090210013325597374 0 -0.0070879507365925725 -0.0083603248281469249 0 -0.0074959914425082406 -0.008695725226243475 0 -0.0074796518773036667 -0.0090210013325597374 0 -0.0070879507365925725 -0.0083603248281469249 0 -0.0074959914425082406 -0.008695725226243475 0 -0.007820945484242503 -0.0085180230446647697 0 -0.0073953487728874749 -0.0083826555616772075 0 -0.0074959914425082406 -0.008695725226243475 0 -0.0074796518773036667 -0.0090210013325597374 0 -0.0078391569098832294 -0.0088955183641962355 0 -0.0074796518773036667 -0.0090210013325597374 0 -0.0077852721787256881 -0.0092669784827622368 0 -0.0078391569098832294 -0.0088955183641962355 0 -0.0073333033119076128 -0.0094348378020017842 0 -0.0074796518773036667 -0.0090210013325597374 0 -0.0077852721787256881 -0.0092669784827622368 0 -0.0077852721787256881 -0.0092669784827622368 0 -0.0078391569098832294 -0.0088955183641962355 0 -0.0081991090062348317 -0.0091733890443533479 0 -0.0078391569098832294 -0.0088955183641962355 0 -0.0083285884781042936 -0.0087050410845198323 0 -0.0081991090062348317 -0.0091733890443533479 0 -0.0078391569098832294 -0.0088955183641962355 0 -0.0083285884781042936 -0.0087050410845198323 0 -0.007820945484242503 -0.0085180230446647697 0 -0.0074959914425082406 -0.008695725226243475 0 -0.0078391569098832294 -0.0088955183641962355 0 -0.007820945484242503 -0.0085180230446647697 0 -0.0083285884781042936 -0.0087050410845198323 0 -0.0084521989631144521 -0.0082169895789087725 0 -0.0086809770009327152 -0.0085225740015913778 0 -0.0083285884781042936 -0.0087050410845198323 0 -0.0085970329735460226 -0.0090434805298646309 0 -0.0086950409613417295 -0.0087292223138897649 0 -0.0081991090062348317 -0.0091733890443533479 0 -0.008602596778430319 -0.0095143265885751799 0 -0.0085970329735460226 -0.0090434805298646309 0 -0.0083285884781042936 -0.0087050410845198323 0 -0.0081991090062348317 -0.0091733890443533479 0 -0.0085970329735460226 -0.0090434805298646309 0 -0.0083285884781042936 -0.0087050410845198323 0 -0.0084521989631144521 -0.0082169895789087725 0 -0.007820945484242503 -0.0085180230446647697 0 -0.0084521989631144521 -0.0082169895789087725 0 -0.007820945484242503 -0.0085180230446647697 0 -0.0075907741157285966 -0.0081772955566669012 0 -0.0084521989631144521 -0.0082169895789087725 0 -0.0075907741157285966 -0.0081772955566669012 0 -0.008207025252808673 -0.007504381886244969 0 -0.0082075326332312244 -0.007790647430716318 0 -0.007638901639724748 -0.010598619259454042 0 -0.0075907741157285966 -0.0081772955566669012 0 -0.0075135309215795193 -0.008065110530163665 0 -0.0076713850604123706 -0.0080618788147150729 0 -0.0075907741157285966 -0.0081772955566669012 0 -0.0073953487728874749 -0.0083826555616772075 0 -0.0071686047035195684 -0.0081300763892195819 0 -0.0075907741157285966 -0.0081772955566669012 0 -0.0071686047035195684 -0.0081300763892195819 0 -0.0075135309215795193 -0.008065110530163665 0 -0.007820945484242503 -0.0085180230446647697 0 -0.0075907741157285966 -0.0081772955566669012 0 -0.0073953487728874749 -0.0083826555616772075 0 -0.0074959914425082406 -0.008695725226243475 0 -0.0073953487728874749 -0.0083826555616772075 0 -0.0070879507365925725 -0.0083603248281469249 0 -0.0073953487728874749 -0.0083826555616772075 0 -0.0070879507365925725 -0.0083603248281469249 0 -0.0071686047035195684 -0.0081300763892195819 0 -0.0019850791994954786 -0.01594302226373813 0 -0.0013088658891306881 -0.016738055918079642 0 -0.0021765666454434587 -0.016768256187519013 0 -0.004695190002969701 -0.011849449388154578 0 -0.0049826568703505566 -0.014758307491342054 0 -0.0071686047035195684 -0.0081300763892195819 0 -0.0075224254842553859 -0.0078786668949450689 0 -0.0075135309215795193 -0.008065110530163665 0 -0.0075224254842553859 -0.0078786668949450689 0 -0.0075135309215795193 -0.008065110530163665 0 -0.0076713850604123706 -0.0080618788147150729 0 -0.0070729515614844944 -0.014185891913346288 0 -0.0067078863467417349 -0.01379062870850975 0 -0.0066024300996343393 -0.014303953979098193 0 -0.0049826568703505566 -0.014758307491342054 0 -0.007638901639724748 -0.010598619259454042 0 -0.0010669252324237821 -0.013731655860008086 0 -0.00075837178240580408 -0.013545724426124438 0 -0.00087287002651317554 -0.013953243240049845 0 -0.0034950002919653276 -0.011473916380179706 0 -0.0015698665657367147 -0.014217787869049861 0 -0.0020171254407291271 -0.012711088392078516 0 -0.0016688652863300999 -0.013094598680618422 0 -0.0025745639273264628 -0.014057590535094278 0 -0.0016688652863300999 -0.013094598680618422 0 -0.0025745639273264628 -0.014057590535094278 0 -0.002096731723061923 -0.014461573689316215 0 -0.0019850791994954786 -0.01594302226373813 0 -0.0027238412443372842 -0.015094966989502464 0 -0.003078941929735218 -0.016380269543639595 0 -0.0048302391327473557 -0.011287395423166429 0 -0.0024399897462916761 -0.015857324627791995 0 -0.0070879507365925725 -0.0083603248281469249 0 -0.0071686047035195684 -0.0081300763892195819 0 -0.0071136087212250315 -0.0084173882133324416 0 -0.004695190002969701 -0.011849449388154578 0 -0.0048302391327473557 -0.011287395423166429 0 -0.0021765666454434587 -0.016768256187519013 0 -0.003078941929735218 -0.016380269543639595 0 -0.0027145830668521284 -0.017201217234809735 0 -0.0019850791994954786 -0.01594302226373813 0 -0.0021765666454434587 -0.016768256187519013 0 -0.003078941929735218 -0.016380269543639595 0 -0.0025745639273264628 -0.014057590535094278 0 -0.002096731723061923 -0.014461573689316215 0 -0.0031002606684396809 -0.015342879950470638 0 -0.0015698665657367147 -0.014217787869049861 0 -0.0021996721243348768 -0.014847281331897 0 -0.0024399897462916761 -0.015857324627791995 0 -0.0029089188277517386 -0.016581335972386809 0 -0.002096731723061923 -0.014461573689316215 0 -0.0025091379545050213 -0.015757438618314558 0 -0.0031002606684396809 -0.015342879950470638 0 -0.003078941929735218 -0.016380269543639595 0 -0.0032735555066377583 -0.017596083531025434 0 -0.0027145830668521284 -0.017201217234809735 0 -0.0032735555066377583 -0.017596083531025434 0 -0.0027145830668521284 -0.017201217234809735 0 -0.0028069862525490403 -0.018279504547821391 0 -0.0027145830668521284 -0.017201217234809735 0 -0.0028069862525490403 -0.018279504547821391 0 -0.002055256702562026 -0.017544863552368388 0 -0.0021765666454434587 -0.016768256187519013 0 -0.0027145830668521284 -0.017201217234809735 0 -0.002055256702562026 -0.017544863552368388 0 -0.0028069862525490403 -0.018279504547821391 0 -0.0031491996575251121 -0.018555941429835861 0 -0.0030304625092772283 -0.018357523971341518 0 -0.0028069862525490403 -0.018279504547821391 0 -0.0031036735658336707 -0.018729793658959045 0 -0.0031491996575251121 -0.018555941429835861 0 -0.0027714100710078044 -0.018241093351574474 0 -0.0025147859245273191 -0.018338137644465551 0 -0.0032735555066377583 -0.017596083531025434 0 -0.0028069862525490403 -0.018279504547821391 0 -0.0029648457742566499 -0.018277537215501002 0 -0.0029089188277517386 -0.016581335972386809 0 -0.0027085274187798204 -0.017731805493069099 0 -0.0032735555066377583 -0.017596083531025434 0 -0.0029648457742566499 -0.018277537215501002 0 -0.0032356583392768438 -0.018356515163795249 0 -0.0070729515614844944 -0.014185891913346288 0 -0.0066297957915967863 -0.014684117691139939 0 -0.0066024300996343393 -0.014303953979098193 0 -0.0035087795927812378 -0.019089620658195462 0 -0.0038577435541979357 -0.018740540367985944 0 -0.0034770880491646239 -0.018735494871793556 0 -0.0049826568703505566 -0.014758307491342054 0 -0.0052517943704782598 -0.016723587090624541 0 -0.0038577435541979357 -0.018740540367985944 0 -0.0034770880491646239 -0.018735494871793556 0 -0.0036755359762068044 -0.018423356957340452 0 -0.0013088658891306881 -0.016738055918079642 0 -0.0021765666454434587 -0.016768256187519013 0 -0.002055256702562026 -0.017544863552368388 0 -0.0034770880491646239 -0.018735494871793556 0 -0.0032862318432545102 -0.018654865286721879 0 -0.0031036735658336707 -0.018729793658959045 0 -0.0049826568703505566 -0.014758307491342054 0 -0.0025147859245273191 -0.018338137644465551 0 -0.0035087795927812378 -0.019089620658195462 0 -0.0034770880491646239 -0.018735494871793556 0 -0.0031036735658336707 -0.018729793658959045 0 -0.0032530866286976903 -0.018557585391225914 0 -0.0035090616736682149 -0.018569036687154445 0 -0.0032862318432545102 -0.018654865286721879 0 -0.0031491996575251121 -0.018555941429835861 0 -0.0036755359762068044 -0.018423356957340452 0 -0.0031491996575251121 -0.018555941429835861 0 -0.0033455730290301825 -0.018509037216890494 0 -0.0035440614038576746 -0.018669517934313144 0 -0.0032862318432545102 -0.018654865286721879 0 -0.0031036735658336707 -0.018729793658959045 0 -0.0031491996575251121 -0.018555941429835861 0 -0.0031491996575251121 -0.018555941429835861 0 -0.0031987930463223853 -0.018453289791027012 0 -0.0030304625092772283 -0.018357523971341518 0 -0.0031491996575251121 -0.018555941429835861 0 -0.0031987930463223853 -0.018453289791027012 0 -0.0033455730290301825 -0.018509037216890494 0 -0.0031987930463223853 -0.018453289791027012 0 -0.0033455730290301825 -0.018509037216890494 0 -0.0032640300173042776 -0.018343737904471955 0 -0.0034770880491646239 -0.018735494871793556 0 -0.0032862318432545102 -0.018654865286721879 0 -0.0036755359762068044 -0.018423356957340452 0 -0.0038577435541979357 -0.018740540367985944 0 -0.0036755359762068044 -0.018423356957340452 0 -0.0042332072124185785 -0.01833768874264595 0 -0.0035440614038576746 -0.018669517934313144 0 -0.0035614950132577703 -0.018427116753288057 0 -0.0040287371394110072 -0.018685615164558259 0 -0.0035090616736682149 -0.018569036687154445 0 -0.0046277563592004118 -0.017767808835848345 0 -0.0033455730290301825 -0.018509037216890494 0 -0.0035440614038576746 -0.018669517934313144 0 -0.0035614950132577703 -0.018427116753288057 0 -0.0037853231737168215 -0.018222027712150916 0 -0.0035614950132577703 -0.018427116753288057 0 -0.0040287371394110072 -0.018685615164558259 0 -0.0035614950132577703 -0.018427116753288057 0 -0.0034416754966650801 -0.018229126842835664 0 -0.0032640300173042776 -0.018343737904471955 0 -0.0037853231737168215 -0.018222027712150916 0 -0.0035614950132577703 -0.018427116753288057 0 -0.0034416754966650801 -0.018229126842835664 0 -0.0034416754966650801 -0.018229126842835664 0 -0.0032640300173042776 -0.018343737904471955 0 -0.0032427687922563326 -0.018126781320384436 0 -0.0033455730290301825 -0.018509037216890494 0 -0.0035614950132577703 -0.018427116753288057 0 -0.0032640300173042776 -0.018343737904471955 0 -0.0032640300173042776 -0.018343737904471955 0 -0.0030782242552492103 -0.018249980342262575 0 -0.0030304625092772283 -0.018357523971341518 0 -0.0031987930463223853 -0.018453289791027012 0 -0.0032640300173042776 -0.018343737904471955 0 -0.0030304625092772283 -0.018357523971341518 0 -0.0032640300173042776 -0.018343737904471955 0 -0.0030782242552492103 -0.018249980342262575 0 -0.0032427687922563326 -0.018126781320384436 0 -0.0030782242552492103 -0.018249980342262575 0 -0.0032427687922563326 -0.018126781320384436 0 -0.0030631693042880311 -0.018040100311308989 0 -0.0032193055593019654 -0.017869558201165953 0 -0.0030631693042880311 -0.018040100311308989 0 -0.0029385037702962637 -0.017865098708927926 0 -0.0032193055593019654 -0.017869558201165953 0 -0.0032427687922563326 -0.018126781320384436 0 -0.0030631693042880311 -0.018040100311308989 0 -0.0032193055593019654 -0.017869558201165953 0 -0.0032427687922563326 -0.018126781320384436 0 -0.0034924893260935268 -0.017982317952124374 0 -0.0034416754966650801 -0.018229126842835664 0 -0.0032427687922563326 -0.018126781320384436 0 -0.0034924893260935268 -0.017982317952124374 0 -0.0037853231737168215 -0.018222027712150916 0 -0.0034924893260935268 -0.017982317952124374 0 -0.0038413844274893336 -0.017847432209202888 0 -0.0037853231737168215 -0.018222027712150916 0 -0.0034416754966650801 -0.018229126842835664 0 -0.0034924893260935268 -0.017982317952124374 0 -0.0028252489511793634 -0.018342267881205077 0 -0.0028265438129742109 -0.018236523015291356 0 -0.0026898454997300804 -0.018185077989800236 0 -0.0028252489511793634 -0.018342267881205077 0 -0.0026898454997300804 -0.018185077989800236 0 -0.0025113450591652026 -0.018276502905120506 0 -0.0028252489511793634 -0.018342267881205077 0 -0.0025113450591652026 -0.018276502905120506 0 -0.0025858376106212056 -0.01848629800328716 0 -0.0029648457742566499 -0.018277537215501002 0 -0.0028252489511793634 -0.018342267881205077 0 -0.0032356583392768438 -0.018356515163795249 0 -0.0027768139254343684 -0.018288651362260426 0 -0.0027085274187798204 -0.017731805493069099 0 -0.0029648457742566499 -0.018277537215501002 0 -0.0028252489511793634 -0.018342267881205077 0 -0.0028634273029407107 -0.018309523363427595 0 -0.0028069862525490403 -0.018279504547821391 0 -0.0029648457742566499 -0.018277537215501002 0 -0.0028634273029407107 -0.018309523363427595 0 -0.0028069862525490403 -0.018279504547821391 0 -0.0028634273029407107 -0.018309523363427595 0 -0.0030304625092772283 -0.018357523971341518 0 -0.0030782242552492103 -0.018249980342262575 0 -0.0028634273029407107 -0.018309523363427595 0 -0.0030304625092772283 -0.018357523971341518 0 -0.0030782242552492103 -0.018249980342262575 0 -0.0028634273029407107 -0.018309523363427595 0 -0.0029389766940051483 -0.018185001328750453 0 -0.0028252489511793634 -0.018342267881205077 0 -0.0028634273029407107 -0.018309523363427595 0 -0.0028265438129742109 -0.018236523015291356 0 -0.0028634273029407107 -0.018309523363427595 0 -0.0028265438129742109 -0.018236523015291356 0 -0.0029389766940051483 -0.018185001328750453 0 -0.0028265438129742109 -0.018236523015291356 0 -0.0029389766940051483 -0.018185001328750453 0 -0.0028141590249451853 -0.018043554334767384 0 -0.0030782242552492103 -0.018249980342262575 0 -0.0030631693042880311 -0.018040100311308989 0 -0.0029389766940051483 -0.018185001328750453 0 -0.0030631693042880311 -0.018040100311308989 0 -0.0029389766940051483 -0.018185001328750453 0 -0.0028141590249451853 -0.018043554334767384 0 -0.0030631693042880311 -0.018040100311308989 0 -0.0028141590249451853 -0.018043554334767384 0 -0.0029385037702962637 -0.017865098708927926 0 -0.0028141590249451853 -0.018043554334767384 0 -0.002722489577660869 -0.017837359864362825 0 -0.0029385037702962637 -0.017865098708927926 0 -0.0028141590249451853 -0.018043554334767384 0 -0.0025584817660756608 -0.017929146551958534 0 -0.002722489577660869 -0.017837359864362825 0 -0.0028141590249451853 -0.018043554334767384 0 -0.0025584817660756608 -0.017929146551958534 0 -0.0026898454997300804 -0.018185077989800236 0 -0.0028265438129742109 -0.018236523015291356 0 -0.0028141590249451853 -0.018043554334767384 0 -0.0026898454997300804 -0.018185077989800236 0 -0.0026898454997300804 -0.018185077989800236 0 -0.0023416033332550401 -0.018026705016990243 0 -0.002233274334649319 -0.018398801524554583 0 -0.0026716367426993216 -0.018166411655578883 0 -0.0021099231229895999 -0.018074888081274068 0 -0.0025584817660756608 -0.017929146551958534 0 -0.0023416033332550401 -0.018026705016990243 0 -0.0022742493966504168 -0.01781081160139519 0 -0.0025584817660756608 -0.017929146551958534 0 -0.0026898454997300804 -0.018185077989800236 0 -0.0023416033332550401 -0.018026705016990243 0 -0.0017016244060509762 -0.017953816513731156 0 -0.0016870499551132996 -0.018232252533989718 0 -0.0016087257578860893 -0.01804885187723575 0 -0.0021099231229895999 -0.018074888081274068 0 -0.0018597662802020268 -0.017851370472297626 0 -0.0017040803904643412 -0.018161059619062427 0 -0.0014931414988292478 -0.01770850864510843 0 -0.0023416033332550401 -0.018026705016990243 0 -0.002233274334649319 -0.018398801524554583 0 -0.0019962392008922233 -0.017831140348228199 0 -0.0017016244060509762 -0.017953816513731156 0 -0.0018403260277431428 -0.018165774494861356 0 -0.0016988057479672553 -0.018227623075471922 0 -0.0017016244060509762 -0.017953816513731156 0 -0.0018403260277431428 -0.018165774494861356 0 -0.001740739181798952 -0.017819197681246717 0 -0.0021099231229895999 -0.018074888081274068 0 -0.0027085274187798204 -0.017731805493069099 0 -0.0021099231229895999 -0.018074888081274068 0 -0.0014931414988292478 -0.01770850864510843 0 -0.0017685549149772737 -0.017581172111511563 0 -0.0019330854338783774 -0.017504021908321208 0 -0.0018446529602138926 -0.017393005912318335 0 -0.0011979077933037771 -0.01754336628600852 0 -0.0014604072018445798 -0.01742345190248111 0 -0.0011988168393143456 -0.016840006593481966 0 -0.0019330854338783774 -0.017504021908321208 0 -0.0018446529602138926 -0.017393005912318335 0 -0.0019317472924877978 -0.017280676849870072 0 -0.0014931414988292478 -0.01770850864510843 0 -0.0012613090542312577 -0.016693734200071478 0 -0.0018446529602138926 -0.017393005912318335 0 -0.0017060975083874462 -0.017391266406991582 0 -0.0019313649562074638 -0.017247254160820232 0 -0.0017685549149772737 -0.017581172111511563 0 -0.0018446529602138926 -0.017393005912318335 0 -0.0017060975083874462 -0.017391266406991582 0 -4.2287795442721792e-05 -0.016599723455854448 0 0.00054872643598361133 -0.016875172332654589 0 0.00019362893169816306 -0.016890351647215043 0 3.3232684967282631e-05 -0.016877996671064561 0 0.00032327180679035856 -0.016771744800547946 0 0.00047156803908286889 -0.017091641462539189 0 -0.00075486170337908849 -0.01732067629546551 0 0.00062474681600510965 -0.016951694382575377 0 -4.2287795442721792e-05 -0.016599723455854448 0 -0.00017217128929076779 -0.016881331273584904 0 -1.9543472756083645e-05 -0.016800540946759191 0 -0.00075486170337908849 -0.01732067629546551 0 -0.0012613090542312577 -0.016693734200071478 0 -4.2287795442721792e-05 -0.016599723455854448 0 -1.9543472756083645e-05 -0.016800540946759191 0 0.00019362893169816306 -0.016890351647215043 0 -0.0016870499551132996 -0.018232252533989718 0 -0.0016184371734080305 -0.018262418927460652 0 -0.0016087257578860893 -0.01804885187723575 0 -0.0014931414988292478 -0.01770850864510843 0 -0.00075486170337908849 -0.01732067629546551 0 -0.0016184371734080305 -0.018262418927460652 0 -0.0016087257578860893 -0.01804885187723575 0 -0.0014454182070202349 -0.017923549298998847 0 3.3232684967282631e-05 -0.016877996671064561 0 0.00024934600529973809 -0.016488616320916031 0 0.00032327180679035856 -0.016771744800547946 0 -0.00075486170337908849 -0.01732067629546551 0 -0.00061468422766272548 -0.01725919478121828 0 -0.0016087257578860893 -0.01804885187723575 0 -0.0014454182070202349 -0.017923549298998847 0 -0.0015902677732590302 -0.01786064818289319 0 -0.0017016244060509762 -0.017953816513731156 0 -0.0016087257578860893 -0.01804885187723575 0 -0.0015902677732590302 -0.01786064818289319 0 0.00036091723737113673 -0.016574393792792439 0 0.00079146621794638414 -0.01654077656968898 0 0.00060227453245635643 -0.016775000957492077 0 0.00024934600529973809 -0.016488616320916031 0 0.00036091723737113673 -0.016574393792792439 0 0.00031725565475049331 -0.016456575343245929 0 0.00024934600529973809 -0.016488616320916031 0 0.00036091723737113673 -0.016574393792792439 0 0.00032327180679035856 -0.016771744800547946 0 0.00079146621794638414 -0.01654077656968898 0 0.0008462953001684701 -0.016182624961496701 0 0.0011441468036081472 -0.016425677824073115 0 0.00036091723737113673 -0.016574393792792439 0 0.00079146621794638414 -0.01654077656968898 0 0.0008462953001684701 -0.016182624961496701 0 0.00079146621794638414 -0.01654077656968898 0 0.00093994384931711593 -0.016747022757974767 0 0.0011441468036081472 -0.016425677824073115 0 0.00079146621794638414 -0.01654077656968898 0 0.00093994384931711593 -0.016747022757974767 0 0.00060227453245635643 -0.016775000957492077 0 0.00093994384931711593 -0.016747022757974767 0 0.00078201630989139582 -0.017012000534244225 0 0.00060227453245635643 -0.016775000957492077 0 0.00036091723737113673 -0.016574393792792439 0 0.00032327180679035856 -0.016771744800547946 0 0.00060227453245635643 -0.016775000957492077 0 0.00032327180679035856 -0.016771744800547946 0 0.00060227453245635643 -0.016775000957492077 0 0.00047156803908286889 -0.017091641462539189 0 0.00078201630989139582 -0.017012000534244225 0 0.00060227453245635643 -0.016775000957492077 0 0.00047156803908286889 -0.017091641462539189 0 0.00054872643598361133 -0.016875172332654589 0 0.0004881314409026945 -0.017299449455731829 0 0.00019362893169816306 -0.016890351647215043 0 0.00054872643598361133 -0.016875172332654589 0 0.0010820861994275434 -0.017147541752668777 0 0.0004881314409026945 -0.017299449455731829 0 0.00078201630989139582 -0.017012000534244225 0 0.00047156803908286889 -0.017091641462539189 0 0.00097893074377204507 -0.017275320162198411 0 0.00062474681600510965 -0.016951694382575377 0 0.0010086374902839245 -0.017207009548828339 0 0.0010790857212530272 -0.017600641153632305 0 0.0010820861994275434 -0.017147541752668777 0 0.0004881314409026945 -0.017299449455731829 0 0.0010600605687943656 -0.016966605407760207 0 0.00056484683781237279 -0.016589884551551203 0 0.00027860408128716353 -0.016574728620243812 0 0.0011276478824224837 -0.016362450461647162 0 0.0002790995789518468 -0.015832416020071859 0 0.0002790995789518468 -0.015832416020071859 0 -0.00058594708677627699 -0.015974622784951552 0 -0.00059038048496320235 -0.015314933633199662 0 0.00027860408128716353 -0.016574728620243812 0 0.0002790995789518468 -0.015832416020071859 0 -0.00058594708677627699 -0.015974622784951552 0 -0.0010623426375204964 -0.014466367685825663 0 -0.001222879166969398 -0.014630334034038905 0 -0.0013296596188441276 -0.015087046498099077 0 -0.0025091379545050213 -0.015757438618314558 0 -0.0031002606684396809 -0.015342879950470638 0 -0.0036665497392139187 -0.016555810630289811 0 -0.0013459142569531124 -0.014543511105107603 0 -0.001222879166969398 -0.014630334034038905 0 -0.0013296596188441276 -0.015087046498099077 0 -0.0010623426375204964 -0.014466367685825663 0 -0.0013226826636487455 -0.014539187074555449 0 -0.001222879166969398 -0.014630334034038905 0 -0.0009320893286806776 -0.014759118725709137 0 -0.001115385754865089 -0.014644977788948049 0 -0.0009320893286806776 -0.014759118725709137 0 -0.0013345619157570168 -0.016235120721132423 0 -0.0021996721243348768 -0.014847281331897 0 -0.0013345619157570168 -0.016235120721132423 0 -0.0025091379545050213 -0.015757438618314558 0 -0.0029168959391911984 -0.017013918384261216 0 -0.0036665497392139187 -0.016555810630289811 0 -0.0027085274187798204 -0.017731805493069099 0 -0.0013345619157570168 -0.016235120721132423 0 -0.0018446529602138926 -0.017393005912318335 0 -0.0019313649562074638 -0.017247254160820232 0 -0.0019317472924877978 -0.017280676849870072 0 -0.0013345619157570168 -0.016235120721132423 0 -0.0012613090542312577 -0.016693734200071478 0 -0.00017206588002393564 -0.016933403901201256 0 -0.00017217128929076779 -0.016881331273584904 0 -7.551023954298705e-05 -0.016882498958755175 0 -0.00017206588002393564 -0.016933403901201256 0 -7.551023954298705e-05 -0.016882498958755175 0 7.8075789600062391e-05 -0.016958543545040027 0 0.0004881314409026945 -0.017299449455731829 0 -0.00017206588002393564 -0.016933403901201256 0 7.8075789600062391e-05 -0.016958543545040027 0 0.00056484683781237279 -0.016589884551551203 0 -0.0013345619157570168 -0.016235120721132423 0 -1.9543472756083645e-05 -0.016800540946759191 0 -7.551023954298705e-05 -0.016882498958755175 0 7.8075789600062391e-05 -0.016958543545040027 0 -0.00017217128929076779 -0.016881331273584904 0 -1.9543472756083645e-05 -0.016800540946759191 0 -7.551023954298705e-05 -0.016882498958755175 0 -1.9543472756083645e-05 -0.016800540946759191 0 7.8075789600062391e-05 -0.016958543545040027 0 0.00019362893169816306 -0.016890351647215043 0 0.0004881314409026945 -0.017299449455731829 0 7.8075789600062391e-05 -0.016958543545040027 0 0.00019362893169816306 -0.016890351647215043 0 -0.013789358532991012 -0.0080330140391678077 0 -0.012383743149509744 -0.0086714344597283721 0 -0.012443886397552412 -0.0068681680920265201 0 -0.012213238796121344 -0.0068996578054081777 0 -0.012096246010159843 -0.0067351470749318632 0 -0.012046090078590824 -0.0073324426247139236 0 -0.01195592221297985 -0.0072649324218905936 0 -0.01201535255375265 -0.0072062058029253159 0 -0.012213238796121344 -0.0068996578054081777 0 -0.012104706084231674 -0.0070900389168602838 0 -0.012096246010159843 -0.0067351470749318632 0 -0.012023113752742946 -0.0068104574587990289 0 -0.012383743149509744 -0.0086714344597283721 0 -0.012213238796121344 -0.0068996578054081777 0 -0.012104706084231674 -0.0070900389168602838 0 -0.012304389629023258 -0.0071951905572106341 0 -0.012443886397552412 -0.0068681680920265201 0 -0.012213238796121344 -0.0068996578054081777 0 -0.012304389629023258 -0.0071951905572106341 0 -0.012334381640891734 -0.0074757273734771144 0 -0.012304389629023258 -0.0071951905572106341 0 -0.012096990020844368 -0.007442051359275113 0 -0.012334381640891734 -0.0074757273734771144 0 -0.012198817914759063 -0.0075283440332679728 0 -0.012096990020844368 -0.007442051359275113 0 -0.012058600344605147 -0.0075364113347396256 0 -0.012096990020844368 -0.007442051359275113 0 -0.011971722854165198 -0.0074573990491263722 0 -0.012046090078590824 -0.0073324426247139236 0 -0.012096990020844368 -0.007442051359275113 0 -0.011971722854165198 -0.0074573990491263722 0 -0.012104706084231674 -0.0070900389168602838 0 -0.012304389629023258 -0.0071951905572106341 0 -0.012096990020844368 -0.007442051359275113 0 -0.012023113752742946 -0.0068104574587990289 0 -0.012112175594453939 -0.0076092075099732448 0 -0.012046090078590824 -0.0073324426247139236 0 -0.011971722854165198 -0.0074573990491263722 0 -0.011893942531857337 -0.0074033438974713695 0 -0.011922520963938293 -0.0075355071575613211 0 -0.011971722854165198 -0.0074573990491263722 0 -0.011833479871784855 -0.007498209169662309 0 -0.011922520963938293 -0.0075355071575613211 0 -0.011808681144885168 -0.0075583693452016612 0 -0.011833479871784855 -0.007498209169662309 0 -0.011971722854165198 -0.0074573990491263722 0 -0.011833479871784855 -0.007498209169662309 0 -0.011893942531857337 -0.0074033438974713695 0 -0.011833479871784855 -0.007498209169662309 0 -0.011893942531857337 -0.0074033438974713695 0 -0.01172369217635961 -0.0074846660666126911 0 -0.011893942531857337 -0.0074033438974713695 0 -0.01195592221297985 -0.0072649324218905936 0 -0.011780291781250941 -0.0073689747282932559 0 -0.011893942531857337 -0.0074033438974713695 0 -0.011780291781250941 -0.0073689747282932559 0 -0.01172369217635961 -0.0074846660666126911 0 -0.012046090078590824 -0.0073324426247139236 0 -0.011893942531857337 -0.0074033438974713695 0 -0.01195592221297985 -0.0072649324218905936 0 -0.01195592221297985 -0.0072649324218905936 0 -0.011796982690077652 -0.0071752715562442447 0 -0.011957546798007476 -0.0071809869399698384 0 -0.01195592221297985 -0.0072649324218905936 0 -0.011796982690077652 -0.0071752715562442447 0 -0.011780291781250941 -0.0073689747282932559 0 -0.010146292117269395 -0.0091405598618886225 0 -0.0098033018309826719 -0.0096238040623146254 0 -0.011796982690077652 -0.0071752715562442447 0 -0.011244463893984214 -0.0071553378383233624 0 -0.011780291781250941 -0.0073689747282932559 0 -0.0082051522368408111 -0.01195238043409208 0 -0.0086134997028939723 -0.011707796857899284 0 -0.008487610951770393 -0.012137323920635674 0 -0.011244463893984214 -0.0071553378383233624 0 -0.011548253619738283 -0.0075150506018673924 0 -0.010686569423954904 -0.0080664977389648101 0 -0.011244463893984214 -0.0071553378383233624 0 -0.011548253619738283 -0.0075150506018673924 0 -0.011780291781250941 -0.0073689747282932559 0 -0.011548253619738283 -0.0075150506018673924 0 -0.011780291781250941 -0.0073689747282932559 0 -0.01172369217635961 -0.0074846660666126911 0 -0.01172369217635961 -0.0074846660666126911 0 -0.011708806323944701 -0.0075225996845605285 0 -0.011628358904006425 -0.0075036439208204346 0 -0.011808681144885168 -0.0075583693452016612 0 -0.011699268716429746 -0.0075641072129473703 0 -0.011708806323944701 -0.0075225996845605285 0 -0.011833479871784855 -0.007498209169662309 0 -0.01172369217635961 -0.0074846660666126911 0 -0.011708806323944701 -0.0075225996845605285 0 -0.011808681144885168 -0.0075583693452016612 0 -0.011833479871784855 -0.007498209169662309 0 -0.011708806323944701 -0.0075225996845605285 0 -0.011699268716429746 -0.0075641072129473703 0 -0.011708806323944701 -0.0075225996845605285 0 -0.01163675813286663 -0.0075305315436619618 0 -0.011708806323944701 -0.0075225996845605285 0 -0.01163675813286663 -0.0075305315436619618 0 -0.011628358904006425 -0.0075036439208204346 0 -0.011515838541380271 -0.0075706254968164587 0 -0.010834284583460658 -0.0082680525911117582 0 -0.01163675813286663 -0.0075305315436619618 0 -0.011628358904006425 -0.0075036439208204346 0 -0.011607612155372636 -0.0074985662239305702 0 -0.011548253619738283 -0.0075150506018673924 0 -0.01172369217635961 -0.0074846660666126911 0 -0.011628358904006425 -0.0075036439208204346 0 -0.011548253619738283 -0.0075150506018673924 0 -0.010075549036807262 -0.0090106971376061797 0 -0.010686569423954904 -0.0080664977389648101 0 -0.011548253619738283 -0.0075150506018673924 0 -0.011628358904006425 -0.0075036439208204346 0 -0.011607612155372636 -0.0074985662239305702 0 -0.010140478117758029 -0.0084458793840820577 0 -0.010075549036807262 -0.0090106971376061797 0 -0.010686569423954904 -0.0080664977389648101 0 -0.010140478117758029 -0.0084458793840820577 0 -0.009174893732066829 -0.0079758902883302965 0 -0.010686569423954904 -0.0080664977389648101 0 -0.010140478117758029 -0.0084458793840820577 0 -0.0097218640657273595 -0.0086118612644647957 0 -0.009174893732066829 -0.0079758902883302965 0 -0.010140478117758029 -0.0084458793840820577 0 -0.0097218640657273595 -0.0086118612644647957 0 -0.010075549036807262 -0.0090106971376061797 0 -0.0097218640657273595 -0.0086118612644647957 0 -0.010075549036807262 -0.0090106971376061797 0 -0.0093631842863405434 -0.0091252136750574683 0 -0.01163675813286663 -0.0075305315436619618 0 -0.011607612155372636 -0.0074985662239305702 0 -0.011585772183031048 -0.0075446884544851925 0 -0.011604664012875561 -0.0075958932224003241 0 -0.01163675813286663 -0.0075305315436619618 0 -0.011585772183031048 -0.0075446884544851925 0 -0.010075549036807262 -0.0090106971376061797 0 -0.008602979513433532 -0.0099905676819579126 0 -0.0093631842863405434 -0.0091252136750574683 0 -0.010834284583460658 -0.0082680525911117582 0 -0.0099920874255176872 -0.0085285283606201141 0 -0.011607612155372636 -0.0074985662239305702 0 -0.011585772183031048 -0.0075446884544851925 0 -0.011489204349504727 -0.0075607090467522701 0 -0.011604664012875561 -0.0075958932224003241 0 -0.011585772183031048 -0.0075446884544851925 0 -0.011489204349504727 -0.0075607090467522701 0 -0.008602979513433532 -0.0099905676819579126 0 -0.008602596778430319 -0.0095143265885751799 0 -0.0093631842863405434 -0.0091252136750574683 0 -0.008602596778430319 -0.0095143265885751799 0 -0.0089154648707138479 -0.0091572008522046132 0 -0.0093631842863405434 -0.0091252136750574683 0 -0.008602596778430319 -0.0095143265885751799 0 -0.0089154648707138479 -0.0091572008522046132 0 -0.0085970329735460226 -0.0090434805298646309 0 -0.0089154648707138479 -0.0091572008522046132 0 -0.0089198007886549004 -0.0088755501939456714 0 -0.009100399891326624 -0.0089595180282900887 0 -0.0089154648707138479 -0.0091572008522046132 0 -0.0089198007886549004 -0.0088755501939456714 0 -0.0085970329735460226 -0.0090434805298646309 0 -0.0089198007886549004 -0.0088755501939456714 0 -0.0085970329735460226 -0.0090434805298646309 0 -0.0086950409613417295 -0.0087292223138897649 0 -0.0089154648707138479 -0.0091572008522046132 0 -0.0093631842863405434 -0.0091252136750574683 0 -0.009100399891326624 -0.0089595180282900887 0 -0.0093631842863405434 -0.0091252136750574683 0 -0.009100399891326624 -0.0089595180282900887 0 -0.0092087771113032787 -0.008676979682340092 0 -0.0089198007886549004 -0.0088755501939456714 0 -0.009100399891326624 -0.0089595180282900887 0 -0.0092087771113032787 -0.008676979682340092 0 -0.0097218640657273595 -0.0086118612644647957 0 -0.0093631842863405434 -0.0091252136750574683 0 -0.0092087771113032787 -0.008676979682340092 0 -0.0092087771113032787 -0.008676979682340092 0 -0.0089168028749235066 -0.0086075649484016539 0 -0.0090158067028690732 -0.0083616397783748651 0 -0.0092087771113032787 -0.008676979682340092 0 -0.009173858241117468 -0.0082698354650414842 0 -0.0090158067028690732 -0.0083616397783748651 0 -0.0097218640657273595 -0.0086118612644647957 0 -0.0092087771113032787 -0.008676979682340092 0 -0.009173858241117468 -0.0082698354650414842 0 -0.0093834686638433404 -0.0085833946793907601 0 -0.0092982837505180653 -0.0090755170786298595 0 -0.0089198007886549004 -0.0088755501939456714 0 -0.0086950409613417295 -0.0087292223138897649 0 -0.0089168028749235066 -0.0086075649484016539 0 -0.0089198007886549004 -0.0088755501939456714 0 -0.0092087771113032787 -0.008676979682340092 0 -0.0089168028749235066 -0.0086075649484016539 0 -0.0089168028749235066 -0.0086075649484016539 0 -0.0086809770009327152 -0.0085225740015913778 0 -0.0090158067028690732 -0.0083616397783748651 0 -0.0086950409613417295 -0.0087292223138897649 0 -0.0089168028749235066 -0.0086075649484016539 0 -0.0086809770009327152 -0.0085225740015913778 0 -0.0083285884781042936 -0.0087050410845198323 0 -0.0086950409613417295 -0.0087292223138897649 0 -0.0086809770009327152 -0.0085225740015913778 0 -0.007638901639724748 -0.010598619259454042 0 -0.0092982837505180653 -0.0090755170786298595 0 -0.0084521989631144521 -0.0082169895789087725 0 -0.0086809770009327152 -0.0085225740015913778 0 -0.0090158067028690732 -0.0083616397783748651 0 -0.0084521989631144521 -0.0082169895789087725 0 -0.008207025252808673 -0.007504381886244969 0 -0.0091491058431157294 -0.0083069342232647489 0 -0.0093108521514699769 -0.011754438991532007 0 -0.0090454836881262608 -0.01146541120557641 0 -0.0089922555604727526 -0.011770779758254699 0 -0.0084521989631144521 -0.0082169895789087725 0 -0.0091491058431157294 -0.0083069342232647489 0 -0.0090158067028690732 -0.0083616397783748651 0 -0.0092982837505180653 -0.0090755170786298595 0 -0.0093022951099124996 -0.0090107786108697945 0 -0.011244463893984214 -0.0071553378383233624 0 -0.009174893732066829 -0.0079758902883302965 0 -0.010686569423954904 -0.0080664977389648101 0 -0.0086134997028939723 -0.011707796857899284 0 -0.0090454836881262608 -0.01146541120557641 0 -0.0089922555604727526 -0.011770779758254699 0 -0.0098033018309826719 -0.0096238040623146254 0 -0.0092982837505180653 -0.0090755170786298595 0 -0.0086134997028939723 -0.011707796857899284 0 -0.0089922555604727526 -0.011770779758254699 0 -0.0089799567419960261 -0.012121393310234457 0 -0.007638901639724748 -0.010598619259454042 0 -0.007607493125181549 -0.013430302019317173 0 -0.0067078863467417349 -0.01379062870850975 0 -0.0066024300996343393 -0.014303953979098193 0 -0.0060043447785520076 -0.014554526049762434 0 -0.0093108521514699769 -0.011754438991532007 0 -0.0089922555604727526 -0.011770779758254699 0 -0.0089799567419960261 -0.012121393310234457 0 -0.0066297957915967863 -0.014684117691139939 0 -0.0066024300996343393 -0.014303953979098193 0 -0.0060043447785520076 -0.014554526049762434 0 -0.0066297957915967863 -0.014684117691139939 0 -0.0060043447785520076 -0.014554526049762434 0 -0.006195905364301312 -0.015162378071582614 0 -0.0089799567419960261 -0.012121393310234457 0 -0.0086492555768812249 -0.012477076487309271 0 -0.008487610951770393 -0.012137323920635674 0 -0.0060043447785520076 -0.014554526049762434 0 -0.006195905364301312 -0.015162378071582614 0 -0.0053343094769097077 -0.015273825863489948 0 -0.007607493125181549 -0.013430302019317173 0 -0.0065105988240878009 -0.015301674421818427 0 -0.0046277563592004118 -0.017767808835848345 0 -0.0065105988240878009 -0.015301674421818427 0 -0.0052517943704782598 -0.016723587090624541 0 -0.0046277563592004118 -0.017767808835848345 0 -0.0040287371394110072 -0.018685615164558259 0 -0.0041486603436358665 -0.018321269707440465 0 -0.0045853112487847661 -0.018202802718485869 0 -0.0037853231737168215 -0.018222027712150916 0 -0.0040287371394110072 -0.018685615164558259 0 -0.0041486603436358665 -0.018321269707440465 0 -0.0037853231737168215 -0.018222027712150916 0 -0.0041486603436358665 -0.018321269707440465 0 -0.0042430461699915194 -0.018050772810270618 0 -0.0037853231737168215 -0.018222027712150916 0 -0.0038413844274893336 -0.017847432209202888 0 -0.0042430461699915194 -0.018050772810270618 0 -0.0038413844274893336 -0.017847432209202888 0 -0.0042430461699915194 -0.018050772810270618 0 -0.0043089876769105868 -0.017789538057651318 0 -0.0042430461699915194 -0.018050772810270618 0 -0.0046947956286513054 -0.017912143968202548 0 -0.0043089876769105868 -0.017789538057651318 0 -0.0042430461699915194 -0.018050772810270618 0 -0.0046947956286513054 -0.017912143968202548 0 -0.0045853112487847661 -0.018202802718485869 0 -0.0046947956286513054 -0.017912143968202548 0 -0.0045853112487847661 -0.018202802718485869 0 -0.0047658047568433374 -0.018132242356362464 0 -0.0043360581379247544 -0.01849627026928272 0 -0.0045853112487847661 -0.018202802718485869 0 -0.0047391490041101061 -0.018464050068026958 0 -0.0046277563592004118 -0.017767808835848345 0 -0.0043460549902514765 -0.018535679046901666 0 -0.0041486603436358665 -0.018321269707440465 0 -0.0042430461699915194 -0.018050772810270618 0 -0.0045853112487847661 -0.018202802718485869 0 -0.0045853112487847661 -0.018202802718485869 0 -0.0047448960913669203 -0.018305373211173724 0 -0.0047391490041101061 -0.018464050068026958 0 -0.0047448960913669203 -0.018305373211173724 0 -0.0048547393176133474 -0.018354348257067037 0 -0.0047391490041101061 -0.018464050068026958 0 -0.0052815487377520405 -0.017871646750273834 0 -0.0065105988240878009 -0.015301674421818427 0 -0.0047448960913669203 -0.018305373211173724 0 -0.0049344908472737231 -0.018414949777869505 0 -0.0048499172346263874 -0.018200062763032824 0 -0.0049907214665130496 -0.018005019239229168 0 -0.0052815487377520405 -0.017871646750273834 0 -0.0052815487377520405 -0.017871646750273834 0 -0.0064866978448130481 -0.016676711206513657 0 -0.0048342303478663071 -0.018507357340307506 0 -0.005154296967751929 -0.01839937999569986 0 -0.0052571119863734257 -0.018742467389755667 0 -0.0048342303478663071 -0.018507357340307506 0 -0.0052264150426785888 -0.018089384906524932 0 -0.005154296967751929 -0.01839937999569986 0 -0.0052815487377520405 -0.017871646750273834 0 -0.0050342113401903579 -0.018265641736504534 0 -0.0049344908472737231 -0.018414949777869505 0 -0.0050187086227873497 -0.018149390965186994 0 -0.0052264150426785888 -0.018089384906524932 0 -0.0049344908472737231 -0.018414949777869505 0 -0.0050187086227873497 -0.018149390965186994 0 -0.0048499172346263874 -0.018200062763032824 0 -0.0049251388849152382 -0.01809311574043547 0 -0.0050187086227873497 -0.018149390965186994 0 -0.0050402897410152456 -0.018060131304259628 0 -0.0049251388849152382 -0.01809311574043547 0 -0.0050187086227873497 -0.018149390965186994 0 -0.0048499172346263874 -0.018200062763032824 0 -0.0050187086227873497 -0.018149390965186994 0 -0.0051219770299904188 -0.01804765416681102 0 -0.0052264150426785888 -0.018089384906524932 0 -0.0050187086227873497 -0.018149390965186994 0 -0.0051219770299904188 -0.01804765416681102 0 -0.0050402897410152456 -0.018060131304259628 0 -0.0047448960913669203 -0.018305373211173724 0 -0.0048499172346263874 -0.018200062763032824 0 -0.0047658047568433374 -0.018132242356362464 0 -0.0045853112487847661 -0.018202802718485869 0 -0.0047448960913669203 -0.018305373211173724 0 -0.0047658047568433374 -0.018132242356362464 0 -0.0049251388849152382 -0.01809311574043547 0 -0.0048499172346263874 -0.018200062763032824 0 -0.0047658047568433374 -0.018132242356362464 0 -0.0046947956286513054 -0.017912143968202548 0 -0.0047658047568433374 -0.018132242356362464 0 -0.0048586128625196165 -0.017997021901782918 0 -0.0049251388849152382 -0.01809311574043547 0 -0.0047658047568433374 -0.018132242356362464 0 -0.0048586128625196165 -0.017997021901782918 0 -0.0049251388849152382 -0.01809311574043547 0 -0.0050402897410152456 -0.018060131304259628 0 -0.0049954675692860887 -0.017993705149089195 0 -0.0049251388849152382 -0.01809311574043547 0 -0.0048586128625196165 -0.017997021901782918 0 -0.0049954675692860887 -0.017993705149089195 0 -0.0051219770299904188 -0.01804765416681102 0 -0.0051200565957730095 -0.017971967245060862 0 -0.0050402897410152456 -0.018060131304259628 0 -0.0051200565957730095 -0.017971967245060862 0 -0.0050402897410152456 -0.018060131304259628 0 -0.0049954675692860887 -0.017993705149089195 0 -0.0051200565957730095 -0.017971967245060862 0 -0.0049954675692860887 -0.017993705149089195 0 -0.005015214190980004 -0.017898209843210611 0 -0.0048586128625196165 -0.017997021901782918 0 -0.0049954675692860887 -0.017993705149089195 0 -0.005015214190980004 -0.017898209843210611 0 -0.005015214190980004 -0.017898209843210611 0 -0.0052392342085497666 -0.017840535106009085 0 -0.0050226039171764551 -0.017689998606262997 0 -0.0046947956286513054 -0.017912143968202548 0 -0.005015214190980004 -0.017898209843210611 0 -0.0050226039171764551 -0.017689998606262997 0 -0.0046947956286513054 -0.017912143968202548 0 -0.0048586128625196165 -0.017997021901782918 0 -0.005015214190980004 -0.017898209843210611 0 -0.0052392342085497666 -0.017840535106009085 0 -0.0052124356067137492 -0.017995161930644391 0 -0.0056724675911020801 -0.01777765432562331 0 -0.0052124356067137492 -0.017995161930644391 0 -0.0055934160459584197 -0.0180703434667932 0 -0.0061719646827979747 -0.017658324398245235 0 -0.0053557526575653746 -0.017876201668106231 0 -0.0058553509715371446 -0.017451074888285838 0 -0.0051200565957730095 -0.017971967245060862 0 -0.005015214190980004 -0.017898209843210611 0 -0.0052392342085497666 -0.017840535106009085 0 -0.0051200565957730095 -0.017971967245060862 0 -0.0052392342085497666 -0.017840535106009085 0 -0.0052124356067137492 -0.017995161930644391 0 -0.0051219770299904188 -0.01804765416681102 0 -0.0051200565957730095 -0.017971967245060862 0 -0.0052124356067137492 -0.017995161930644391 0 -0.0055934160459584197 -0.0180703434667932 0 -0.0056330279431249511 -0.018366253584885178 0 -0.0060563423459462536 -0.018130091144964545 0 -0.0055934160459584197 -0.0180703434667932 0 -0.005361850053705799 -0.018327628434910811 0 -0.0056330279431249511 -0.018366253584885178 0 -0.0051219770299904188 -0.01804765416681102 0 -0.0052124356067137492 -0.017995161930644391 0 -0.0052264150426785888 -0.018089384906524932 0 -0.0052124356067137492 -0.017995161930644391 0 -0.0055934160459584197 -0.0180703434667932 0 -0.0052264150426785888 -0.018089384906524932 0 -0.0055934160459584197 -0.0180703434667932 0 -0.0052264150426785888 -0.018089384906524932 0 -0.005361850053705799 -0.018327628434910811 0 -0.0052264150426785888 -0.018089384906524932 0 -0.005154296967751929 -0.01839937999569986 0 -0.005361850053705799 -0.018327628434910811 0 -0.005154296967751929 -0.01839937999569986 0 -0.005361850053705799 -0.018327628434910811 0 -0.0052571119863734257 -0.018742467389755667 0 -0.005361850053705799 -0.018327628434910811 0 -0.0056330279431249511 -0.018366253584885178 0 -0.0052571119863734257 -0.018742467389755667 0 -0.0056330279431249511 -0.018366253584885178 0 -0.0052571119863734257 -0.018742467389755667 0 -0.0059805681700924474 -0.018624526219319856 0 -0.0056330279431249511 -0.018366253584885178 0 -0.0059805681700924474 -0.018624526219319856 0 -0.0060563423459462536 -0.018130091144964545 0 -0.0053552916866404935 -0.01869145002310316 0 -0.0063270447288516704 -0.019152441904841194 0 -0.0059805681700924474 -0.018624526219319856 0 -0.0083886821794531274 -0.012506336685042408 0 -0.008487610951770393 -0.012137323920635674 0 -0.0082950570190587249 -0.012229450663005003 0 -0.0083886821794531274 -0.012506336685042408 0 -0.0082950570190587249 -0.012229450663005003 0 -0.0081032322736249995 -0.012327048959211634 0 -0.0064866978448130481 -0.016676711206513657 0 -0.0054718834033317398 -0.018361294512379819 0 -0.0064866978448130481 -0.016676711206513657 0 -0.0070565050543094634 -0.015926203399019026 0 -0.0064866978448130481 -0.016676711206513657 0 -0.0065105988240878009 -0.015301674421818427 0 -0.0060914036451120762 -0.016441442038702365 0 -0.006026588048787143 -0.016410723827616415 0 -0.0061394557776689989 -0.016387390895573881 0 -0.0083886821794531274 -0.012506336685042408 0 -0.0086492555768812249 -0.012477076487309271 0 -0.008487610951770393 -0.012137323920635674 0 -0.0086134997028939723 -0.011707796857899284 0 -0.0089799567419960261 -0.012121393310234457 0 -0.008487610951770393 -0.012137323920635674 0 -0.0082051522368408111 -0.01195238043409208 0 -0.008487610951770393 -0.012137323920635674 0 -0.0082950570190587249 -0.012229450663005003 0 -0.0082051522368408111 -0.01195238043409208 0 -0.0082950570190587249 -0.012229450663005003 0 -0.0081032322736249995 -0.012327048959211634 0 -0.0082051522368408111 -0.01195238043409208 0 -0.0078329469741661908 -0.012171081532153046 0 -0.0081032322736249995 -0.012327048959211634 0 -0.010146292117269395 -0.0091405598618886225 0 -0.0096497345711002002 -0.012126869564861526 0 -0.0096497345711002002 -0.012126869564861526 0 -0.0070565050543094634 -0.015926203399019026 0 -0.01195592221297985 -0.0072649324218905936 0 -0.011957546798007476 -0.0071809869399698384 0 -0.01201535255375265 -0.0072062058029253159 0 -0.0073759064300086422 -0.019580677973140882 0 -0.0070482161095233109 -0.018980430074621458 0 -0.0063270447288516704 -0.019152441904841194 0 -0.0073759064300086422 -0.019580677973140882 0 -0.0070482161095233109 -0.018980430074621458 0 -0.0074883203009839467 -0.018992118346536458 0 -0.0070482161095233109 -0.018980430074621458 0 -0.0074883203009839467 -0.018992118346536458 0 -0.0073301913734892992 -0.018477602526186198 0 -0.0074883203009839467 -0.018992118346536458 0 -0.0073301913734892992 -0.018477602526186198 0 -0.0078219208592766269 -0.018582947333616189 0 -0.0070482161095233109 -0.018980430074621458 0 -0.0067705514818276417 -0.018541929100869551 0 -0.0073301913734892992 -0.018477602526186198 0 -0.0063270447288516704 -0.019152441904841194 0 -0.0059805681700924474 -0.018624526219319856 0 -0.0067705514818276417 -0.018541929100869551 0 -0.0070482161095233109 -0.018980430074621458 0 -0.0063270447288516704 -0.019152441904841194 0 -0.0067705514818276417 -0.018541929100869551 0 -0.0059805681700924474 -0.018624526219319856 0 -0.0063521913728443727 -0.018330864592980129 0 -0.0060563423459462536 -0.018130091144964545 0 -0.0063521913728443727 -0.018330864592980129 0 -0.0066288176419836368 -0.018003461826096648 0 -0.0067705514818276417 -0.018541929100869551 0 -0.0059805681700924474 -0.018624526219319856 0 -0.0063521913728443727 -0.018330864592980129 0 -0.0067705514818276417 -0.018541929100869551 0 -0.0063521913728443727 -0.018330864592980129 0 -0.0066288176419836368 -0.018003461826096648 0 -0.0060563423459462536 -0.018130091144964545 0 -0.0066288176419836368 -0.018003461826096648 0 -0.0060563423459462536 -0.018130091144964545 0 -0.0061719646827979747 -0.017658324398245235 0 -0.0055934160459584197 -0.0180703434667932 0 -0.0060563423459462536 -0.018130091144964545 0 -0.0061719646827979747 -0.017658324398245235 0 -0.0052124356067137492 -0.017995161930644391 0 -0.0061719646827979747 -0.017658324398245235 0 -0.006479618534184532 -0.01676553187488191 0 -0.0066288176419836368 -0.018003461826096648 0 -0.0061719646827979747 -0.017658324398245235 0 -0.0068275646036326017 -0.017503690030747018 0 -0.0061719646827979747 -0.017658324398245235 0 -0.0068275646036326017 -0.017503690030747018 0 -0.006479618534184532 -0.01676553187488191 0 -0.0074323401072522799 -0.017319640858053056 0 -0.0068275646036326017 -0.017503690030747018 0 -0.006479618534184532 -0.01676553187488191 0 -0.0066288176419836368 -0.018003461826096648 0 -0.0068275646036326017 -0.017503690030747018 0 -0.0073136165226880675 -0.017955368835365543 0 -0.0074323401072522799 -0.017319640858053056 0 -0.0068275646036326017 -0.017503690030747018 0 -0.0073136165226880675 -0.017955368835365543 0 -0.0074323401072522799 -0.017319640858053056 0 -0.0073136165226880675 -0.017955368835365543 0 -0.0078527968550945754 -0.017808518688785704 0 -0.0068981533597121478 -0.017108330143737478 0 -0.010841141045039407 -0.01461626960498894 0 -0.0073136165226880675 -0.017955368835365543 0 -0.0073301913734892992 -0.018477602526186198 0 -0.0077982631576550511 -0.017804072047559766 0 -0.0066288176419836368 -0.018003461826096648 0 -0.0073136165226880675 -0.017955368835365543 0 -0.0067705514818276417 -0.018541929100869551 0 -0.0073136165226880675 -0.017955368835365543 0 -0.0067705514818276417 -0.018541929100869551 0 -0.0073301913734892992 -0.018477602526186198 0 -0.014945480462183641 -0.01022080509481732 0 -0.015148016783408231 -0.010434768393232936 0 -0.014744707968139963 -0.010554428013916189 0 -0.014945480462183641 -0.01022080509481732 0 -0.015148016783408231 -0.010434768393232936 0 -0.015138574496328669 -0.010089994227029402 0 -0.010841141045039407 -0.01461626960498894 0 -0.011469197247147431 -0.014456502864580306 0 -0.0073301913734892992 -0.018477602526186198 0 -0.0077982631576550511 -0.017804072047559766 0 -0.0078219208592766269 -0.018582947333616189 0 -0.014945480462183641 -0.01022080509481732 0 -0.014937313944099841 -0.0099881239173838787 0 -0.015138574496328669 -0.010089994227029402 0 -0.010830032674176818 -0.014324491111361299 0 -0.010700365697645285 -0.014491960161131745 0 -0.010843485526020413 -0.014513858694699179 0 -0.0074323401072522799 -0.017319640858053056 0 -0.0078527968550945754 -0.017808518688785704 0 -0.0078040086101410968 -0.01677004840069192 0 -0.010841141045039407 -0.01461626960498894 0 -0.0093240063898094826 -0.015789876468255765 0 -0.010841141045039407 -0.01461626960498894 0 -0.01320515933381811 -0.012214365646938315 0 -0.010830032674176818 -0.014324491111361299 0 -0.010616650554295656 -0.014388965221339948 0 -0.010700365697645285 -0.014491960161131745 0 -0.010655388445624428 -0.01436221400569075 0 -0.010616650554295656 -0.014388965221339948 0 -0.010700365697645285 -0.014491960161131745 0 -0.014945480462183641 -0.01022080509481732 0 -0.014744707968139963 -0.010554428013916189 0 -0.014714547252400338 -0.010066478619129125 0 -0.014452633519602125 -0.010332685313345752 0 -0.014744707968139963 -0.010554428013916189 0 -0.014714547252400338 -0.010066478619129125 0 -0.014945480462183641 -0.01022080509481732 0 -0.014714547252400338 -0.010066478619129125 0 -0.014937313944099841 -0.0099881239173838787 0 -0.014609159959055887 -0.0096832211151572888 0 -0.014714547252400338 -0.010066478619129125 0 -0.01485540213282366 -0.0097897569769726609 0 -0.014714547252400338 -0.010066478619129125 0 -0.01485540213282366 -0.0097897569769726609 0 -0.014937313944099841 -0.0099881239173838787 0 -0.0074883203009839467 -0.018992118346536458 0 -0.0078219208592766269 -0.018582947333616189 0 -0.0078643037389067496 -0.019331960606142441 0 -0.011469197247147431 -0.014456502864580306 0 -0.011504905089323565 -0.013288592371305599 0 -0.015138574496328669 -0.010089994227029402 0 -0.015032620276043292 -0.0097845891502962509 0 -0.015106977781012826 -0.0097519700617885816 0 -0.014937313944099841 -0.0099881239173838787 0 -0.015138574496328669 -0.010089994227029402 0 -0.015032620276043292 -0.0097845891502962509 0 -0.0073759064300086422 -0.019580677973140882 0 -0.0074883203009839467 -0.018992118346536458 0 -0.0078643037389067496 -0.019331960606142441 0 -0.01485540213282366 -0.0097897569769726609 0 -0.014937313944099841 -0.0099881239173838787 0 -0.015032620276043292 -0.0097845891502962509 0 -0.013575722768639588 -0.011964687020601694 0 -0.011504905089323565 -0.013288592371305599 0 -0.01485540213282366 -0.0097897569769726609 0 -0.015032620276043292 -0.0097845891502962509 0 -0.014994554087727601 -0.0096645704753197149 0 -0.014994554087727601 -0.0096645704753197149 0 -0.015083047772196921 -0.0095410530148031004 0 -0.014835919678909253 -0.0095832564862731416 0 -0.014994554087727601 -0.0096645704753197149 0 -0.015101538230852874 -0.0097446656009218171 0 -0.015083047772196921 -0.0095410530148031004 0 -0.015032620276043292 -0.0097845891502962509 0 -0.014994554087727601 -0.0096645704753197149 0 -0.015101538230852874 -0.0097446656009218171 0 -0.011367199874458849 -0.011336768673632537 0 -0.011355150381927826 -0.011347390943009279 0 -0.011356007475919498 -0.011319230520236753 0 -0.011504905089323565 -0.013288592371305599 0 -0.012383743149509744 -0.0086714344597283721 0 -0.0096497345711002002 -0.012126869564861526 0 -0.011504905089323565 -0.013288592371305599 0 -0.0096497345711002002 -0.012126869564861526 0 -0.012383743149509744 -0.0086714344597283721 0 -0.014666845568548963 -0.0092748018116234968 0 -0.015083047772196921 -0.0095410530148031004 0 -0.014835919678909253 -0.0095832564862731416 0 -0.014609159959055887 -0.0096832211151572888 0 -0.014666845568548963 -0.0092748018116234968 0 -0.014835919678909253 -0.0095832564862731416 0 -0.014609159959055887 -0.0096832211151572888 0 -0.01485540213282366 -0.0097897569769726609 0 -0.014835919678909253 -0.0095832564862731416 0 -0.01485540213282366 -0.0097897569769726609 0 -0.014994554087727601 -0.0096645704753197149 0 -0.014835919678909253 -0.0095832564862731416 0 -0.0071322863671242805 -0.016497743644622712 0 -0.0066488982168043274 -0.016623086197081433 0 -0.0069154635364099592 -0.01701944248892924 0 -0.0071322863671242805 -0.016497743644622712 0 -0.0066488982168043274 -0.016623086197081433 0 -0.0070922013632993995 -0.016103880879721654 0 -0.0066488982168043274 -0.016623086197081433 0 -0.0060993902109766256 -0.01686484735203117 0 -0.006271900524718598 -0.016358266265168109 0 -0.0064051471693477059 -0.017023372286353242 0 -0.0069154635364099592 -0.01701944248892924 0 -0.0062982117950371687 -0.017415399931068096 0 -0.0066488982168043274 -0.016623086197081433 0 -0.0064051471693477059 -0.017023372286353242 0 -0.0069154635364099592 -0.01701944248892924 0 -0.0066488982168043274 -0.016623086197081433 0 -0.0064051471693477059 -0.017023372286353242 0 -0.0060993902109766256 -0.01686484735203117 0 -0.0088750398789994734 -0.015989882353945661 0 -0.0079550392465748999 -0.015860906386596249 0 -0.0064051471693477059 -0.017023372286353242 0 -0.0062982117950371687 -0.017415399931068096 0 -0.0060813251859797796 -0.017169631464282638 0 -0.010493715715691564 -0.014980935851251967 0 -0.010608740502877375 -0.014975050129375346 0 -0.010553291315462909 -0.014843265054506161 0 -0.010430711611915831 -0.014702299902152237 0 -0.010649058666345815 -0.014744585814912453 0 -0.010553291315462909 -0.014843265054506161 0 -0.010608740502877375 -0.014975050129375346 0 -0.010649058666345815 -0.014744585814912453 0 -0.010553291315462909 -0.014843265054506161 0 -0.010649058666345815 -0.014744585814912453 0 -0.010700365697645285 -0.014491960161131745 0 -0.01075870457980318 -0.014630366571200494 0 -0.010430711611915831 -0.014702299902152237 0 -0.010649058666345815 -0.014744585814912453 0 -0.010700365697645285 -0.014491960161131745 0 -0.010430711611915831 -0.014702299902152237 0 -0.010655388445624428 -0.01436221400569075 0 -0.010700365697645285 -0.014491960161131745 0 -0.0093240063898094826 -0.015789876468255765 0 -0.0079550392465748999 -0.015860906386596249 0 -0.010843485526020413 -0.014513858694699179 0 -0.01075870457980318 -0.014630366571200494 0 -0.010854522664946999 -0.014748522115279094 0 -0.010700365697645285 -0.014491960161131745 0 -0.010843485526020413 -0.014513858694699179 0 -0.01075870457980318 -0.014630366571200494 0 -0.010649058666345815 -0.014744585814912453 0 -0.01075870457980318 -0.014630366571200494 0 -0.010854522664946999 -0.014748522115279094 0 -0.010608740502877375 -0.014975050129375346 0 -0.010649058666345815 -0.014744585814912453 0 -0.010854522664946999 -0.014748522115279094 0 -0.0062982117950371687 -0.017415399931068096 0 -0.0059074102413710344 -0.017397861412310738 0 -0.0060813251859797796 -0.017169631464282638 0 -0.0059074102413710344 -0.017397861412310738 0 -0.0056949608135169645 -0.017086302769011082 0 -0.0060813251859797796 -0.017169631464282638 0 -0.0062982117950371687 -0.017415399931068096 0 -0.0059074102413710344 -0.017397861412310738 0 -0.0056724675911020801 -0.01777765432562331 0 -0.0074323401072522799 -0.017319640858053056 0 -0.0078040086101410968 -0.01677004840069192 0 -0.006479618534184532 -0.01676553187488191 0 -0.0078040086101410968 -0.01677004840069192 0 -0.007751618636609915 -0.0157131247882791 0 -0.006479618534184532 -0.01676553187488191 0 -0.0079550392465748999 -0.015860906386596249 0 -0.0058553509715371446 -0.017451074888285838 0 -0.0056724675911020801 -0.01777765432562331 0 -0.0053552821516220693 -0.017429274777047647 0 -0.0053270884861165548 -0.017705104152225985 0 -0.0059074102413710344 -0.017397861412310738 0 -0.0056724675911020801 -0.01777765432562331 0 -0.0053552821516220693 -0.017429274777047647 0 -0.0059074102413710344 -0.017397861412310738 0 -0.0056949608135169645 -0.017086302769011082 0 -0.0053552821516220693 -0.017429274777047647 0 -0.0056949608135169645 -0.017086302769011082 0 -0.0056235911699086564 -0.016638819032891203 0 -0.0051811249748768187 -0.016965076556763541 0 -0.0056949608135169645 -0.017086302769011082 0 -0.0060813251859797796 -0.017169631464282638 0 -0.0060993902109766256 -0.01686484735203117 0 -0.0064051471693477059 -0.017023372286353242 0 -0.0060813251859797796 -0.017169631464282638 0 -0.0060993902109766256 -0.01686484735203117 0 -0.0060993902109766256 -0.01686484735203117 0 -0.0056235911699086564 -0.016638819032891203 0 -0.006271900524718598 -0.016358266265168109 0 -0.0056949608135169645 -0.017086302769011082 0 -0.0060993902109766256 -0.01686484735203117 0 -0.0056235911699086564 -0.016638819032891203 0 -0.0056235911699086564 -0.016638819032891203 0 -0.0051811249748768187 -0.016965076556763541 0 -0.0050621957993552827 -0.016449594285753356 0 -0.0051811249748768187 -0.016965076556763541 0 -0.0046535610139123206 -0.016866033825597787 0 -0.0050621957993552827 -0.016449594285753356 0 -0.0051811249748768187 -0.016965076556763541 0 -0.0047472835343385028 -0.017295115752004108 0 -0.0046535610139123206 -0.016866033825597787 0 -0.0056949608135169645 -0.017086302769011082 0 -0.0051811249748768187 -0.016965076556763541 0 -0.0053552821516220693 -0.017429274777047647 0 -0.0052392342085497666 -0.017840535106009085 0 -0.0056724675911020801 -0.01777765432562331 0 -0.0053270884861165548 -0.017705104152225985 0 -0.0053552821516220693 -0.017429274777047647 0 -0.0053270884861165548 -0.017705104152225985 0 -0.0050226039171764551 -0.017689998606262997 0 -0.0052392342085497666 -0.017840535106009085 0 -0.0053270884861165548 -0.017705104152225985 0 -0.0050226039171764551 -0.017689998606262997 0 -0.0050226039171764551 -0.017689998606262997 0 -0.0047472835343385028 -0.017295115752004108 0 -0.0046458829424255955 -0.017606726562141958 0 -0.0046947956286513054 -0.017912143968202548 0 -0.0050226039171764551 -0.017689998606262997 0 -0.0046458829424255955 -0.017606726562141958 0 -0.0053552821516220693 -0.017429274777047647 0 -0.0050226039171764551 -0.017689998606262997 0 -0.0047472835343385028 -0.017295115752004108 0 -0.0051811249748768187 -0.016965076556763541 0 -0.0053552821516220693 -0.017429274777047647 0 -0.0047472835343385028 -0.017295115752004108 0 -0.0047472835343385028 -0.017295115752004108 0 -0.0040707288556902409 -0.017410931988200363 0 -0.0042463355951636401 -0.017066212231972328 0 -0.0047472835343385028 -0.017295115752004108 0 -0.0046458829424255955 -0.017606726562141958 0 -0.0040707288556902409 -0.017410931988200363 0 -0.0046458829424255955 -0.017606726562141958 0 -0.0043089876769105868 -0.017789538057651318 0 -0.0040707288556902409 -0.017410931988200363 0 -0.0046947956286513054 -0.017912143968202548 0 -0.0046458829424255955 -0.017606726562141958 0 -0.0043089876769105868 -0.017789538057651318 0 -0.0038413844274893336 -0.017847432209202888 0 -0.0043089876769105868 -0.017789538057651318 0 -0.0039249023277908657 -0.017357234912136549 0 -0.0042791567162845838 -0.017771037633665308 0 -0.0040057890185253957 -0.017392422005171899 0 -0.0040057890185253957 -0.017392422005171899 0 -0.0037032958460328455 -0.016980404484918367 0 -0.0042463355951636401 -0.017066212231972328 0 -0.004153942738007111 -0.016755068607772761 0 -0.0037852157240340005 -0.017012519546597295 0 -0.0040707288556902409 -0.017410931988200363 0 -0.0042463355951636401 -0.017066212231972328 0 -0.0037852157240340005 -0.017012519546597295 0 -0.0047323410046242612 -0.017274390226636814 0 -0.0045754451979551089 -0.016862620100581711 0 -0.0042463355951636401 -0.017066212231972328 0 -0.0044927142202872816 -0.016836521531635548 0 -0.004153942738007111 -0.016755068607772761 0 -0.0047472835343385028 -0.017295115752004108 0 -0.0042463355951636401 -0.017066212231972328 0 -0.0044927142202872816 -0.016836521531635548 0 -0.0044927142202872816 -0.016836521531635548 0 -0.004153942738007111 -0.016755068607772761 0 -0.004290751372050425 -0.016404257361830016 0 -0.0046535610139123206 -0.016866033825597787 0 -0.0044689737170898842 -0.01639563316008431 0 -0.0050621957993552827 -0.016449594285753356 0 -0.0045754451979551089 -0.016862620100581711 0 -0.004379509250455417 -0.01639711726434186 0 -0.004153942738007111 -0.016755068607772761 0 -0.0037852157240340005 -0.017012519546597295 0 -0.0037690838006312105 -0.016672367188679756 0 -0.0041138910101582897 -0.016736870994444025 0 -0.0035629720111652117 -0.016365119984050418 0 -0.004153942738007111 -0.016755068607772761 0 -0.0039346891134726886 -0.016432175403174872 0 -0.0035153139178190772 -0.016445310523537877 0 -0.004153942738007111 -0.016755068607772761 0 -0.0039346891134726886 -0.016432175403174872 0 -0.004290751372050425 -0.016404257361830016 0 -0.0039346891134726886 -0.016432175403174872 0 -0.004290751372050425 -0.016404257361830016 0 -0.0037609272528479434 -0.016098672561036212 0 -0.0044689737170898842 -0.01639563316008431 0 -0.0047026904134035803 -0.016034980993532004 0 -0.0050621957993552827 -0.016449594285753356 0 -0.0044689737170898842 -0.01639563316008431 0 -0.0047026904134035803 -0.016034980993532004 0 -0.0042260885440327609 -0.015864228996869109 0 -0.004379509250455417 -0.01639711726434186 0 -0.0041633932003650948 -0.015853919376879053 0 -0.004290751372050425 -0.016404257361830016 0 -0.0041084833655892251 -0.015874781182044176 0 -0.0037609272528479434 -0.016098672561036212 0 -0.0041084833655892251 -0.015874781182044176 0 -0.0037706052242992491 -0.01581601192707446 0 -0.0037609272528479434 -0.016098672561036212 0 -0.0041084833655892251 -0.015874781182044176 0 -0.0037706052242992491 -0.01581601192707446 0 -0.0037335851108151624 -0.015545390643688897 0 -0.0042260885440327609 -0.015864228996869109 0 -0.0039475141512208206 -0.015266533347553176 0 -0.0045023684073617594 -0.015490280904004021 0 -0.0041633932003650948 -0.015853919376879053 0 -0.0039663336163457191 -0.015301401447376163 0 -0.0041084833655892251 -0.015874781182044176 0 -0.0039475141512208206 -0.015266533347553176 0 -0.0037335851108151624 -0.015545390643688897 0 -0.0039475141512208206 -0.015266533347553176 0 -0.0038711227122494273 -0.014999975267177496 0 -0.00467841123429739 -0.01499997330564307 0 -0.0039475141512208206 -0.015266533347553176 0 -0.0038711227122494273 -0.014999975267177496 0 -0.0035303348706542791 -0.015332691712619514 0 -0.0039475141512208206 -0.015266533347553176 0 -0.00467841123429739 -0.01499997330564307 0 -0.0045023684073617594 -0.015490280904004021 0 -0.0047026904134035803 -0.016034980993532004 0 -0.0042260885440327609 -0.015864228996869109 0 -0.0045023684073617594 -0.015490280904004021 0 -0.0047026904134035803 -0.016034980993532004 0 -0.0045023684073617594 -0.015490280904004021 0 -0.0050849972660007275 -0.015431263505540286 0 -0.0047026904134035803 -0.016034980993532004 0 -0.0050849972660007275 -0.015431263505540286 0 -0.0052277227184726379 -0.015937303624495587 0 -0.00467841123429739 -0.01499997330564307 0 -0.0045023684073617594 -0.015490280904004021 0 -0.0050849972660007275 -0.015431263505540286 0 -0.00467841123429739 -0.01499997330564307 0 -0.0050849972660007275 -0.015431263505540286 0 -0.005485621540094807 -0.014999977422019651 0 -0.0050849972660007275 -0.015431263505540286 0 -0.005485621540094807 -0.014999977422019651 0 -0.005959785265071774 -0.01571117717616656 0 -0.0050849972660007275 -0.015431263505540286 0 -0.0052277227184726379 -0.015937303624495587 0 -0.005959785265071774 -0.01571117717616656 0 -0.0052277227184726379 -0.015937303624495587 0 -0.0050621957993552827 -0.016449594285753356 0 -0.0056439041989281178 -0.01622467218571351 0 -0.0047026904134035803 -0.016034980993532004 0 -0.0052277227184726379 -0.015937303624495587 0 -0.0050621957993552827 -0.016449594285753356 0 -0.0056235911699086564 -0.016638819032891203 0 -0.0050621957993552827 -0.016449594285753356 0 -0.0056439041989281178 -0.01622467218571351 0 -0.0056439041989281178 -0.01622467218571351 0 -0.005959785265071774 -0.01571117717616656 0 -0.0064983778598965182 -0.016619174925885136 0 -0.005959785265071774 -0.01571117717616656 0 -0.0067717016529070051 -0.015634837281010682 0 -0.0064983778598965182 -0.016619174925885136 0 -0.0056235911699086564 -0.016638819032891203 0 -0.0056439041989281178 -0.01622467218571351 0 -0.0064983778598965182 -0.016619174925885136 0 -0.0056625193964450204 -0.016632844476417698 0 -0.0064142419126350467 -0.016480797455426487 0 -0.0052277227184726379 -0.015937303624495587 0 -0.0056439041989281178 -0.01622467218571351 0 -0.005959785265071774 -0.01571117717616656 0 -0.005485621540094807 -0.014999977422019651 0 -0.005959785265071774 -0.01571117717616656 0 -0.0062928539082228391 -0.014999952162162329 0 -0.005959785265071774 -0.01571117717616656 0 -0.0062928539082228391 -0.014999952162162329 0 -0.0067717016529070051 -0.015634837281010682 0 -0.0062928539082228391 -0.014999952162162329 0 -0.0067717016529070051 -0.015634837281010682 0 -0.0071001794193404849 -0.014999965151100813 0 -0.0074966347433848687 -0.015481182896275411 0 -0.0067717016529070051 -0.015634837281010682 0 -0.0071001794193404849 -0.014999965151100813 0 -0.0074966347433848687 -0.015481182896275411 0 -0.0067717016529070051 -0.015634837281010682 0 -0.0072247608788947003 -0.016045147600748627 0 -0.0067717016529070051 -0.015634837281010682 0 -0.0072247608788947003 -0.016045147600748627 0 -0.0064983778598965182 -0.016619174925885136 0 -0.0077011641785000862 -0.016138819145400295 0 -0.0072247608788947003 -0.016045147600748627 0 -0.0073810385326815503 -0.01649950470424847 0 -0.0064142419126350467 -0.016480797455426487 0 -0.0071347679559273921 -0.016323761440140649 0 -0.0066488982168043274 -0.016623086197081433 0 -0.006271900524718598 -0.016358266265168109 0 -0.0070922013632993995 -0.016103880879721654 0 -0.0072247608788947003 -0.016045147600748627 0 -0.0064983778598965182 -0.016619174925885136 0 -0.0073810385326815503 -0.01649950470424847 0 -0.0014363924244940793 -0.016915977300102997 0 -0.0018804053513399195 -0.017098647656282447 0 -0.0016634460694301583 -0.017355532407192984 0 -0.0014363924244940793 -0.016915977300102997 0 -0.0012825528672200531 -0.017170644437517233 0 -0.0016634460694301583 -0.017355532407192984 0 -0.0014363924244940793 -0.016915977300102997 0 -0.0018804053513399195 -0.017098647656282447 0 -0.0018049902119460527 -0.016801041969251328 0 -0.0018804053513399195 -0.017098647656282447 0 -0.0021288497087266619 -0.016845108747872112 0 -0.0022531516562529479 -0.017293930997008364 0 -0.0018804053513399195 -0.017098647656282447 0 -0.0018049902119460527 -0.016801041969251328 0 -0.0021288497087266619 -0.016845108747872112 0 -0.0018049902119460527 -0.016801041969251328 0 -0.0021288497087266619 -0.016845108747872112 0 -0.0018969583917855352 -0.016519018619199324 0 -0.0021288497087266619 -0.016845108747872112 0 -0.0018969583917855352 -0.016519018619199324 0 -0.0021564428323564964 -0.016498698221175775 0 -0.0018049902119460527 -0.016801041969251328 0 -0.0018969583917855352 -0.016519018619199324 0 -0.0015894567823589107 -0.016573862465289517 0 -0.0014363924244940793 -0.016915977300102997 0 -0.0018049902119460527 -0.016801041969251328 0 -0.0015894567823589107 -0.016573862465289517 0 -0.0014363924244940793 -0.016915977300102997 0 -0.0015894567823589107 -0.016573862465289517 0 -0.0012718598470973239 -0.016635376563126247 0 -0.0015894567823589107 -0.016573862465289517 0 -0.0012718598470973239 -0.016635376563126247 0 -0.0014176059026792345 -0.016336250270104435 0 -0.00090203616100594419 -0.016603800513842474 0 -0.0011466802438095457 -0.016865529982230891 0 -0.00084248781646637677 -0.016990806926178652 0 -0.0012718598470973239 -0.016635376563126247 0 -0.00090203616100594419 -0.016603800513842474 0 -0.0011466802438095457 -0.016865529982230891 0 -0.0014363924244940793 -0.016915977300102997 0 -0.0012718598470973239 -0.016635376563126247 0 -0.0011466802438095457 -0.016865529982230891 0 -0.00027916404481414853 -0.016558108053670414 0 -7.825641198931856e-05 -0.016202246598015491 0 -0.00090203616100594419 -0.016603800513842474 0 -0.00084248781646637677 -0.016990806926178652 0 -0.00044193474850755504 -0.016484968850703486 0 0.00027170056629333676 -0.01612993683818437 0 0.00026813216245228337 -0.015963271157200438 0 0.0003379454502484533 -0.016022369374152346 0 0.00027170056629333676 -0.01612993683818437 0 0.0003379454502484533 -0.016022369374152346 0 0.0004124450480920251 -0.016208157969319108 0 0.00027170056629333676 -0.01612993683818437 0 0.00033529617505670796 -0.016263868017027942 0 0.0004124450480920251 -0.016208157969319108 0 -0.0011466802438095457 -0.016865529982230891 0 -0.00084248781646637677 -0.016990806926178652 0 -0.0012825528672200531 -0.017170644437517233 0 -0.00084248781646637677 -0.016990806926178652 0 -0.0012825528672200531 -0.017170644437517233 0 -0.001174772830074382 -0.017495901942306283 0 -0.00027916404481414853 -0.016558108053670414 0 -0.00044583335085887909 -0.01691069074526801 0 0.00027170056629333676 -0.01612993683818437 0 0.00033529617505670796 -0.016263868017027942 0 0.00026952545010246372 -0.016371632090838594 0 -0.0014363924244940793 -0.016915977300102997 0 -0.0011466802438095457 -0.016865529982230891 0 -0.0012825528672200531 -0.017170644437517233 0 0.00026952545010246372 -0.016371632090838594 0 0.00039640101093028717 -0.016339161942638864 0 0.00037398414150704561 -0.016436648844167897 0 0.00033529617505670796 -0.016263868017027942 0 0.00026952545010246372 -0.016371632090838594 0 0.00039640101093028717 -0.016339161942638864 0 0.00033529617505670796 -0.016263868017027942 0 0.00039640101093028717 -0.016339161942638864 0 0.0004124450480920251 -0.016208157969319108 0 0.00026952545010246372 -0.016371632090838594 0 0.00037398414150704561 -0.016436648844167897 0 0.00031725565475049331 -0.016456575343245929 0 -0.00061468422766272548 -0.01725919478121828 0 -0.00044583335085887909 -0.01691069074526801 0 0.00036091723737113673 -0.016574393792792439 0 0.00037398414150704561 -0.016436648844167897 0 0.00031725565475049331 -0.016456575343245929 0 0.00036747156100568339 -0.016560282198966603 0 0.0006076078174262644 -0.016325619655994855 0 0.00024934600529973809 -0.016488616320916031 0 0.00026952545010246372 -0.016371632090838594 0 0.00031725565475049331 -0.016456575343245929 0 -0.0014454182070202349 -0.017923549298998847 0 -0.0015902677732590302 -0.01786064818289319 0 -0.0015196177166823398 -0.017656370997572082 0 -0.0015196177166823398 -0.017656370997572082 0 -0.0016634460694301583 -0.017355532407192984 0 -0.001740739181798952 -0.017819197681246717 0 -0.0014454182070202349 -0.017923549298998847 0 -0.001174772830074382 -0.017495901942306283 0 -0.0015196177166823398 -0.017656370997572082 0 -0.0015902677732590302 -0.01786064818289319 0 -0.0015196177166823398 -0.017656370997572082 0 -0.001740739181798952 -0.017819197681246717 0 -0.001174772830074382 -0.017495901942306283 0 -0.0015196177166823398 -0.017656370997572082 0 -0.0016634460694301583 -0.017355532407192984 0 -0.0012825528672200531 -0.017170644437517233 0 -0.001174772830074382 -0.017495901942306283 0 -0.0016634460694301583 -0.017355532407192984 0 -0.0016634460694301583 -0.017355532407192984 0 -0.0020079164516543036 -0.017438995270851354 0 -0.0019962392008922233 -0.017831140348228199 0 -0.0018804053513399195 -0.017098647656282447 0 -0.0020079164516543036 -0.017438995270851354 0 -0.0022531516562529479 -0.017293930997008364 0 -0.0018804053513399195 -0.017098647656282447 0 -0.0016634460694301583 -0.017355532407192984 0 -0.0020079164516543036 -0.017438995270851354 0 -0.0020079164516543036 -0.017438995270851354 0 -0.0022556919977361747 -0.01758549236402978 0 -0.0022531516562529479 -0.017293930997008364 0 -0.0022556919977361747 -0.01758549236402978 0 -0.0019962392008922233 -0.017831140348228199 0 -0.0022742493966504168 -0.01781081160139519 0 -0.0020079164516543036 -0.017438995270851354 0 -0.0022556919977361747 -0.01758549236402978 0 -0.0019962392008922233 -0.017831140348228199 0 -0.0016771228527296194 -0.017356909102462906 0 -0.0018597662802020268 -0.017851370472297626 0 -0.0017016244060509762 -0.017953816513731156 0 -0.0015902677732590302 -0.01786064818289319 0 -0.001740739181798952 -0.017819197681246717 0 -0.0023416033332550401 -0.018026705016990243 0 -0.0019962392008922233 -0.017831140348228199 0 -0.0022742493966504168 -0.01781081160139519 0 -0.0025584817660756608 -0.017929146551958534 0 -0.0022742493966504168 -0.01781081160139519 0 -0.0025121848902745388 -0.017711911228268287 0 -0.0022556919977361747 -0.01758549236402978 0 -0.0022742493966504168 -0.01781081160139519 0 -0.0025121848902745388 -0.017711911228268287 0 -0.0022556919977361747 -0.01758549236402978 0 -0.0025121848902745388 -0.017711911228268287 0 -0.0025311059981368601 -0.017456312536227786 0 -0.0025121848902745388 -0.017711911228268287 0 -0.002722489577660869 -0.017837359864362825 0 -0.0027765215813988311 -0.017630406092596265 0 -0.0025121848902745388 -0.017711911228268287 0 -0.0027765215813988311 -0.017630406092596265 0 -0.0025311059981368601 -0.017456312536227786 0 -0.0025584817660756608 -0.017929146551958534 0 -0.0025121848902745388 -0.017711911228268287 0 -0.002722489577660869 -0.017837359864362825 0 -0.002722489577660869 -0.017837359864362825 0 -0.0029385037702962637 -0.017865098708927926 0 -0.0027765215813988311 -0.017630406092596265 0 -0.0029385037702962637 -0.017865098708927926 0 -0.0027765215813988311 -0.017630406092596265 0 -0.0030829725512724225 -0.017549172161237827 0 -0.0028170408625434926 -0.017295958943176752 0 -0.0030829725512724225 -0.017549172161237827 0 -0.0031517582081568955 -0.017038647865281392 0 -0.0027765215813988311 -0.017630406092596265 0 -0.0028170408625434926 -0.017295958943176752 0 -0.0025311059981368601 -0.017456312536227786 0 -0.0027765215813988311 -0.017630406092596265 0 -0.0028170408625434926 -0.017295958943176752 0 -0.0030829725512724225 -0.017549172161237827 0 -0.0022531516562529479 -0.017293930997008364 0 -0.0025311059981368601 -0.017456312536227786 0 -0.0025303306669209528 -0.017045803716832758 0 -0.0028170408625434926 -0.017295958943176752 0 -0.0025311059981368601 -0.017456312536227786 0 -0.0025303306669209528 -0.017045803716832758 0 -0.0022556919977361747 -0.01758549236402978 0 -0.0022531516562529479 -0.017293930997008364 0 -0.0025311059981368601 -0.017456312536227786 0 -0.0034924893260935268 -0.017982317952124374 0 -0.0038413844274893336 -0.017847432209202888 0 -0.003426485289496504 -0.017649108199748895 0 -0.0038413844274893336 -0.017847432209202888 0 -0.0039249023277908657 -0.017357234912136549 0 -0.003426485289496504 -0.017649108199748895 0 -0.0032193055593019654 -0.017869558201165953 0 -0.0034924893260935268 -0.017982317952124374 0 -0.003426485289496504 -0.017649108199748895 0 -0.0032193055593019654 -0.017869558201165953 0 -0.003426485289496504 -0.017649108199748895 0 -0.0030829725512724225 -0.017549172161237827 0 -0.0032193055593019654 -0.017869558201165953 0 -0.0029385037702962637 -0.017865098708927926 0 -0.0030829725512724225 -0.017549172161237827 0 -0.0030829725512724225 -0.017549172161237827 0 -0.0034590041250628653 -0.017282134191553212 0 -0.0031517582081568955 -0.017038647865281392 0 -0.003426485289496504 -0.017649108199748895 0 -0.0030829725512724225 -0.017549172161237827 0 -0.0034590041250628653 -0.017282134191553212 0 -0.0039249023277908657 -0.017357234912136549 0 -0.0034590041250628653 -0.017282134191553212 0 -0.0036228299905448238 -0.016951604521590762 0 -0.0039249023277908657 -0.017357234912136549 0 -0.003426485289496504 -0.017649108199748895 0 -0.0034590041250628653 -0.017282134191553212 0 -0.0034590041250628653 -0.017282134191553212 0 -0.0036228299905448238 -0.016951604521590762 0 -0.0031517582081568955 -0.017038647865281392 0 -0.0036228299905448238 -0.016951604521590762 0 -0.0031517582081568955 -0.017038647865281392 0 -0.0030753343909864254 -0.016734205608314703 0 -0.0031517582081568955 -0.017038647865281392 0 -0.0030753343909864254 -0.016734205608314703 0 -0.0028435529886955135 -0.017013079778478882 0 -0.0036228299905448238 -0.016951604521590762 0 -0.0030753343909864254 -0.016734205608314703 0 -0.0033322097811493648 -0.016509316429887521 0 -0.0030753343909864254 -0.016734205608314703 0 -0.0033322097811493648 -0.016509316429887521 0 -0.003027533196785726 -0.016366080530166287 0 -0.004153942738007111 -0.016755068607772761 0 -0.0037690838006312105 -0.016672367188679756 0 -0.0036117814035095718 -0.016285592809253856 0 -0.0037852157240340005 -0.017012519546597295 0 -0.0034539899430921419 -0.016572835642424035 0 -0.0037690838006312105 -0.016672367188679756 0 -0.0037032958460328455 -0.016980404484918367 0 -0.0033865979088110185 -0.016528410046653064 0 -0.0034539899430921419 -0.016572835642424035 0 -0.0037690838006312105 -0.016672367188679756 0 -0.0036117814035095718 -0.016285592809253856 0 -0.0021288497087266619 -0.016845108747872112 0 -0.0022531516562529479 -0.017293930997008364 0 -0.0025303306669209528 -0.017045803716832758 0 -0.0028170408625434926 -0.017295958943176752 0 -0.0025303306669209528 -0.017045803716832758 0 -0.0028435529886955135 -0.017013079778478882 0 -0.0028170408625434926 -0.017295958943176752 0 -0.0031517582081568955 -0.017038647865281392 0 -0.0028435529886955135 -0.017013079778478882 0 -0.0030753343909864254 -0.016734205608314703 0 -0.0028435529886955135 -0.017013079778478882 0 -0.002749203891598414 -0.016746050591389668 0 -0.0025303306669209528 -0.017045803716832758 0 -0.0028435529886955135 -0.017013079778478882 0 -0.002749203891598414 -0.016746050591389668 0 -0.0030753343909864254 -0.016734205608314703 0 -0.0027726539259212007 -0.016473796361681198 0 -0.003027533196785726 -0.016366080530166287 0 -0.0030753343909864254 -0.016734205608314703 0 -0.002749203891598414 -0.016746050591389668 0 -0.0027726539259212007 -0.016473796361681198 0 -0.002749203891598414 -0.016746050591389668 0 -0.0027726539259212007 -0.016473796361681198 0 -0.002432503891982869 -0.016623195279891052 0 -0.0027726539259212007 -0.016473796361681198 0 -0.002432503891982869 -0.016623195279891052 0 -0.0025265457373094069 -0.016386102468811933 0 -0.0025303306669209528 -0.017045803716832758 0 -0.002749203891598414 -0.016746050591389668 0 -0.002432503891982869 -0.016623195279891052 0 -0.0021288497087266619 -0.016845108747872112 0 -0.0025303306669209528 -0.017045803716832758 0 -0.002432503891982869 -0.016623195279891052 0 -0.0021288497087266619 -0.016845108747872112 0 -0.002432503891982869 -0.016623195279891052 0 -0.0021564428323564964 -0.016498698221175775 0 -0.002432503891982869 -0.016623195279891052 0 -0.0021564428323564964 -0.016498698221175775 0 -0.002287222554132458 -0.01629162437680752 0 -0.0021564428323564964 -0.016498698221175775 0 -0.002287222554132458 -0.01629162437680752 0 -0.002028768359682495 -0.01624465780454792 0 -0.002287222554132458 -0.01629162437680752 0 -0.0022305179416397666 -0.016047086466179871 0 -0.002028768359682495 -0.01624465780454792 0 -0.002287222554132458 -0.01629162437680752 0 -0.0024619305126320616 -0.01612771383223895 0 -0.0022305179416397666 -0.016047086466179871 0 -0.002287222554132458 -0.01629162437680752 0 -0.0024619305126320616 -0.01612771383223895 0 -0.0025265457373094069 -0.016386102468811933 0 -0.002432503891982869 -0.016623195279891052 0 -0.002287222554132458 -0.01629162437680752 0 -0.0025265457373094069 -0.016386102468811933 0 -0.0027726539259212007 -0.016473796361681198 0 -0.0025265457373094069 -0.016386102468811933 0 -0.0026748680191929887 -0.016238550705250675 0 -0.0027726539259212007 -0.016473796361681198 0 -0.0028682688154664112 -0.016218512723534747 0 -0.003027533196785726 -0.016366080530166287 0 -0.0027726539259212007 -0.016473796361681198 0 -0.0028682688154664112 -0.016218512723534747 0 -0.0026748680191929887 -0.016238550705250675 0 -0.0028682688154664112 -0.016218512723534747 0 -0.0026748680191929887 -0.016238550705250675 0 -0.0027176580560592267 -0.016007780301582314 0 -0.0024619305126320616 -0.01612771383223895 0 -0.0026748680191929887 -0.016238550705250675 0 -0.0027176580560592267 -0.016007780301582314 0 -0.0024619305126320616 -0.01612771383223895 0 -0.0025265457373094069 -0.016386102468811933 0 -0.0026748680191929887 -0.016238550705250675 0 -0.0024619305126320616 -0.01612771383223895 0 -0.0027176580560592267 -0.016007780301582314 0 -0.0024232385932470039 -0.015903691123084478 0 -0.0028682688154664112 -0.016218512723534747 0 -0.0027176580560592267 -0.016007780301582314 0 -0.0030602556895935632 -0.016036526142372987 0 -0.0027176580560592267 -0.016007780301582314 0 -0.0028999023651972741 -0.015797911998334087 0 -0.0030602556895935632 -0.016036526142372987 0 -0.0027176580560592267 -0.016007780301582314 0 -0.0028999023651972741 -0.015797911998334087 0 -0.0026266475205391784 -0.0157511411689698 0 -0.0027176580560592267 -0.016007780301582314 0 -0.0026266475205391784 -0.0157511411689698 0 -0.0024232385932470039 -0.015903691123084478 0 -0.0026266475205391784 -0.0157511411689698 0 -0.0023477104179773461 -0.015722940863535182 0 -0.0024232385932470039 -0.015903691123084478 0 -0.0023477104179773461 -0.015722940863535182 0 -0.0022083458102720929 -0.01582363312127421 0 -0.0024232385932470039 -0.015903691123084478 0 -0.0022083458102720929 -0.01582363312127421 0 -0.0021519757602798855 -0.015592174590656949 0 -0.0018874803007066813 -0.015886202878315592 0 -0.0022083458102720929 -0.01582363312127421 0 -0.0022305179416397666 -0.016047086466179871 0 -0.0024232385932470039 -0.015903691123084478 0 -0.0022083458102720929 -0.01582363312127421 0 -0.0022305179416397666 -0.016047086466179871 0 -0.0018874803007066813 -0.015886202878315592 0 -0.0024619305126320616 -0.01612771383223895 0 -0.0022305179416397666 -0.016047086466179871 0 -0.0024232385932470039 -0.015903691123084478 0 -0.0039346891134726886 -0.016432175403174872 0 -0.0035153139178190772 -0.016445310523537877 0 -0.0037609272528479434 -0.016098672561036212 0 -0.0034539899430921419 -0.016572835642424035 0 -0.0036117814035095718 -0.016285592809253856 0 -0.0030602556895935632 -0.016036526142372987 0 -0.0033322097811493648 -0.016509316429887521 0 -0.003027533196785726 -0.016366080530166287 0 -0.0030602556895935632 -0.016036526142372987 0 -0.0033865979088110185 -0.016528410046653064 0 -0.0030885977257825046 -0.016066996533708838 0 -0.0028682688154664112 -0.016218512723534747 0 -0.003027533196785726 -0.016366080530166287 0 -0.0030602556895935632 -0.016036526142372987 0 -0.0028999023651972741 -0.015797911998334087 0 -0.0036117814035095718 -0.016285592809253856 0 -0.0030602556895935632 -0.016036526142372987 0 -0.0028215414203018024 -0.016019274342093492 0 -0.003337822527503931 -0.016022249389052317 0 -0.0031159276232229772 -0.015793233914558072 0 -0.0028613854574400985 -0.015908096625963635 0 -0.0035629720111652117 -0.016365119984050418 0 -0.0028215414203018024 -0.016019274342093492 0 -0.0035153139178190772 -0.016445310523537877 0 -0.003337822527503931 -0.016022249389052317 0 -0.0035153139178190772 -0.016445310523537877 0 -0.003337822527503931 -0.016022249389052317 0 -0.0037609272528479434 -0.016098672561036212 0 -0.003337822527503931 -0.016022249389052317 0 -0.0037609272528479434 -0.016098672561036212 0 -0.0034664254595353733 -0.015740103601855137 0 -0.0037706052242992491 -0.01581601192707446 0 -0.0037609272528479434 -0.016098672561036212 0 -0.0034664254595353733 -0.015740103601855137 0 -0.0037335851108151624 -0.015545390643688897 0 -0.0034664254595353733 -0.015740103601855137 0 -0.0035303348706542791 -0.015332691712619514 0 -0.0037706052242992491 -0.01581601192707446 0 -0.0037335851108151624 -0.015545390643688897 0 -0.0034664254595353733 -0.015740103601855137 0 -0.0034664254595353733 -0.015740103601855137 0 -0.0031202443746757131 -0.015453874618641204 0 -0.0035303348706542791 -0.015332691712619514 0 -0.003337822527503931 -0.016022249389052317 0 -0.0034664254595353733 -0.015740103601855137 0 -0.0031159276232229772 -0.015793233914558072 0 -0.0034664254595353733 -0.015740103601855137 0 -0.0031202443746757131 -0.015453874618641204 0 -0.0031159276232229772 -0.015793233914558072 0 -0.0028215414203018024 -0.016019274342093492 0 -0.0031159276232229772 -0.015793233914558072 0 -0.0028019584990907416 -0.015688137064086047 0 -0.0031202443746757131 -0.015453874618641204 0 -0.0031159276232229772 -0.015793233914558072 0 -0.0028019584990907416 -0.015688137064086047 0 -0.0031202443746757131 -0.015453874618641204 0 -0.0028019584990907416 -0.015688137064086047 0 -0.0027251541186383331 -0.015442948048478067 0 -0.0031202443746757131 -0.015453874618641204 0 -0.0030638525882041938 -0.014999977385828075 0 -0.0027251541186383331 -0.015442948048478067 0 -0.0031202443746757131 -0.015453874618641204 0 -0.0030638525882041938 -0.014999977385828075 0 -0.0035303348706542791 -0.015332691712619514 0 -0.0038711227122494273 -0.014999975267177496 0 -0.0030638525882041938 -0.014999977385828075 0 -0.0035303348706542791 -0.015332691712619514 0 -0.0039475141512208206 -0.015266533347553176 0 -0.0037335851108151624 -0.015545390643688897 0 -0.0035303348706542791 -0.015332691712619514 0 -0.0022526563690988223 -0.015410491249935787 0 -0.0021519757602798855 -0.015592174590656949 0 -0.0016749773061296976 -0.015420883417361298 0 -0.0022526563690988223 -0.015410491249935787 0 -0.0021519757602798855 -0.015592174590656949 0 -0.0023450445580928737 -0.015618856269093132 0 -0.0023477104179773461 -0.015722940863535182 0 -0.0022083458102720929 -0.01582363312127421 0 -0.0021519757602798855 -0.015592174590656949 0 -0.0026266475205391784 -0.0157511411689698 0 -0.0023477104179773461 -0.015722940863535182 0 -0.0023450445580928737 -0.015618856269093132 0 -0.0026266475205391784 -0.0157511411689698 0 -0.0022526563690988223 -0.015410491249935787 0 -0.0023450445580928737 -0.015618856269093132 0 -0.0023477104179773461 -0.015722940863535182 0 -0.0021519757602798855 -0.015592174590656949 0 -0.0023450445580928737 -0.015618856269093132 0 -0.0028613854574400985 -0.015908096625963635 0 -0.0021913955787548848 -0.01547230033199358 0 -0.0028215414203018024 -0.016019274342093492 0 -0.0021241105904723353 -0.015524572070544473 0 -0.0028019584990907416 -0.015688137064086047 0 -0.0028999023651972741 -0.015797911998334087 0 -0.0026266475205391784 -0.0157511411689698 0 -0.0022526563690988223 -0.015410491249935787 0 -0.0021241105904723353 -0.015524572070544473 0 -0.0028019584990907416 -0.015688137064086047 0 -0.0027251541186383331 -0.015442948048478067 0 -0.0021241105904723353 -0.015524572070544473 0 -0.0024043026731740968 -0.01531249602560655 0 -0.0027251541186383331 -0.015442948048478067 0 -0.0030638525882041938 -0.014999977385828075 0 -0.0024043026731740968 -0.01531249602560655 0 -0.0027251541186383331 -0.015442948048478067 0 -0.0030638525882041938 -0.014999977385828075 0 -0.0024043026731740968 -0.01531249602560655 0 -0.0022565681167066509 -0.014999976550175428 0 -0.0021241105904723353 -0.015524572070544473 0 -0.0022565681167066509 -0.014999976550175428 0 -0.0014492601199885514 -0.015000007357079499 0 -0.0021241105904723353 -0.015524572070544473 0 -0.0024043026731740968 -0.01531249602560655 0 -0.0022565681167066509 -0.014999976550175428 0 -0.0021913955787548848 -0.01547230033199358 0 -0.0014494258772104641 -0.015000087381104917 0 -0.0022526563690988223 -0.015410491249935787 0 -0.001449459515301469 -0.01499975263194748 0 -0.0016749773061296976 -0.015420883417361298 0 -0.001449459515301469 -0.01499975263194748 0 -0.0011390222493219571 -0.01568021110615346 0 -0.00057597840985279211 -0.015000040306168106 0 -0.001449459515301469 -0.01499975263194748 0 -0.0011390222493219571 -0.01568021110615346 0 -0.0016749773061296976 -0.015420883417361298 0 -0.0021001894849513795 -0.015593112864538834 0 -0.0012960364821184257 -0.015570200311594271 0 -0.0021519757602798855 -0.015592174590656949 0 -0.0014457852524508887 -0.01546737995889789 0 -0.0018874803007066813 -0.015886202878315592 0 -0.0021519757602798855 -0.015592174590656949 0 -0.0011390222493219571 -0.01568021110615346 0 -0.0016749773061296976 -0.015420883417361298 0 -0.0022305179416397666 -0.016047086466179871 0 -0.0018874803007066813 -0.015886202878315592 0 -0.002028768359682495 -0.01624465780454792 0 -0.0014457852524508887 -0.01546737995889789 0 -0.0018874803007066813 -0.015886202878315592 0 -0.0013247182652368584 -0.015995112639118431 0 -0.0018874803007066813 -0.015886202878315592 0 -0.0013247182652368584 -0.015995112639118431 0 -0.0017058788222236766 -0.016222358178957081 0 -0.0013247182652368584 -0.015995112639118431 0 -0.0014176059026792345 -0.016336250270104435 0 -0.0017058788222236766 -0.016222358178957081 0 -0.0013247182652368584 -0.015995112639118431 0 -0.0014176059026792345 -0.016336250270104435 0 -0.0010747025862530768 -0.016317252437304752 0 -0.0015894567823589107 -0.016573862465289517 0 -0.0014176059026792345 -0.016336250270104435 0 -0.0017058788222236766 -0.016222358178957081 0 -0.0018969583917855352 -0.016519018619199324 0 -0.0015894567823589107 -0.016573862465289517 0 -0.0017058788222236766 -0.016222358178957081 0 -0.0018969583917855352 -0.016519018619199324 0 -0.002028768359682495 -0.01624465780454792 0 -0.0017058788222236766 -0.016222358178957081 0 -0.0018969583917855352 -0.016519018619199324 0 -0.0021564428323564964 -0.016498698221175775 0 -0.002028768359682495 -0.01624465780454792 0 -0.0018874803007066813 -0.015886202878315592 0 -0.002028768359682495 -0.01624465780454792 0 -0.0017058788222236766 -0.016222358178957081 0 -0.00076123822533107185 -0.016305429612624111 0 -0.00044193474850755504 -0.016484968850703486 0 -0.00050443063540884007 -0.016036043633209429 0 -0.00090203616100594419 -0.016603800513842474 0 -0.00076123822533107185 -0.016305429612624111 0 -0.00044193474850755504 -0.016484968850703486 0 -0.00090203616100594419 -0.016603800513842474 0 -0.00076123822533107185 -0.016305429612624111 0 -0.0010747025862530768 -0.016317252437304752 0 -0.0012718598470973239 -0.016635376563126247 0 -0.00090203616100594419 -0.016603800513842474 0 -0.0010747025862530768 -0.016317252437304752 0 -0.0012718598470973239 -0.016635376563126247 0 -0.0014176059026792345 -0.016336250270104435 0 -0.0010747025862530768 -0.016317252437304752 0 -0.0013247182652368584 -0.015995112639118431 0 -0.0010747025862530768 -0.016317252437304752 0 -0.00087455218441902954 -0.01605251124170666 0 -0.00076123822533107185 -0.016305429612624111 0 -0.0010747025862530768 -0.016317252437304752 0 -0.00087455218441902954 -0.01605251124170666 0 -0.0014457852524508887 -0.01546737995889789 0 -0.0013247182652368584 -0.015995112639118431 0 -0.00083575038488436354 -0.015785383442194552 0 -0.0013247182652368584 -0.015995112639118431 0 -0.00087455218441902954 -0.01605251124170666 0 -0.00083575038488436354 -0.015785383442194552 0 -0.00044193474850755504 -0.016484968850703486 0 -0.00050443063540884007 -0.016036043633209429 0 0.00010664891337274754 -0.015868709576253956 0 -0.00083575038488436354 -0.015785383442194552 0 -0.00050443063540884007 -0.016036043633209429 0 -0.0002905140796265313 -0.015749776676043832 0 -0.00076123822533107185 -0.016305429612624111 0 -0.00087455218441902954 -0.01605251124170666 0 -0.00050443063540884007 -0.016036043633209429 0 -0.00087455218441902954 -0.01605251124170666 0 -0.00083575038488436354 -0.015785383442194552 0 -0.00050443063540884007 -0.016036043633209429 0 -0.00050443063540884007 -0.016036043633209429 0 -0.0002905140796265313 -0.015749776676043832 0 0.00010664891337274754 -0.015868709576253956 0 -0.0002905140796265313 -0.015749776676043832 0 -0.00048332499203463048 -0.015400911676080603 0 0.00015522671360867289 -0.015784857382002301 0 -0.00083575038488436354 -0.015785383442194552 0 -0.0002905140796265313 -0.015749776676043832 0 -0.00048332499203463048 -0.015400911676080603 0 -0.0014457852524508887 -0.01546737995889789 0 -0.00083575038488436354 -0.015785383442194552 0 -0.00048332499203463048 -0.015400911676080603 0 -0.0012960364821184257 -0.015570200311594271 0 -0.00035684374146177449 -0.015535681425520836 0 -0.0011390222493219571 -0.01568021110615346 0 -0.00024623185874796257 -0.015651601046516028 0 -0.00057597840985279211 -0.015000040306168106 0 -0.00024623185874796257 -0.015651601046516028 0 -0.00057597840985279211 -0.015000040306168106 0 0.00029718897715532967 -0.014999956289262704 0 -0.00024623185874796257 -0.015651601046516028 0 0.00029718897715532967 -0.014999956289262704 0 0.0005967704404978443 -0.015572964622208059 0 0.00029718897715532967 -0.014999956289262704 0 0.0005967704404978443 -0.015572964622208059 0 0.00098801536844209028 -0.015400679116670002 0 0.00029718897715532967 -0.014999956289262704 0 0.0011704075838757293 -0.014999961894642998 0 0.00098801536844209028 -0.015400679116670002 0 0.0005967704404978443 -0.015572964622208059 0 0.00098801536844209028 -0.015400679116670002 0 0.00097347777199050032 -0.015815278680332549 0 0.0005967704404978443 -0.015572964622208059 0 0.00061068340562641938 -0.015815149980314851 0 0.00097347777199050032 -0.015815278680332549 0 0.0005967704404978443 -0.015572964622208059 0 0.00061068340562641938 -0.015815149980314851 0 0.00015522671360867289 -0.015784857382002301 0 -0.00035684374146177449 -0.015535681425520836 0 0.00053638025977430052 -0.01556036666174394 0 -0.00048332499203463048 -0.015400911676080603 0 0.0005967704404978443 -0.015572964622208059 0 0.00015522671360867289 -0.015784857382002301 0 0.0017841862036337836 -0.015339031249191127 0 0.0011704075838757293 -0.014999961894642998 0 0.0013955403165215592 -0.015562231064866991 0 0.0017841862036337836 -0.015339031249191127 0 0.0011704075838757293 -0.014999961894642998 0 0.0020436704770537967 -0.014999977305059538 0 0.0011704075838757293 -0.014999961894642998 0 0.00098801536844209028 -0.015400679116670002 0 0.0013955403165215592 -0.015562231064866991 0 0.00097347777199050032 -0.015815278680332549 0 0.0013955403165215592 -0.015562231064866991 0 0.0013672978536591561 -0.016149161584820996 0 0.00098801536844209028 -0.015400679116670002 0 0.00097347777199050032 -0.015815278680332549 0 0.0013955403165215592 -0.015562231064866991 0 0.0017841862036337836 -0.015339031249191127 0 0.0013955403165215592 -0.015562231064866991 0 0.0020109492442494316 -0.015705770080104386 0 0.0013955403165215592 -0.015562231064866991 0 0.0013672978536591561 -0.016149161584820996 0 0.0020109492442494316 -0.015705770080104386 0 0.0019835750574173591 -0.01586877608371599 0 0.0017833399451999067 -0.015890619600451749 0 0.0022178585793286021 -0.015585571444048619 0 0.0016058529308748618 -0.016058975155864755 0 0.00211836812170196 -0.015634959477074366 0 0.0019835750574173591 -0.01586877608371599 0 0.0021238146443041785 -0.016080326931008842 0 0.0021890703706243671 -0.015811388131723982 0 0.0019835750574173591 -0.01586877608371599 0 0.0017833399451999067 -0.015890619600451749 0 0.0018225145984637077 -0.016147464138468372 0 0.0013672978536591561 -0.016149161584820996 0 0.00092931715040909504 -0.01617751478167425 0 0.00068684681851217998 -0.016673691059455941 0 0.00097347777199050032 -0.015815278680332549 0 0.0013672978536591561 -0.016149161584820996 0 0.00092931715040909504 -0.01617751478167425 0 0.0016058529308748618 -0.016058975155864755 0 0.00078494869874818241 -0.016124732958339057 0 0.0017833399451999067 -0.015890619600451749 0 0.0016504674900783365 -0.01618345288631818 0 0.0018225145984637077 -0.016147464138468372 0 0.0016504674900783365 -0.01618345288631818 0 0.0013786083825095604 -0.01617969261145014 0 0.0017112344106685962 -0.016381644903878178 0 0.0017833399451999067 -0.015890619600451749 0 0.0016504674900783365 -0.01618345288631818 0 0.0013786083825095604 -0.01617969261145014 0 0.0017507017973126164 -0.016279836270537442 0 0.0018225145984637077 -0.016147464138468372 0 0.0018181694623575651 -0.01640560902450704 0 0.0016504674900783365 -0.01618345288631818 0 0.0017507017973126164 -0.016279836270537442 0 0.0017112344106685962 -0.016381644903878178 0 0.0016504674900783365 -0.01618345288631818 0 0.0017507017973126164 -0.016279836270537442 0 0.0018225145984637077 -0.016147464138468372 0 0.0018873107289089802 -0.01633171677520846 0 0.0021990791587762023 -0.016030884408099459 0 0.0022425472945922825 -0.016175268300822325 0 0.0020923002718654191 -0.016223325655553136 0 0.002242295081864687 -0.016004086349603479 0 0.0019835750574173591 -0.01586877608371599 0 0.0018225145984637077 -0.016147464138468372 0 0.0018181694623575651 -0.01640560902450704 0 0.0019835750574173591 -0.01586877608371599 0 0.0018319090614531102 -0.016447236814984903 0 0.0021238146443041785 -0.016080326931008842 0 0.0019546192056474954 -0.015932270964889219 0 0.0018873107289089802 -0.01633171677520846 0 0.00015522671360867289 -0.015784857382002301 0 0.00010664891337274754 -0.015868709576253956 0 0.00028907629536870425 -0.01597435539213048 0 -0.0002905140796265313 -0.015749776676043832 0 0.00015522671360867289 -0.015784857382002301 0 0.00010664891337274754 -0.015868709576253956 0 0.00061068340562641938 -0.015815149980314851 0 0.00015522671360867289 -0.015784857382002301 0 0.00068635127623717905 -0.01609262322393001 0 8.8895574877759229e-05 -0.015865712182900105 0 0.00078494869874818241 -0.016124732958339057 0 0.00092931715040909504 -0.01617751478167425 0 0.00068635127623717905 -0.01609262322393001 0 0.00068684681851217998 -0.016673691059455941 0 0.00015522671360867289 -0.015784857382002301 0 0.00068635127623717905 -0.01609262322393001 0 0.00068684681851217998 -0.016673691059455941 0 0.00097347777199050032 -0.015815278680332549 0 0.00092931715040909504 -0.01617751478167425 0 0.00068635127623717905 -0.01609262322393001 0 0.00061068340562641938 -0.015815149980314851 0 0.00097347777199050032 -0.015815278680332549 0 0.00068635127623717905 -0.01609262322393001 0 0.00026813216245228337 -0.015963271157200438 0 0.00023059740707773234 -0.015944542045689736 0 0.0003379454502484533 -0.016022369374152346 0 -7.825641198931856e-05 -0.016202246598015491 0 0.00010059266665405806 -0.015868263366989033 0 0.00026813216245228337 -0.015963271157200438 0 0.00010664891337274754 -0.015868709576253956 0 0.00023059740707773234 -0.015944542045689736 0 0.00010664891337274754 -0.015868709576253956 0 0.00028907629536870425 -0.01597435539213048 0 0.00023059740707773234 -0.015944542045689736 0 0.00028907629536870425 -0.01597435539213048 0 0.00023059740707773234 -0.015944542045689736 0 0.0003379454502484533 -0.016022369374152346 0 0.0003379454502484533 -0.016022369374152346 0 0.00056479706824554476 -0.016122063608056989 0 0.00076686135165060911 -0.015919682140851574 0 0.00083081454176616744 -0.015669069875098807 0 0.0003379454502484533 -0.016022369374152346 0 0.00076686135165060911 -0.015919682140851574 0 0.00078494869874818241 -0.016124732958339057 0 0.00027801180016564456 -0.015929367810616844 0 0.00056479706824554476 -0.016122063608056989 0 0.00070780382378147588 -0.016124491010474484 0 0.00054863329072842536 -0.016343645122099959 0 0.00056479706824554476 -0.016122063608056989 0 0.0004124450480920251 -0.016208157969319108 0 0.00054863329072842536 -0.016343645122099959 0 0.0003379454502484533 -0.016022369374152346 0 0.00056479706824554476 -0.016122063608056989 0 0.0004124450480920251 -0.016208157969319108 0 0.00095375221072912912 -0.016085094046818984 0 0.00084253578835079951 -0.016177642374523765 0 0.00070780382378147588 -0.016124491010474484 0 0.00095029752052654657 -0.016086000056276951 0 0.00054863329072842536 -0.016343645122099959 0 0.00095029752052654657 -0.016086000056276951 0 0.0011413834929873191 -0.016028587529988883 0 0.0010340947890848421 -0.016040345504121402 0 0.00078494869874818241 -0.016124732958339057 0 0.0016061118179789106 -0.016101275673855959 0 0.00083081454176616744 -0.015669069875098807 0 0.00076686135165060911 -0.015919682140851574 0 0.00103440564000059 -0.016104857281041402 0 0.00095029752052654657 -0.016086000056276951 0 0.00076686135165060911 -0.015919682140851574 0 0.00103440564000059 -0.016104857281041402 0 0.00070780382378147588 -0.016124491010474484 0 0.00095029752052654657 -0.016086000056276951 0 0.00076686135165060911 -0.015919682140851574 0 0.00056479706824554476 -0.016122063608056989 0 0.00070780382378147588 -0.016124491010474484 0 0.00076686135165060911 -0.015919682140851574 0 0.0013786083825095604 -0.01617969261145014 0 0.0017112344106685962 -0.016381644903878178 0 0.001645256030429537 -0.016619823585807294 0 0.0017507017973126164 -0.016279836270537442 0 0.0017112344106685962 -0.016381644903878178 0 0.0018181694623575651 -0.01640560902450704 0 0.0017112344106685962 -0.016381644903878178 0 0.0017321672892062908 -0.016511552538464491 0 0.0018181694623575651 -0.01640560902450704 0 0.0017112344106685962 -0.016381644903878178 0 0.0017317203866423767 -0.01651197850417669 0 0.001645256030429537 -0.016619823585807294 0 0.0018650118692943932 -0.016302020924821498 0 0.0018372436663002033 -0.016337471251312678 0 0.0018578194095934474 -0.01625807973374899 0 0.0017434125505114352 -0.016411704782049973 0 0.0017500641137307821 -0.016340936581971482 0 0.0018873107289089802 -0.01633171677520846 0 0.0018621318127228868 -0.016215501210193703 0 0.0017500641137307821 -0.016340936581971482 0 0.0018873107289089802 -0.01633171677520846 0 0.0017500641137307821 -0.016340936581971482 0 0.0018621318127228868 -0.016215501210193703 0 0.0017500641137307821 -0.016340936581971482 0 0.0016061118179789106 -0.016101275673855959 0 0.0022425472945922825 -0.016175268300822325 0 0.0021864036672699567 -0.016259905191611083 0 0.0022605398837199594 -0.016287802592838015 0 0.0022425472945922825 -0.016175268300822325 0 0.0020923002718654191 -0.016223325655553136 0 0.0021864036672699567 -0.016259905191611083 0 0.0020923002718654191 -0.016223325655553136 0 0.0021462239465702988 -0.016324397469570356 0 0.0021864036672699567 -0.016259905191611083 0 0.0020923002718654191 -0.016223325655553136 0 0.0021462239465702988 -0.016324397469570356 0 0.0020617786533191416 -0.016363187606288153 0 0.0021462239465702988 -0.016324397469570356 0 0.0021864036672699567 -0.016259905191611083 0 0.0022102032271455979 -0.016315508557542872 0 0.0022102032271455979 -0.016315508557542872 0 0.0022657102355368858 -0.016354684292628884 0 0.0022605398837199594 -0.016287802592838015 0 0.0021864036672699567 -0.016259905191611083 0 0.0022102032271455979 -0.016315508557542872 0 0.0022605398837199594 -0.016287802592838015 0 0.0022109898366383419 -0.016383112983989961 0 0.0022194164239239863 -0.016438919681068569 0 0.0022745278561063943 -0.016403276522605769 0 0.0022109898366383419 -0.016383112983989961 0 0.0022657102355368858 -0.016354684292628884 0 0.0022745278561063943 -0.016403276522605769 0 0.0022102032271455979 -0.016315508557542872 0 0.0022109898366383419 -0.016383112983989961 0 0.0022657102355368858 -0.016354684292628884 0 0.0021462239465702988 -0.016324397469570356 0 0.0022102032271455979 -0.016315508557542872 0 0.0022109898366383419 -0.016383112983989961 0 0.0022109898366383419 -0.016383112983989961 0 0.0021493851067200453 -0.016409011599222135 0 0.0022194164239239863 -0.016438919681068569 0 0.0021462239465702988 -0.016324397469570356 0 0.0022109898366383419 -0.016383112983989961 0 0.0021493851067200453 -0.016409011599222135 0 0.0021493851067200453 -0.016409011599222135 0 0.0021153743271553785 -0.016436155011940599 0 0.0020617786533191416 -0.016363187606288153 0 0.0021462239465702988 -0.016324397469570356 0 0.0021493851067200453 -0.016409011599222135 0 0.0020617786533191416 -0.016363187606288153 0 0.0021493851067200453 -0.016409011599222135 0 0.0021153743271553785 -0.016436155011940599 0 0.0021639945638939123 -0.016489403652640202 0 0.0021153743271553785 -0.016436155011940599 0 0.0020855669171461048 -0.016482306183665425 0 0.0021639945638939123 -0.016489403652640202 0 0.0021493851067200453 -0.016409011599222135 0 0.0022194164239239863 -0.016438919681068569 0 0.0021639945638939123 -0.016489403652640202 0 0.0022194164239239863 -0.016438919681068569 0 0.0022429108555629905 -0.016496792703851029 0 0.0021639945638939123 -0.016489403652640202 0 0.0022194164239239863 -0.016438919681068569 0 0.0022429108555629905 -0.016496792703851029 0 0.0022778184481667494 -0.016451905472980029 0 0.0017227514084627708 -0.015488571944214938 0 0.0018096759469688514 -0.015632364160145931 0 0.0014795118631930279 -0.015783890510768225 0 0.00095029752052654657 -0.016086000056276951 0 0.00103440564000059 -0.016104857281041402 0 0.0010340947890848421 -0.016040345504121402 0 0.0017511933053442519 -0.016256427482535887 0 0.0018332115353669263 -0.016152992330058378 0 0.0017310114346828084 -0.016127882656761499 0 0.0018621318127228868 -0.016215501210193703 0 0.0018162217137838916 -0.015886346739728295 0 0.0018332115353669263 -0.016152992330058378 0 0.0017310114346828084 -0.016127882656761499 0 0.0017585907164389034 -0.016025199560069724 0 0.0016061118179789106 -0.016101275673855959 0 0.0018162217137838916 -0.015886346739728295 0 0.0018952678149038501 -0.016094138723133495 0 0.0018941645826679183 -0.016101123063173472 0 0.0018994784770335871 -0.016108344144815784 0 0.0021153743271553785 -0.016436155011940599 0 0.0020617786533191416 -0.016363187606288153 0 0.0020855669171461048 -0.016482306183665425 0 0.0018621318127228868 -0.016215501210193703 0 0.0019761503934212278 -0.016196072639246283 0 0.0018162217137838916 -0.015886346739728295 0 0.0019761503934212278 -0.016196072639246283 0 0.0016061118179789106 -0.016101275673855959 0 0.0012639897473014103 -0.015904756974524582 0 0.0018663887262455486 -0.015688943009202816 0 0.0019303260272701668 -0.015797048793817468 0 0.0017518482491362163 -0.016105751919347433 0 0.0019303260272701668 -0.015797048793817468 0 0.0020177863658982801 -0.016284398390609887 0 0.0017518482491362163 -0.016105751919347433 0 0.0018096759469688514 -0.015632364160145931 0 0.0016930808536684435 -0.016088588379508887 0 0.0014795118631930279 -0.015783890510768225 0 0.0018162217137838916 -0.015886346739728295 0 0.001731488936850936 -0.016057557340939034 0 0.0020206964041003428 -0.016362996385402 0 0.0021388222860223732 -0.016560437989872247 0 0.0020848508962928677 -0.016736371556583838 0 0.0019761503934212278 -0.016196072639246283 0 0.002049968157173804 -0.016484391652705127 0 0.0022143082002622286 -0.016542875287092421 0 0.0021639945638939123 -0.016489403652640202 0 0.0021703667541312301 -0.016617300906517231 0 0.0022143082002622286 -0.016542875287092421 0 0.0022429108555629905 -0.016496792703851029 0 0.0022794203607748621 -0.016567682358489478 0 0.0022143082002622286 -0.016542875287092421 0 0.0022429108555629905 -0.016496792703851029 0 0.0021639945638939123 -0.016489403652640202 0 0.0020855669171461048 -0.016482306183665425 0 0.0021639945638939123 -0.016489403652640202 0 0.0021703667541312301 -0.016617300906517231 0 0.0019761503934212278 -0.016196072639246283 0 0.0021754616472126976 -0.016624209606471766 0 0.0022143082002622286 -0.016542875287092421 0 0.0021703667541312301 -0.016617300906517231 0 0.0022794203607748621 -0.016567682358489478 0 0.0021703667541312301 -0.016617300906517231 0 0.0022859283454878454 -0.016659031388154798 0 0.0022794203607748621 -0.016567682358489478 0 0.0021388222860223732 -0.016560437989872247 0 0.0020848508962928677 -0.016736371556583838 0 0.0022466366249418233 -0.016754614791439852 0 0.0021754616472126976 -0.016624209606471766 0 0.002229332057809153 -0.016721641742237055 0 0.0021703667541312301 -0.016617300906517231 0 0.0022466366249418233 -0.016754614791439852 0 0.0022859283454878454 -0.016659031388154798 0 0.0020848508962928677 -0.016736371556583838 0 0.0022466366249418233 -0.016754614791439852 0 0.0022797730438397471 -0.01692691890204627 0 0.001731488936850936 -0.016057557340939034 0 0.0016179547250984229 -0.016534330148457625 0 0.0020177863658982801 -0.016284398390609887 0 0.0017518482491362163 -0.016105751919347433 0 0.001618660925845921 -0.016543299081500731 0 0.0016930808536684435 -0.016088588379508887 0 0.0014368069897385015 -0.016251209975606931 0 0.001618660925845921 -0.016543299081500731 0 0.0016930808536684435 -0.016088588379508887 0 0.0014368069897385015 -0.016251209975606931 0 0.0014573863960072231 -0.016028427063044106 0 0.0014368069897385015 -0.016251209975606931 0 0.0011949772923468488 -0.016106182807848545 0 0.0014573863960072231 -0.016028427063044106 0 0.0008462953001684701 -0.016182624961496701 0 0.0011949772923468488 -0.016106182807848545 0 0.0011441468036081472 -0.016425677824073115 0 0.0014368069897385015 -0.016251209975606931 0 0.0011949772923468488 -0.016106182807848545 0 0.0011441468036081472 -0.016425677824073115 0 0.0008462953001684701 -0.016182624961496701 0 0.0011949772923468488 -0.016106182807848545 0 0.0011413834929873191 -0.016028587529988883 0 0.00039640101093028717 -0.016339161942638864 0 0.00037398414150704561 -0.016436648844167897 0 0.00054863329072842536 -0.016343645122099959 0 0.0006076078174262644 -0.016325619655994855 0 0.00084253578835079951 -0.016177642374523765 0 0.00039640101093028717 -0.016339161942638864 0 0.0004124450480920251 -0.016208157969319108 0 0.00054863329072842536 -0.016343645122099959 0 0.0011949772923468488 -0.016106182807848545 0 0.0011413834929873191 -0.016028587529988883 0 0.0010340947890848421 -0.016040345504121402 0 0.0016930808536684435 -0.016088588379508887 0 0.0014795118631930279 -0.015783890510768225 0 0.0014573863960072231 -0.016028427063044106 0 0.0011949772923468488 -0.016106182807848545 0 0.0014795118631930279 -0.015783890510768225 0 0.0014573863960072231 -0.016028427063044106 0 0.0011768413644697461 -0.016095638800525461 0 0.0012639897473014103 -0.015904756974524582 0 0.0028024371574842501 -0.017063276367177155 0 0.0031685811867495678 -0.017316608741813094 0 0.0029263953224329922 -0.017698047604007554 0 0.0034072554742362701 -0.017997569819229925 0 0.0034003248571498911 -0.017411750615454049 0 0.0026783219782731144 -0.016419460738808771 0 0.0029382437099915336 -0.016570409259330506 0 0.0027036596737983641 -0.016721654221518702 0 0.0034072554742362701 -0.017997569819229925 0 0.0034003248571498911 -0.017411750615454049 0 0.0040026096083988156 -0.017692295915288991 0 0.0029382437099915336 -0.016570409259330506 0 0.0032179517652331387 -0.016729402508859671 0 0.002929164546372045 -0.016834719124934359 0 0.0031685811867495678 -0.017316608741813094 0 0.0037829923354338116 -0.017007313329375672 0 0.0034072554742362701 -0.017997569819229925 0 0.0040026096083988156 -0.017692295915288991 0 0.0038715759437469512 -0.018287589874501391 0 0.0029382437099915336 -0.016570409259330506 0 0.0027036596737983641 -0.016721654221518702 0 0.002929164546372045 -0.016834719124934359 0 0.0026783219782731144 -0.016419460738808771 0 0.0027036596737983641 -0.016721654221518702 0 0.0025164137707471613 -0.016656075799405354 0 0.0027036596737983641 -0.016721654221518702 0 0.0025164137707471613 -0.016656075799405354 0 0.0025166182856496918 -0.016873098467365243 0 0.0025164137707471613 -0.016656075799405354 0 0.0023653850257858589 -0.016771624282910673 0 0.0025166182856496918 -0.016873098467365243 0 0.0023653850257858589 -0.016771624282910673 0 0.0022859283454878454 -0.016659031388154798 0 0.0023742216036197333 -0.016593684704386914 0 0.0023636275981841525 -0.01676926140708429 0 0.0023939600199401698 -0.016494505162357759 0 0.0025164137707471613 -0.016656075799405354 0 0.0023653850257858589 -0.016771624282910673 0 0.0023983432927050332 -0.016511452338988424 0 0.0022466366249418233 -0.016754614791439852 0 0.0023653850257858589 -0.016771624282910673 0 0.0022859283454878454 -0.016659031388154798 0 0.0023742216036197333 -0.016593684704386914 0 0.002330650873307093 -0.016485131633323564 0 0.0023967063666091586 -0.016425419428626679 0 0.0023939600199401698 -0.016494505162357759 0 0.002483339162774322 -0.01671002582232621 0 0.0022859283454878454 -0.016659031388154798 0 0.0022794203607748621 -0.016567682358489478 0 0.0023742216036197333 -0.016593684704386914 0 0.0022429108555629905 -0.016496792703851029 0 0.0022794203607748621 -0.016567682358489478 0 0.002330650873307093 -0.016485131633323564 0 0.0022794203607748621 -0.016567682358489478 0 0.0023742216036197333 -0.016593684704386914 0 0.002330650873307093 -0.016485131633323564 0 0.0026783219782731144 -0.016419460738808771 0 0.0023983432927050332 -0.016511452338988424 0 0.0024319421008151929 -0.016264876628691093 0 0.0026783219782731144 -0.016419460738808771 0 0.0025164137707471613 -0.016656075799405354 0 0.0023983432927050332 -0.016511452338988424 0 0.0029263953224329922 -0.017698047604007554 0 0.0024456097773248868 -0.017387621105629587 0 0.0029330169499563125 -0.017404880372662815 0 0.0024456097773248868 -0.017387621105629587 0 0.0029634449513259282 -0.017122394964803868 0 0.0029330169499563125 -0.017404880372662815 0 0.0028024371574842501 -0.017063276367177155 0 0.002483339162774322 -0.01671002582232621 0 0.0022429108555629905 -0.016496792703851029 0 0.0022778184481667494 -0.016451905472980029 0 0.002330650873307093 -0.016485131633323564 0 0.0022194164239239863 -0.016438919681068569 0 0.0022778184481667494 -0.016451905472980029 0 0.0022745278561063943 -0.016403276522605769 0 0.0022778184481667494 -0.016451905472980029 0 0.0023205635894402014 -0.016434305914413451 0 0.0022745278561063943 -0.016403276522605769 0 0.0022778184481667494 -0.016451905472980029 0 0.002330650873307093 -0.016485131633323564 0 0.0023205635894402014 -0.016434305914413451 0 0.0023533341243990938 -0.016437047922850563 0 0.0023967063666091586 -0.016425419428626679 0 0.0023648150862823035 -0.016403472691539106 0 0.0023205635894402014 -0.016434305914413451 0 0.0023533341243990938 -0.016437047922850563 0 0.0023648150862823035 -0.016403472691539106 0 0.002330650873307093 -0.016485131633323564 0 0.0023533341243990938 -0.016437047922850563 0 0.0023967063666091586 -0.016425419428626679 0 0.002330650873307093 -0.016485131633323564 0 0.0023205635894402014 -0.016434305914413451 0 0.0023533341243990938 -0.016437047922850563 0 0.0023648150862823035 -0.016403472691539106 0 0.0023165214910854572 -0.016344741814912262 0 0.0023416279689954019 -0.016272598364013648 0 0.0024026688417888718 -0.01642966497070265 0 0.0023648150862823035 -0.016403472691539106 0 0.0023416279689954019 -0.016272598364013648 0 0.002483339162774322 -0.01671002582232621 0 0.0023969084536457205 -0.016616332965119184 0 0.0023205635894402014 -0.016434305914413451 0 0.0023648150862823035 -0.016403472691539106 0 0.0023179262567852217 -0.016390911223980884 0 0.0023205635894402014 -0.016434305914413451 0 0.0023179262567852217 -0.016390911223980884 0 0.0022745278561063943 -0.016403276522605769 0 0.0023648150862823035 -0.016403472691539106 0 0.0023179262567852217 -0.016390911223980884 0 0.0023165214910854572 -0.016344741814912262 0 0.0023179262567852217 -0.016390911223980884 0 0.0023165214910854572 -0.016344741814912262 0 0.0022657102355368858 -0.016354684292628884 0 0.0023179262567852217 -0.016390911223980884 0 0.0022657102355368858 -0.016354684292628884 0 0.0022745278561063943 -0.016403276522605769 0 0.0024026688417888718 -0.01642966497070265 0 0.0023416279689954019 -0.016272598364013648 0 0.002452138529907773 -0.016171713980900219 0 0.0023165214910854572 -0.016344741814912262 0 0.0022657102355368858 -0.016354684292628884 0 0.0022605398837199594 -0.016287802592838015 0 0.0023165214910854572 -0.016344741814912262 0 0.0022605398837199594 -0.016287802592838015 0 0.0023416279689954019 -0.016272598364013648 0 0.0023416279689954019 -0.016272598364013648 0 0.002452138529907773 -0.016171713980900219 0 0.0023328017963620638 -0.016119959157235058 0 0.0022425472945922825 -0.016175268300822325 0 0.0023416279689954019 -0.016272598364013648 0 0.0023328017963620638 -0.016119959157235058 0 0.0022425472945922825 -0.016175268300822325 0 0.0022605398837199594 -0.016287802592838015 0 0.0023416279689954019 -0.016272598364013648 0 0.002516218782831378 -0.016730704409794985 0 0.0029634449513259282 -0.017122394964803868 0 0.0031137721711154793 -0.016712401731265373 0 0.0024456097773248868 -0.017387621105629587 0 0.002516218782831378 -0.016730704409794985 0 0.0029634449513259282 -0.017122394964803868 0 0.002483339162774322 -0.01671002582232621 0 0.0024755468123064447 -0.016493316026270709 0 0.0029634449513259282 -0.017122394964803868 0 0.0035737384700921995 -0.016828850193170767 0 0.0031137721711154793 -0.016712401731265373 0 0.0029634449513259282 -0.017122394964803868 0 0.0034003248571498911 -0.017411750615454049 0 0.0035737384700921995 -0.016828850193170767 0 0.0029634449513259282 -0.017122394964803868 0 0.0029330169499563125 -0.017404880372662815 0 0.0034003248571498911 -0.017411750615454049 0 0.0029263953224329922 -0.017698047604007554 0 0.0029330169499563125 -0.017404880372662815 0 0.0034003248571498911 -0.017411750615454049 0 0.0034003248571498911 -0.017411750615454049 0 0.0035737384700921995 -0.016828850193170767 0 0.0041495652556886769 -0.01708521155298829 0 0.0035737384700921995 -0.016828850193170767 0 0.0033030455455770468 -0.016308638571642192 0 0.003847828146059998 -0.016129165930889259 0 0.0035737384700921995 -0.016828850193170767 0 0.0031137721711154793 -0.016712401731265373 0 0.0033030455455770468 -0.016308638571642192 0 0.0031137721711154793 -0.016712401731265373 0 0.0033030455455770468 -0.016308638571642192 0 0.0028811205787420994 -0.01637156468763374 0 0.0033030455455770468 -0.016308638571642192 0 0.0029108248215040096 -0.016037904431800965 0 0.0031006773065074982 -0.015648478269542705 0 0.0032872486336713142 -0.016269217001979731 0 0.003117645769681245 -0.015652121079159569 0 0.0033030455455770468 -0.016308638571642192 0 0.0029108248215040096 -0.016037904431800965 0 0.0028811205787420994 -0.01637156468763374 0 0.0033030455455770468 -0.016308638571642192 0 0.0031327716964368499 -0.015637355829365505 0 0.003847828146059998 -0.016129165930889259 0 0.002452138529907773 -0.016171713980900219 0 0.0023328017963620638 -0.016119959157235058 0 0.0023937244619682014 -0.015969091545245968 0 0.002242295081864687 -0.016004086349603479 0 0.0023328017963620638 -0.016119959157235058 0 0.0023937244619682014 -0.015969091545245968 0 0.0022425472945922825 -0.016175268300822325 0 0.002242295081864687 -0.016004086349603479 0 0.0023328017963620638 -0.016119959157235058 0 0.002516218782831378 -0.016730704409794985 0 0.0028811205787420994 -0.01637156468763374 0 0.0025746837297031242 -0.016066811199865118 0 0.002452138529907773 -0.016171713980900219 0 0.0023937244619682014 -0.015969091545245968 0 0.0025196493579307984 -0.01585951857676627 0 0.002516218782831378 -0.016730704409794985 0 0.0031137721711154793 -0.016712401731265373 0 0.0028811205787420994 -0.01637156468763374 0 0.0024755468123064447 -0.016493316026270709 0 0.0025497714987649162 -0.015939581207048487 0 0.0023937244619682014 -0.015969091545245968 0 0.0025196493579307984 -0.01585951857676627 0 0.0024326969803249794 -0.015712086574825385 0 0.0029108248215040096 -0.016037904431800965 0 0.0028811205787420994 -0.01637156468763374 0 0.0025746837297031242 -0.016066811199865118 0 0.0029108248215040096 -0.016037904431800965 0 0.0025746837297031242 -0.016066811199865118 0 0.0028220079674642863 -0.015745242710245081 0 0.002242295081864687 -0.016004086349603479 0 0.0023937244619682014 -0.015969091545245968 0 0.0024326969803249794 -0.015712086574825385 0 0.0021238146443041785 -0.016080326931008842 0 0.0021890703706243671 -0.015811388131723982 0 0.0024326969803249794 -0.015712086574825385 0 0.0021990791587762023 -0.016030884408099459 0 0.0024149249965050596 -0.015736283188788842 0 0.0019835750574173591 -0.01586877608371599 0 0.0021890703706243671 -0.015811388131723982 0 0.0022178585793286021 -0.015585571444048619 0 0.0022178585793286021 -0.015585571444048619 0 0.0024326969803249794 -0.015712086574825385 0 0.0026139709847018576 -0.015398528383033721 0 0.00211836812170196 -0.015634959477074366 0 0.0026483671613114147 -0.015269121020836369 0 0.0017841862036337836 -0.015339031249191127 0 0.0020109492442494316 -0.015705770080104386 0 0.0021286267011589618 -0.015322668038369503 0 0.0021890703706243671 -0.015811388131723982 0 0.0022178585793286021 -0.015585571444048619 0 0.0024326969803249794 -0.015712086574825385 0 0.0025497714987649162 -0.015939581207048487 0 0.0026100098103133151 -0.015436485862302106 0 0.0025746837297031242 -0.016066811199865118 0 0.0028220079674642863 -0.015745242710245081 0 0.0026139709847018576 -0.015398528383033721 0 0.0025196493579307984 -0.01585951857676627 0 0.0024326969803249794 -0.015712086574825385 0 0.0026139709847018576 -0.015398528383033721 0 0.0022178585793286021 -0.015585571444048619 0 0.002678262674798267 -0.01524755957051164 0 0.0026139709847018576 -0.015398528383033721 0 0.0028220079674642863 -0.015745242710245081 0 0.0028231169051943176 -0.01540903300529037 0 0.0026139709847018576 -0.015398528383033721 0 0.002678262674798267 -0.01524755957051164 0 0.0020436704770537967 -0.014999977305059538 0 0.0029169430098193996 -0.014999996744507612 0 0.0028231169051943176 -0.01540903300529037 0 0.002678262674798267 -0.01524755957051164 0 0.0029169430098193996 -0.014999996744507612 0 0.0028231169051943176 -0.01540903300529037 0 0.002678262674798267 -0.01524755957051164 0 0.0026139709847018576 -0.015398528383033721 0 0.0020109492442494316 -0.015705770080104386 0 0.002678262674798267 -0.01524755957051164 0 0.0021286267011589618 -0.015322668038369503 0 0.002678262674798267 -0.01524755957051164 0 0.0021286267011589618 -0.015322668038369503 0 0.0020436704770537967 -0.014999977305059538 0 0.0017841862036337836 -0.015339031249191127 0 0.0021286267011589618 -0.015322668038369503 0 0.0020436704770537967 -0.014999977305059538 0 0.0031327716964368499 -0.015637355829365505 0 0.0033259929716785725 -0.015267862950319741 0 0.0038054554292274302 -0.015503896766137077 0 0.0031327716964368499 -0.015637355829365505 0 0.0038054554292274302 -0.015503896766137077 0 0.003847828146059998 -0.016129165930889259 0 0.0029108248215040096 -0.016037904431800965 0 0.0028220079674642863 -0.015745242710245081 0 0.0031006773065074982 -0.015648478269542705 0 0.0028220079674642863 -0.015745242710245081 0 0.0028231169051943176 -0.01540903300529037 0 0.0031006773065074982 -0.015648478269542705 0 0.0031327716964368499 -0.015637355829365505 0 0.0029170274325754507 -0.014999960272380201 0 0.0033259929716785725 -0.015267862950319741 0 0.003117645769681245 -0.015652121079159569 0 0.0029169544310965237 -0.015000107234280876 0 0.0028231169051943176 -0.01540903300529037 0 0.0031006773065074982 -0.015648478269542705 0 0.0029169430098193996 -0.014999996744507612 0 0.0036308062011781174 -0.014999954047695187 0 0.0033259929716785725 -0.015267862950319741 0 0.0038054554292274302 -0.015503896766137077 0 0.0029170274325754507 -0.014999960272380201 0 0.0036308062011781174 -0.014999954047695187 0 0.0033259929716785725 -0.015267862950319741 0 0.0036308062011781174 -0.014999954047695187 0 0.0038054554292274302 -0.015503896766137077 0 0.0043448114600833521 -0.014999926656994117 0 0.0038054554292274302 -0.015503896766137077 0 0.0045618651526172912 -0.015733247146549306 0 0.003847828146059998 -0.016129165930889259 0 0.0038054554292274302 -0.015503896766137077 0 0.0045618651526172912 -0.015733247146549306 0 0.0043448114600833521 -0.014999926656994117 0 0.0045618651526172912 -0.015733247146549306 0 0.0043448114600833521 -0.014999926656994117 0 0.0047842473914622673 -0.015339627014747902 0 0.0050585489594981835 -0.015000069367737807 0 0.0051831760006573156 -0.015656809752179399 0 0.0047842473914622673 -0.015339627014747902 0 0.0050584193146209593 -0.015000000683882709 0 0.0051515541808273228 -0.015567352916753934 0 0.0043448114600833521 -0.014999926656994117 0 0.0047842473914622673 -0.015339627014747902 0 0.0050584193146209593 -0.015000000683882709 0 0.0050585839572633981 -0.014999993335511346 0 0.0054060527025892599 -0.015302404074326344 0 0.0052225311942431995 -0.015675908376691052 0 0.0050585839572633981 -0.014999993335511346 0 0.0054060527025892599 -0.015302404074326344 0 0.0058372890518245688 -0.014999993112603881 0 0.0054060527025892599 -0.015302404074326344 0 0.0055805455168678039 -0.015676025854292831 0 0.0058372890518245688 -0.014999993112603881 0 0.0054060527025892599 -0.015302404074326344 0 0.0052225311942431995 -0.015675908376691052 0 0.0055805455168678039 -0.015676025854292831 0 0.0045618651526172912 -0.015733247146549306 0 0.0047842473914622673 -0.015339627014747902 0 0.0051515541808273228 -0.015567352916753934 0 0.0045618651526172912 -0.015733247146549306 0 0.0051515541808273228 -0.015567352916753934 0 0.0049779492335145174 -0.015932170066685094 0 0.0051515541808273228 -0.015567352916753934 0 0.0052768622191936218 -0.01589806871281604 0 0.0049779492335145174 -0.015932170066685094 0 0.0052225311942431995 -0.015675908376691052 0 0.0055805455168678039 -0.015676025854292831 0 0.0053577185826243316 -0.016306222043263357 0 0.0051831760006573156 -0.015656809752179399 0 0.0054211381985048469 -0.015892632929186905 0 0.0057315572496567085 -0.015477947795660196 0 0.0054211381985048469 -0.015892632929186905 0 0.0058755799283268717 -0.015277779899623775 0 0.0056977555167119498 -0.015576500248057901 0 0.0059874103264120921 -0.015521698516527674 0 0.0056977555167119498 -0.015576500248057901 0 0.0059874103264120921 -0.015521698516527674 0 0.0058648363209662128 -0.015745394482913372 0 0.0054211381985048469 -0.015892632929186905 0 0.0056619652814881866 -0.016124114225156364 0 0.0056977555167119498 -0.015576500248057901 0 0.0058648363209662128 -0.015745394482913372 0 0.0056488302937000552 -0.016199341866966581 0 0.0053108417924906471 -0.015821889089366447 0 0.0052995276530762572 -0.01601350051841954 0 0.0056488302937000552 -0.016199341866966581 0 0.0054211381985048469 -0.015892632929186905 0 0.0053025171456366326 -0.015993538612483548 0 0.0052768622191936218 -0.01589806871281604 0 0.0052995276530762572 -0.01601350051841954 0 0.0049779492335145174 -0.015932170066685094 0 0.0052995276530762572 -0.01601350051841954 0 0.0049779492335145174 -0.015932170066685094 0 0.0050478895274033118 -0.016089512095656431 0 0.0049779492335145174 -0.015932170066685094 0 0.0047648938060492283 -0.015971421475013105 0 0.0050478895274033118 -0.016089512095656431 0 0.0035737384700921995 -0.016828850193170767 0 0.004326220942026969 -0.016460273581153751 0 0.003847828146059998 -0.016129165930889259 0 0.0045618651526172912 -0.015733247146549306 0 0.004326220942026969 -0.016460273581153751 0 0.003847828146059998 -0.016129165930889259 0 0.0045778009566195977 -0.015748424393876474 0 0.0045396718713144463 -0.016199352158996646 0 0.0045618651526172912 -0.015733247146549306 0 0.0049779492335145174 -0.015932170066685094 0 0.0047648938060492283 -0.015971421475013105 0 0.007340976522602201 -0.015008636126182928 0 0.0068499954895562603 -0.014850361338581433 0 0.0072119745904003574 -0.01470401280965607 0 0.0066782498610069557 -0.014726851781321557 0 0.0070911011882364185 -0.015192683642256025 0 0.0075116487204496558 -0.015424119975856262 0 0.0074532764380738836 -0.01515984245316737 0 0.006954119552169462 -0.015138276822998639 0 0.0074532764380738836 -0.01515984245316737 0 0.006954119552169462 -0.015138276822998639 0 0.0069139790103615829 -0.014999858826718494 0 0.0074532764380738836 -0.01515984245316737 0 0.0069139790103615829 -0.014999858826718494 0 0.0077674632817380795 -0.014999830618036329 0 0.0067300247722106464 -0.015090134042241656 0 0.0065324993289345599 -0.015330037507786201 0 0.0063385907464038127 -0.015207077549600021 0 0.0067300247722106464 -0.015090134042241656 0 0.0067340801417963298 -0.01499985015961759 0 0.0063385907464038127 -0.015207077549600021 0 0.0068499954895562603 -0.014850361338581433 0 0.0069133936308596686 -0.014999999219722865 0 0.0068499954895562603 -0.014850361338581433 0 0.0067352989421104736 -0.014999959238099245 0 0.0068761726621006146 -0.01519705452266101 0 0.0069134963594130296 -0.014999998090502509 0 0.0067351304156870245 -0.015000000144274031 0 0.0068499954895562603 -0.014850361338581433 0 0.0066191449348473753 -0.014986668178859413 0 0.0072119745904003574 -0.01470401280965607 0 0.0067948855399820943 -0.014132433431495625 0 0.0066782498610069557 -0.014726851781321557 0 0.0065324993289345599 -0.015330037507786201 0 0.0063385907464038127 -0.015207077549600021 0 0.0062510985395498216 -0.015388514003593786 0 0.0067340801417963298 -0.01499985015961759 0 0.0063385907464038127 -0.015207077549600021 0 0.005838387622272059 -0.014999799723777432 0 0.0058755799283268717 -0.015277779899623775 0 0.0063385907464038127 -0.015207077549600021 0 0.005838387622272059 -0.014999799723777432 0 0.0057315572496567085 -0.015477947795660196 0 0.0058373398029982837 -0.015000061843591008 0 0.0058755799283268717 -0.015277779899623775 0 0.0063385907464038127 -0.015207077549600021 0 0.0062510985395498216 -0.015388514003593786 0 0.0059874103264120921 -0.015521698516527674 0 0.0060981609068285281 -0.015750997411955389 0 0.0062510985395498216 -0.015388514003593786 0 0.0058755799283268717 -0.015277779899623775 0 0.0059874103264120921 -0.015521698516527674 0 0.0062510985395498216 -0.015388514003593786 0 0.0059874103264120921 -0.015521698516527674 0 0.0058648363209662128 -0.015745394482913372 0 0.0060981609068285281 -0.015750997411955389 0 0.0060981609068285281 -0.015750997411955389 0 0.006536472342688125 -0.015432619470775502 0 0.0063984845503169373 -0.015890829832072569 0 0.0060981609068285281 -0.015750997411955389 0 0.0062510985395498216 -0.015388514003593786 0 0.006536472342688125 -0.015432619470775502 0 0.0065324993289345599 -0.015330037507786201 0 0.0062510985395498216 -0.015388514003593786 0 0.006536472342688125 -0.015432619470775502 0 0.0066191449348473753 -0.014986668178859413 0 0.0065372626151764006 -0.015416098652542039 0 0.0066782498610069557 -0.014726851781321557 0 0.006536472342688125 -0.015432619470775502 0 0.0070911011882364185 -0.015192683642256025 0 0.006536472342688125 -0.015432619470775502 0 0.0067712501259095696 -0.015850597737618516 0 0.0063984845503169373 -0.015890829832072569 0 0.006536472342688125 -0.015432619470775502 0 0.0071804981150401298 -0.015581046223345467 0 0.0067712501259095696 -0.015850597737618516 0 0.006536472342688125 -0.015432619470775502 0 0.0071804981150401298 -0.015581046223345467 0 0.0070911011882364185 -0.015192683642256025 0 0.0071804981150401298 -0.015581046223345467 0 0.0070911011882364185 -0.015192683642256025 0 0.0076413768382521232 -0.015212850555415406 0 0.0072119745904003574 -0.01470401280965607 0 0.0070911011882364185 -0.015192683642256025 0 0.0076413768382521232 -0.015212850555415406 0 0.007340976522602201 -0.015008636126182928 0 0.0078185639901450204 -0.015407772962345044 0 0.0072211355065054678 -0.016090906959289102 0 0.0069121036735815093 -0.016645870636756994 0 0.0075609263242553994 -0.01669319026424565 0 0.0071804981150401298 -0.015581046223345467 0 0.0072211355065054678 -0.016090906959289102 0 0.0067712501259095696 -0.015850597737618516 0 0.0071804981150401298 -0.015581046223345467 0 0.0072211355065054678 -0.016090906959289102 0 0.0076365410590726601 -0.015681657554474697 0 0.0067712501259095696 -0.015850597737618516 0 0.0065338266985374774 -0.016308807819873313 0 0.0063984845503169373 -0.015890829832072569 0 0.0072211355065054678 -0.016090906959289102 0 0.0067712501259095696 -0.015850597737618516 0 0.0065338266985374774 -0.016308807819873313 0 0.0072211355065054678 -0.016090906959289102 0 0.0065338266985374774 -0.016308807819873313 0 0.0069121036735815093 -0.016645870636756994 0 0.0065338266985374774 -0.016308807819873313 0 0.0061035399057299449 -0.016145492544341632 0 0.006046689258781779 -0.016521420275138071 0 0.0060981609068285281 -0.015750997411955389 0 0.0063984845503169373 -0.015890829832072569 0 0.0061035399057299449 -0.016145492544341632 0 0.0065338266985374774 -0.016308807819873313 0 0.0063984845503169373 -0.015890829832072569 0 0.0061035399057299449 -0.016145492544341632 0 0.0058648363209662128 -0.015745394482913372 0 0.0060981609068285281 -0.015750997411955389 0 0.0056488302937000552 -0.016199341866966581 0 0.0060981609068285281 -0.015750997411955389 0 0.0061035399057299449 -0.016145492544341632 0 0.0056488302937000552 -0.016199341866966581 0 0.006046689258781779 -0.016521420275138071 0 0.0056488302937000552 -0.016199341866966581 0 0.0056503602738760721 -0.016649064381033932 0 0.0061035399057299449 -0.016145492544341632 0 0.006046689258781779 -0.016521420275138071 0 0.0056488302937000552 -0.016199341866966581 0 0.006046689258781779 -0.016521420275138071 0 0.0059394175837076176 -0.016881408774793438 0 0.0056503602738760721 -0.016649064381033932 0 0.0059394175837076176 -0.016881408774793438 0 0.0055248246723434789 -0.016932351382510494 0 0.0058838612275053 -0.017132455655226215 0 0.0059394175837076176 -0.016881408774793438 0 0.0061998263594657257 -0.017161475973749889 0 0.0058838612275053 -0.017132455655226215 0 0.0059394175837076176 -0.016881408774793438 0 0.0064414819121680206 -0.016873125259304417 0 0.0061998263594657257 -0.017161475973749889 0 0.006046689258781779 -0.016521420275138071 0 0.0059394175837076176 -0.016881408774793438 0 0.0064414819121680206 -0.016873125259304417 0 0.0065338266985374774 -0.016308807819873313 0 0.006046689258781779 -0.016521420275138071 0 0.0064414819121680206 -0.016873125259304417 0 0.0064414819121680206 -0.016873125259304417 0 0.0069922840219773996 -0.017079822237426392 0 0.0069121036735815093 -0.016645870636756994 0 0.0065338266985374774 -0.016308807819873313 0 0.0064414819121680206 -0.016873125259304417 0 0.0069121036735815093 -0.016645870636756994 0 0.0064414819121680206 -0.016873125259304417 0 0.0069922840219773996 -0.017079822237426392 0 0.0065522133558702667 -0.017380808984497974 0 0.0069922840219773996 -0.017079822237426392 0 0.0069121036735815093 -0.016645870636756994 0 0.0075609263242553994 -0.01669319026424565 0 0.0072157166546149322 -0.016883599729964401 0 0.0077684466838300152 -0.01648116535236166 0 0.0050032750827202705 -0.016532595265822871 0 0.0047748830095727659 -0.016254224518578855 0 0.0051576456617322955 -0.016318555154825089 0 0.0034003248571498911 -0.017411750615454049 0 0.0041495652556886769 -0.01708521155298829 0 0.0040026096083988156 -0.017692295915288991 0 0.0050032750827202705 -0.016532595265822871 0 0.0047748830095727659 -0.016254224518578855 0 0.0047288285879588058 -0.01661635762509427 0 0.0044625315741141326 -0.016645101836491878 0 0.0043956792336333726 -0.017271624563390806 0 0.0035737384700921995 -0.016828850193170767 0 0.004326220942026969 -0.016460273581153751 0 0.0041495652556886769 -0.01708521155298829 0 0.0045396718713144463 -0.016199352158996646 0 0.0044625315741141326 -0.016645101836491878 0 0.0047648938060492283 -0.015971421475013105 0 0.0047748830095727659 -0.016254224518578855 0 0.0050478895274033118 -0.016089512095656431 0 0.0047748830095727659 -0.016254224518578855 0 0.0050478895274033118 -0.016089512095656431 0 0.0051576456617322955 -0.016318555154825089 0 0.0050478895274033118 -0.016089512095656431 0 0.0053170055700299049 -0.016190121701683994 0 0.0051576456617322955 -0.016318555154825089 0 0.0052995276530762572 -0.01601350051841954 0 0.0050478895274033118 -0.016089512095656431 0 0.0053170055700299049 -0.016190121701683994 0 0.0052995276530762572 -0.01601350051841954 0 0.0053170055700299049 -0.016190121701683994 0 0.0056488302937000552 -0.016199341866966581 0 0.0056488302937000552 -0.016199341866966581 0 0.0054113205654754762 -0.016394850028775016 0 0.0056503602738760721 -0.016649064381033932 0 0.0053170055700299049 -0.016190121701683994 0 0.0056488302937000552 -0.016199341866966581 0 0.0054113205654754762 -0.016394850028775016 0 0.0050032750827202705 -0.016532595265822871 0 0.0051576456617322955 -0.016318555154825089 0 0.0052844271684229817 -0.016628413747589846 0 0.0054113205654754762 -0.016394850028775016 0 0.0051576456617322955 -0.016318555154825089 0 0.0052844271684229817 -0.016628413747589846 0 0.0053170055700299049 -0.016190121701683994 0 0.0054113205654754762 -0.016394850028775016 0 0.0051576456617322955 -0.016318555154825089 0 0.0054113205654754762 -0.016394850028775016 0 0.0052844271684229817 -0.016628413747589846 0 0.0056503602738760721 -0.016649064381033932 0 0.0052844271684229817 -0.016628413747589846 0 0.0056503602738760721 -0.016649064381033932 0 0.0055248246723434789 -0.016932351382510494 0 0.0059394175837076176 -0.016881408774793438 0 0.0056503602738760721 -0.016649064381033932 0 0.0055248246723434789 -0.016932351382510494 0 0.0052844271684229817 -0.016628413747589846 0 0.0055248246723434789 -0.016932351382510494 0 0.0050885784266770703 -0.016870463897930087 0 0.0055248246723434789 -0.016932351382510494 0 0.0050885784266770703 -0.016870463897930087 0 0.0054121018231523023 -0.017179371143352218 0 0.0050885784266770703 -0.016870463897930087 0 0.0046632394352993127 -0.017003663810894406 0 0.005089823801952424 -0.017246893468061495 0 0.0050032750827202705 -0.016532595265822871 0 0.0050885784266770703 -0.016870463897930087 0 0.0047288285879588058 -0.01661635762509427 0 0.0050032750827202705 -0.016532595265822871 0 0.0052844271684229817 -0.016628413747589846 0 0.0050885784266770703 -0.016870463897930087 0 0.0043956792336333726 -0.017271624563390806 0 0.0037829923354338116 -0.017007313329375672 0 0.0050885784266770703 -0.016870463897930087 0 0.0047288285879588058 -0.01661635762509427 0 0.0046632394352993127 -0.017003663810894406 0 0.0034784631774021366 -0.015942606239485426 0 0.0044372843756569375 -0.016559539976064675 0 0.0033147262380502705 -0.016725811737437962 0 0.0037829923354338116 -0.017007313329375672 0 0.0047975745535414546 -0.016839380089320607 0 0.0037829923354338116 -0.017007313329375672 0 0.0032533144856783601 -0.016770303504782338 0 0.0035437506197466321 -0.017288578886624564 0 0.0040057178464431081 -0.017203269551204981 0 0.0033147262380502705 -0.016725811737437962 0 0.0035437506197466321 -0.017288578886624564 0 0.0033147262380502705 -0.016725811737437962 0 0.0031738878617069699 -0.017395729976305174 0 0.0040057178464431081 -0.017203269551204981 0 0.0044372843756569375 -0.016559539976064675 0 0.0033147262380502705 -0.016725811737437962 0 0.0040057178464431081 -0.017203269551204981 0 0.0047035424857688121 -0.01728557788836714 0 0.0046041971903922575 -0.017827491653379154 0 0.0040057178464431081 -0.017203269551204981 0 0.0044372843756569375 -0.016559539976064675 0 0.0047035424857688121 -0.01728557788836714 0 0.005089823801952424 -0.017246893468061495 0 0.0054121018231523023 -0.017179371143352218 0 0.0054694203287529112 -0.017391104860098597 0 0.0050885784266770703 -0.016870463897930087 0 0.005089823801952424 -0.017246893468061495 0 0.0054121018231523023 -0.017179371143352218 0 0.0055248246723434789 -0.016932351382510494 0 0.0056437040378934534 -0.017187310250566294 0 0.0058838612275053 -0.017132455655226215 0 0.0055248246723434789 -0.016932351382510494 0 0.0054121018231523023 -0.017179371143352218 0 0.0056437040378934534 -0.017187310250566294 0 0.0054121018231523023 -0.017179371143352218 0 0.0056437040378934534 -0.017187310250566294 0 0.0056453393232301164 -0.017328212309255971 0 0.0056437040378934534 -0.017187310250566294 0 0.0056453393232301164 -0.017328212309255971 0 0.0058570671552026811 -0.017299385456000384 0 0.0054121018231523023 -0.017179371143352218 0 0.0056453393232301164 -0.017328212309255971 0 0.0054694203287529112 -0.017391104860098597 0 0.0054694203287529112 -0.017391104860098597 0 0.0056958387539768323 -0.01750770855987166 0 0.0056090716030196405 -0.017767195970272213 0 0.0056453393232301164 -0.017328212309255971 0 0.0054694203287529112 -0.017391104860098597 0 0.0056958387539768323 -0.01750770855987166 0 0.0056453393232301164 -0.017328212309255971 0 0.0056958387539768323 -0.01750770855987166 0 0.0058716601893195643 -0.01744629104554217 0 0.0044372843756569375 -0.016559539976064675 0 0.0054694203287529112 -0.017391104860098597 0 0.0047035424857688121 -0.01728557788836714 0 0.0047975745535414546 -0.016839380089320607 0 0.0054170351534403756 -0.01737364044602626 0 0.0054694203287529112 -0.017391104860098597 0 0.0047035424857688121 -0.01728557788836714 0 0.0051073048790738068 -0.01757319341627437 0 0.0053073188735714627 -0.017251461075841586 0 0.0048357583488777564 -0.017531300472017904 0 0.0041825424154821791 -0.017082643876950368 0 0.0047035424857688121 -0.01728557788836714 0 0.0051073048790738068 -0.01757319341627437 0 0.0046041971903922575 -0.017827491653379154 0 0.0051073048790738068 -0.01757319341627437 0 0.0056090716030196405 -0.017767195970272213 0 0.0046041971903922575 -0.017827491653379154 0 0.0054313402869917643 -0.017513907238005888 0 0.0043935635918055634 -0.0174615969403202 0 0.0044755714441106504 -0.017663695635259002 0 0.0048357583488777564 -0.017531300472017904 0 0.0041825424154821791 -0.017082643876950368 0 0.0056958387539768323 -0.01750770855987166 0 0.0056090716030196405 -0.017767195970272213 0 0.0059223864795996638 -0.017541104850819347 0 0.0054694203287529112 -0.017391104860098597 0 0.0051073048790738068 -0.01757319341627437 0 0.0056090716030196405 -0.017767195970272213 0 0.0053073188735714627 -0.017251461075841586 0 0.0052361184762385205 -0.01767460306078501 0 0.0048357583488777564 -0.017531300472017904 0 0.0053073188735714627 -0.017251461075841586 0 0.0052361184762385205 -0.01767460306078501 0 0.00567713077694841 -0.017637983938231992 0 0.0055230894058892156 -0.01782228905515065 0 0.0052361184762385205 -0.01767460306078501 0 0.005317636943502538 -0.018084542569091422 0 0.0055230894058892156 -0.01782228905515065 0 0.0052361184762385205 -0.01767460306078501 0 0.00567713077694841 -0.017637983938231992 0 0.005317636943502538 -0.018084542569091422 0 0.0049284600799314746 -0.017925398064225655 0 0.0050501632661398574 -0.018275806551906412 0 0.0052361184762385205 -0.01767460306078501 0 0.005317636943502538 -0.018084542569091422 0 0.0049284600799314746 -0.017925398064225655 0 0.0055230894058892156 -0.01782228905515065 0 0.005317636943502538 -0.018084542569091422 0 0.0055682766024754684 -0.018022829774388825 0 0.0044755714441106504 -0.017663695635259002 0 0.0049284600799314746 -0.017925398064225655 0 0.0046073658945342648 -0.018254044948798183 0 0.0044755714441106504 -0.017663695635259002 0 0.0048357583488777564 -0.017531300472017904 0 0.0049284600799314746 -0.017925398064225655 0 0.0052361184762385205 -0.01767460306078501 0 0.0048357583488777564 -0.017531300472017904 0 0.0049284600799314746 -0.017925398064225655 0 0.0045112987006860634 -0.017657527439946065 0 0.0033932435249483467 -0.017870949582230462 0 0.0044755714441106504 -0.017663695635259002 0 0.0040133371140077837 -0.018165741615454641 0 0.0046073658945342648 -0.018254044948798183 0 0.0044755714441106504 -0.017663695635259002 0 0.0038801568141915311 -0.01765309626867333 0 0.0036215698939337515 -0.018025835216283845 0 0.0044755714441106504 -0.017663695635259002 0 0.0040431441926284152 -0.01744894924428891 0 0.0038801568141915311 -0.01765309626867333 0 0.0040431441926284152 -0.01744894924428891 0 0.0038801568141915311 -0.01765309626867333 0 0.0036857954643762384 -0.017395154885394958 0 0.0038801568141915311 -0.01765309626867333 0 0.0035820608576560596 -0.01760708909650471 0 0.0036857954643762384 -0.017395154885394958 0 0.0038801568141915311 -0.01765309626867333 0 0.0035820608576560596 -0.01760708909650471 0 0.0035226805580737134 -0.017808474196529291 0 0.0038801568141915311 -0.01765309626867333 0 0.0035226805580737134 -0.017808474196529291 0 0.0036215698939337515 -0.018025835216283845 0 0.0035226805580737134 -0.017808474196529291 0 0.0032859738778233945 -0.017749221236319231 0 0.0034049100147402153 -0.017658522235980089 0 0.0032859738778233945 -0.017749221236319231 0 0.0034049100147402153 -0.017658522235980089 0 0.0032074858464991554 -0.01755163323695395 0 0.0035820608576560596 -0.01760708909650471 0 0.0035226805580737134 -0.017808474196529291 0 0.0034049100147402153 -0.017658522235980089 0 0.0032859738778233945 -0.017749221236319231 0 0.0032074858464991554 -0.01755163323695395 0 0.0030051443833369034 -0.017634118792558596 0 0.0032074858464991554 -0.01755163323695395 0 0.0031849015712178009 -0.017214121682386441 0 0.0029835524725534694 -0.017461237877782566 0 0.0032074858464991554 -0.01755163323695395 0 0.0034085373922710591 -0.017490754036816013 0 0.0031849015712178009 -0.017214121682386441 0 0.0035820608576560596 -0.01760708909650471 0 0.0034049100147402153 -0.017658522235980089 0 0.0034085373922710591 -0.017490754036816013 0 0.0034049100147402153 -0.017658522235980089 0 0.0032074858464991554 -0.01755163323695395 0 0.0034085373922710591 -0.017490754036816013 0 0.0035820608576560596 -0.01760708909650471 0 0.0034085373922710591 -0.017490754036816013 0 0.0036857954643762384 -0.017395154885394958 0 0.0034085373922710591 -0.017490754036816013 0 0.0031849015712178009 -0.017214121682386441 0 0.0036857954643762384 -0.017395154885394958 0 0.0035437506197466321 -0.017288578886624564 0 0.0034869310050584688 -0.017711807187095828 0 0.0031738878617069699 -0.017395729976305174 0 0.0035437506197466321 -0.017288578886624564 0 0.0040057178464431081 -0.017203269551204981 0 0.0034869310050584688 -0.017711807187095828 0 0.0040057178464431081 -0.017203269551204981 0 0.0034869310050584688 -0.017711807187095828 0 0.0046041971903922575 -0.017827491653379154 0 0.0033673906511889904 -0.017457197134494028 0 0.0043935635918055634 -0.0174615969403202 0 0.0031849015712178009 -0.017214121682386441 0 0.0041825424154821791 -0.017082643876950368 0 0.0036857954643762384 -0.017395154885394958 0 0.0044755714441106504 -0.017663695635259002 0 0.0040431441926284152 -0.01744894924428891 0 0.0041825424154821791 -0.017082643876950368 0 0.0040431441926284152 -0.01744894924428891 0 0.0041825424154821791 -0.017082643876950368 0 0.0036857954643762384 -0.017395154885394958 0 0.0074362445832282962 -0.016683983215267224 0 0.0076029829436547718 -0.01735155470169903 0 0.0068386287755965577 -0.017151082343997988 0 0.0074362445832282962 -0.016683983215267224 0 0.0076029829436547718 -0.01735155470169903 0 0.0080046553398430611 -0.016794717537922884 0 0.0072157166546149322 -0.016883599729964401 0 0.0066919379803496749 -0.017272106333441006 0 0.0068386287755965577 -0.017151082343997988 0 0.0062616249610103871 -0.017609555048819826 0 0.0068113631369625819 -0.017774123388075949 0 0.0076029829436547718 -0.01735155470169903 0 0.0068386287755965577 -0.017151082343997988 0 0.0068113631369625819 -0.017774123388075949 0 0.0065522133558702667 -0.017380808984497974 0 0.0062138710379727709 -0.017407969540594773 0 0.0062616249610103871 -0.017609555048819826 0 0.0066919379803496749 -0.017272106333441006 0 0.0062973668003831525 -0.017604761399844581 0 0.0062138710379727709 -0.017407969540594773 0 0.0061083782366901035 -0.017518436169278274 0 0.0062616249610103871 -0.017609555048819826 0 0.0065522133558702667 -0.017380808984497974 0 0.0062138710379727709 -0.017407969540594773 0 0.0061998263594657257 -0.017161475973749889 0 0.0062138710379727709 -0.017407969540594773 0 0.0061998263594657257 -0.017161475973749889 0 0.0060562593613947792 -0.017290854275082833 0 0.0064414819121680206 -0.016873125259304417 0 0.0065522133558702667 -0.017380808984497974 0 0.0061998263594657257 -0.017161475973749889 0 0.0061998263594657257 -0.017161475973749889 0 0.0060562593613947792 -0.017290854275082833 0 0.0058838612275053 -0.017132455655226215 0 0.0056437040378934534 -0.017187310250566294 0 0.0058838612275053 -0.017132455655226215 0 0.0058570671552026811 -0.017299385456000384 0 0.0060562593613947792 -0.017290854275082833 0 0.0058838612275053 -0.017132455655226215 0 0.0058570671552026811 -0.017299385456000384 0 0.0056453393232301164 -0.017328212309255971 0 0.0058570671552026811 -0.017299385456000384 0 0.0058716601893195643 -0.01744629104554217 0 0.0058570671552026811 -0.017299385456000384 0 0.006045081307056558 -0.017423059942769482 0 0.0058716601893195643 -0.01744629104554217 0 0.0062138710379727709 -0.017407969540594773 0 0.0060562593613947792 -0.017290854275082833 0 0.006045081307056558 -0.017423059942769482 0 0.0060562593613947792 -0.017290854275082833 0 0.0058570671552026811 -0.017299385456000384 0 0.006045081307056558 -0.017423059942769482 0 0.0062138710379727709 -0.017407969540594773 0 0.006045081307056558 -0.017423059942769482 0 0.0061083782366901035 -0.017518436169278274 0 0.006045081307056558 -0.017423059942769482 0 0.0061083782366901035 -0.017518436169278274 0 0.0059223864795996638 -0.017541104850819347 0 0.006045081307056558 -0.017423059942769482 0 0.0058716601893195643 -0.01744629104554217 0 0.0059223864795996638 -0.017541104850819347 0 0.0056958387539768323 -0.01750770855987166 0 0.0058716601893195643 -0.01744629104554217 0 0.0059223864795996638 -0.017541104850819347 0 0.0056090716030196405 -0.017767195970272213 0 0.0059223864795996638 -0.017541104850819347 0 0.0061077415096835912 -0.01759831714636825 0 0.0053073188735714627 -0.017251461075841586 0 0.0061077415096835912 -0.01759831714636825 0 0.00567713077694841 -0.017637983938231992 0 0.0054313402869917643 -0.017513907238005888 0 0.0060391623912273264 -0.017575637931186196 0 0.0061083782366901035 -0.017518436169278274 0 0.0059223864795996638 -0.017541104850819347 0 0.0061077415096835912 -0.01759831714636825 0 0.0061077415096835912 -0.01759831714636825 0 0.0060098086252217886 -0.017764123731221226 0 0.00567713077694841 -0.017637983938231992 0 0.0055230894058892156 -0.01782228905515065 0 0.0057741590080273419 -0.017819146018350544 0 0.0058074749021716264 -0.018019852485598658 0 0.0060098086252217886 -0.017764123731221226 0 0.00567713077694841 -0.017637983938231992 0 0.0057741590080273419 -0.017819146018350544 0 0.0055230894058892156 -0.01782228905515065 0 0.00567713077694841 -0.017637983938231992 0 0.0057741590080273419 -0.017819146018350544 0 0.0055230894058892156 -0.01782228905515065 0 0.0055682766024754684 -0.018022829774388825 0 0.0058074749021716264 -0.018019852485598658 0 0.0058074749021716264 -0.018019852485598658 0 0.0058707686426584657 -0.018210788829907967 0 0.0057142992668208301 -0.018178337385599444 0 0.0055682766024754684 -0.018022829774388825 0 0.0058074749021716264 -0.018019852485598658 0 0.0057142992668208301 -0.018178337385599444 0 0.0059853758539741217 -0.018128609127750377 0 0.0060196734305577601 -0.017976670980869119 0 0.0061662967252586543 -0.018167147798844031 0 0.0058074749021716264 -0.018019852485598658 0 0.0059853758539741217 -0.018128609127750377 0 0.0058707686426584657 -0.018210788829907967 0 0.0058074749021716264 -0.018019852485598658 0 0.0059853758539741217 -0.018128609127750377 0 0.0060196734305577601 -0.017976670980869119 0 0.0060098086252217886 -0.017764123731221226 0 0.0057741590080273419 -0.017819146018350544 0 0.0060196734305577601 -0.017976670980869119 0 0.0057741590080273419 -0.017819146018350544 0 0.0058074749021716264 -0.018019852485598658 0 0.0060196734305577601 -0.017976670980869119 0 0.0060098086252217886 -0.017764123731221226 0 0.0060196734305577601 -0.017976670980869119 0 0.0063493238187990663 -0.017991827069494523 0 0.0060098086252217886 -0.017764123731221226 0 0.0063493238187990663 -0.017991827069494523 0 0.0062490236413220478 -0.017760523075123727 0 0.0060196734305577601 -0.017976670980869119 0 0.0061662967252586543 -0.018167147798844031 0 0.0063493238187990663 -0.017991827069494523 0 0.0061662967252586543 -0.018167147798844031 0 0.0063493238187990663 -0.017991827069494523 0 0.0063934502956418705 -0.018206554785894044 0 0.0063493238187990663 -0.017991827069494523 0 0.0065825093832461963 -0.018170607635946419 0 0.0063934502956418705 -0.018206554785894044 0 0.0063493238187990663 -0.017991827069494523 0 0.006501081060561441 -0.017839947953536345 0 0.0062490236413220478 -0.017760523075123727 0 0.006501081060561441 -0.017839947953536345 0 0.0062490236413220478 -0.017760523075123727 0 0.0062616249610103871 -0.017609555048819826 0 0.006501081060561441 -0.017839947953536345 0 0.0062616249610103871 -0.017609555048819826 0 0.0068113631369625819 -0.017774123388075949 0 0.0061077415096835912 -0.01759831714636825 0 0.0060098086252217886 -0.017764123731221226 0 0.0062490236413220478 -0.017760523075123727 0 0.0061083782366901035 -0.017518436169278274 0 0.0061077415096835912 -0.01759831714636825 0 0.0062616249610103871 -0.017609555048819826 0 0.0061077415096835912 -0.01759831714636825 0 0.0062490236413220478 -0.017760523075123727 0 0.0062616249610103871 -0.017609555048819826 0 0.006501081060561441 -0.017839947953536345 0 0.0068113631369625819 -0.017774123388075949 0 0.0067830175698360253 -0.018016105271904968 0 0.0063493238187990663 -0.017991827069494523 0 0.0065825093832461963 -0.018170607635946419 0 0.0067830175698360253 -0.018016105271904968 0 0.0063493238187990663 -0.017991827069494523 0 0.006501081060561441 -0.017839947953536345 0 0.0067830175698360253 -0.018016105271904968 0 0.0065825093832461963 -0.018170607635946419 0 0.0067830175698360253 -0.018016105271904968 0 0.0067523364030461722 -0.01828519760369748 0 0.0067830175698360253 -0.018016105271904968 0 0.00704121223223145 -0.018200377973795812 0 0.007192306499894891 -0.017886402437748791 0 0.0067830175698360253 -0.018016105271904968 0 0.00704121223223145 -0.018200377973795812 0 0.0067523364030461722 -0.01828519760369748 0 0.0068733557274992547 -0.017788343318032727 0 0.0073855062360599329 -0.018051366372101727 0 0.0068113631369625819 -0.017774123388075949 0 0.0067830175698360253 -0.018016105271904968 0 0.007192306499894891 -0.017886402437748791 0 0.0076029829436547718 -0.01735155470169903 0 0.0068113631369625819 -0.017774123388075949 0 0.0077065076744881403 -0.018145076717344392 0 0.0069262361404172921 -0.018699204140568408 0 0.0068938952344105913 -0.018496925209969397 0 0.0073072730736730342 -0.018483574842043011 0 0.0069610085188443766 -0.01889593323766341 0 0.007504096029183901 -0.018103423654182792 0 0.0069262361404172921 -0.018699204140568408 0 0.0069258896903600957 -0.018914971553157651 0 0.0073072730736730342 -0.018483574842043011 0 0.0069262361404172921 -0.018699204140568408 0 0.0068938952344105913 -0.018496925209969397 0 0.0067270754431704959 -0.018722918947227243 0 0.00704121223223145 -0.018200377973795812 0 0.0068938952344105913 -0.018496925209969397 0 0.0073072730736730342 -0.018483574842043011 0 0.00704121223223145 -0.018200377973795812 0 0.0068938952344105913 -0.018496925209969397 0 0.0067523364030461722 -0.01828519760369748 0 0.0068938952344105913 -0.018496925209969397 0 0.0067523364030461722 -0.01828519760369748 0 0.0066335771516860542 -0.018547854260410855 0 0.0065825093832461963 -0.018170607635946419 0 0.0067523364030461722 -0.01828519760369748 0 0.0065339889279632879 -0.018335651957575326 0 0.0065825093832461963 -0.018170607635946419 0 0.0065339889279632879 -0.018335651957575326 0 0.0063934502956418705 -0.018206554785894044 0 0.0067523364030461722 -0.01828519760369748 0 0.0065339889279632879 -0.018335651957575326 0 0.0066335771516860542 -0.018547854260410855 0 0.0065339889279632879 -0.018335651957575326 0 0.0066335771516860542 -0.018547854260410855 0 0.0064211776188180863 -0.018493001767097721 0 0.0066335771516860542 -0.018547854260410855 0 0.0065682000827409701 -0.018726656584102334 0 0.0064522224820247782 -0.018656100807037442 0 0.0066335771516860542 -0.018547854260410855 0 0.0064522224820247782 -0.018656100807037442 0 0.0064211776188180863 -0.018493001767097721 0 0.0068938952344105913 -0.018496925209969397 0 0.0066335771516860542 -0.018547854260410855 0 0.0067270754431704959 -0.018722918947227243 0 0.0066335771516860542 -0.018547854260410855 0 0.0067270754431704959 -0.018722918947227243 0 0.0065682000827409701 -0.018726656584102334 0 0.0067270754431704959 -0.018722918947227243 0 0.0066015239303319475 -0.018846496528144754 0 0.0067373159502898813 -0.018894384825442697 0 0.0069262361404172921 -0.018699204140568408 0 0.0067270754431704959 -0.018722918947227243 0 0.0067373159502898813 -0.018894384825442697 0 0.0066015239303319475 -0.018846496528144754 0 0.0065682000827409701 -0.018726656584102334 0 0.0064155908487869128 -0.018848857804416551 0 0.0065682000827409701 -0.018726656584102334 0 0.0064155908487869128 -0.018848857804416551 0 0.0064522224820247782 -0.018656100807037442 0 0.0067270754431704959 -0.018722918947227243 0 0.0066015239303319475 -0.018846496528144754 0 0.0065682000827409701 -0.018726656584102334 0 0.0064155908487869128 -0.018848857804416551 0 0.0063163942363534085 -0.018696270579772401 0 0.0064522224820247782 -0.018656100807037442 0 0.0064155908487869128 -0.018848857804416551 0 0.0062383797797359759 -0.018808170299640388 0 0.0063163942363534085 -0.018696270579772401 0 0.0064155908487869128 -0.018848857804416551 0 0.0062383797797359759 -0.018808170299640388 0 0.0062771878907409862 -0.018913147184641446 0 0.0061711149481990697 -0.018892978359813468 0 0.0062383797797359759 -0.018808170299640388 0 0.0062771878907409862 -0.018913147184641446 0 0.0061711149481990697 -0.018892978359813468 0 0.0060964896171495312 -0.018828647935001108 0 0.0062383797797359759 -0.018808170299640388 0 0.0061711149481990697 -0.018892978359813468 0 0.0060964896171495312 -0.018828647935001108 0 0.0060826546308102815 -0.018937228971762799 0 0.0060964896171495312 -0.018828647935001108 0 0.0062383797797359759 -0.018808170299640388 0 0.0061706208624470668 -0.018700819644022773 0 0.0061706208624470668 -0.018700819644022773 0 0.0063163942363534085 -0.018696270579772401 0 0.0062522007847113379 -0.018554736262869267 0 0.0062383797797359759 -0.018808170299640388 0 0.0061706208624470668 -0.018700819644022773 0 0.0063163942363534085 -0.018696270579772401 0 0.0061706208624470668 -0.018700819644022773 0 0.006086713522040153 -0.018581366002453258 0 0.0060372525537570072 -0.018725829708703259 0 0.0060964896171495312 -0.018828647935001108 0 0.0061706208624470668 -0.018700819644022773 0 0.0060372525537570072 -0.018725829708703259 0 0.0061706208624470668 -0.018700819644022773 0 0.006086713522040153 -0.018581366002453258 0 0.0062522007847113379 -0.018554736262869267 0 0.0063601684557497689 -0.01859651422254878 0 0.0063163942363534085 -0.018696270579772401 0 0.0062522007847113379 -0.018554736262869267 0 0.0063601684557497689 -0.01859651422254878 0 0.0063163942363534085 -0.018696270579772401 0 0.0064522224820247782 -0.018656100807037442 0 0.0063601684557497689 -0.01859651422254878 0 0.0064522224820247782 -0.018656100807037442 0 0.0064211776188180863 -0.018493001767097721 0 0.0064211776188180863 -0.018493001767097721 0 0.0062790508444493251 -0.018366098459632326 0 0.0062522007847113379 -0.018554736262869267 0 0.0065339889279632879 -0.018335651957575326 0 0.0064211776188180863 -0.018493001767097721 0 0.0062790508444493251 -0.018366098459632326 0 0.0063601684557497689 -0.01859651422254878 0 0.0064211776188180863 -0.018493001767097721 0 0.0062522007847113379 -0.018554736262869267 0 0.0065339889279632879 -0.018335651957575326 0 0.0063934502956418705 -0.018206554785894044 0 0.0062790508444493251 -0.018366098459632326 0 0.0061662967252586543 -0.018167147798844031 0 0.0062790508444493251 -0.018366098459632326 0 0.0060336267501756484 -0.018305962786882891 0 0.0061662967252586543 -0.018167147798844031 0 0.0063934502956418705 -0.018206554785894044 0 0.0062790508444493251 -0.018366098459632326 0 0.0062790508444493251 -0.018366098459632326 0 0.0061236596282625401 -0.01845332221830584 0 0.0060336267501756484 -0.018305962786882891 0 0.0062790508444493251 -0.018366098459632326 0 0.0061236596282625401 -0.01845332221830584 0 0.0062522007847113379 -0.018554736262869267 0 0.006086713522040153 -0.018581366002453258 0 0.0061236596282625401 -0.01845332221830584 0 0.0062522007847113379 -0.018554736262869267 0 0.006086713522040153 -0.018581366002453258 0 0.0059717119038853062 -0.018472905816205854 0 0.0058805669225829521 -0.018643824696396284 0 0.006086713522040153 -0.018581366002453258 0 0.0061236596282625401 -0.01845332221830584 0 0.0059717119038853062 -0.018472905816205854 0 0.0059717119038853062 -0.018472905816205854 0 0.0058314224688414077 -0.018509539168602856 0 0.0058805669225829521 -0.018643824696396284 0 0.0059717119038853062 -0.018472905816205854 0 0.0060336267501756484 -0.018305962786882891 0 0.005800697725941063 -0.018371236620060107 0 0.0059717119038853062 -0.018472905816205854 0 0.005800697725941063 -0.018371236620060107 0 0.0058314224688414077 -0.018509539168602856 0 0.0061236596282625401 -0.01845332221830584 0 0.0059717119038853062 -0.018472905816205854 0 0.0060336267501756484 -0.018305962786882891 0 0.0060336267501756484 -0.018305962786882891 0 0.0058707686426584657 -0.018210788829907967 0 0.005800697725941063 -0.018371236620060107 0 0.0059853758539741217 -0.018128609127750377 0 0.0060336267501756484 -0.018305962786882891 0 0.0058707686426584657 -0.018210788829907967 0 0.0059853758539741217 -0.018128609127750377 0 0.0061662967252586543 -0.018167147798844031 0 0.0060336267501756484 -0.018305962786882891 0 0.0055682766024754684 -0.018022829774388825 0 0.0057142992668208301 -0.018178337385599444 0 0.0055648915448695277 -0.018285320619820248 0 0.0058707686426584657 -0.018210788829907967 0 0.0057142992668208301 -0.018178337385599444 0 0.005800697725941063 -0.018371236620060107 0 0.0057142992668208301 -0.018178337385599444 0 0.005800697725941063 -0.018371236620060107 0 0.0055648915448695277 -0.018285320619820248 0 0.005800697725941063 -0.018371236620060107 0 0.0056683529135799935 -0.018550198854817599 0 0.0055648915448695277 -0.018285320619820248 0 0.005800697725941063 -0.018371236620060107 0 0.0058314224688414077 -0.018509539168602856 0 0.0056683529135799935 -0.018550198854817599 0 0.0058314224688414077 -0.018509539168602856 0 0.0056683529135799935 -0.018550198854817599 0 0.0058805669225829521 -0.018643824696396284 0 0.0056683529135799935 -0.018550198854817599 0 0.0057289051214914214 -0.01874136146008961 0 0.0054726990801524447 -0.018690834949523203 0 0.0057289051214914214 -0.01874136146008961 0 0.005630541064157669 -0.01885044589590551 0 0.0054726990801524447 -0.018690834949523203 0 0.0057289051214914214 -0.01874136146008961 0 0.0058805669225829521 -0.018643824696396284 0 0.005893269081684604 -0.018779499102187638 0 0.0056683529135799935 -0.018550198854817599 0 0.0057289051214914214 -0.01874136146008961 0 0.0058805669225829521 -0.018643824696396284 0 0.006086713522040153 -0.018581366002453258 0 0.0058805669225829521 -0.018643824696396284 0 0.0060372525537570072 -0.018725829708703259 0 0.0058805669225829521 -0.018643824696396284 0 0.0060372525537570072 -0.018725829708703259 0 0.005893269081684604 -0.018779499102187638 0 0.0059076042887362817 -0.018872116636885091 0 0.0059860492113042217 -0.018819382850646091 0 0.0059812094182793412 -0.018911753698122903 0 0.005893269081684604 -0.018779499102187638 0 0.0059076042887362817 -0.018872116636885091 0 0.0059860492113042217 -0.018819382850646091 0 0.005893269081684604 -0.018779499102187638 0 0.0059076042887362817 -0.018872116636885091 0 0.0057962822225248118 -0.018884432841711624 0 0.0060372525537570072 -0.018725829708703259 0 0.005893269081684604 -0.018779499102187638 0 0.0059860492113042217 -0.018819382850646091 0 0.0060964896171495312 -0.018828647935001108 0 0.0059860492113042217 -0.018819382850646091 0 0.0059812094182793412 -0.018911753698122903 0 0.0060964896171495312 -0.018828647935001108 0 0.0060372525537570072 -0.018725829708703259 0 0.0059860492113042217 -0.018819382850646091 0 0.0060964896171495312 -0.018828647935001108 0 0.0059812094182793412 -0.018911753698122903 0 0.0060826546308102815 -0.018937228971762799 0 0.0059076042887362817 -0.018872116636885091 0 0.005899502370947181 -0.01895674787961019 0 0.0058624212904948136 -0.018924558571817157 0 0.0059076042887362817 -0.018872116636885091 0 0.0059812094182793412 -0.018911753698122903 0 0.005899502370947181 -0.01895674787961019 0 0.0059812094182793412 -0.018911753698122903 0 0.005899502370947181 -0.01895674787961019 0 0.0059288336739631575 -0.018992672582926452 0 0.005899502370947181 -0.01895674787961019 0 0.0058278012684024978 -0.018982823504163832 0 0.0058624212904948136 -0.018924558571817157 0 0.0058278012684024978 -0.018982823504163832 0 0.005708150298573255 -0.019004809770953514 0 0.0057962822225248118 -0.018884432841711624 0 0.0058278012684024978 -0.018982823504163832 0 0.0058624212904948136 -0.018924558571817157 0 0.0057962822225248118 -0.018884432841711624 0 0.0059076042887362817 -0.018872116636885091 0 0.0058624212904948136 -0.018924558571817157 0 0.0057962822225248118 -0.018884432841711624 0 0.005708150298573255 -0.019004809770953514 0 0.005630541064157669 -0.01885044589590551 0 0.0057962822225248118 -0.018884432841711624 0 0.0057289051214914214 -0.01874136146008961 0 0.005630541064157669 -0.01885044589590551 0 0.0057962822225248118 -0.018884432841711624 0 0.0057289051214914214 -0.01874136146008961 0 0.005893269081684604 -0.018779499102187638 0 0.0057962822225248118 -0.018884432841711624 0 0.0051230377785289266 -0.018656105434407138 0 0.0046471022768894074 -0.01811803477752719 0 0.0058278012684024978 -0.018982823504163832 0 0.005708150298573255 -0.019004809770953514 0 0.0058163306841050033 -0.019029047983278116 0 0.0058278012684024978 -0.018982823504163832 0 0.0058163306841050033 -0.019029047983278116 0 0.0058839972181775838 -0.0189980659592996 0 0.0058163306841050033 -0.019029047983278116 0 0.0058839972181775838 -0.0189980659592996 0 0.0059319947271634452 -0.019028137087849055 0 0.005899502370947181 -0.01895674787961019 0 0.0058278012684024978 -0.018982823504163832 0 0.0058839972181775838 -0.0189980659592996 0 0.0058163306841050033 -0.019029047983278116 0 0.0059319947271634452 -0.019028137087849055 0 0.0060424465113188535 -0.019092666427744175 0 0.005899502370947181 -0.01895674787961019 0 0.0058839972181775838 -0.0189980659592996 0 0.0059288336739631575 -0.018992672582926452 0 0.0059812094182793412 -0.018911753698122903 0 0.0059288336739631575 -0.018992672582926452 0 0.0059974752981776808 -0.018989144582231436 0 0.0059288336739631575 -0.018992672582926452 0 0.0059319947271634452 -0.019028137087849055 0 0.0059974752981776808 -0.018989144582231436 0 0.0058839972181775838 -0.0189980659592996 0 0.0059288336739631575 -0.018992672582926452 0 0.0059319947271634452 -0.019028137087849055 0 0.0059812094182793412 -0.018911753698122903 0 0.0059974752981776808 -0.018989144582231436 0 0.0060826546308102815 -0.018937228971762799 0 0.0059319947271634452 -0.019028137087849055 0 0.0059974752981776808 -0.018989144582231436 0 0.0060106946524913279 -0.019029738753095642 0 0.0059974752981776808 -0.018989144582231436 0 0.0060106946524913279 -0.019029738753095642 0 0.0060745042095102127 -0.019015752677358992 0 0.0059974752981776808 -0.018989144582231436 0 0.0060745042095102127 -0.019015752677358992 0 0.0060826546308102815 -0.018937228971762799 0 0.0060106946524913279 -0.019029738753095642 0 0.0060424465113188535 -0.019092666427744175 0 0.0060745042095102127 -0.019015752677358992 0 0.0059319947271634452 -0.019028137087849055 0 0.0060106946524913279 -0.019029738753095642 0 0.0060424465113188535 -0.019092666427744175 0 0.0046471022768894074 -0.01811803477752719 0 0.0047338921484692924 -0.017717233370281676 0 0.0058163306841050033 -0.019029047983278116 0 0.0060424465113188535 -0.019092666427744175 0 0.0060801563434847552 -0.019213408398553618 0 0.0036128627698811056 -0.016605256275553173 0 0.003210637916980022 -0.016058567394009366 0 0.0036898081572107402 -0.015992356043085718 0 0.0036128627698811056 -0.016605256275553173 0 0.0036898081572107402 -0.015992356043085718 0 0.00410431343843933 -0.016269749400553184 0 0.0034874280288132047 -0.015646269429084887 0 0.002820134068555768 -0.015521385490003297 0 0.0037492565992086786 -0.015052291998826529 0 0.0036898081572107402 -0.015992356043085718 0 0.0034874280288132047 -0.015646269429084887 0 0.003971791625566083 -0.015608587285332281 0 0.0034874280288132047 -0.015646269429084887 0 0.003971791625566083 -0.015608587285332281 0 0.0037492565992086786 -0.015052291998826529 0 0.003210637916980022 -0.016058567394009366 0 0.0036898081572107402 -0.015992356043085718 0 0.0034874280288132047 -0.015646269429084887 0 0.0047338921484692924 -0.017717233370281676 0 0.0047997454199358268 -0.015930204313076901 0 0.003210637916980022 -0.016058567394009366 0 0.0034874280288132047 -0.015646269429084887 0 0.002820134068555768 -0.015521385490003297 0 0.0060801563434847552 -0.019213408398553618 0 0.0062275620827683276 -0.019217704761706395 0 0.0062342634917968189 -0.019343023692975764 0 0.0056072991628122034 -0.011574251765290677 0 0.0061753525844604647 -0.011939914761931883 0 0.0056792951281714153 -0.011860794572483343 0 0.0062275620827683276 -0.019217704761706395 0 0.0062342634917968189 -0.019343023692975764 0 0.0062528560344670449 -0.019332883484064447 0 0.0047997454199358268 -0.015930204313076901 0 0.0047797287122369244 -0.014290531425762811 0 0.005761472601711521 -0.015835577387520509 0 0.005282420386726802 -0.016058490023578845 0 0.004973415513058967 -0.014779710671446695 0 0.0056274087999489044 -0.015959522181244665 0 0.0047797287122369244 -0.014290531425762811 0 0.0047997454199358268 -0.015930204313076901 0 0.0056274087999489044 -0.015959522181244665 0 0.0062275620827683276 -0.019217704761706395 0 0.0062953549595788924 -0.019463441036600016 0 0.0064315980956917212 -0.019282467542690456 0 0.0062275620827683276 -0.019217704761706395 0 0.0064867337204362425 -0.019155574239291161 0 0.0064315980956917212 -0.019282467542690456 0 0.0064280600506432806 -0.019814224045432947 0 0.0056274087999489044 -0.015959522181244665 0 0.0062275620827683276 -0.019217704761706395 0 0.006324409792328952 -0.019038188735065287 0 0.0064867337204362425 -0.019155574239291161 0 0.0060801563434847552 -0.019213408398553618 0 0.0062275620827683276 -0.019217704761706395 0 0.0061600332300900135 -0.019098090866074453 0 0.0062275620827683276 -0.019217704761706395 0 0.0061600332300900135 -0.019098090866074453 0 0.006324409792328952 -0.019038188735065287 0 0.0060424465113188535 -0.019092666427744175 0 0.0060801563434847552 -0.019213408398553618 0 0.0061600332300900135 -0.019098090866074453 0 0.0061600332300900135 -0.019098090866074453 0 0.0061762704181541513 -0.01898482516097073 0 0.006324409792328952 -0.019038188735065287 0 0.0061600332300900135 -0.019098090866074453 0 0.0060745042095102127 -0.019015752677358992 0 0.0061762704181541513 -0.01898482516097073 0 0.0060424465113188535 -0.019092666427744175 0 0.0061600332300900135 -0.019098090866074453 0 0.0060745042095102127 -0.019015752677358992 0 0.0060745042095102127 -0.019015752677358992 0 0.0060826546308102815 -0.018937228971762799 0 0.0061762704181541513 -0.01898482516097073 0 0.0061711149481990697 -0.018892978359813468 0 0.0060826546308102815 -0.018937228971762799 0 0.0061762704181541513 -0.01898482516097073 0 0.0061711149481990697 -0.018892978359813468 0 0.0061762704181541513 -0.01898482516097073 0 0.0062771878907409862 -0.018913147184641446 0 0.0061762704181541513 -0.01898482516097073 0 0.0062771878907409862 -0.018913147184641446 0 0.006324409792328952 -0.019038188735065287 0 0.0064155908487869128 -0.018848857804416551 0 0.006324409792328952 -0.019038188735065287 0 0.0065298006793996586 -0.018983077368320372 0 0.0064155908487869128 -0.018848857804416551 0 0.0062771878907409862 -0.018913147184641446 0 0.006324409792328952 -0.019038188735065287 0 0.0066015239303319475 -0.018846496528144754 0 0.0065298006793996586 -0.018983077368320372 0 0.0067373159502898813 -0.018894384825442697 0 0.0066015239303319475 -0.018846496528144754 0 0.0064155908487869128 -0.018848857804416551 0 0.0065298006793996586 -0.018983077368320372 0 0.0065298006793996586 -0.018983077368320372 0 0.0067373159502898813 -0.018894384825442697 0 0.0067750978364114547 -0.019085755665854385 0 0.0067750978364114547 -0.019085755665854385 0 0.0064867337204362425 -0.019155574239291161 0 0.006714804879738823 -0.01929220411092699 0 0.0065298006793996586 -0.018983077368320372 0 0.0067750978364114547 -0.019085755665854385 0 0.0064867337204362425 -0.019155574239291161 0 0.006324409792328952 -0.019038188735065287 0 0.0065298006793996586 -0.018983077368320372 0 0.0064867337204362425 -0.019155574239291161 0 0.0056072991628122034 -0.011574251765290677 0 0.0065663298673822711 -0.011629333081741036 0 0.0067247393953409722 -0.011036221323649313 0 0.0062953549595788924 -0.019463441036600016 0 0.0064315980956917212 -0.019282467542690456 0 0.006714804879738823 -0.01929220411092699 0 0.0056274087999489044 -0.015959522181244665 0 0.0068106640273335141 -0.015091832486587069 0 0.0064867337204362425 -0.019155574239291161 0 0.0064315980956917212 -0.019282467542690456 0 0.006714804879738823 -0.01929220411092699 0 0.0056072991628122034 -0.011574251765290677 0 0.0065663298673822711 -0.011629333081741036 0 0.0061753525844604647 -0.011939914761931883 0 0.0065663298673822711 -0.011629333081741036 0 0.0073959327146281856 -0.011516060192836595 0 0.0067512432933050266 -0.012148018035650516 0 0.0065663298673822711 -0.011629333081741036 0 0.0067247393953409722 -0.011036221323649313 0 0.0073959327146281856 -0.011516060192836595 0 0.0067247393953409722 -0.011036221323649313 0 0.0073959327146281856 -0.011516060192836595 0 0.0078627787373569177 -0.010497665593698509 0 0.0073959327146281856 -0.011516060192836595 0 0.0078627787373569177 -0.010497665593698509 0 0.0082392914609791014 -0.011405945038808837 0 0.0073959327146281856 -0.011516060192836595 0 0.0082392914609791014 -0.011405945038808837 0 0.0081485293110926654 -0.012416309816363368 0 0.0072930901496669484 -0.019136857548706809 0 0.0069258896903600957 -0.018914971553157651 0 0.0076348501115887637 -0.018583572062759027 0 0.0068106640273335141 -0.015091832486587069 0 0.0077044349577030597 -0.015482897675736636 0 0.0072930901496669484 -0.019136857548706809 0 0.0070107875353069777 -0.019067566200998493 0 0.0069258896903600957 -0.018914971553157651 0 0.006714804879738823 -0.01929220411092699 0 0.0071829856946782943 -0.019101293650190306 0 0.0070107875353069777 -0.019067566200998493 0 0.0077044349577030597 -0.015482897675736636 0 0.0076026844185645513 -0.016738712469223874 0 0.0067750978364114547 -0.019085755665854385 0 0.006714804879738823 -0.01929220411092699 0 0.0070107875353069777 -0.019067566200998493 0 0.0067750978364114547 -0.019085755665854385 0 0.0070107875353069777 -0.019067566200998493 0 0.0069258896903600957 -0.018914971553157651 0 0.0067373159502898813 -0.018894384825442697 0 0.0067750978364114547 -0.019085755665854385 0 0.0069258896903600957 -0.018914971553157651 0 0.0069262361404172921 -0.018699204140568408 0 0.0067373159502898813 -0.018894384825442697 0 0.0069258896903600957 -0.018914971553157651 0 0.0026772492108367704 -0.017977999080303012 0 0.0028892465640684155 -0.018131705253724567 0 0.0025081351894691169 -0.018130717609408507 0 0.003642894513023884 -0.018387058610597418 0 0.0040129316749491217 -0.017696133503165574 0 0.0028714242701282666 -0.017864963671240561 0 0.0028823000284812451 -0.018065923396800975 0 0.0030023049556883782 -0.018130201439840603 0 0.0028823000284812451 -0.018065923396800975 0 0.0026772492108367704 -0.017977999080303012 0 0.0028892465640684155 -0.018131705253724567 0 0.0028714242701282666 -0.017864963671240561 0 0.0028823000284812451 -0.018065923396800975 0 0.0026772492108367704 -0.017977999080303012 0 0.0026772492108367704 -0.017977999080303012 0 0.0024349944974373671 -0.017856352555552246 0 0.0025081351894691169 -0.018130717609408507 0 0.0027813529746027548 -0.017850850090174116 0 0.0033932435249483467 -0.017870949582230462 0 0.0032859738778233945 -0.017749221236319231 0 0.0030568869249521075 -0.017919076160364818 0 0.0030051443833369034 -0.017634118792558596 0 0.0026772492108367704 -0.017977999080303012 0 0.0024349944974373671 -0.017856352555552246 0 0.0027428257147896753 -0.017593292516633271 0 0.0032859738778233945 -0.017749221236319231 0 0.0030568869249521075 -0.017919076160364818 0 0.003524378185538878 -0.017847287159840877 0 0.0035226805580737134 -0.017808474196529291 0 0.0032859738778233945 -0.017749221236319231 0 0.003524378185538878 -0.017847287159840877 0 0.0028714242701282666 -0.017864963671240561 0 0.0026772492108367704 -0.017977999080303012 0 0.0027428257147896753 -0.017593292516633271 0 0.0034334998949845682 -0.017881505816874046 0 0.0033932435249483467 -0.017870949582230462 0 0.0043011006042861424 -0.018686678054701693 0 0.0040133371140077837 -0.018165741615454641 0 0.0046073658945342648 -0.018254044948798183 0 0.003642894513023884 -0.018387058610597418 0 0.0033932435249483467 -0.017870949582230462 0 0.0043011006042861424 -0.018686678054701693 0 0.0046073658945342648 -0.018254044948798183 0 0.0050293738601961359 -0.018642156452049845 0 0.0049284600799314746 -0.017925398064225655 0 0.0046073658945342648 -0.018254044948798183 0 0.0050501632661398574 -0.018275806551906412 0 0.0046073658945342648 -0.018254044948798183 0 0.0050501632661398574 -0.018275806551906412 0 0.0050293738601961359 -0.018642156452049845 0 0.005317636943502538 -0.018084542569091422 0 0.0055682766024754684 -0.018022829774388825 0 0.0055648915448695277 -0.018285320619820248 0 0.005317636943502538 -0.018084542569091422 0 0.0055648915448695277 -0.018285320619820248 0 0.0053526863044553773 -0.018456475325919014 0 0.005317636943502538 -0.018084542569091422 0 0.0050501632661398574 -0.018275806551906412 0 0.0053526863044553773 -0.018456475325919014 0 0.0050501632661398574 -0.018275806551906412 0 0.0053526863044553773 -0.018456475325919014 0 0.0050293738601961359 -0.018642156452049845 0 0.0056683529135799935 -0.018550198854817599 0 0.0053526863044553773 -0.018456475325919014 0 0.0054726990801524447 -0.018690834949523203 0 0.0056683529135799935 -0.018550198854817599 0 0.0055648915448695277 -0.018285320619820248 0 0.0053526863044553773 -0.018456475325919014 0 0.005630541064157669 -0.01885044589590551 0 0.0054726990801524447 -0.018690834949523203 0 0.0053948452297099591 -0.018900885266207746 0 0.0054726990801524447 -0.018690834949523203 0 0.0053948452297099591 -0.018900885266207746 0 0.0050293738601961359 -0.018642156452049845 0 0.0053526863044553773 -0.018456475325919014 0 0.0054726990801524447 -0.018690834949523203 0 0.0050293738601961359 -0.018642156452049845 0 0.0053948452297099591 -0.018900885266207746 0 0.0050293738601961359 -0.018642156452049845 0 0.0048855726007993759 -0.018970694820819815 0 0.0053948452297099591 -0.018900885266207746 0 0.0048855726007993759 -0.018970694820819815 0 0.0051861874543168074 -0.019188003130561192 0 0.005708150298573255 -0.019004809770953514 0 0.0053948452297099591 -0.018900885266207746 0 0.0051861874543168074 -0.019188003130561192 0 0.005708150298573255 -0.019004809770953514 0 0.005630541064157669 -0.01885044589590551 0 0.0053948452297099591 -0.018900885266207746 0 0.0043011006042861424 -0.018686678054701693 0 0.0048855726007993759 -0.018970694820819815 0 0.0045800947667456954 -0.019200463816106371 0 0.0043011006042861424 -0.018686678054701693 0 0.0050293738601961359 -0.018642156452049845 0 0.0048855726007993759 -0.018970694820819815 0 0.0048855726007993759 -0.018970694820819815 0 0.0045800947667456954 -0.019200463816106371 0 0.0051861874543168074 -0.019188003130561192 0 0.0049666122897507768 -0.016617964378671198 0 0.0044997392136172923 -0.016307663551873162 0 0.0043116573522431739 -0.016607685741271225 0 0.0049666122897507768 -0.016617964378671198 0 0.0044997392136172923 -0.016307663551873162 0 0.0046277476262235268 -0.015903575040304381 0 0.0040129316749491217 -0.017696133503165574 0 0.0043048313273526071 -0.015973125372062927 0 0.0031125038033994038 -0.017315195422169933 0 0.0028305526281756878 -0.016720846566013112 0 0.0033132733433997993 -0.017318550771270199 0 0.0040129316749491217 -0.017696133503165574 0 0.0048776947556209479 -0.017896683848811396 0 0.0046471022768894074 -0.01811803477752719 0 0.0048776947556209479 -0.017896683848811396 0 0.005708150298573255 -0.019004809770953514 0 0.0058050578080460439 -0.019129275233820922 0 0.0051861874543168074 -0.019188003130561192 0 0.0036128627698811056 -0.016605256275553173 0 0.0043116573522431739 -0.016607685741271225 0 0.00410431343843933 -0.016269749400553184 0 0.0044997392136172923 -0.016307663551873162 0 0.0043116573522431739 -0.016607685741271225 0 0.00410431343843933 -0.016269749400553184 0 0.0044997392136172923 -0.016307663551873162 0 0.00410431343843933 -0.016269749400553184 0 0.0046277476262235268 -0.015903575040304381 0 0.0042549882339709142 -0.016155485430612855 0 0.0043048313273526071 -0.015973125372062927 0 0.003971791625566083 -0.015608587285332281 0 0.0046803165187094039 -0.015838639838360181 0 0.0042645194111037253 -0.015021144626316407 0 0.0043048313273526071 -0.015973125372062927 0 0.0043293677670607177 -0.015063311513264363 0 0.00410431343843933 -0.016269749400553184 0 0.003971791625566083 -0.015608587285332281 0 0.0046803165187094039 -0.015838639838360181 0 0.0036898081572107402 -0.015992356043085718 0 0.00410431343843933 -0.016269749400553184 0 0.003971791625566083 -0.015608587285332281 0 0.0028305526281756878 -0.016720846566013112 0 0.0032019923590399526 -0.016444504562434951 0 0.0033132733433997993 -0.017318550771270199 0 0.0046015587849535999 -0.015740388813738172 0 0.0050661210982093363 -0.015401968193929491 0 0.0047048778640102146 -0.01501414985825379 0 0.0043048313273526071 -0.015973125372062927 0 0.0022083957277661279 -0.016381035340342031 0 0.00030231559032105045 -0.017373444370497721 0 0.00039272630576706237 -0.018009255451219206 0 0.0007621478265937814 -0.017587732350737014 0 0.00030231559032105045 -0.017373444370497721 0 0.0007621478265937814 -0.017587732350737014 0 0.0006896096861923126 -0.017059991522227272 0 0.0022023866946936578 -0.017717694341418493 0 0.0015299300096271319 -0.01810564029753995 0 0.0022083957277661279 -0.016381035340342031 0 0.0022023866946936578 -0.017717694341418493 0 0.0028823000284812451 -0.018065923396800975 0 0.0030023049556883782 -0.018130201439840603 0 0.0028909434593237318 -0.018128731049794039 0 0.0040129316749491217 -0.017696133503165574 0 0.0022023866946936578 -0.017717694341418493 0 0.00230540600980347 -0.017890009580738463 0 0.0022023866946936578 -0.017717694341418493 0 0.00039272630576706237 -0.018009255451219206 0 0.00088359235779069572 -0.018027990446951421 0 0.0007621478265937814 -0.017587732350737014 0 0.00088359235779069572 -0.018027990446951421 0 0.0007621478265937814 -0.017587732350737014 0 0.0011368425888965464 -0.017783245869857117 0 0.0007621478265937814 -0.017587732350737014 0 0.0012171530136783632 -0.017434990202961239 0 0.0006896096861923126 -0.017059991522227272 0 0.0007621478265937814 -0.017587732350737014 0 0.0012171530136783632 -0.017434990202961239 0 0.0011368425888965464 -0.017783245869857117 0 0.0012171530136783632 -0.017434990202961239 0 0.0014613303780410471 -0.017689084173346113 0 0.0011368425888965464 -0.017783245869857117 0 0.0012171530136783632 -0.017434990202961239 0 0.0014613303780410471 -0.017689084173346113 0 0.0016913429552799432 -0.017231018482289171 0 0.0014613303780410471 -0.017689084173346113 0 0.0018261234701453433 -0.017715285359391812 0 0.0016913429552799432 -0.017231018482289171 0 0.0020668427547929462 -0.018004181463217594 0 0.0021310413400676795 -0.017716999628405596 0 0.0014613303780410471 -0.017689084173346113 0 0.0013870715909396886 -0.018051550631368294 0 0.0018261234701453433 -0.017715285359391812 0 0.0025070768366890635 -0.017820565002477834 0 0.0026801437208283999 -0.017908843611422223 0 0.0023868914255547927 -0.017759215008244678 0 0.0025070768366890635 -0.017820565002477834 0 0.0026801437208283999 -0.017908843611422223 0 0.0026082859520353287 -0.017856046359680092 0 0.0025070768366890635 -0.017820565002477834 0 0.0026082859520353287 -0.017856046359680092 0 0.002585623370844046 -0.017829915627326637 0 0.0014613303780410471 -0.017689084173346113 0 0.0011368425888965464 -0.017783245869857117 0 0.0013870715909396886 -0.018051550631368294 0 0.0015299300096271319 -0.01810564029753995 0 0.0020668427547929462 -0.018004181463217594 0 0.00088359235779069572 -0.018027990446951421 0 0.0011368425888965464 -0.017783245869857117 0 0.0013870715909396886 -0.018051550631368294 0 0.0030568869249521075 -0.017919076160364818 0 0.0026801437208283999 -0.017908843611422223 0 0.0027432042115671878 -0.017845221119923694 0 0.0024349944974373671 -0.017856352555552246 0 0.0025081351894691169 -0.018130717609408507 0 0.0021260827394588991 -0.018125733176745935 0 0.0027813529746027548 -0.017850850090174116 0 0.0020668427547929462 -0.018004181463217594 0 0.0030568869249521075 -0.017919076160364818 0 0.0027432042115671878 -0.017845221119923694 0 0.0027543686865558813 -0.017725952690164123 0 0.0026737520294250307 -0.017861753764346507 0 0.002585623370844046 -0.017829915627326637 0 0.0026279239161692159 -0.017794198855583657 0 0.0026801437208283999 -0.017908843611422223 0 0.0026082859520353287 -0.017856046359680092 0 0.0026737520294250307 -0.017861753764346507 0 0.0026801437208283999 -0.017908843611422223 0 0.0027432042115671878 -0.017845221119923694 0 0.0026737520294250307 -0.017861753764346507 0 0.0026082859520353287 -0.017856046359680092 0 0.0026737520294250307 -0.017861753764346507 0 0.002585623370844046 -0.017829915627326637 0 0.0025070768366890635 -0.017820565002477834 0 0.002585623370844046 -0.017829915627326637 0 0.0025246421913432235 -0.017792492777997163 0 0.002585623370844046 -0.017829915627326637 0 0.0026279239161692159 -0.017794198855583657 0 0.0025246421913432235 -0.017792492777997163 0 0.0026279239161692159 -0.017794198855583657 0 0.00257603274046188 -0.017714181845412014 0 0.0025246421913432235 -0.017792492777997163 0 0.0027432042115671878 -0.017845221119923694 0 0.0026279239161692159 -0.017794198855583657 0 0.0027543686865558813 -0.017725952690164123 0 0.0027432042115671878 -0.017845221119923694 0 0.0026737520294250307 -0.017861753764346507 0 0.0026279239161692159 -0.017794198855583657 0 0.0027543686865558813 -0.017725952690164123 0 0.00257603274046188 -0.017714181845412014 0 0.0026579341480061076 -0.017558357388831991 0 0.0026279239161692159 -0.017794198855583657 0 0.0027543686865558813 -0.017725952690164123 0 0.00257603274046188 -0.017714181845412014 0 0.0030568869249521075 -0.017919076160364818 0 0.0027543686865558813 -0.017725952690164123 0 0.0030051443833369034 -0.017634118792558596 0 0.002308916695855073 -0.017625043679803085 0 0.0024852317330785359 -0.0176281550521953 0 0.0024469303526056608 -0.017731074990492677 0 0.002308916695855073 -0.017625043679803085 0 0.0024852317330785359 -0.0176281550521953 0 0.0024589571655349307 -0.017479704366303615 0 0.00257603274046188 -0.017714181845412014 0 0.0024852317330785359 -0.0176281550521953 0 0.0026579341480061076 -0.017558357388831991 0 0.00257603274046188 -0.017714181845412014 0 0.0024852317330785359 -0.0176281550521953 0 0.0024469303526056608 -0.017731074990492677 0 0.00257603274046188 -0.017714181845412014 0 0.0024469303526056608 -0.017731074990492677 0 0.0025246421913432235 -0.017792492777997163 0 0.0024469303526056608 -0.017731074990492677 0 0.0025246421913432235 -0.017792492777997163 0 0.002426565387860671 -0.017786488436900637 0 0.0024469303526056608 -0.017731074990492677 0 0.0023497640319319071 -0.017752757177188161 0 0.002426565387860671 -0.017786488436900637 0 0.002308916695855073 -0.017625043679803085 0 0.0023497640319319071 -0.017752757177188161 0 0.0022061063725557425 -0.01775153379471384 0 0.0023497640319319071 -0.017752757177188161 0 0.002396646898840016 -0.01769722256183217 0 0.0022061063725557425 -0.01775153379471384 0 0.002308916695855073 -0.017625043679803085 0 0.0024469303526056608 -0.017731074990492677 0 0.0023497640319319071 -0.017752757177188161 0 0.0023497640319319071 -0.017752757177188161 0 0.002396646898840016 -0.01769722256183217 0 0.002426565387860671 -0.017786488436900637 0 0.0025070768366890635 -0.017820565002477834 0 0.002426565387860671 -0.017786488436900637 0 0.0023868914255547927 -0.017759215008244678 0 0.002396646898840016 -0.01769722256183217 0 0.002426565387860671 -0.017786488436900637 0 0.0023868914255547927 -0.017759215008244678 0 0.0025070768366890635 -0.017820565002477834 0 0.0025246421913432235 -0.017792492777997163 0 0.002426565387860671 -0.017786488436900637 0 0.0021310413400676795 -0.017716999628405596 0 0.0023361334095672965 -0.01745531797285306 0 0.0018261234701453433 -0.017715285359391812 0 0.002330260058857894 -0.017440228521528389 0 0.0016913429552799432 -0.017231018482289171 0 0.002396646898840016 -0.01769722256183217 0 0.0023868914255547927 -0.017759215008244678 0 0.002330260058857894 -0.017440228521528389 0 0.002396646898840016 -0.01769722256183217 0 0.0024142074431378097 -0.017641222170383723 0 0.002330260058857894 -0.017440228521528389 0 0.001484064757007769 -0.016224290986206667 0 0.00069229143696292509 -0.015780661474000503 0 0.0005935477835445432 -0.014835944804597594 0 -0.00012812945028833499 -0.01477742404072312 0 1.5457171382056764e-05 -0.015242631647866092 0 0.0024142074431378097 -0.017641222170383723 0 0.0018932181203487716 -0.017532111612509546 0 0.0023642591431321199 -0.017371602626890262 0 0.0023638931684496866 -0.017684077015483461 0 0.0021875877364086979 -0.017604573403244839 0 0.002396646898840016 -0.01769722256183217 0 0.0024142074431378097 -0.017641222170383723 0 0.0023642591431321199 -0.017371602626890262 0 -0.00094301925523682648 -0.014245960043145427 0 -0.00087137822272316718 -0.014525946913959078 0 -0.0010211841537697756 -0.014229364824021656 0 -0.00095247741335284346 -0.014148996752736002 0 -0.0010678219510495031 -0.014283818304776945 0 -0.00052474733788195288 -0.014502768587277504 0 -0.00095247741335284346 -0.014148996752736002 0 -0.00059117745156306843 -0.015055164016138517 0 -0.0011668985031206183 -0.014229863766638887 0 -0.0010211841537697756 -0.014229364824021656 0 -0.00098840204384740508 -0.014230257712784786 0 -0.0011668985031206183 -0.014229863766638887 0 -0.0010211841537697756 -0.014229364824021656 0 -0.00095247741335284346 -0.014148996752736002 0 -0.00052474733788195288 -0.014502768587277504 0 -0.00012812945028833499 -0.01477742404072312 0 -0.00050523182737252181 -0.014022467727840741 0 0.0005935477835445432 -0.014835944804597594 0 -0.00012812945028833499 -0.01477742404072312 0 -0.00050523182737252181 -0.014022467727840741 0 -0.00052474733788195288 -0.014502768587277504 0 -0.00012812945028833499 -0.01477742404072312 0 -0.00059117745156306843 -0.015055164016138517 0 -0.00052474733788195288 -0.014502768587277504 0 -0.00050523182737252181 -0.014022467727840741 0 -0.00095247741335284346 -0.014148996752736002 0 -0.0011963834695019641 -0.013938357048435841 0 -0.0012794453428922304 -0.013663597490562306 0 -0.00095247741335284346 -0.014148996752736002 0 -0.0012794453428922304 -0.013663597490562306 0 -0.00050523182737252181 -0.014022467727840741 0 -0.00095247741335284346 -0.014148996752736002 0 -6.9899414998628225e-05 -0.015393524785576875 0 0.00069229143696292509 -0.015780661474000503 0 0.0011322477604251938 -0.017127838231756017 0 0.0018932181203487716 -0.017532111612509546 0 0.0018724790680000822 -0.016892100962389568 0 0.0018932181203487716 -0.017532111612509546 0 0.0018724790680000822 -0.016892100962389568 0 0.0023642591431321199 -0.017371602626890262 0 0.0015812437074825248 -0.017798886257256695 0 0.0019763756585754505 -0.017591818818438847 0 0.0015006394403618189 -0.0174025433171274 0 0.0011322477604251938 -0.017127838231756017 0 0.0011276478824224837 -0.016362450461647162 0 0.0018724790680000822 -0.016892100962389568 0 0.0010600605687943656 -0.016966605407760207 0 0.0017239010753674487 -0.017342238045168039 0 0.0010790857212530272 -0.017600641153632305 0 0.0015812437074825248 -0.017798886257256695 0 0.0015006394403618189 -0.0174025433171274 0 0.0022061063725557425 -0.01775153379471384 0 0.0020620469237585767 -0.017872905741681908 0 0.0019763756585754505 -0.017591818818438847 0 0.002396646898840016 -0.01769722256183217 0 0.0022061063725557425 -0.01775153379471384 0 0.0020620469237585767 -0.017872905741681908 0 0.0015812437074825248 -0.017798886257256695 0 0.0020620469237585767 -0.017872905741681908 0 0.0019763756585754505 -0.017591818818438847 0 0.0017239010753674487 -0.017342238045168039 0 0.0021875877364086979 -0.017604573403244839 0 0.002308916695855073 -0.017625043679803085 0 0.0022061063725557425 -0.01775153379471384 0 0.0019763756585754505 -0.017591818818438847 0 0.002308916695855073 -0.017625043679803085 0 0.0019763756585754505 -0.017591818818438847 0 0.0022015022405232872 -0.017342968857717241 0 0.0019763756585754505 -0.017591818818438847 0 0.0018095624478116042 -0.017202488680958587 0 0.0015006394403618189 -0.0174025433171274 0 0.0019763756585754505 -0.017591818818438847 0 0.0018095624478116042 -0.017202488680958587 0 0.0022015022405232872 -0.017342968857717241 0 0.0022015022405232872 -0.017342968857717241 0 0.0021496279638312998 -0.017077005542060011 0 0.0022982922481361292 -0.017187645505642422 0 0.0021970715904375696 -0.017317784616947943 0 0.0021344213136964365 -0.016953549734573505 0 0.0018095624478116042 -0.017202488680958587 0 0.0022015022405232872 -0.017342968857717241 0 0.0021183504755395827 -0.016810366478242963 0 0.0010086374902839245 -0.017207009548828339 0 0.0014665419443493943 -0.017390916126624072 0 0.0010790857212530272 -0.017600641153632305 0 0.0010820861994275434 -0.017147541752668777 0 0.0015006394403618189 -0.0174025433171274 0 0.0018095624478116042 -0.017202488680958587 0 0.0013899842777509884 -0.016969656267541593 0 0.0017374424499308028 -0.016875019903006955 0 0.0018095624478116042 -0.017202488680958587 0 0.0015006394403618189 -0.0174025433171274 0 0.0013899842777509884 -0.016969656267541593 0 0.00078201630989139582 -0.017012000534244225 0 0.00097893074377204507 -0.017275320162198411 0 0.0013899842777509884 -0.016969656267541593 0 0.00097893074377204507 -0.017275320162198411 0 0.0015006394403618189 -0.0174025433171274 0 0.0013899842777509884 -0.016969656267541593 0 0.00093994384931711593 -0.016747022757974767 0 0.00078201630989139582 -0.017012000534244225 0 0.0013899842777509884 -0.016969656267541593 0 0.00093994384931711593 -0.016747022757974767 0 0.0013899842777509884 -0.016969656267541593 0 0.0012621601278875237 -0.016684637002316659 0 0.0013899842777509884 -0.016969656267541593 0 0.001618660925845921 -0.016543299081500731 0 0.0017374424499308028 -0.016875019903006955 0 0.0013899842777509884 -0.016969656267541593 0 0.001618660925845921 -0.016543299081500731 0 0.0012621601278875237 -0.016684637002316659 0 0.0014368069897385015 -0.016251209975606931 0 0.001618660925845921 -0.016543299081500731 0 0.0011441468036081472 -0.016425677824073115 0 0.001618660925845921 -0.016543299081500731 0 0.0012621601278875237 -0.016684637002316659 0 0.0011441468036081472 -0.016425677824073115 0 0.00093994384931711593 -0.016747022757974767 0 0.0012621601278875237 -0.016684637002316659 0 0.0011441468036081472 -0.016425677824073115 0 0.0021496279638312998 -0.017077005542060011 0 0.0022797730438397471 -0.01692691890204627 0 0.0022982922481361292 -0.017187645505642422 0 0.0018095624478116042 -0.017202488680958587 0 0.0021183504755395827 -0.016810366478242963 0 0.0017374424499308028 -0.016875019903006955 0 0.001618660925845921 -0.016543299081500731 0 0.0021183504755395827 -0.016810366478242963 0 0.0017374424499308028 -0.016875019903006955 0 0.0020177863658982801 -0.016284398390609887 0 0.001618660925845921 -0.016543299081500731 0 0.0021183504755395827 -0.016810366478242963 0 0.0020848508962928677 -0.016736371556583838 0 0.0021496279638312998 -0.017077005542060011 0 0.0022797730438397471 -0.01692691890204627 0 0.002049968157173804 -0.016484391652705127 0 0.0021344213136964365 -0.016953549734573505 0 0.0022797730438397471 -0.01692691890204627 0 0.0024587613500093967 -0.017067530430263562 0 0.0025166182856496918 -0.016873098467365243 0 0.0023653850257858589 -0.016771624282910673 0 0.0022797730438397471 -0.01692691890204627 0 0.0025166182856496918 -0.016873098467365243 0 0.0022466366249418233 -0.016754614791439852 0 0.0023653850257858589 -0.016771624282910673 0 0.0022797730438397471 -0.01692691890204627 0 0.0022797730438397471 -0.01692691890204627 0 0.0022982922481361292 -0.017187645505642422 0 0.0024587613500093967 -0.017067530430263562 0 0.0022982922481361292 -0.017187645505642422 0 0.0024587613500093967 -0.017067530430263562 0 0.0024766299858367969 -0.017282600973199402 0 0.0024587613500093967 -0.017067530430263562 0 0.0026401408493501215 -0.017223029751019487 0 0.0026862743734819691 -0.016990045649532392 0 0.0024587613500093967 -0.017067530430263562 0 0.0026401408493501215 -0.017223029751019487 0 0.0024766299858367969 -0.017282600973199402 0 0.0027036596737983641 -0.016721654221518702 0 0.0025166182856496918 -0.016873098467365243 0 0.0026862743734819691 -0.016990045649532392 0 0.0024587613500093967 -0.017067530430263562 0 0.0025166182856496918 -0.016873098467365243 0 0.0026862743734819691 -0.016990045649532392 0 0.0027036596737983641 -0.016721654221518702 0 0.0026862743734819691 -0.016990045649532392 0 0.002929164546372045 -0.016834719124934359 0 0.0026862743734819691 -0.016990045649532392 0 0.002929164546372045 -0.016834719124934359 0 0.0029068567075677615 -0.01700704216997866 0 0.0032179517652331387 -0.016729402508859671 0 0.002929164546372045 -0.016834719124934359 0 0.0031810351475928048 -0.017012668477711563 0 0.002929164546372045 -0.016834719124934359 0 0.0029068567075677615 -0.01700704216997866 0 0.0031810351475928048 -0.017012668477711563 0 0.0031810351475928048 -0.017012668477711563 0 0.0028502438233229768 -0.017195139595944882 0 0.0031738878617069699 -0.017395729976305174 0 0.0032533144856783601 -0.016770303504782338 0 0.0031675813791949958 -0.017387033169729026 0 0.0029068567075677615 -0.01700704216997866 0 0.0031810351475928048 -0.017012668477711563 0 0.0028502438233229768 -0.017195139595944882 0 0.0026401408493501215 -0.017223029751019487 0 0.0026862743734819691 -0.016990045649532392 0 0.0028502438233229768 -0.017195139595944882 0 0.0026862743734819691 -0.016990045649532392 0 0.0029068567075677615 -0.01700704216997866 0 0.0028502438233229768 -0.017195139595944882 0 0.0026401408493501215 -0.017223029751019487 0 0.0028502438233229768 -0.017195139595944882 0 0.0027839593758168342 -0.017423707825814653 0 0.0026401408493501215 -0.017223029751019487 0 0.0027839593758168342 -0.017423707825814653 0 0.002609547479255674 -0.017412511891373182 0 0.0031849015712178009 -0.017214121682386441 0 0.0027839593758168342 -0.017423707825814653 0 0.0029835524725534694 -0.017461237877782566 0 0.0033673906511889904 -0.017457197134494028 0 0.0028429120930422687 -0.017435705861282076 0 0.0034869310050584688 -0.017711807187095828 0 0.0027839593758168342 -0.017423707825814653 0 0.0031738878617069699 -0.017395729976305174 0 0.0028502438233229768 -0.017195139595944882 0 0.0027839593758168342 -0.017423707825814653 0 0.0031738878617069699 -0.017395729976305174 0 0.0027543686865558813 -0.017725952690164123 0 0.0028331901362470087 -0.017531179185926293 0 0.0030051443833369034 -0.017634118792558596 0 0.0032074858464991554 -0.01755163323695395 0 0.0029835524725534694 -0.017461237877782566 0 0.0030051443833369034 -0.017634118792558596 0 0.0027839593758168342 -0.017423707825814653 0 0.0029835524725534694 -0.017461237877782566 0 0.0028331901362470087 -0.017531179185926293 0 0.0029835524725534694 -0.017461237877782566 0 0.0028331901362470087 -0.017531179185926293 0 0.0030051443833369034 -0.017634118792558596 0 0.0027839593758168342 -0.017423707825814653 0 0.0026579341480061076 -0.017558357388831991 0 0.002609547479255674 -0.017412511891373182 0 0.0027839593758168342 -0.017423707825814653 0 0.0028331901362470087 -0.017531179185926293 0 0.0026579341480061076 -0.017558357388831991 0 0.0027543686865558813 -0.017725952690164123 0 0.0028331901362470087 -0.017531179185926293 0 0.0026579341480061076 -0.017558357388831991 0 0.0026579341480061076 -0.017558357388831991 0 0.0024589571655349307 -0.017479704366303615 0 0.002609547479255674 -0.017412511891373182 0 0.0024852317330785359 -0.0176281550521953 0 0.0026579341480061076 -0.017558357388831991 0 0.0024589571655349307 -0.017479704366303615 0 0.002308916695855073 -0.017625043679803085 0 0.0022015022405232872 -0.017342968857717241 0 0.0024589571655349307 -0.017479704366303615 0 0.0022015022405232872 -0.017342968857717241 0 0.0022982922481361292 -0.017187645505642422 0 0.0024766299858367969 -0.017282600973199402 0 0.0022015022405232872 -0.017342968857717241 0 0.0024589571655349307 -0.017479704366303615 0 0.0024766299858367969 -0.017282600973199402 0 0.0024589571655349307 -0.017479704366303615 0 0.0024766299858367969 -0.017282600973199402 0 0.002609547479255674 -0.017412511891373182 0 0.0026401408493501215 -0.017223029751019487 0 0.0024766299858367969 -0.017282600973199402 0 0.002609547479255674 -0.017412511891373182 0 0.014925790149657401 -0.012342764525769033 0 0.014672308428603965 -0.012625758312346821 0 0.014740283572457031 -0.012765969285047318 0 0.014925790149657401 -0.012342764525769033 0 0.014740283572457031 -0.012765969285047318 0 0.014822401230392739 -0.012895069388478096 0 0.014999987440241324 -0.012186245061964201 0 0.014925790149657401 -0.012342764525769033 0 0.014999666829467661 -0.011716958585955355 0 0.014999927512393881 -0.01171456565815464 0 0.015524298792198661 -0.011167627932490133 0 0.014999929968697281 -0.01087458957299584 0 0.01499988164469581 -0.011715007833405509 0 0.015059573701037141 -0.011872849391593384 0 0.014925790149657401 -0.012342764525769033 0 0.014999666829467661 -0.011716958585955355 0 0.014672308428603965 -0.012625758312346821 0 0.014672308428603965 -0.012625758312346821 0 0.014720265591599261 -0.012864858586716594 0 0.014692869106469955 -0.012161310667208297 0 0.014672308428603965 -0.012625758312346821 0 0.014720265591599261 -0.012864858586716594 0 0.014740283572457031 -0.012765969285047318 0 0.014720265591599261 -0.012864858586716594 0 0.015401328767020444 -0.01267853786856245 0 0.014692869106469955 -0.012161310667208297 0 0.014720265591599261 -0.012864858586716594 0 0.014921846854708178 -0.013513095100962408 0 0.015401328767020444 -0.01267853786856245 0 0.014720265591599261 -0.012864858586716594 0 0.014832832282329678 -0.013238643447676012 0 0.014921846854708178 -0.013513095100962408 0 0.014832832282329678 -0.013238643447676012 0 0.014740283572457031 -0.012765969285047318 0 0.014822401230392739 -0.012895069388478096 0 0.014720265591599261 -0.012864858586716594 0 0.014832832282329678 -0.013238643447676012 0 0.014740283572457031 -0.012765969285047318 0 0.014832832282329678 -0.013238643447676012 0 0.014893125531104254 -0.013383593268946531 0 0.014822401230392739 -0.012895069388478096 0 0.014832832282329678 -0.013238643447676012 0 0.014893125531104254 -0.013383593268946531 0 0.014964519329918265 -0.013742739953841612 0 0.014832832282329678 -0.013238643447676012 0 0.014964519329918265 -0.013742739953841612 0 0.014921846854708178 -0.013513095100962408 0 0.015025186050854311 -0.013617107197170578 0 0.014893125531104254 -0.013383593268946531 0 0.01484305437757062 -0.013680892446504861 0 0.015025186050854311 -0.013617107197170578 0 0.014893125531104254 -0.013383593268946531 0 0.014964519329918265 -0.013742739953841612 0 0.014893125531104254 -0.013383593268946531 0 0.014718321455750947 -0.013252317285046066 0 0.014822401230392739 -0.012895069388478096 0 0.014893125531104254 -0.013383593268946531 0 0.014718321455750947 -0.013252317285046066 0 0.01484305437757062 -0.013680892446504861 0 0.014718321455750947 -0.013252317285046066 0 0.014822401230392739 -0.012895069388478096 0 0.014998718668510156 -0.012658226163680095 0 0.014999987440241324 -0.012186245061964201 0 0.014925790149657401 -0.012342764525769033 0 0.014998718668510156 -0.012658226163680095 0 0.014925790149657401 -0.012342764525769033 0 0.014822401230392739 -0.012895069388478096 0 0.014998718668510156 -0.012658226163680095 0 0.014999912438635776 -0.012658078588528411 0 0.01482101942824693 -0.013476942874219069 0 0.014718321455750947 -0.013252317285046066 0 0.014998718668510156 -0.012658226163680095 0 0.014485051232355025 -0.013427616665243853 0 0.01499997087347648 -0.014999230902922185 0 0.014160467930569477 -0.014995969788394004 0 0.012376878192593215 -0.01499952903088932 0 0.014999219566092818 -0.012659414610897859 0 0.01513576447751702 -0.013472634742589052 0 0.01499997087347648 -0.014999230902922185 0 0.014485051232355025 -0.013427616665243853 0 0.014589149597108836 -0.013702905365201993 0 0.01421431813302535 -0.014303543460654961 0 0.014718321455750947 -0.013252317285046066 0 0.014485051232355025 -0.013427616665243853 0 0.014589149597108836 -0.013702905365201993 0 0.01482101942824693 -0.013476942874219069 0 0.014561956801629583 -0.01431360828644839 0 0.01513576447751702 -0.013472634742589052 0 0.014970638296079978 -0.014337283959818498 0 0.01499997087347648 -0.014999230902922185 0 0.014970638296079978 -0.014337283959818498 0 0.01499997087347648 -0.014999230902922185 0 0.014160467930569477 -0.014995969788394004 0 0.014561956801629583 -0.01431360828644839 0 0.014254994539907936 -0.014876764230798216 0 0.014160467930569477 -0.014995969788394004 0 0.013355628951870941 -0.015472164756783091 0 0.012376878192593215 -0.01499952903088932 0 0.014160467930569477 -0.014995969788394004 0 0.014227265195829923 -0.014882351375260843 0 0.013355628951870941 -0.015472164756783091 0 0.01421431813302535 -0.014303543460654961 0 0.014160467930569477 -0.014995969788394004 0 0.014227265195829923 -0.014882351375260843 0 0.014201231519106832 -0.014910117345769447 0 0.014130741803744835 -0.014981434750281488 0 0.014227265195829923 -0.014882351375260843 0 0.015057693073933126 -0.01450618401707056 0 0.014692820065456417 -0.014119481492365107 0 0.015057693073933126 -0.01450618401707056 0 0.014692820065456417 -0.014119481492365107 0 0.01513271553031614 -0.01395989885121407 0 0.014589149597108836 -0.013702905365201993 0 0.01421431813302535 -0.014303543460654961 0 0.014692820065456417 -0.014119481492365107 0 0.01421431813302535 -0.014303543460654961 0 0.014227265195829923 -0.014882351375260843 0 0.014692820065456417 -0.014119481492365107 0 0.014718321455750947 -0.013252317285046066 0 0.014589149597108836 -0.013702905365201993 0 0.01484305437757062 -0.013680892446504861 0 0.014589149597108836 -0.013702905365201993 0 0.014692820065456417 -0.014119481492365107 0 0.01484305437757062 -0.013680892446504861 0 0.014692820065456417 -0.014119481492365107 0 0.01484305437757062 -0.013680892446504861 0 0.01513271553031614 -0.01395989885121407 0 0.015025186050854311 -0.013617107197170578 0 0.01484305437757062 -0.013680892446504861 0 0.01513271553031614 -0.01395989885121407 0 0.012376878192593215 -0.01499952903088932 0 0.01039378130772243 -0.01499937901438173 0 0.011102520381598431 -0.015094741282516529 0 0.015025186050854311 -0.013617107197170578 0 0.01513271553031614 -0.01395989885121407 0 0.015220488741022348 -0.013649954532936853 0 0.013613624763202962 -0.013900833214500891 0 0.01339951790467179 -0.014382515817861229 0 0.014402511199221467 -0.01414536232515191 0 0.014749832512893085 -0.013906926030545304 0 0.014813968650630067 -0.013917492335035657 0 0.015529057084752409 -0.013981618055222961 0 0.01513271553031614 -0.01395989885121407 0 0.015220488741022348 -0.013649954532936853 0 0.015529057084752409 -0.013981618055222961 0 0.01513271553031614 -0.01395989885121407 0 0.015418820777613701 -0.014352532169958085 0 0.015057693073933126 -0.01450618401707056 0 0.01513271553031614 -0.01395989885121407 0 0.015418820777613701 -0.014352532169958085 0 0.014130741803744835 -0.014981434750281488 0 0.01413292773043086 -0.015066445856371404 0 0.013355628951870941 -0.015472164756783091 0 0.012491641100173572 -0.015717566177907975 0 0.012376878192593215 -0.01499952903088932 0 0.012376878192593215 -0.01499952903088932 0 0.011426162303719328 -0.015467065307922079 0 0.011102520381598431 -0.015094741282516529 0 0.011278202562609238 -0.015189942557511599 0 0.0111282087184012 -0.015118418753361649 0 0.012376878192593215 -0.01499952903088932 0 0.011746324202078074 -0.015809527833598333 0 0.011426162303719328 -0.015467065307922079 0 0.012491641100173572 -0.015717566177907975 0 0.012376878192593215 -0.01499952903088932 0 0.011746324202078074 -0.015809527833598333 0 0.01413292773043086 -0.015066445856371404 0 0.012864109655515231 -0.014585016938205386 0 0.011159951928430702 -0.015186913152361177 0 0.011042252080214676 -0.015061913432417624 0 0.010807426231031637 -0.015143368652430617 0 0.012864109655515231 -0.014585016938205386 0 0.011142159089823486 -0.014463440849843948 0 0.012864109655515231 -0.014585016938205386 0 0.011278202562609238 -0.015189942557511599 0 0.01285110059342052 -0.013384041048893862 0 0.012425935951366273 -0.013894562388105791 0 0.011763514691172084 -0.013783400358359701 0 0.013613624763202962 -0.013900833214500891 0 0.01285110059342052 -0.013384041048893862 0 0.012425935951366273 -0.013894562388105791 0 0.015529057084752409 -0.013981618055222961 0 0.015418820777613701 -0.014352532169958085 0 0.015743300819586283 -0.014291449297450423 0 0.014749832512893085 -0.013906926030545304 0 0.012864109655515231 -0.014585016938205386 0 0.013613624763202962 -0.013900833214500891 0 0.012425935951366273 -0.013894562388105791 0 0.012595008565320996 -0.014306305380119441 0 0.013613624763202962 -0.013900833214500891 0 0.012595008565320996 -0.014306305380119441 0 0.01339951790467179 -0.014382515817861229 0 0.012425935951366273 -0.013894562388105791 0 0.012595008565320996 -0.014306305380119441 0 0.011585806240426601 -0.014598143174007894 0 0.012595008565320996 -0.014306305380119441 0 0.01224756875374006 -0.01487251541499009 0 0.011585806240426601 -0.014598143174007894 0 0.012595008565320996 -0.014306305380119441 0 0.01224756875374006 -0.01487251541499009 0 0.01339951790467179 -0.014382515817861229 0 0.01224756875374006 -0.01487251541499009 0 0.013153667342282502 -0.014882585281977565 0 0.01339951790467179 -0.014382515817861229 0 0.01224756875374006 -0.01487251541499009 0 0.013153667342282502 -0.014882585281977565 0 0.012279404602286112 -0.015927288820481781 0 0.013153667342282502 -0.014882585281977565 0 0.014300829951334025 -0.014399715656000723 0 0.013758873979600331 -0.015130974008480243 0 0.013153667342282502 -0.014882585281977565 0 0.012279404602286112 -0.015927288820481781 0 0.013758873979600331 -0.015130974008480243 0 0.013153667342282502 -0.014882585281977565 0 0.01339951790467179 -0.014382515817861229 0 0.014300829951334025 -0.014399715656000723 0 0.01339951790467179 -0.014382515817861229 0 0.014402511199221467 -0.01414536232515191 0 0.014300829951334025 -0.014399715656000723 0 0.014813968650630067 -0.013917492335035657 0 0.014972432865199975 -0.013818850619119215 0 0.015025186050854311 -0.013617107197170578 0 0.015220488741022348 -0.013649954532936853 0 0.014964519329918265 -0.013742739953841612 0 0.014402511199221467 -0.01414536232515191 0 0.014964519329918265 -0.013742739953841612 0 0.014300829951334025 -0.014399715656000723 0 0.014964519329918265 -0.013742739953841612 0 0.014300829951334025 -0.014399715656000723 0 0.015025663389265009 -0.014329717771655643 0 0.014300829951334025 -0.014399715656000723 0 0.015025663389265009 -0.014329717771655643 0 0.013758873979600331 -0.015130974008480243 0 0.015025663389265009 -0.014329717771655643 0 0.013588934470608586 -0.016389094516055365 0 0.013758873979600331 -0.015130974008480243 0 0.015025663389265009 -0.014329717771655643 0 0.015401328767020444 -0.01267853786856245 0 0.016694277028516787 -0.01314857100886492 0 0.015034265624625157 -0.014434416725493674 0 0.015110879410687202 -0.014718768576453363 0 0.014964519329918265 -0.013742739953841612 0 0.015025663389265009 -0.014329717771655643 0 0.014921846854708178 -0.013513095100962408 0 0.015025663389265009 -0.014329717771655643 0 0.014921846854708178 -0.013513095100962408 0 0.015401328767020444 -0.01267853786856245 0 0.015401328767020444 -0.01267853786856245 0 0.016694277028516787 -0.01314857100886492 0 0.016758513391263687 -0.011663896221960023 0 0.015110879410687202 -0.014718768576453363 0 0.014902197387551558 -0.014790690710337492 0 0.013588934470608586 -0.016389094516055365 0 0.012279404602286112 -0.015927288820481781 0 0.012392656727662408 -0.01729539279310472 0 0.013588934470608586 -0.016389094516055365 0 0.012279404602286112 -0.015927288820481781 0 0.013758873979600331 -0.015130974008480243 0 0.01086710748785075 -0.0160535953260082 0 0.011270979540185301 -0.016825734746431481 0 0.010257384577993647 -0.016436117975064581 0 0.012279404602286112 -0.015927288820481781 0 0.01086710748785075 -0.0160535953260082 0 0.011270979540185301 -0.016825734746431481 0 0.012279404602286112 -0.015927288820481781 0 0.011270979540185301 -0.016825734746431481 0 0.012392656727662408 -0.01729539279310472 0 0.0096704251056935198 -0.016747831489078938 0 0.010257384577993647 -0.016436117975064581 0 0.010563953691632202 -0.01724802663988749 0 0.011270979540185301 -0.016825734746431481 0 0.010257384577993647 -0.016436117975064581 0 0.010563953691632202 -0.01724802663988749 0 0.0096704251056935198 -0.016747831489078938 0 0.010257384577993647 -0.016436117975064581 0 0.0093210862370698682 -0.016299102394469366 0 0.010257384577993647 -0.016436117975064581 0 0.010097586602337354 -0.015948642337488501 0 0.0093210862370698682 -0.016299102394469366 0 0.01086710748785075 -0.0160535953260082 0 0.010257384577993647 -0.016436117975064581 0 0.010097586602337354 -0.015948642337488501 0 0.01086710748785075 -0.0160535953260082 0 0.010590400927948999 -0.015589296693751094 0 0.010097586602337354 -0.015948642337488501 0 0.010590400927948999 -0.015589296693751094 0 0.010097586602337354 -0.015948642337488501 0 0.010071127682777048 -0.015505916577575043 0 0.010097586602337354 -0.015948642337488501 0 0.0095320401944745115 -0.015814084781558813 0 0.0093210862370698682 -0.016299102394469366 0 0.010097586602337354 -0.015948642337488501 0 0.010071127682777048 -0.015505916577575043 0 0.0095320401944745115 -0.015814084781558813 0 0.010071127682777048 -0.015505916577575043 0 0.0096133677602130898 -0.015511125658697758 0 0.0095320401944745115 -0.015814084781558813 0 0.010590400927948999 -0.015589296693751094 0 0.010071127682777048 -0.015505916577575043 0 0.010635946683184719 -0.015123763000785695 0 0.011350762951393409 -0.015398502718039721 0 0.011585806240426601 -0.014598143174007894 0 0.010635946683184719 -0.015123763000785695 0 0.010590400927948999 -0.015589296693751094 0 0.011350762951393409 -0.015398502718039721 0 0.010635946683184719 -0.015123763000785695 0 0.01086710748785075 -0.0160535953260082 0 0.010590400927948999 -0.015589296693751094 0 0.011350762951393409 -0.015398502718039721 0 0.012279404602286112 -0.015927288820481781 0 0.01086710748785075 -0.0160535953260082 0 0.011350762951393409 -0.015398502718039721 0 0.01224756875374006 -0.01487251541499009 0 0.012279404602286112 -0.015927288820481781 0 0.011350762951393409 -0.015398502718039721 0 0.01224756875374006 -0.01487251541499009 0 0.011350762951393409 -0.015398502718039721 0 0.011585806240426601 -0.014598143174007894 0 0.011585806240426601 -0.014598143174007894 0 0.010635946683184719 -0.015123763000785695 0 0.010548803442797725 -0.014748615903723311 0 0.010748356791654439 -0.014682648468923903 0 0.011142159089823486 -0.014463440849843948 0 0.012425935951366273 -0.013894562388105791 0 0.011585806240426601 -0.014598143174007894 0 0.011763514691172084 -0.013783400358359701 0 0.011585806240426601 -0.014598143174007894 0 0.010548803442797725 -0.014748615903723311 0 0.011763514691172084 -0.013783400358359701 0 0.011042252080214676 -0.015061913432417624 0 0.010807426231031637 -0.015143368652430617 0 0.010678139196814925 -0.015056157550157136 0 0.010548803442797725 -0.014748615903723311 0 0.010678139196814925 -0.015056157550157136 0 0.0099576809526638315 -0.015024681568125064 0 0.010548803442797725 -0.014748615903723311 0 0.010807426231031637 -0.015143368652430617 0 0.010678139196814925 -0.015056157550157136 0 0.010678139196814925 -0.015056157550157136 0 0.01039378130772243 -0.01499937901438173 0 0.011102520381598431 -0.015094741282516529 0 0.010678139196814925 -0.015056157550157136 0 0.01039378130772243 -0.01499937901438173 0 0.0099576809526638315 -0.015024681568125064 0 0.011042252080214676 -0.015061913432417624 0 0.010678139196814925 -0.015056157550157136 0 0.011102520381598431 -0.015094741282516529 0 0.01039378130772243 -0.01499937901438173 0 0.0099576809526638315 -0.015024681568125064 0 0.0088981252466708068 -0.014999414477490612 0 0.010548803442797725 -0.014748615903723311 0 0.0099576809526638315 -0.015024681568125064 0 0.0096766655328405417 -0.015119692367912121 0 0.0099576809526638315 -0.015024681568125064 0 0.0096766655328405417 -0.015119692367912121 0 0.0092943727571958411 -0.015114919995860076 0 0.0096766655328405417 -0.015119692367912121 0 0.0099777898350830035 -0.015204717582551184 0 0.009337602870334076 -0.015363618659742104 0 0.010548803442797725 -0.014748615903723311 0 0.0096766655328405417 -0.015119692367912121 0 0.0099777898350830035 -0.015204717582551184 0 0.010071127682777048 -0.015505916577575043 0 0.010635946683184719 -0.015123763000785695 0 0.0099777898350830035 -0.015204717582551184 0 0.010635946683184719 -0.015123763000785695 0 0.010548803442797725 -0.014748615903723311 0 0.0099777898350830035 -0.015204717582551184 0 0.0096133677602130898 -0.015511125658697758 0 0.0099777898350830035 -0.015204717582551184 0 0.009337602870334076 -0.015363618659742104 0 0.010071127682777048 -0.015505916577575043 0 0.0096133677602130898 -0.015511125658697758 0 0.0099777898350830035 -0.015204717582551184 0 0.009337602870334076 -0.015363618659742104 0 0.008878706967401619 -0.015534333035224718 0 0.0091658143187773478 -0.015650010674926638 0 0.0096133677602130898 -0.015511125658697758 0 0.009337602870334076 -0.015363618659742104 0 0.0091658143187773478 -0.015650010674926638 0 0.008878706967401619 -0.015534333035224718 0 0.0084337188528165793 -0.015525317476271722 0 0.0086654766961247881 -0.015781341250941626 0 0.008878706967401619 -0.015534333035224718 0 0.0088606319721058237 -0.015306834798111698 0 0.0084337188528165793 -0.015525317476271722 0 0.009337602870334076 -0.015363618659742104 0 0.008878706967401619 -0.015534333035224718 0 0.0088606319721058237 -0.015306834798111698 0 0.0096766655328405417 -0.015119692367912121 0 0.009337602870334076 -0.015363618659742104 0 0.0088606319721058237 -0.015306834798111698 0 0.0088606319721058237 -0.015306834798111698 0 0.0088981252466708068 -0.014999414477490612 0 0.008139689635508136 -0.015300370667292871 0 0.0088606319721058237 -0.015306834798111698 0 0.0088981252466708068 -0.014999414477490612 0 0.0092943727571958411 -0.015114919995860076 0 0.0099576809526638315 -0.015024681568125064 0 0.0088981252466708068 -0.014999414477490612 0 0.0092943727571958411 -0.015114919995860076 0 0.0096766655328405417 -0.015119692367912121 0 0.0088606319721058237 -0.015306834798111698 0 0.0092943727571958411 -0.015114919995860076 0 0.0088981252466708068 -0.014999414477490612 0 0.0077674632817380795 -0.014999830618036329 0 0.008139689635508136 -0.015300370667292871 0 0.0074532764380738836 -0.01515984245316737 0 0.0077674632817380795 -0.014999830618036329 0 0.008139689635508136 -0.015300370667292871 0 0.0075116487204496558 -0.015424119975856262 0 0.0074532764380738836 -0.01515984245316737 0 0.008139689635508136 -0.015300370667292871 0 0.0075116487204496558 -0.015424119975856262 0 0.008139689635508136 -0.015300370667292871 0 0.007983603148064497 -0.015585151029207845 0 0.008139689635508136 -0.015300370667292871 0 0.007983603148064497 -0.015585151029207845 0 0.0084337188528165793 -0.015525317476271722 0 0.0088606319721058237 -0.015306834798111698 0 0.008139689635508136 -0.015300370667292871 0 0.0084337188528165793 -0.015525317476271722 0 0.007983603148064497 -0.015585151029207845 0 0.0084337188528165793 -0.015525317476271722 0 0.0082339855866410249 -0.015720929548770805 0 0.0084337188528165793 -0.015525317476271722 0 0.0082339855866410249 -0.015720929548770805 0 0.0086654766961247881 -0.015781341250941626 0 0.0076413768382521232 -0.015212850555415406 0 0.0076365410590726601 -0.015681657554474697 0 0.0082339855866410249 -0.015720929548770805 0 0.0071804981150401298 -0.015581046223345467 0 0.0076413768382521232 -0.015212850555415406 0 0.0076365410590726601 -0.015681657554474697 0 0.0078185639901450204 -0.015407772962345044 0 0.0081867855829587319 -0.015714343307210724 0 0.0072211355065054678 -0.016090906959289102 0 0.0076365410590726601 -0.015681657554474697 0 0.0078075825491216218 -0.01594575105695278 0 0.0076365410590726601 -0.015681657554474697 0 0.0078075825491216218 -0.01594575105695278 0 0.0082339855866410249 -0.015720929548770805 0 0.0072211355065054678 -0.016090906959289102 0 0.0078075825491216218 -0.01594575105695278 0 0.0075609263242553994 -0.01669319026424565 0 0.0082519002442055633 -0.016039760125213843 0 0.0077684466838300152 -0.01648116535236166 0 0.0078075825491216218 -0.01594575105695278 0 0.0082948741697789381 -0.016025809890699464 0 0.0075609263242553994 -0.01669319026424565 0 0.0082948741697789381 -0.016025809890699464 0 0.0079646734904607174 -0.016294012371638033 0 0.0083592596979749079 -0.016400924479309464 0 0.0082948741697789381 -0.016025809890699464 0 0.0086456813075775161 -0.01615019773972973 0 0.0083592596979749079 -0.016400924479309464 0 0.0082948741697789381 -0.016025809890699464 0 0.0086654766961247881 -0.015781341250941626 0 0.0086456813075775161 -0.01615019773972973 0 0.0078075825491216218 -0.01594575105695278 0 0.0082948741697789381 -0.016025809890699464 0 0.0082339855866410249 -0.015720929548770805 0 0.0082948741697789381 -0.016025809890699464 0 0.0082339855866410249 -0.015720929548770805 0 0.0086654766961247881 -0.015781341250941626 0 0.0086654766961247881 -0.015781341250941626 0 0.0091658143187773478 -0.015650010674926638 0 0.0090042592052701851 -0.015960738430651714 0 0.008878706967401619 -0.015534333035224718 0 0.0086654766961247881 -0.015781341250941626 0 0.0091658143187773478 -0.015650010674926638 0 0.0091658143187773478 -0.015650010674926638 0 0.0095320401944745115 -0.015814084781558813 0 0.0090042592052701851 -0.015960738430651714 0 0.0096133677602130898 -0.015511125658697758 0 0.0091658143187773478 -0.015650010674926638 0 0.0095320401944745115 -0.015814084781558813 0 0.0095320401944745115 -0.015814084781558813 0 0.0090042592052701851 -0.015960738430651714 0 0.0093210862370698682 -0.016299102394469366 0 0.0090042592052701851 -0.015960738430651714 0 0.0089489970035114604 -0.016235219559942532 0 0.0093210862370698682 -0.016299102394469366 0 0.0086654766961247881 -0.015781341250941626 0 0.0090042592052701851 -0.015960738430651714 0 0.0086456813075775161 -0.01615019773972973 0 0.0090042592052701851 -0.015960738430651714 0 0.0089489970035114604 -0.016235219559942532 0 0.0086456813075775161 -0.01615019773972973 0 0.0086456813075775161 -0.01615019773972973 0 0.0087685422425864967 -0.016467668485446906 0 0.0083592596979749079 -0.016400924479309464 0 0.0089489970035114604 -0.016235219559942532 0 0.0086456813075775161 -0.01615019773972973 0 0.0087685422425864967 -0.016467668485446906 0 0.0089489970035114604 -0.016235219559942532 0 0.0087685422425864967 -0.016467668485446906 0 0.0093210862370698682 -0.016299102394469366 0 0.0087685422425864967 -0.016467668485446906 0 0.0093210862370698682 -0.016299102394469366 0 0.009145093383038632 -0.01679200514851014 0 0.0096704251056935198 -0.016747831489078938 0 0.0093210862370698682 -0.016299102394469366 0 0.009145093383038632 -0.01679200514851014 0 0.0096704251056935198 -0.016747831489078938 0 0.009145093383038632 -0.01679200514851014 0 0.0095069963867410786 -0.017172335827463345 0 0.009145093383038632 -0.01679200514851014 0 0.0085583235786214802 -0.016907229685681875 0 0.0091056260467646775 -0.017176992369325943 0 0.0087685422425864967 -0.016467668485446906 0 0.009145093383038632 -0.01679200514851014 0 0.0085583235786214802 -0.016907229685681875 0 0.0087685422425864967 -0.016467668485446906 0 0.0085583235786214802 -0.016907229685681875 0 0.0083592596979749079 -0.016400924479309464 0 0.0085583235786214802 -0.016907229685681875 0 0.0080046553398430611 -0.016794717537922884 0 0.0083592596979749079 -0.016400924479309464 0 0.0074362445832282962 -0.016683983215267224 0 0.0080046553398430611 -0.016794717537922884 0 0.0079646734904607174 -0.016294012371638033 0 0.0080046553398430611 -0.016794717537922884 0 0.0079646734904607174 -0.016294012371638033 0 0.0083592596979749079 -0.016400924479309464 0 0.0081786857209539023 -0.017286890075862111 0 0.0086734228204833532 -0.017442308837763883 0 0.0082370964832747355 -0.017807335972521675 0 0.0076029829436547718 -0.01735155470169903 0 0.0081786857209539023 -0.017286890075862111 0 0.0082370964832747355 -0.017807335972521675 0 0.0076029829436547718 -0.01735155470169903 0 0.0080046553398430611 -0.016794717537922884 0 0.0081786857209539023 -0.017286890075862111 0 0.0085583235786214802 -0.016907229685681875 0 0.0080046553398430611 -0.016794717537922884 0 0.0081786857209539023 -0.017286890075862111 0 0.0085583235786214802 -0.016907229685681875 0 0.0081786857209539023 -0.017286890075862111 0 0.0086734228204833532 -0.017442308837763883 0 0.0085583235786214802 -0.016907229685681875 0 0.0091056260467646775 -0.017176992369325943 0 0.0086734228204833532 -0.017442308837763883 0 0.0091056260467646775 -0.017176992369325943 0 0.0096209463051598262 -0.01755317159974816 0 0.0095069963867410786 -0.017172335827463345 0 0.009145093383038632 -0.01679200514851014 0 0.0091056260467646775 -0.017176992369325943 0 0.0095069963867410786 -0.017172335827463345 0 0.0091586137339122013 -0.017184627413679262 0 0.0094220711326767122 -0.017599045453265766 0 0.0091018096734165003 -0.017597579927776073 0 0.0093172314293821657 -0.017684662804874171 0 0.009452539494054394 -0.017455153176415827 0 0.0091056260467646775 -0.017176992369325943 0 0.0091018096734165003 -0.017597579927776073 0 0.009452539494054394 -0.017455153176415827 0 0.0091018096734165003 -0.017597579927776073 0 0.0086734228204833532 -0.017442308837763883 0 0.0087911972557967299 -0.017996444907543919 0 0.0091056260467646775 -0.017176992369325943 0 0.0091018096734165003 -0.017597579927776073 0 0.0086734228204833532 -0.017442308837763883 0 0.0089815956812587631 -0.017761576854921732 0 0.0091618640420066625 -0.017829460541322735 0 0.0088211959532956737 -0.017947346472516886 0 0.0091018096734165003 -0.017597579927776073 0 0.0089815956812587631 -0.017761576854921732 0 0.0091618640420066625 -0.017829460541322735 0 0.0090819543257827009 -0.017629124520800073 0 0.008867108967247456 -0.017888015036875385 0 0.0091018096734165003 -0.017597579927776073 0 0.0093172314293821657 -0.017684662804874171 0 0.0091618640420066625 -0.017829460541322735 0 0.0093172314293821657 -0.017684662804874171 0 0.0091618640420066625 -0.017829460541322735 0 0.0094167999923893946 -0.01784519895541788 0 0.0091835422009488264 -0.018062431096972798 0 0.0094705028988331438 -0.018007694096313451 0 0.0094167999923893946 -0.01784519895541788 0 0.0091618640420066625 -0.017829460541322735 0 0.0091835422009488264 -0.018062431096972798 0 0.0094167999923893946 -0.01784519895541788 0 0.0095456437241004301 -0.017722797354880526 0 0.0084171480596701622 -0.017781481074596213 0 0.0091618640420066625 -0.017829460541322735 0 0.0091835422009488264 -0.018062431096972798 0 0.0088211959532956737 -0.017947346472516886 0 0.008867108967247456 -0.017888015036875385 0 0.0084171480596701622 -0.017781481074596213 0 0.0086734228204833532 -0.017442308837763883 0 0.0087911972557967299 -0.017996444907543919 0 0.0082370964832747355 -0.017807335972521675 0 0.0084755340794534038 -0.018382967126490464 0 0.0082370964832747355 -0.017807335972521675 0 0.0077065076744881403 -0.018145076717344392 0 0.0087911972557967299 -0.017996444907543919 0 0.0084755340794534038 -0.018382967126490464 0 0.0082370964832747355 -0.017807335972521675 0 0.0076029829436547718 -0.01735155470169903 0 0.0082370964832747355 -0.017807335972521675 0 0.0077065076744881403 -0.018145076717344392 0 0.0076928705517334654 -0.018028451537450346 0 0.007192306499894891 -0.017886402437748791 0 0.0073063001532554161 -0.018148942395037254 0 0.0084171480596701622 -0.017781481074596213 0 0.0073855062360599329 -0.018051366372101727 0 0.00704121223223145 -0.018200377973795812 0 0.007192306499894891 -0.017886402437748791 0 0.0073063001532554161 -0.018148942395037254 0 0.0076928705517334654 -0.018028451537450346 0 0.0073063001532554161 -0.018148942395037254 0 0.0073072730736730342 -0.018483574842043011 0 0.00704121223223145 -0.018200377973795812 0 0.0073063001532554161 -0.018148942395037254 0 0.0073072730736730342 -0.018483574842043011 0 0.0084171480596701622 -0.017781481074596213 0 0.007504096029183901 -0.018103423654182792 0 0.0086172682395647352 -0.016832059148863283 0 0.0077740188808835663 -0.017824133413189419 0 0.0087412567779794267 -0.017696872197585145 0 0.0077740188808835663 -0.017824133413189419 0 0.0087412567779794267 -0.017696872197585145 0 0.0083836397080652974 -0.018610173762739251 0 0.0077740188808835663 -0.017824133413189419 0 0.0076348501115887637 -0.018583572062759027 0 0.0083836397080652974 -0.018610173762739251 0 0.0069258896903600957 -0.018914971553157651 0 0.0077740188808835663 -0.017824133413189419 0 0.0076348501115887637 -0.018583572062759027 0 0.0084640021506039009 -0.014293565788041598 0 0.0090498015297734106 -0.014019770756971599 0 0.0091274490717785182 -0.014421856867467759 0 0.0072930901496669484 -0.019136857548706809 0 0.0076348501115887637 -0.018583572062759027 0 0.0083836397080652974 -0.018610173762739251 0 0.0077044349577030597 -0.015482897675736636 0 0.009428986618575318 -0.012312693422315566 0 0.0077044349577030597 -0.015482897675736636 0 0.0086990457329836485 -0.016485034667769335 0 0.0090498015297734106 -0.014019770756971599 0 0.0091274490717785182 -0.014421856867467759 0 0.009528216630401893 -0.014173834681717588 0 0.0096269832761008076 -0.010842402680989943 0 0.010508327641482743 -0.010978953649354519 0 0.0094534672094594152 -0.011587889452609631 0 0.0091612111869394889 -0.010924345604573572 0 0.0096269832761008076 -0.010842402680989943 0 0.0094534672094594152 -0.011587889452609631 0 0.0091612111869394889 -0.010924345604573572 0 0.0087454781566690901 -0.011660457467862166 0 0.0094410510619235971 -0.011879392927111468 0 0.0092625460713289341 -0.011188138790614798 0 0.0093100059004794216 -0.011154675768456144 0 0.0091612111869394889 -0.010924345604573572 0 0.0087454781566690901 -0.011660457467862166 0 0.0082392914609791014 -0.011405945038808837 0 0.0078627787373569177 -0.010497665593698509 0 0.0091612111869394889 -0.010924345604573572 0 0.0082392914609791014 -0.011405945038808837 0 0.0078627787373569177 -0.010497665593698509 0 0.0091612111869394889 -0.010924345604573572 0 0.0096269832761008076 -0.010842402680989943 0 0.010861619550273004 -0.011004121826767086 0 0.011123689127644627 -0.010693360910450327 0 0.011088547475865086 -0.011048963517132223 0 0.010300993110477016 -0.012087702870114021 0 0.011085191591727241 -0.011198997184006462 0 0.010792624761079053 -0.010991080926921915 0 0.011088547475865086 -0.011048963517132223 0 0.0107684231404122 -0.011158547709696412 0 0.010775824205837036 -0.011026297488907441 0 0.010863839137383679 -0.010967061115801877 0 0.010508327641482743 -0.010978953649354519 0 0.010775824205837036 -0.011026297488907441 0 0.010792624761079053 -0.010991080926921915 0 0.0107684231404122 -0.011158547709696412 0 0.010408049218679672 -0.011921708596770284 0 0.010300993110477016 -0.012087702870114021 0 0.010775824205837036 -0.011026297488907441 0 0.010636126620954941 -0.011098428643210418 0 0.010508327641482743 -0.010978953649354519 0 0.010775824205837036 -0.011026297488907441 0 0.010636126620954941 -0.011098428643210418 0 0.0107684231404122 -0.011158547709696412 0 0.0091274490717785182 -0.014421856867467759 0 0.0097592979164732464 -0.014541229380342646 0 0.009528216630401893 -0.014173834681717588 0 0.0096269832761008076 -0.010842402680989943 0 0.010863839137383679 -0.010967061115801877 0 0.010508327641482743 -0.010978953649354519 0 0.010508327641482743 -0.010978953649354519 0 0.0104962730713738 -0.011189709370126501 0 0.010151820317635549 -0.011149249544835938 0 0.010632625662431963 -0.011028948351779151 0 0.0093100059004794216 -0.011154675768456144 0 0.010636126620954941 -0.011098428643210418 0 0.010508327641482743 -0.010978953649354519 0 0.0104962730713738 -0.011189709370126501 0 0.009428986618575318 -0.012312693422315566 0 0.010300993110477016 -0.012087702870114021 0 0.0097592979164732464 -0.014541229380342646 0 0.009528216630401893 -0.014173834681717588 0 0.010072272673037109 -0.01411527559858175 0 0.009528216630401893 -0.014173834681717588 0 0.0096131888560888369 -0.01377003079434661 0 0.010072272673037109 -0.01411527559858175 0 0.010300993110477016 -0.012087702870114021 0 0.010541022264080111 -0.012573337984541912 0 0.0096131888560888369 -0.01377003079434661 0 0.01015940960045998 -0.013525549679741306 0 0.010072272673037109 -0.01411527559858175 0 0.0086990457329836485 -0.016485034667769335 0 0.0095320026491374932 -0.015862386986124105 0 0.0090498015297734106 -0.014019770756971599 0 0.009528216630401893 -0.014173834681717588 0 0.0096131888560888369 -0.01377003079434661 0 0.0087412567779794267 -0.017696872197585145 0 0.0083836397080652974 -0.018610173762739251 0 0.0094280212992609268 -0.018083044512799192 0 0.0096459016873715782 -0.017156377710516032 0 0.0087412567779794267 -0.017696872197585145 0 0.0094280212992609268 -0.018083044512799192 0 0.0096459016873715782 -0.017156377710516032 0 0.0086172682395647352 -0.016832059148863283 0 0.0087412567779794267 -0.017696872197585145 0 0.0095320026491374932 -0.015862386986124105 0 0.010333792862774261 -0.015882690918807004 0 0.0096459016873715782 -0.017156377710516032 0 0.0094280212992609268 -0.018083044512799192 0 0.010437246340771075 -0.017589825888578287 0 0.0091835422009488264 -0.018062431096972798 0 0.0095957105031421863 -0.018186769241152357 0 0.0094705028988331438 -0.018007694096313451 0 0.0095456437241004301 -0.017722797354880526 0 0.0098895009241296936 -0.016672746237135945 0 0.0096459016873715782 -0.017156377710516032 0 0.010655475566297127 -0.017486086516280783 0 0.010437246340771075 -0.017589825888578287 0 0.0098895009241296936 -0.016672746237135945 0 0.010333792862774261 -0.015882690918807004 0 0.010277799201097232 -0.013473345226054768 0 0.01015940960045998 -0.013525549679741306 0 0.010386475482610541 -0.013697029894433256 0 0.0098895009241296936 -0.016672746237135945 0 0.011561716149454636 -0.013548265505293994 0 0.010277799201097232 -0.013473345226054768 0 0.010386475482610541 -0.013697029894433256 0 0.01070934828199901 -0.013286162722020226 0 0.011363476093755988 -0.010492626419212666 0 0.011522130434866194 -0.010459618665222962 0 0.011530017011650417 -0.010338684757225585 0 0.010921288797378272 -0.011803463615161902 0 0.011561716149454636 -0.013548265505293994 0 0.011363476093755988 -0.010492626419212666 0 0.0114158853905264 -0.010714448249220259 0 0.011522130434866194 -0.010459618665222962 0 0.010921288797378272 -0.011803463615161902 0 0.010541022264080111 -0.012573337984541912 0 0.011363476093755988 -0.010492626419212666 0 0.011123689127644627 -0.010693360910450327 0 0.0114158853905264 -0.010714448249220259 0 0.01015940960045998 -0.013525549679741306 0 0.010386475482610541 -0.013697029894433256 0 0.010072272673037109 -0.01411527559858175 0 0.011123689127644627 -0.010693360910450327 0 0.0114158853905264 -0.010714448249220259 0 0.01136419016910315 -0.010966903088262203 0 0.0114158853905264 -0.010714448249220259 0 0.01136419016910315 -0.010966903088262203 0 0.011666838969772924 -0.010937435735155864 0 0.01136419016910315 -0.010966903088262203 0 0.011666838969772924 -0.010937435735155864 0 0.011511604501478074 -0.011218101666200384 0 0.011123689127644627 -0.010693360910450327 0 0.01136419016910315 -0.010966903088262203 0 0.011088547475865086 -0.011048963517132223 0 0.014825608885458386 -0.0096314009811110032 0 0.01501078486228289 -0.009809455425601429 0 0.011666838969772924 -0.010937435735155864 0 0.012061945944353563 -0.010793806104575409 0 0.011875183296170584 -0.011281915943862587 0 0.0114158853905264 -0.010714448249220259 0 0.011666838969772924 -0.010937435735155864 0 0.011770294372510802 -0.010641060863540389 0 0.011666838969772924 -0.010937435735155864 0 0.011770294372510802 -0.010641060863540389 0 0.012061945944353563 -0.010793806104575409 0 0.017631788840814563 -0.0086084911587204788 0 0.017942567599803314 -0.0092496989226789981 0 0.017400895927814755 -0.0089078390246960203 0 0.011770294372510802 -0.010641060863540389 0 0.012061945944353563 -0.010793806104575409 0 0.011878457455460244 -0.01029810548800973 0 0.014825608885458386 -0.0096314009811110032 0 0.014762286158928497 -0.0098702931611423482 0 0.017942567599803314 -0.0092496989226789981 0 0.017479845835334067 -0.0092677025745564173 0 0.017400895927814755 -0.0089078390246960203 0 0.010276509748842205 -0.011121074586772186 0 0.014762286158928497 -0.0098702931611423482 0 0.0114158853905264 -0.010714448249220259 0 0.011663121157191618 -0.01051867266682757 0 0.011522130434866194 -0.010459618665222962 0 0.0114158853905264 -0.010714448249220259 0 0.011770294372510802 -0.010641060863540389 0 0.011878457455460244 -0.01029810548800973 0 0.011663121157191618 -0.01051867266682757 0 0.011522130434866194 -0.010459618665222962 0 0.011564116843993095 -0.010324343527389503 0 0.011522130434866194 -0.010459618665222962 0 0.011564116843993095 -0.010324343527389503 0 0.011530017011650417 -0.010338684757225585 0 0.017819853627574621 -0.0099380137365786859 0 0.017777114888750441 -0.010157738342916688 0 0.017899687569952225 -0.010175303219925118 0 0.014762286158928497 -0.0098702931611423482 0 0.013639442785812545 -0.011952750933483578 0 0.017942567599803314 -0.0092496989226789981 0 0.017557692670261506 -0.0096905883693305331 0 0.017479845835334067 -0.0092677025745564173 0 0.014762286158928497 -0.0098702931611423482 0 0.018100318304717346 -0.0096590695397841368 0 0.017819853627574621 -0.0099380137365786859 0 0.017777114888750441 -0.010157738342916688 0 0.017612974652594912 -0.010069051146309299 0 0.017650177794054929 -0.010244681070454217 0 0.017777114888750441 -0.010157738342916688 0 0.017612974652594912 -0.010069051146309299 0 0.017650177794054929 -0.010244681070454217 0 0.017777114888750441 -0.010157738342916688 0 0.017812601926969821 -0.010423010232274484 0 0.017618734712609153 -0.010429628255872583 0 0.01753859160376918 -0.0108958437066552 0 0.017777114888750441 -0.010157738342916688 0 0.017812601926969821 -0.010423010232274484 0 0.017996093913426162 -0.010314222853839018 0 0.017987423904289802 -0.010480211825364145 0 0.01753859160376918 -0.0108958437066552 0 0.017812601926969821 -0.010423010232274484 0 0.018077059863275628 -0.0105081561396761 0 0.018126153788273817 -0.010297006530594493 0 0.017650177794054929 -0.010244681070454217 0 0.017812601926969821 -0.010423010232274484 0 0.017621299346393612 -0.010592709972976634 0 0.017621299346393612 -0.010592709972976634 0 0.017953026374549801 -0.010982142831120555 0 0.017472476124378248 -0.011103719635591288 0 0.017812601926969821 -0.010423010232274484 0 0.017621299346393612 -0.010592709972976634 0 0.017966495571056885 -0.01067657557946722 0 0.017621299346393612 -0.010592709972976634 0 0.017966495571056885 -0.01067657557946722 0 0.017953026374549801 -0.010982142831120555 0 0.017812601926969821 -0.010423010232274484 0 0.017966495571056885 -0.01067657557946722 0 0.018077059863275628 -0.0105081561396761 0 0.017966495571056885 -0.01067657557946722 0 0.017953026374549801 -0.010982142831120555 0 0.018159557757295327 -0.010839163829868638 0 0.018481938481731328 -0.010914059215180606 0 0.018349488833793844 -0.010814847783851595 0 0.018590789051404016 -0.01083126451616665 0 0.018481938481731328 -0.010914059215180606 0 0.01833685102176965 -0.011038944622317554 0 0.018642893204239498 -0.010968982334241083 0 0.018481938481731328 -0.010914059215180606 0 0.01833685102176965 -0.011038944622317554 0 0.018349488833793844 -0.010814847783851595 0 0.017953026374549801 -0.010982142831120555 0 0.01833685102176965 -0.011038944622317554 0 0.018159557757295327 -0.010839163829868638 0 0.01833685102176965 -0.011038944622317554 0 0.018159557757295327 -0.010839163829868638 0 0.018349488833793844 -0.010814847783851595 0 0.018159557757295327 -0.010839163829868638 0 0.018169413657179685 -0.01067313077756344 0 0.018349488833793844 -0.010814847783851595 0 0.018169413657179685 -0.01067313077756344 0 0.018349488833793844 -0.010814847783851595 0 0.018275752153222843 -0.010537217539058742 0 0.017966495571056885 -0.01067657557946722 0 0.018159557757295327 -0.010839163829868638 0 0.018169413657179685 -0.01067313077756344 0 0.017966495571056885 -0.01067657557946722 0 0.018169413657179685 -0.01067313077756344 0 0.018077059863275628 -0.0105081561396761 0 0.01777124622108495 -0.010566445421865927 0 0.016655894975492892 -0.011686465916819974 0 0.018349488833793844 -0.010814847783851595 0 0.018275752153222843 -0.010537217539058742 0 0.018590789051404016 -0.01083126451616665 0 0.016655894975492892 -0.011686465916819974 0 0.013215669044141133 -0.015191128645905628 0 0.013779055559749764 -0.013606165811563833 0 0.013994048589404055 -0.013305347199095336 0 0.014302249444699537 -0.014039748896290567 0 0.017777114888750441 -0.010157738342916688 0 0.01782836653658296 -0.010209221116920575 0 0.017899687569952225 -0.010175303219925118 0 0.016655894975492892 -0.011686465916819974 0 0.013312782429454202 -0.013835934238287868 0 0.015636297460061281 -0.011046746481019923 0 0.016797891639660688 -0.011968618966879509 0 0.014585199408716458 -0.012492347731359058 0 0.018169413657179685 -0.01067313077756344 0 0.018077059863275628 -0.0105081561396761 0 0.018322317259031499 -0.010456194333435443 0 0.018077059863275628 -0.0105081561396761 0 0.018322317259031499 -0.010456194333435443 0 0.018126153788273817 -0.010297006530594493 0 0.016655894975492892 -0.011686465916819974 0 0.01753859160376918 -0.0108958437066552 0 0.01753859160376918 -0.0108958437066552 0 0.013639442785812545 -0.011952750933483578 0 0.016797891639660688 -0.011968618966879509 0 0.014585199408716458 -0.012492347731359058 0 0.014766251968941031 -0.012914229689231371 0 0.013140452733849896 -0.011957146452856383 0 0.013402527250371343 -0.012567566621095093 0 0.01233551325440373 -0.013061981421649002 0 0.013312782429454202 -0.013835934238287868 0 0.013639442785812545 -0.011952750933483578 0 0.013312782429454202 -0.013835934238287868 0 0.011561716149454636 -0.013548265505293994 0 0.013639442785812545 -0.011952750933483578 0 0.011561716149454636 -0.013548265505293994 0 0.00993502286330771 -0.018020308436897697 0 0.009675765630022282 -0.017991978916796787 0 0.0098260259223348564 -0.017921116768659338 0 0.0095957105031421863 -0.018186769241152357 0 0.00993502286330771 -0.018020308436897697 0 0.009675765630022282 -0.017991978916796787 0 0.009982055243052651 -0.017953927905198369 0 0.0098260259223348564 -0.017921116768659338 0 0.0098499286153197318 -0.017691164651873696 0 0.009982055243052651 -0.017953927905198369 0 0.00993502286330771 -0.018020308436897697 0 0.0098260259223348564 -0.017921116768659338 0 0.013312782429454202 -0.013835934238287868 0 0.013215669044141133 -0.015191128645905628 0 0.009675765630022282 -0.017991978916796787 0 0.0096744932833074133 -0.01788785076752776 0 0.0098260259223348564 -0.017921116768659338 0 0.0096744932833074133 -0.01788785076752776 0 0.0098260259223348564 -0.017921116768659338 0 0.0097634747234464359 -0.017811205468557273 0 0.0096744932833074133 -0.01788785076752776 0 0.009584811221039654 -0.017835123622012995 0 0.0096812709868235505 -0.017782172723396619 0 0.0096744932833074133 -0.01788785076752776 0 0.0097634747234464359 -0.017811205468557273 0 0.0096812709868235505 -0.017782172723396619 0 0.009675765630022282 -0.017991978916796787 0 0.0094705028988331438 -0.018007694096313451 0 0.009560778645307088 -0.017928718618154836 0 0.0095957105031421863 -0.018186769241152357 0 0.009675765630022282 -0.017991978916796787 0 0.0094705028988331438 -0.018007694096313451 0 0.009584811221039654 -0.017835123622012995 0 0.009560778645307088 -0.017928718618154836 0 0.0094167999923893946 -0.01784519895541788 0 0.009675765630022282 -0.017991978916796787 0 0.0096744932833074133 -0.01788785076752776 0 0.009560778645307088 -0.017928718618154836 0 0.0096744932833074133 -0.01788785076752776 0 0.009584811221039654 -0.017835123622012995 0 0.009560778645307088 -0.017928718618154836 0 0.0094705028988331438 -0.018007694096313451 0 0.009560778645307088 -0.017928718618154836 0 0.0094167999923893946 -0.01784519895541788 0 0.0095326543081885699 -0.017678453009184403 0 0.009752796915322581 -0.017651438725832611 0 0.009452539494054394 -0.017455153176415827 0 0.0093172314293821657 -0.017684662804874171 0 0.0094167999923893946 -0.01784519895541788 0 0.0095326543081885699 -0.017678453009184403 0 0.009584811221039654 -0.017835123622012995 0 0.0094167999923893946 -0.01784519895541788 0 0.0095840659893155072 -0.017751351326055084 0 0.0094167999923893946 -0.01784519895541788 0 0.0095840659893155072 -0.017751351326055084 0 0.0095326543081885699 -0.017678453009184403 0 0.0095840659893155072 -0.017751351326055084 0 0.0095326543081885699 -0.017678453009184403 0 0.0096856462964230398 -0.017700648052161431 0 0.009584811221039654 -0.017835123622012995 0 0.0095840659893155072 -0.017751351326055084 0 0.0096812709868235505 -0.017782172723396619 0 0.0093172314293821657 -0.017684662804874171 0 0.0095326543081885699 -0.017678453009184403 0 0.009452539494054394 -0.017455153176415827 0 0.0098260259223348564 -0.017921116768659338 0 0.0098499286153197318 -0.017691164651873696 0 0.0097634747234464359 -0.017811205468557273 0 0.0098499286153197318 -0.017691164651873696 0 0.0097505715861367914 -0.017724758472163288 0 0.0097688242488867365 -0.017629556478233617 0 0.0098499286153197318 -0.017691164651873696 0 0.0097634747234464359 -0.017811205468557273 0 0.0097505715861367914 -0.017724758472163288 0 0.0097634747234464359 -0.017811205468557273 0 0.0096812709868235505 -0.017782172723396619 0 0.0097505715861367914 -0.017724758472163288 0 0.0095840659893155072 -0.017751351326055084 0 0.0096812709868235505 -0.017782172723396619 0 0.0096856462964230398 -0.017700648052161431 0 0.0096812709868235505 -0.017782172723396619 0 0.0096856462964230398 -0.017700648052161431 0 0.0097505715861367914 -0.017724758472163288 0 0.010166116884627326 -0.017177536292060348 0 0.011071897155960823 -0.016433089536084643 0 0.0095326543081885699 -0.017678453009184403 0 0.0096856462964230398 -0.017700648052161431 0 0.009752796915322581 -0.017651438725832611 0 0.0096856462964230398 -0.017700648052161431 0 0.0097505715861367914 -0.017724758472163288 0 0.0097688242488867365 -0.017629556478233617 0 0.010064865853191232 -0.017859782130213695 0 0.010116957082731415 -0.01782096796418417 0 0.0099171199806770659 -0.017632655743016007 0 0.013215669044141133 -0.015191128645905628 0 0.011071897155960823 -0.016433089536084643 0 0.012416888539213942 -0.015387176387621389 0 0.013107431369241977 -0.015942234773732206 0 0.01276600207437509 -0.01620557628017168 0 0.013215669044141133 -0.015191128645905628 0 0.012663010993090043 -0.015501104782114727 0 0.011071897155960823 -0.016433089536084643 0 0.012663010993090043 -0.015501104782114727 0 0.018481938481731328 -0.010914059215180606 0 0.018590789051404016 -0.01083126451616665 0 0.018642893204239498 -0.010968982334241083 0 0.010116957082731415 -0.01782096796418417 0 0.0099171199806770659 -0.017632655743016007 0 0.0098660716901669918 -0.017294713622521312 0 0.012663010993090043 -0.015501104782114727 0 0.0098099502038886868 -0.017926681041288507 0 0.010551769983873379 -0.018567808412054656 0 0.010708467278650756 -0.017929811252089214 0 0.010113064054940078 -0.017663447734517331 0 0.011071897155960823 -0.016433089536084643 0 0.0094220711326767122 -0.017599045453265766 0 0.010064865853191232 -0.017859782130213695 0 0.0099171199806770659 -0.017632655743016007 0 0.0096209463051598262 -0.01755317159974816 0 0.0099171199806770659 -0.017632655743016007 0 0.0096209463051598262 -0.01755317159974816 0 0.0098660716901669918 -0.017294713622521312 0 0.0096969902952106848 -0.016625317904707067 0 0.0098099502038886868 -0.017926681041288507 0 0.0096704251056935198 -0.016747831489078938 0 0.010113064054940078 -0.017663447734517331 0 0.010563953691632202 -0.01724802663988749 0 0.0096704251056935198 -0.016747831489078938 0 0.0098660716901669918 -0.017294713622521312 0 0.0095069963867410786 -0.017172335827463345 0 0.0096209463051598262 -0.01755317159974816 0 0.0098660716901669918 -0.017294713622521312 0 0.0095069963867410786 -0.017172335827463345 0 0.010708467278650756 -0.017929811252089214 0 0.010113064054940078 -0.017663447734517331 0 0.010563953691632202 -0.01724802663988749 0 0.010708467278650756 -0.017929811252089214 0 0.010563953691632202 -0.01724802663988749 0 0.011412914449909082 -0.017955622945311139 0 0.011270979540185301 -0.016825734746431481 0 0.010563953691632202 -0.01724802663988749 0 0.011412914449909082 -0.017955622945311139 0 0.011270979540185301 -0.016825734746431481 0 0.011412914449909082 -0.017955622945311139 0 0.012392656727662408 -0.01729539279310472 0 0.015175492988706485 -0.014507521675455675 0 0.014902197387551558 -0.014790690710337492 0 0.018157565976362425 -0.011468652516677154 0 0.017472476124378248 -0.011103719635591288 0 0.017583866258552051 -0.012160995713579809 0 0.017953026374549801 -0.010982142831120555 0 0.018157565976362425 -0.011468652516677154 0 0.017472476124378248 -0.011103719635591288 0 0.012663010993090043 -0.015501104782114727 0 0.015175492988706485 -0.014507521675455675 0 0.010551769983873379 -0.018567808412054656 0 0.010708467278650756 -0.017929811252089214 0 0.011412914449909082 -0.017955622945311139 0 0.017953026374549801 -0.010982142831120555 0 0.01833685102176965 -0.011038944622317554 0 0.018157565976362425 -0.011468652516677154 0 0.01833685102176965 -0.011038944622317554 0 0.018642893204239498 -0.010968982334241083 0 0.018157565976362425 -0.011468652516677154 0 0.017472476124378248 -0.011103719635591288 0 0.016758513391263687 -0.011663896221960023 0 0.016864497386713386 -0.010902750294299926 0 0.017472476124378248 -0.011103719635591288 0 0.017583866258552051 -0.012160995713579809 0 0.016758513391263687 -0.011663896221960023 0 0.016694277028516787 -0.01314857100886492 0 0.017583866258552051 -0.012160995713579809 0 0.016758513391263687 -0.011663896221960023 0 0.015401328767020444 -0.01267853786856245 0 0.016758513391263687 -0.011663896221960023 0 0.015912155574215908 -0.011029892756243217 0 0.015401328767020444 -0.01267853786856245 0 0.015912155574215908 -0.011029892756243217 0 0.014692869106469955 -0.012161310667208297 0 0.015905966273954887 -0.011046239671943778 0 0.015308581994674291 -0.011487178184803933 0 0.016758513391263687 -0.011663896221960023 0 0.015912155574215908 -0.011029892756243217 0 0.016864497386713386 -0.010902750294299926 0 0.015912155574215908 -0.011029892756243217 0 0.016410777109658856 -0.010475369831811632 0 0.016864497386713386 -0.010902750294299926 0 0.015912155574215908 -0.011029892756243217 0 0.016410777109658856 -0.010475369831811632 0 0.016034640392548118 -0.010116040265371169 0 0.015912155574215908 -0.011029892756243217 0 0.016034640392548118 -0.010116040265371169 0 0.015815501224656806 -0.010597024647436042 0 0.016410777109658856 -0.010475369831811632 0 0.016034640392548118 -0.010116040265371169 0 0.016695527728870792 -0.0097020997395497691 0 0.016410777109658856 -0.010475369831811632 0 0.017056022145215927 -0.010304924048362741 0 0.016695527728870792 -0.0097020997395497691 0 0.017056022145215927 -0.010304924048362741 0 0.016695527728870792 -0.0097020997395497691 0 0.017129080712145528 -0.0095160669147878324 0 0.017472476124378248 -0.011103719635591288 0 0.017056022145215927 -0.010304924048362741 0 0.016864497386713386 -0.010902750294299926 0 0.016410777109658856 -0.010475369831811632 0 0.017056022145215927 -0.010304924048362741 0 0.016864497386713386 -0.010902750294299926 0 0.017621299346393612 -0.010592709972976634 0 0.017472476124378248 -0.011103719635591288 0 0.017056022145215927 -0.010304924048362741 0 0.017056022145215927 -0.010304924048362741 0 0.017557692670261506 -0.0096905883693305331 0 0.017129080712145528 -0.0095160669147878324 0 0.017056022145215927 -0.010304924048362741 0 0.017452898578228414 -0.010315344184965785 0 0.017612974652594912 -0.010069051146309299 0 0.017621299346393612 -0.010592709972976634 0 0.017056022145215927 -0.010304924048362741 0 0.017452898578228414 -0.010315344184965785 0 0.016888766468889375 -0.010417673970028017 0 0.018100318304717346 -0.0096590695397841368 0 0.017650177794054929 -0.010244681070454217 0 0.017621299346393612 -0.010592709972976634 0 0.017452898578228414 -0.010315344184965785 0 0.017650177794054929 -0.010244681070454217 0 0.017452898578228414 -0.010315344184965785 0 0.017612974652594912 -0.010069051146309299 0 0.017557692670261506 -0.0096905883693305331 0 0.017129080712145528 -0.0095160669147878324 0 0.017479845835334067 -0.0092677025745564173 0 0.016695527728870792 -0.0097020997395497691 0 0.017129080712145528 -0.0095160669147878324 0 0.016766931155016304 -0.0091669096287824835 0 0.016766931155016304 -0.0091669096287824835 0 0.017139205543541217 -0.0090817834060735615 0 0.016831325796164309 -0.0088209966382337204 0 0.017129080712145528 -0.0095160669147878324 0 0.016766931155016304 -0.0091669096287824835 0 0.017139205543541217 -0.0090817834060735615 0 0.017129080712145528 -0.0095160669147878324 0 0.017479845835334067 -0.0092677025745564173 0 0.017139205543541217 -0.0090817834060735615 0 0.017479845835334067 -0.0092677025745564173 0 0.017139205543541217 -0.0090817834060735615 0 0.017400895927814755 -0.0089078390246960203 0 0.017631788840814563 -0.0086084911587204788 0 0.017400895927814755 -0.0089078390246960203 0 0.017123225738655476 -0.0084943371393306748 0 0.017400895927814755 -0.0089078390246960203 0 0.017076734165413075 -0.0087640096711266973 0 0.017123225738655476 -0.0084943371393306748 0 0.017139205543541217 -0.0090817834060735615 0 0.017400895927814755 -0.0089078390246960203 0 0.017076734165413075 -0.0087640096711266973 0 0.017139205543541217 -0.0090817834060735615 0 0.017076734165413075 -0.0087640096711266973 0 0.016831325796164309 -0.0088209966382337204 0 0.017076734165413075 -0.0087640096711266973 0 0.016831325796164309 -0.0088209966382337204 0 0.016881577520766532 -0.0085706272787671057 0 0.016831325796164309 -0.0088209966382337204 0 0.016881577520766532 -0.0085706272787671057 0 0.016764025834339426 -0.0086546920751745856 0 0.017076734165413075 -0.0087640096711266973 0 0.016881577520766532 -0.0085706272787671057 0 0.017123225738655476 -0.0084943371393306748 0 0.016881577520766532 -0.0085706272787671057 0 0.016841799746188886 -0.0082671740287413309 0 0.017123225738655476 -0.0084943371393306748 0 0.016881577520766532 -0.0085706272787671057 0 0.016841799746188886 -0.0082671740287413309 0 0.016712249479731649 -0.0083873513119382889 0 0.016797786951907527 -0.0082591369011588544 0 0.017066849929605641 -0.0084577201893418132 0 0.017631788840814563 -0.0086084911587204788 0 0.017123225738655476 -0.0084943371393306748 0 0.017313831517591118 -0.0079319680244540006 0 0.016668242167051827 -0.0081841899894556092 0 0.017123225738655476 -0.0084943371393306748 0 0.017313831517591118 -0.0079319680244540006 0 0.016262095523533221 -0.0079119373785003829 0 0.016711258541966537 -0.0079611974746394941 0 0.016209528224270242 -0.0074177676830709813 0 0.016262095523533221 -0.0079119373785003829 0 0.016711258541966537 -0.0079611974746394941 0 0.016238725935275155 -0.0083358329122855748 0 0.016517461930578091 -0.0082323666802179563 0 0.015986881060885017 -0.0074542119776194104 0 0.016712249479731649 -0.0083873513119382889 0 0.016543271633974541 -0.0084499912468674367 0 0.016546242864135932 -0.0080223856333770695 0 0.016881577520766532 -0.0085706272787671057 0 0.016712249479731649 -0.0083873513119382889 0 0.016659424933216961 -0.008559856327597223 0 0.016712249479731649 -0.0083873513119382889 0 0.016659424933216961 -0.008559856327597223 0 0.016543271633974541 -0.0084499912468674367 0 0.016663846848987515 -0.0084549410905073608 0 0.016517461930578091 -0.0082323666802179563 0 0.016517461930578091 -0.0082323666802179563 0 0.016606976357919148 -0.0087983844323907753 0 0.016659424933216961 -0.008559856327597223 0 0.016574079142209937 -0.0084803252803526737 0 0.016667887245971166 -0.0086844964052857892 0 0.016574079142209937 -0.0084803252803526737 0 0.016667887245971166 -0.0086844964052857892 0 0.016568285936422608 -0.0088497352125910846 0 0.016881577520766532 -0.0085706272787671057 0 0.016659424933216961 -0.008559856327597223 0 0.016764025834339426 -0.0086546920751745856 0 0.016659424933216961 -0.008559856327597223 0 0.016667887245971166 -0.0086844964052857892 0 0.016764025834339426 -0.0086546920751745856 0 0.016831325796164309 -0.0088209966382337204 0 0.016667887245971166 -0.0086844964052857892 0 0.016568285936422608 -0.0088497352125910846 0 0.016831325796164309 -0.0088209966382337204 0 0.016667887245971166 -0.0086844964052857892 0 0.016764025834339426 -0.0086546920751745856 0 0.016711258541966537 -0.0079611974746394941 0 0.016238725935275155 -0.0083358329122855748 0 0.016568285936422608 -0.0088497352125910846 0 0.016238725935275155 -0.0083358329122855748 0 0.016232877843912873 -0.0087120208539272822 0 0.016568285936422608 -0.0088497352125910846 0 0.016232877843912873 -0.0087120208539272822 0 0.016313433696582908 -0.0091108396919585711 0 0.015816681521682464 -0.0085482366027248499 0 0.016232877843912873 -0.0087120208539272822 0 0.016313433696582908 -0.0091108396919585711 0 0.016568285936422608 -0.0088497352125910846 0 0.016766931155016304 -0.0091669096287824835 0 0.016313433696582908 -0.0091108396919585711 0 0.016568285936422608 -0.0088497352125910846 0 0.016766931155016304 -0.0091669096287824835 0 0.016831325796164309 -0.0088209966382337204 0 0.016568285936422608 -0.0088497352125910846 0 0.01669219715477735 -0.009673759381824118 0 0.016249486152486142 -0.0092916414483519352 0 0.016695527728870792 -0.0097020997395497691 0 0.016766931155016304 -0.0091669096287824835 0 0.016313433696582908 -0.0091108396919585711 0 0.016034640392548118 -0.010116040265371169 0 0.016695527728870792 -0.0097020997395497691 0 0.016148875698826157 -0.0094384878034320455 0 0.016034640392548118 -0.010116040265371169 0 0.016148875698826157 -0.0094384878034320455 0 0.015833439199721189 -0.0096281514472026392 0 0.015833439199721189 -0.0096281514472026392 0 0.015603383239270303 -0.0095130198827485819 0 0.015742208131220851 -0.010048497181810518 0 0.015603383239270303 -0.0095130198827485819 0 0.015771950534359393 -0.0092228009921790054 0 0.015516517293146785 -0.0092849567618133802 0 0.015833439199721189 -0.0096281514472026392 0 0.015603383239270303 -0.0095130198827485819 0 0.015771950534359393 -0.0092228009921790054 0 0.016249486152486142 -0.0092916414483519352 0 0.015799456414370579 -0.0088830100813599017 0 0.016148875698826157 -0.0094384878034320455 0 0.015833439199721189 -0.0096281514472026392 0 0.015771950534359393 -0.0092228009921790054 0 0.016238725935275155 -0.0083358329122855748 0 0.015816681521682464 -0.0085482366027248499 0 0.015919541237538453 -0.0079532571163174366 0 0.016238725935275155 -0.0083358329122855748 0 0.016232877843912873 -0.0087120208539272822 0 0.015816681521682464 -0.0085482366027248499 0 0.015771950534359393 -0.0092228009921790054 0 0.015507884591645781 -0.0090513789997384089 0 0.015516517293146785 -0.0092849567618133802 0 0.015816681521682464 -0.0085482366027248499 0 0.015919541237538453 -0.0079532571163174366 0 0.015363559942945582 -0.0080184011284153266 0 0.015799456414370579 -0.0088830100813599017 0 0.015455225292896169 -0.0085831321433818449 0 0.015919541237538453 -0.0079532571163174366 0 0.015363559942945582 -0.0080184011284153266 0 0.015671919788669424 -0.0075513390754798878 0 0.015919541237538453 -0.0079532571163174366 0 0.015671919788669424 -0.0075513390754798878 0 0.016209528224270242 -0.0074177676830709813 0 0.016262095523533221 -0.0079119373785003829 0 0.015919541237538453 -0.0079532571163174366 0 0.016209528224270242 -0.0074177676830709813 0 0.016262095523533221 -0.0079119373785003829 0 0.016238725935275155 -0.0083358329122855748 0 0.015919541237538453 -0.0079532571163174366 0 0.015171336249814113 -0.0076213424582900393 0 0.015000023314609767 -0.007513905043640543 0 0.014999951655819264 -0.0083541354485637716 0 0.01511077948422815 -0.0079273577269943253 0 0.014999960207390989 -0.0075143257209038068 0 0.014957298974329656 -0.0075629499184185637 0 0.015273923817126661 -0.0075614152549874957 0 0.015363559942945582 -0.0080184011284153266 0 0.015273923817126661 -0.0075614152549874957 0 0.015363559942945582 -0.0080184011284153266 0 0.015671919788669424 -0.0075513390754798878 0 0.01511077948422815 -0.0079273577269943253 0 0.015455225292896169 -0.0085831321433818449 0 0.015507884591645781 -0.0090513789997384089 0 0.015343118426236379 -0.0091963480612431946 0 0.015516517293146785 -0.0092849567618133802 0 0.015237375707124344 -0.0088651551659919767 0 0.015507884591645781 -0.0090513789997384089 0 0.015343118426236379 -0.0091963480612431946 0 0.01511077948422815 -0.0079273577269943253 0 0.01538190526645666 -0.0088718549673793088 0 0.015171336249814113 -0.0076213424582900393 0 0.015397054742664619 -0.0083909630844560025 0 0.014999951655819264 -0.0083541354485637716 0 0.014999951655819264 -0.0083541354485637716 0 0.015221717939819381 -0.0089174309197147354 0 0.014999892599568515 -0.0091946521988285086 0 0.015397054742664619 -0.0083909630844560025 0 0.014999951655819264 -0.0083541354485637716 0 0.015221717939819381 -0.0089174309197147354 0 0.015397054742664619 -0.0083909630844560025 0 0.015221717939819381 -0.0089174309197147354 0 0.015449925432796297 -0.009396975163308452 0 0.01538190526645666 -0.0088718549673793088 0 0.015444893939403802 -0.0093125977480443406 0 0.015343118426236379 -0.0091963480612431946 0 0.015516517293146785 -0.0092849567618133802 0 0.015449925432796297 -0.009396975163308452 0 0.015603383239270303 -0.0095130198827485819 0 0.015516517293146785 -0.0092849567618133802 0 0.015449925432796297 -0.009396975163308452 0 0.015603383239270303 -0.0095130198827485819 0 0.015449925432796297 -0.009396975163308452 0 0.015534762981750766 -0.0098882879582515501 0 0.015221717939819381 -0.0089174309197147354 0 0.015449925432796297 -0.009396975163308452 0 0.014999892599568515 -0.0091946521988285086 0 0.015449925432796297 -0.009396975163308452 0 0.014999892599568515 -0.0091946521988285086 0 0.015271303193105249 -0.0097410375606167519 0 0.014999892599568515 -0.0091946521988285086 0 0.015271303193105249 -0.0097410375606167519 0 0.01499987191835471 -0.010034640628628851 0 0.015271303193105249 -0.0097410375606167519 0 0.01499987191835471 -0.010034640628628851 0 0.015534066064780838 -0.010409154194763723 0 0.015271303193105249 -0.0097410375606167519 0 0.015534066064780838 -0.010409154194763723 0 0.015534762981750766 -0.0098882879582515501 0 0.015449925432796297 -0.009396975163308452 0 0.015271303193105249 -0.0097410375606167519 0 0.015534762981750766 -0.0098882879582515501 0 0.015603383239270303 -0.0095130198827485819 0 0.015534762981750766 -0.0098882879582515501 0 0.015742208131220851 -0.010048497181810518 0 0.016034640392548118 -0.010116040265371169 0 0.015833439199721189 -0.0096281514472026392 0 0.015742208131220851 -0.010048497181810518 0 0.016034640392548118 -0.010116040265371169 0 0.015742208131220851 -0.010048497181810518 0 0.015815501224656806 -0.010597024647436042 0 0.015534066064780838 -0.010409154194763723 0 0.015534762981750766 -0.0098882879582515501 0 0.015742208131220851 -0.010048497181810518 0 0.015534066064780838 -0.010409154194763723 0 0.015742208131220851 -0.010048497181810518 0 0.015815501224656806 -0.010597024647436042 0 0.015524298792198661 -0.011167627932490133 0 0.015534066064780838 -0.010409154194763723 0 0.015828087184206863 -0.010825270436722066 0 0.015534066064780838 -0.010409154194763723 0 0.015815501224656806 -0.010597024647436042 0 0.015828087184206863 -0.010825270436722066 0 0.015912155574215908 -0.011029892756243217 0 0.015815501224656806 -0.010597024647436042 0 0.015828087184206863 -0.010825270436722066 0 0.015059573701037141 -0.011872849391593384 0 0.015308581994674291 -0.011487178184803933 0 0.015524298792198661 -0.011167627932490133 0 0.015534066064780838 -0.010409154194763723 0 0.014999929968697281 -0.01087458957299584 0 0.01499987191835471 -0.010034640628628851 0 0.015534066064780838 -0.010409154194763723 0 0.014999929968697281 -0.01087458957299584 0 0.015668822622977755 -0.0043432562795402948 0 0.015293697484517721 -0.0044707295802558309 0 0.015489261186641647 -0.0039961840809066181 0 0.015293697484517721 -0.0044707295802558309 0 0.015437230117425468 -0.0037848330680687312 0 0.015489261186641647 -0.0039961840809066181 0 0.015668822622977755 -0.0043432562795402948 0 0.015489261186641647 -0.0039961840809066181 0 0.016253551018062876 -0.0038601652489388305 0 0.015344251512032097 -0.0045546415155622577 0 0.015467404166893441 -0.0038678891579154999 0 0.015385193824122793 -0.0046649088511808859 0 0.01500000092353419 -0.004324942949974174 0 0.015500705628655053 -0.0039551530077158803 0 0.01500000092353419 -0.004324942949974174 0 0.015500705628655053 -0.0039551530077158803 0 0.014999942731221953 -0.0034919334765871565 0 0.015437230117425468 -0.0037848330680687312 0 0.015489261186641647 -0.0039961840809066181 0 0.015765112415517146 -0.0037456684322680336 0 0.015765112415517146 -0.0037456684322680336 0 0.015810180059208253 -0.003570998954339761 0 0.015661002872663442 -0.0035315222633757501 0 0.015437230117425468 -0.0037848330680687312 0 0.015765112415517146 -0.0037456684322680336 0 0.015661002872663442 -0.0035315222633757501 0 0.015765112415517146 -0.0037456684322680336 0 0.015997428898130914 -0.0036348126269500278 0 0.0162024330011439 -0.0038505656319940901 0 0.015606662795953224 -0.0039659362102714736 0 0.01603729427995235 -0.0039222318696772104 0 0.015489261186641647 -0.0039961840809066181 0 0.015765112415517146 -0.0037456684322680336 0 0.0162024330011439 -0.0038505656319940901 0 0.015765112415517146 -0.0037456684322680336 0 0.015997428898130914 -0.0036348126269500278 0 0.015810180059208253 -0.003570998954339761 0 0.015997428898130914 -0.0036348126269500278 0 0.0162024330011439 -0.0038505656319940901 0 0.016129040785362345 -0.003508665480383782 0 0.015485343190583853 -0.0041932109567621783 0 0.01586338606453952 -0.0041240332832102808 0 0.015550347217564158 -0.0046755480313886407 0 0.01649275571323101 -0.0035604156694846296 0 0.016590713078549996 -0.0033682336023872247 0 0.016460790923039825 -0.0034166384804760995 0 0.016257899853985652 -0.00360518610623818 0 0.01649275571323101 -0.0035604156694846296 0 0.016460790923039825 -0.0034166384804760995 0 0.01603729427995235 -0.0039222318696772104 0 0.015904490525693121 -0.0040821619848802754 0 0.014614300147065959 -0.004665673278411415 0 0.014390281936732925 -0.0050889994565889779 0 0.01464637943920801 -0.0050221880873944687 0 0.015904490525693121 -0.0040821619848802754 0 0.014882621458817359 -0.0049689981954668941 0 0.014390281936732925 -0.0050889994565889779 0 0.01464637943920801 -0.0050221880873944687 0 0.014582067740158295 -0.0052341973968502379 0 0.015668822622977755 -0.0043432562795402948 0 0.016253551018062876 -0.0038601652489388305 0 0.015900485406524598 -0.00466043723129312 0 0.015485343190583853 -0.0041932109567621783 0 0.015550347217564158 -0.0046755480313886407 0 0.015151679690493157 -0.0049388463323511598 0 0.01603729427995235 -0.0039222318696772104 0 0.01549633914653901 -0.0048082783616665778 0 0.014882621458817359 -0.0049689981954668941 0 0.014724818943295978 -0.0053276920102210967 0 0.015550347217564158 -0.0046755480313886407 0 0.015151679690493157 -0.0049388463323511598 0 0.01523957225993113 -0.0052230872069556466 0 0.014390281936732925 -0.0050889994565889779 0 0.014413913250487444 -0.0054576619758322717 0 0.014229589254436924 -0.0054617927660834823 0 0.014390281936732925 -0.0050889994565889779 0 0.014582067740158295 -0.0052341973968502379 0 0.014413913250487444 -0.0054576619758322717 0 0.014517349828580491 -0.0054989961649430938 0 0.014413913250487444 -0.0054576619758322717 0 0.014575782252990209 -0.0054284980645777428 0 0.014582067740158295 -0.0052341973968502379 0 0.014413913250487444 -0.0054576619758322717 0 0.014732577303324878 -0.0053120093779043739 0 0.01438227463937973 -0.005474322735242303 0 0.014805435534286484 -0.0053160878858826109 0 0.01464637943920801 -0.0050221880873944687 0 0.014582067740158295 -0.0052341973968502379 0 0.014721438357884999 -0.0052744738209978808 0 0.014517349828580491 -0.0054989961649430938 0 0.014413913250487444 -0.0054576619758322717 0 0.014465166395471117 -0.0055816593144650539 0 0.014413913250487444 -0.0054576619758322717 0 0.014465166395471117 -0.0055816593144650539 0 0.014329515898397437 -0.0056350111851154929 0 0.014517349828580491 -0.0054989961649430938 0 0.014465166395471117 -0.0055816593144650539 0 0.014573967780597408 -0.0055983484702108082 0 0.014465166395471117 -0.0055816593144650539 0 0.014475395273530251 -0.0057215830228096167 0 0.014573967780597408 -0.0055983484702108082 0 0.014229589254436924 -0.0054617927660834823 0 0.014329515898397437 -0.0056350111851154929 0 0.014117131769143629 -0.0057073217943073859 0 0.014413913250487444 -0.0054576619758322717 0 0.014229589254436924 -0.0054617927660834823 0 0.014329515898397437 -0.0056350111851154929 0 0.015501637579513734 -0.0048706530822664722 0 0.015159401354481114 -0.0051688732187112948 0 0.015536611437391016 -0.0054779042058957375 0 0.015900485406524598 -0.00466043723129312 0 0.015501637579513734 -0.0048706530822664722 0 0.015536611437391016 -0.0054779042058957375 0 0.01523957225993113 -0.0052230872069556466 0 0.014932994809838049 -0.0057673642506210305 0 0.014823182909188637 -0.0056774277733479634 0 0.015151679690493157 -0.0049388463323511598 0 0.01523957225993113 -0.0052230872069556466 0 0.014823182909188637 -0.0056774277733479634 0 0.01549633914653901 -0.0048082783616665778 0 0.015200086960302658 -0.005667665579611846 0 0.014724818943295978 -0.0053276920102210967 0 0.014753792302539615 -0.0057489042038293622 0 0.015668822622977755 -0.0043432562795402948 0 0.015293697484517721 -0.0044707295802558309 0 0.015501637579513734 -0.0048706530822664722 0 0.015668822622977755 -0.0043432562795402948 0 0.015900485406524598 -0.00466043723129312 0 0.015501637579513734 -0.0048706530822664722 0 0.015385193824122793 -0.0046649088511808859 0 0.01500000092353419 -0.004324942949974174 0 0.014999994089744104 -0.0051578698010934926 0 0.015293697484517721 -0.0044707295802558309 0 0.015501637579513734 -0.0048706530822664722 0 0.015159401354481114 -0.0051688732187112948 0 0.015385193824122793 -0.0046649088511808859 0 0.014999994089744104 -0.0051578698010934926 0 0.015256623735741538 -0.0053667350488074009 0 0.015344251512032097 -0.0045546415155622577 0 0.015169586547243947 -0.0053391292800924308 0 0.014999999286486888 -0.0051578804676772096 0 0.015257145193942721 -0.0053680175084020749 0 0.014999999152607127 -0.0056326747498227333 0 0.015000123332632289 -0.0051580029643285711 0 0.015169586547243947 -0.0053391292800924308 0 0.015169586547243947 -0.0053391292800924308 0 0.015200086960302658 -0.005667665579611846 0 0.015257145193942721 -0.0053680175084020749 0 0.014999999152607127 -0.0056326747498227333 0 0.01511769178468665 -0.0061201653629516387 0 0.015169586547243947 -0.0053391292800924308 0 0.015011860323338136 -0.0062219703912853508 0 0.014999999152607127 -0.0056326747498227333 0 0.014999998753423329 -0.006107469191525502 0 0.01511769178468665 -0.0061201653629516387 0 0.01504193380732414 -0.0055162308999241547 0 0.015251716125250692 -0.0059531465699592797 0 0.014932547985876725 -0.0061050891587221727 0 0.015251716125250692 -0.0059531465699592797 0 0.014932547985876725 -0.0061050891587221727 0 0.015172603468056416 -0.0061310057293314903 0 0.01504193380732414 -0.0055162308999241547 0 0.015338150039412144 -0.0057589071727093041 0 0.015251716125250692 -0.0059531465699592797 0 0.015147877446351009 -0.0058348616190483631 0 0.015066314068350954 -0.0057680079915397638 0 0.01499234532053767 -0.0059342083257743396 0 0.015200086960302658 -0.005667665579611846 0 0.015116266242886936 -0.0060400398226580143 0 0.014753792302539615 -0.0057489042038293622 0 0.015200086960302658 -0.005667665579611846 0 0.014753792302539615 -0.0057489042038293622 0 0.015042918333493163 -0.0061565425041253145 0 0.015147877446351009 -0.0058348616190483631 0 0.01499234532053767 -0.0059342083257743396 0 0.015056817238991884 -0.0059971246526530379 0 0.015124833876723743 -0.0061975233515747389 0 0.01513014492933789 -0.0062840920002608363 0 0.01508850044922116 -0.0062797127731313703 0 0.015124833876723743 -0.0061975233515747389 0 0.015159570212492647 -0.0062314510873984512 0 0.01513014492933789 -0.0062840920002608363 0 0.015116266242886936 -0.0060400398226580143 0 0.015042918333493163 -0.0061565425041253145 0 0.015116266242886936 -0.0060400398226580143 0 0.015133757446389758 -0.0064056311040315179 0 0.015042918333493163 -0.0061565425041253145 0 0.015141470695091903 -0.0064163831234844444 0 0.014844259090487482 -0.0061308936265268088 0 0.014844981458481645 -0.0061311954747390362 0 0.014844305610215663 -0.0061315125716837008 0 0.015412592085018008 -0.0065392197662195537 0 0.015286752662127191 -0.0067073521200286101 0 0.015420702646159154 -0.0068863091656190985 0 0.015042918333493163 -0.0061565425041253145 0 0.015045406690064857 -0.0064046579464950683 0 0.015412592085018008 -0.0065392197662195537 0 0.01524504725251623 -0.0065266443495963552 0 0.015286752662127191 -0.0067073521200286101 0 0.015045406690064857 -0.0064046579464950683 0 0.015141470695091903 -0.0064163831234844444 0 0.015080792269380167 -0.0063755043454417652 0 0.015063166547491106 -0.0063589716258089625 0 0.015088947802977334 -0.0063615514125001495 0 0.015141470695091903 -0.0064163831234844444 0 0.015133757446389758 -0.0064056311040315179 0 0.015286752662127191 -0.0067073521200286101 0 0.015155298669738481 -0.0066984914773175423 0 0.015219530820913655 -0.0068744879553459979 0 0.01524504725251623 -0.0065266443495963552 0 0.015286752662127191 -0.0067073521200286101 0 0.015155298669738481 -0.0066984914773175423 0 0.015133757446389758 -0.0064056311040315179 0 0.015054760863694075 -0.0068380032031667938 0 0.015177753576305153 -0.0065964885528675436 0 0.015155298669738481 -0.0066984914773175423 0 0.015064868154660934 -0.0067839025556736378 0 0.01504904435018792 -0.006627557469820803 0 0.015132084195107037 -0.0066357187156829232 0 0.015064868154660934 -0.0067839025556736378 0 0.014999998662700693 -0.0061074713026335907 0 0.015117844878474848 -0.0061202856231878664 0 0.014999999586392435 -0.0067558420187409825 0 0.01504904435018792 -0.006627557469820803 0 0.015064868154660934 -0.0067839025556736378 0 0.015000121488895232 -0.0067563766418504197 0 0.015011860323338136 -0.0062219703912853508 0 0.015000015525038138 -0.006755927379813024 0 0.015000026134640599 -0.0061077425270357451 0 0.015011860323338136 -0.0062219703912853508 0 0.015141470695091903 -0.0064163831234844444 0 0.015123090283669328 -0.0066448640297758496 0 0.01521922456900248 -0.0066006715254817864 0 0.015177753576305153 -0.0065964885528675436 0 0.015155298669738481 -0.0066984914773175423 0 0.015011860323338136 -0.0062219703912853508 0 0.015133757446389758 -0.0064056311040315179 0 0.015064868154660934 -0.0067839025556736378 0 0.015000121488895232 -0.0067563766418504197 0 0.015062103750076754 -0.0069295835063554649 0 0.015000121488895232 -0.0067563766418504197 0 0.015062103750076754 -0.0069295835063554649 0 0.014999604823047543 -0.0070367230947695958 0 0.015064868154660934 -0.0067839025556736378 0 0.015062103750076754 -0.0069295835063554649 0 0.015135037527086209 -0.0070448695472688947 0 0.015062103750076754 -0.0069295835063554649 0 0.015135037527086209 -0.0070448695472688947 0 0.014999604823047543 -0.0070367230947695958 0 0.015064868154660934 -0.0067839025556736378 0 0.015135037527086209 -0.0070448695472688947 0 0.015219530820913655 -0.0068744879553459979 0 0.015155298669738481 -0.0066984914773175423 0 0.015064868154660934 -0.0067839025556736378 0 0.015219530820913655 -0.0068744879553459979 0 0.015219530820913655 -0.0068744879553459979 0 0.015420702646159154 -0.0068863091656190985 0 0.015299190603634182 -0.0072264415193098765 0 0.015420702646159154 -0.0068863091656190985 0 0.015299190603634182 -0.0072264415193098765 0 0.015541622801337954 -0.0071475012170462565 0 0.015286752662127191 -0.0067073521200286101 0 0.015219530820913655 -0.0068744879553459979 0 0.015420702646159154 -0.0068863091656190985 0 0.015135037527086209 -0.0070448695472688947 0 0.015219530820913655 -0.0068744879553459979 0 0.015299190603634182 -0.0072264415193098765 0 0.015273923817126661 -0.0075614152549874957 0 0.015299190603634182 -0.0072264415193098765 0 0.015671919788669424 -0.0075513390754798878 0 0.015273923817126661 -0.0075614152549874957 0 0.015299190603634182 -0.0072264415193098765 0 0.015123359916765663 -0.007279298607433214 0 0.014957298974329656 -0.0075629499184185637 0 0.015273923817126661 -0.0075614152549874957 0 0.015123359916765663 -0.007279298607433214 0 0.014957298974329656 -0.0075629499184185637 0 0.015123359916765663 -0.007279298607433214 0 0.014999604823047543 -0.0070367230947695958 0 0.01511077948422815 -0.0079273577269943253 0 0.014999910994454165 -0.0070367292513088949 0 0.015171067194771595 -0.0076212078209195273 0 0.014999999564378034 -0.0075139196072952124 0 0.014999999182215446 -0.0070368975094504977 0 0.015135037527086209 -0.0070448695472688947 0 0.015123359916765663 -0.007279298607433214 0 0.014999604823047543 -0.0070367230947695958 0 0.015135037527086209 -0.0070448695472688947 0 0.015299190603634182 -0.0072264415193098765 0 0.015123359916765663 -0.007279298607433214 0 0.015671919788669424 -0.0075513390754798878 0 0.015795664220916526 -0.0069303616749202546 0 0.016209528224270242 -0.0074177676830709813 0 0.015671919788669424 -0.0075513390754798878 0 0.015795664220916526 -0.0069303616749202546 0 0.015541622801337954 -0.0071475012170462565 0 0.015299190603634182 -0.0072264415193098765 0 0.015671919788669424 -0.0075513390754798878 0 0.015541622801337954 -0.0071475012170462565 0 0.015420702646159154 -0.0068863091656190985 0 0.015795664220916526 -0.0069303616749202546 0 0.015541622801337954 -0.0071475012170462565 0 0.015509534157394757 -0.0069882299666045528 0 0.015986881060885017 -0.0074542119776194104 0 0.015215140432617543 -0.007003499784631809 0 0.015202100961980942 -0.0065163171356447521 0 0.015779285314788734 -0.0069857716803905521 0 0.015215140432617543 -0.007003499784631809 0 0.015779285314788734 -0.0069857716803905521 0 0.015782061302851962 -0.0075609016725672468 0 0.014695893862778581 -0.0062545953524370474 0 0.015457254341977986 -0.0069347585855567611 0 0.014695893862778581 -0.0062545953524370474 0 0.014831185852319092 -0.0061809304017652516 0 0.014343002389248384 -0.0058833184453997676 0 0.014475395273530251 -0.0057215830228096167 0 0.01454975955353148 -0.0059007697604447863 0 0.014541717225261798 -0.0064132584039111196 0 0.015146284107369071 -0.0064810882395937852 0 0.015140658380400509 -0.0069063493800276682 0 0.014659351323654866 -0.0064561867437026811 0 0.015215140432617543 -0.007003499784631809 0 0.015202100961980942 -0.0065163171356447521 0 0.015045406690064857 -0.0064046579464950683 0 0.014695893862778581 -0.0062545953524370474 0 0.015045406690064857 -0.0064046579464950683 0 0.015509534157394757 -0.0069882299666045528 0 0.015412592085018008 -0.0065392197662195537 0 0.015420702646159154 -0.0068863091656190985 0 0.015795664220916526 -0.0069303616749202546 0 0.014753792302539615 -0.0057489042038293622 0 0.014695893862778581 -0.0062545953524370474 0 0.014844259090487482 -0.0061308936265268088 0 0.014844305610215663 -0.0061315125716837008 0 0.014841255671401359 -0.0061325109756401571 0 0.014329515898397437 -0.0056350111851154929 0 0.014117131769143629 -0.0057073217943073859 0 0.014343002389248384 -0.0058833184453997676 0 0.014329515898397437 -0.0056350111851154929 0 0.014343002389248384 -0.0058833184453997676 0 0.014475395273530251 -0.0057215830228096167 0 0.014465166395471117 -0.0055816593144650539 0 0.014329515898397437 -0.0056350111851154929 0 0.014475395273530251 -0.0057215830228096167 0 0.014475395273530251 -0.0057215830228096167 0 0.014616142916915924 -0.0057341857799353352 0 0.014573967780597408 -0.0055983484702108082 0 0.014475395273530251 -0.0057215830228096167 0 0.014616142916915924 -0.0057341857799353352 0 0.01454975955353148 -0.0059007697604447863 0 0.014616142916915924 -0.0057341857799353352 0 0.014748340410993575 -0.0057043187016570232 0 0.0146761228039793 -0.005606343411782475 0 0.0137561677488191 -0.0064956038294064489 0 0.015067920396601349 -0.0064063062071394146 0 0.014616142916915924 -0.0057341857799353352 0 0.014748340410993575 -0.0057043187016570232 0 0.014752049710253068 -0.005924676344697323 0 0.012818757133409945 -0.0071952434258587012 0 0.012837326629043256 -0.0066798938817261176 0 0.01228886604026682 -0.0069373484014505086 0 0.014616142916915924 -0.0057341857799353352 0 0.014752049710253068 -0.005924676344697323 0 0.01454975955353148 -0.0059007697604447863 0 0.015067920396601349 -0.0064063062071394146 0 0.014831185852319092 -0.0061809304017652516 0 0.01575431764928889 -0.0065463733962334344 0 0.015146284107369071 -0.0064810882395937852 0 0.015140658380400509 -0.0069063493800276682 0 0.015457254341977986 -0.0069347585855567611 0 0.016224690046762254 -0.0077286391313310925 0 0.01575431764928889 -0.0065463733962334344 0 0.015140658380400509 -0.0069063493800276682 0 0.015747603084112605 -0.0074026792020485642 0 0.015067920396601349 -0.0064063062071394146 0 0.016224690046762254 -0.0077286391313310925 0 0.016220365073227078 -0.0070948109853584502 0 0.016228953371606458 -0.0078502769778760941 0 0.016731533338947755 -0.0076588212967072192 0 0.016517461930578091 -0.0082323666802179563 0 0.016224690046762254 -0.0077286391313310925 0 0.016668242167051827 -0.0081841899894556092 0 0.016228953371606458 -0.0078502769778760941 0 0.016731533338947755 -0.0076588212967072192 0 0.016841799746188886 -0.0082671740287413309 0 0.016712249479731649 -0.0083873513119382889 0 0.016546242864135932 -0.0080223856333770695 0 0.016797786951907527 -0.0082591369011588544 0 0.016224690046762254 -0.0077286391313310925 0 0.016357630256861318 -0.0081214437033129694 0 0.016365807168797659 -0.00746320956821104 0 0.015782061302851962 -0.0075609016725672468 0 0.015779285314788734 -0.0069857716803905521 0 0.016365807168797659 -0.00746320956821104 0 0.015782061302851962 -0.0075609016725672468 0 0.016668242167051827 -0.0081841899894556092 0 0.017313831517591118 -0.0079319680244540006 0 0.016731533338947755 -0.0076588212967072192 0 0.016220365073227078 -0.0070948109853584502 0 0.016731533338947755 -0.0076588212967072192 0 0.016959812025989524 -0.0071848205093164178 0 0.012242884487339342 -0.011226867227248385 0 0.012431214777208172 -0.011634272765738652 0 0.011939788812850917 -0.01162357322739032 0 0.01501078486228289 -0.009809455425601429 0 0.013321049010565189 -0.0085619262513025787 0 0.017313831517591118 -0.0079319680244540006 0 0.016731533338947755 -0.0076588212967072192 0 0.016959812025989524 -0.0071848205093164178 0 0.013321049010565189 -0.0085619262513025787 0 0.011433015009636036 -0.0091546400611706852 0 0.012140030960880096 -0.0066105238061751606 0 0.011867680814721485 -0.0069405112380871896 0 0.011369632329273661 -0.0065450949673878248 0 0.012140030960880096 -0.0066105238061751606 0 0.01228886604026682 -0.0069373484014505086 0 0.011867680814721485 -0.0069405112380871896 0 0.012837326629043256 -0.0066798938817261176 0 0.012160874601896684 -0.0066234491782965537 0 0.01228886604026682 -0.0069373484014505086 0 0.015067920396601349 -0.0064063062071394146 0 0.013321049010565189 -0.0085619262513025787 0 0.013321049010565189 -0.0085619262513025787 0 0.012087020149847643 -0.006343223218403699 0 0.012818757133409945 -0.0071952434258587012 0 0.01228886604026682 -0.0069373484014505086 0 0.012435827503212498 -0.0074309358596504485 0 0.01228886604026682 -0.0069373484014505086 0 0.012054372488508613 -0.007305908963548372 0 0.012435827503212498 -0.0074309358596504485 0 0.011867680814721485 -0.0069405112380871896 0 0.012054372488508613 -0.007305908963548372 0 0.01158359756595346 -0.007299406735217358 0 0.01228886604026682 -0.0069373484014505086 0 0.011867680814721485 -0.0069405112380871896 0 0.012054372488508613 -0.007305908963548372 0 0.012054372488508613 -0.007305908963548372 0 0.012066479438491741 -0.0079029094114381714 0 0.01158359756595346 -0.007299406735217358 0 0.011240985768259264 -0.005567487757906337 0 0.01078536673465455 -0.0058917891390891045 0 0.010160915708630489 -0.0058424738359549059 0 0.011240985768259264 -0.005567487757906337 0 0.01078536673465455 -0.0058917891390891045 0 0.011314219466109924 -0.0062946208221730336 0 0.011240985768259264 -0.005567487757906337 0 0.011711980048628525 -0.0058666463619951939 0 0.012004915732213873 -0.0056613101073753804 0 0.011240985768259264 -0.005567487757906337 0 0.012388772336209922 -0.0052859790424542056 0 0.012004915732213873 -0.0056613101073753804 0 0.011240985768259264 -0.005567487757906337 0 0.011711980048628525 -0.0058666463619951939 0 0.011314219466109924 -0.0062946208221730336 0 0.011576456865301803 -0.0067971791058347953 0 0.013058513786518499 -0.0062604240734069564 0 0.012054372488508613 -0.007305908963548372 0 0.012066479438491741 -0.0079029094114381714 0 0.012435827503212498 -0.0074309358596504485 0 0.012066479438491741 -0.0079029094114381714 0 0.012435827503212498 -0.0074309358596504485 0 0.012807416905558621 -0.0077144421829850865 0 0.014748340410993575 -0.0057043187016570232 0 0.014739155400438049 -0.0054873431022246962 0 0.0146761228039793 -0.005606343411782475 0 0.0137561677488191 -0.0064956038294064489 0 0.013058513786518499 -0.0062604240734069564 0 0.012818757133409945 -0.0071952434258587012 0 0.012435827503212498 -0.0074309358596504485 0 0.012807416905558621 -0.0077144421829850865 0 0.014698542296161186 -0.0054972393663949822 0 0.014739155400438049 -0.0054873431022246962 0 0.0146761228039793 -0.005606343411782475 0 0.01409658462828622 -0.0056890809938288985 0 0.013058513786518499 -0.0062604240734069564 0 0.014573967780597408 -0.0055983484702108082 0 0.0146761228039793 -0.005606343411782475 0 0.014647847738487938 -0.0055548665620223994 0 0.014616142916915924 -0.0057341857799353352 0 0.014573967780597408 -0.0055983484702108082 0 0.0146761228039793 -0.005606343411782475 0 0.014698542296161186 -0.0054972393663949822 0 0.0146761228039793 -0.005606343411782475 0 0.014647847738487938 -0.0055548665620223994 0 0.014573967780597408 -0.0055983484702108082 0 0.014617901307880071 -0.0055126362262372585 0 0.014647847738487938 -0.0055548665620223994 0 0.014661146875966998 -0.0054910463396546537 0 0.014617901307880071 -0.0055126362262372585 0 0.014631271411806979 -0.0054761487280302959 0 0.014698542296161186 -0.0054972393663949822 0 0.014617901307880071 -0.0055126362262372585 0 0.014647847738487938 -0.0055548665620223994 0 0.01409658462828622 -0.0056890809938288985 0 0.014612001219696731 -0.0055396347506242328 0 0.014517349828580491 -0.0054989961649430938 0 0.014617901307880071 -0.0055126362262372585 0 0.014579371681410873 -0.0054748330349527084 0 0.014517349828580491 -0.0054989961649430938 0 0.014573967780597408 -0.0055983484702108082 0 0.014617901307880071 -0.0055126362262372585 0 0.014732577303324878 -0.0053120093779043739 0 0.014773592649658024 -0.0052446034549126289 0 0.014852346583866449 -0.0052334312901490846 0 0.014575782252990209 -0.0054284980645777428 0 0.014636648549560861 -0.0054396502848634834 0 0.014683791467947785 -0.0053912788463322961 0 0.014805435534286484 -0.0053160878858826109 0 0.013703256624281335 -0.0051818355670441366 0 0.014517349828580491 -0.0054989961649430938 0 0.014579371681410873 -0.0054748330349527084 0 0.014575782252990209 -0.0054284980645777428 0 0.014617901307880071 -0.0055126362262372585 0 0.014579371681410873 -0.0054748330349527084 0 0.014606380242185798 -0.0054632762525336298 0 0.014579371681410873 -0.0054748330349527084 0 0.014575782252990209 -0.0054284980645777428 0 0.014606380242185798 -0.0054632762525336298 0 0.014575782252990209 -0.0054284980645777428 0 0.014606380242185798 -0.0054632762525336298 0 0.014636648549560861 -0.0054396502848634834 0 0.014617901307880071 -0.0055126362262372585 0 0.014606380242185798 -0.0054632762525336298 0 0.014631271411806979 -0.0054761487280302959 0 0.014606380242185798 -0.0054632762525336298 0 0.014631271411806979 -0.0054761487280302959 0 0.014636648549560861 -0.0054396502848634834 0 0.014661146875966998 -0.0054910463396546537 0 0.014631271411806979 -0.0054761487280302959 0 0.014636648549560861 -0.0054396502848634834 0 0.014773592649658024 -0.0052446034549126289 0 0.014721438357884999 -0.0052744738209978808 0 0.014786092583854871 -0.0051649305746622378 0 0.014582067740158295 -0.0052341973968502379 0 0.014732577303324878 -0.0053120093779043739 0 0.014721438357884999 -0.0052744738209978808 0 0.014732577303324878 -0.0053120093779043739 0 0.014773592649658024 -0.0052446034549126289 0 0.014721438357884999 -0.0052744738209978808 0 0.012388772336209922 -0.0052859790424542056 0 0.012379724338011631 -0.0056797849568260899 0 0.012004915732213873 -0.0056613101073753804 0 0.013363858445957555 -0.0060444609964675306 0 0.013539982106452114 -0.0060004811871402159 0 0.013544135226337295 -0.0055829022027732598 0 0.013058513786518499 -0.0062604240734069564 0 0.013399155012109859 -0.0054531230899997896 0 0.014661146875966998 -0.0054910463396546537 0 0.014636648549560861 -0.0054396502848634834 0 0.014683400452902975 -0.0054195646429951094 0 0.01409658462828622 -0.0056890809938288985 0 0.013399155012109859 -0.0054531230899997896 0 0.014636648549560861 -0.0054396502848634834 0 0.014683400452902975 -0.0054195646429951094 0 0.014683791467947785 -0.0053912788463322961 0 0.013399155012109859 -0.0054531230899997896 0 0.013703256624281335 -0.0051818355670441366 0 0.013172770243568879 -0.005428664619488756 0 0.013177348939844194 -0.0050353911088148748 0 0.013357592996768806 -0.0049598023644871637 0 0.013399155012109859 -0.0054531230899997896 0 0.01278490187634642 -0.0053220381113889591 0 0.013703256624281335 -0.0051818355670441366 0 0.01278490187634642 -0.0053220381113889591 0 0.012379724338011631 -0.0056797849568260899 0 0.012287434074561433 -0.0059033160592791749 0 0.012004915732213873 -0.0056613101073753804 0 0.011711980048628525 -0.0058666463619951939 0 0.012287434074561433 -0.0059033160592791749 0 0.012004915732213873 -0.0056613101073753804 0 0.014852346583866449 -0.0052334312901490846 0 0.014786092583854871 -0.0051649305746622378 0 0.014848468076273066 -0.0050577038859176858 0 0.011792808285909243 -0.0046913076942048217 0 0.011583162692849834 -0.0051841209925129637 0 0.011461324566178955 -0.0050955835249355324 0 0.012980125207067128 -0.0050765354324834146 0 0.012923942391091674 -0.0044186083574425019 0 0.013230555666409214 -0.0044275259072312509 0 0.012916081766074066 -0.0051038287589006163 0 0.012980125207067128 -0.0050765354324834146 0 0.012923942391091674 -0.0044186083574425019 0 0.01278490187634642 -0.0053220381113889591 0 0.01138395580457607 -0.0042061644777426684 0 0.013703256624281335 -0.0051818355670441366 0 0.014261235632887056 -0.0045332671588509512 0 0.014843024153411285 -0.0050635906926793711 0 0.014261235632887056 -0.0045332671588509512 0 0.014614300147065959 -0.004665673278411415 0 0.01464637943920801 -0.0050221880873944687 0 0.014918826072680032 -0.0050071857233594625 0 0.01464637943920801 -0.0050221880873944687 0 0.014721438357884999 -0.0052744738209978808 0 0.014918826072680032 -0.0050071857233594625 0 0.014736485166907674 -0.0052522274138078898 0 0.014843024153411285 -0.0050635906926793711 0 0.014773592649658024 -0.0052446034549126289 0 0.014852346583866449 -0.0052334312901490846 0 0.014786092583854871 -0.0051649305746622378 0 0.015904490525693121 -0.0040821619848802754 0 0.014772338827841913 -0.0036154599594658142 0 0.014614300147065959 -0.004665673278411415 0 0.015104065483185235 -0.0047295285162326549 0 0.015106910915045037 -0.0045803205635874976 0 0.016539909096805593 -0.0034505890569719953 0 0.016697459174088554 -0.0034210736684336085 0 0.016590713078549996 -0.0033682336023872247 0 0.014614300147065959 -0.004665673278411415 0 0.014918826072680032 -0.0050071857233594625 0 0.015104065483185235 -0.0047295285162326549 0 0.015904490525693121 -0.0040821619848802754 0 0.0166333640572803 -0.0032030160552730643 0 0.012923942391091674 -0.0044186083574425019 0 0.013022978028407481 -0.0042702257204696916 0 0.013230555666409214 -0.0044275259072312509 0 0.013357724234538012 -0.003869210728600584 0 0.01138395580457607 -0.0042061644777426684 0 0.014261235632887056 -0.0045332671588509512 0 0.013357724234538012 -0.003869210728600584 0 0.014261235632887056 -0.0045332671588509512 0 0.014772338827841913 -0.0036154599594658142 0 0.014339300793043465 -0.0043375671284087468 0 0.014352170472970013 -0.0035861423579258648 0 0.014681323927381888 -0.0038322819300273645 0 0.014772338827841913 -0.0036154599594658142 0 0.013357724234538012 -0.003869210728600584 0 0.014772338827841913 -0.0036154599594658142 0 0.012322599145831437 -0.0039122088587523795 0 0.013357724234538012 -0.003869210728600584 0 0.012322599145831437 -0.0039122088587523795 0 0.013546246467313375 -0.0036066881908646364 0 0.013325823949215504 -0.0034443914821684768 0 0.013137972192479419 -0.0037173477896769182 0 0.011465797512679506 -0.0038405939681748378 0 0.011454651083230559 -0.0038528901421244228 0 0.011440175556462857 -0.0038247156001215048 0 0.012322599145831437 -0.0039122088587523795 0 0.011570178312406854 -0.0039647475299023046 0 0.01138395580457607 -0.0042061644777426684 0 0.010036446527651529 -0.004182978418063683 0 0.011423668947873522 -0.003854729541931163 0 0.011440175556462857 -0.0038247156001215048 0 0.011400476646008392 -0.0038779983951795546 0 0.011454651083230559 -0.0038528901421244228 0 0.011423668947873522 -0.003854729541931163 0 0.011440175556462857 -0.0038247156001215048 0 0.0090092540724446574 -0.0039157460179944058 0 0.0088816459218530701 -0.0039617279924075511 0 0.0087663693754231591 -0.0038611901216510157 0 0.0090787892666158668 -0.0039672767910957068 0 0.0089529834852037551 -0.0040329746331240861 0 0.0089551814364170548 -0.0041966945422622715 0 0.0090787892666158668 -0.0039672767910957068 0 0.0090092540724446574 -0.0039157460179944058 0 0.0089529834852037551 -0.0040329746331240861 0 0.01138395580457607 -0.0042061644777426684 0 0.010195202503540755 -0.0044217003965373982 0 0.0090092540724446574 -0.0039157460179944058 0 0.0088816459218530701 -0.0039617279924075511 0 0.0089529834852037551 -0.0040329746331240861 0 0.0088816459218530701 -0.0039617279924075511 0 0.0088752123649821092 -0.0040219271789541534 0 0.0089529834852037551 -0.0040329746331240861 0 0.0088752123649821092 -0.0040219271789541534 0 0.0089529834852037551 -0.0040329746331240861 0 0.0088554130141270046 -0.0041028206324862744 0 0.0088752123649821092 -0.0040219271789541534 0 0.0088041997113438176 -0.0040376586927011165 0 0.0088554130141270046 -0.0041028206324862744 0 0.0088041997113438176 -0.0040376586927011165 0 0.0087422018293122992 -0.0040916871356576987 0 0.0088554130141270046 -0.0041028206324862744 0 0.0088041997113438176 -0.0040376586927011165 0 0.0087412506659739105 -0.0040000609864116127 0 0.0088063686412800275 -0.0039708191184261643 0 0.0088752123649821092 -0.0040219271789541534 0 0.0088041997113438176 -0.0040376586927011165 0 0.0088063686412800275 -0.0039708191184261643 0 0.0087422018293122992 -0.0040916871356576987 0 0.0086427079439450084 -0.0040059886225196064 0 0.0086163939836864465 -0.0041546797460824325 0 0.0088041997113438176 -0.0040376586927011165 0 0.0087422018293122992 -0.0040916871356576987 0 0.0087412506659739105 -0.0040000609864116127 0 0.0087422018293122992 -0.0040916871356576987 0 0.0087412506659739105 -0.0040000609864116127 0 0.0086427079439450084 -0.0040059886225196064 0 0.0087103093096492674 -0.0039249633348913317 0 0.008678140597744341 -0.0038895818247039553 0 0.0086427079439450084 -0.0040059886225196064 0 0.0087103093096492674 -0.0039249633348913317 0 0.0088063686412800275 -0.0039708191184261643 0 0.0087663693754231591 -0.0038611901216510157 0 0.0087412506659739105 -0.0040000609864116127 0 0.0087103093096492674 -0.0039249633348913317 0 0.0086427079439450084 -0.0040059886225196064 0 0.0087412506659739105 -0.0040000609864116127 0 0.0087103093096492674 -0.0039249633348913317 0 0.0088063686412800275 -0.0039708191184261643 0 0.0088530047547377665 -0.0042129859578035056 0 0.0089530534736852827 -0.0043409907237639215 0 0.0088816459218530701 -0.0039617279924075511 0 0.0088063686412800275 -0.0039708191184261643 0 0.0087663693754231591 -0.0038611901216510157 0 0.0088816459218530701 -0.0039617279924075511 0 0.0088752123649821092 -0.0040219271789541534 0 0.0088063686412800275 -0.0039708191184261643 0 0.010904223118885843 -0.0054979759836954363 0 0.0097520723987288924 -0.0048572461132849829 0 0.009361621381967087 -0.0048780660605823346 0 0.0094276959254257896 -0.0048503024863260427 0 0.0093140560530303954 -0.0048253311940325014 0 0.0097520723987288924 -0.0048572461132849829 0 0.0095264069059234867 -0.0050952327618774282 0 0.0089530534736852827 -0.0043409907237639215 0 0.0097520723987288924 -0.0048572461132849829 0 0.0087103093096492674 -0.0039249633348913317 0 0.0086837481286429676 -0.0038943856671768509 0 0.0087663693754231591 -0.0038611901216510157 0 0.01078536673465455 -0.0058917891390891045 0 0.010949490968489888 -0.0063545750291258687 0 0.01056972694677363 -0.0062761592094037729 0 0.011042988907337207 -0.0060717169297509286 0 0.010904223118885843 -0.0054979759836954363 0 0.01078536673465455 -0.0058917891390891045 0 0.011230664934420685 -0.006233624120039488 0 0.010949490968489888 -0.0063545750291258687 0 0.011792808285909243 -0.0046913076942048217 0 0.011461324566178955 -0.0050955835249355324 0 0.011222562065098935 -0.0049222256668910499 0 0.01278490187634642 -0.0053220381113889591 0 0.010904223118885843 -0.0054979759836954363 0 0.010308936651371248 -0.0048266205476070389 0 0.010272993073460312 -0.0048045997906670376 0 0.010242125607323167 -0.0048183396163419519 0 0.010195202503540755 -0.0044217003965373982 0 0.0097520723987288924 -0.0048572461132849829 0 0.011711980048628525 -0.0058666463619951939 0 0.012287434074561433 -0.0059033160592791749 0 0.011314219466109924 -0.0062946208221730336 0 0.010195202503540755 -0.0044217003965373982 0 0.010904223118885843 -0.0054979759836954363 0 0.0092683871896025363 -0.0053901784210466678 0 0.010612692603474099 -0.0067987432958633446 0 0.0082610166258183255 -0.0040771281460672366 0 0.0083388888396923409 -0.0039944274811467275 0 0.0085098302948104013 -0.0040364536979818387 0 0.0095994130119621927 -0.0055498804391125676 0 0.0095275881281264661 -0.0055344537803996363 0 0.0096220972957064901 -0.0055143047225871206 0 0.0082610166258183255 -0.0040771281460672366 0 0.0083388888396923409 -0.0039944274811467275 0 0.0081804059819868876 -0.0039643199872078849 0 0.0088115842418696431 -0.0047633248164330299 0 0.0092683871896025363 -0.0053901784210466678 0 0.01078536673465455 -0.0058917891390891045 0 0.01056972694677363 -0.0062761592094037729 0 0.010160915708630489 -0.0058424738359549059 0 0.0095994130119621927 -0.0055498804391125676 0 0.0096659595905016389 -0.0055607155564943002 0 0.0096220972957064901 -0.0055143047225871206 0 0.0095264069059234867 -0.0050952327618774282 0 0.010612692603474099 -0.0067987432958633446 0 0.0089530534736852827 -0.0043409907237639215 0 0.0095264069059234867 -0.0050952327618774282 0 0.0088115842418696431 -0.0047633248164330299 0 0.0095264069059234867 -0.0050952327618774282 0 0.0085616990686332925 -0.0040946371731234157 0 0.0085098302948104013 -0.0040364536979818387 0 0.0082682467316228803 -0.0041923900880237652 0 0.008678140597744341 -0.0038895818247039553 0 0.0085354245936224392 -0.0040443742207210897 0 0.0083294363344431875 -0.004045960105106842 0 0.0089530534736852827 -0.0043409907237639215 0 0.0082400230676573788 -0.004081729431433135 0 0.008678140597744341 -0.0038895818247039553 0 0.0086427079439450084 -0.0040059886225196064 0 0.0085354245936224392 -0.0040443742207210897 0 0.0086427079439450084 -0.0040059886225196064 0 0.0085354245936224392 -0.0040443742207210897 0 0.0086163939836864465 -0.0041546797460824325 0 0.0085354245936224392 -0.0040443742207210897 0 0.0083294363344431875 -0.004045960105106842 0 0.0084627610205028677 -0.0041631752805043297 0 0.0082610166258183255 -0.0040771281460672366 0 0.0085098302948104013 -0.0040364536979818387 0 0.0082682467316228803 -0.0041923900880237652 0 0.0082610166258183255 -0.0040771281460672366 0 0.0082682467316228803 -0.0041923900880237652 0 0.0081349737426020287 -0.0041509875338029455 0 0.0082682467316228803 -0.0041923900880237652 0 0.0081349737426020287 -0.0041509875338029455 0 0.008015366580125036 -0.0042396103938876816 0 0.0082400230676573788 -0.004081729431433135 0 0.0080567896627368098 -0.0042374167376522821 0 0.0081349737426020287 -0.0041509875338029455 0 0.0080333593373897276 -0.0041497091766817019 0 0.008015366580125036 -0.0042396103938876816 0 0.0081349737426020287 -0.0041509875338029455 0 0.0080333593373897276 -0.0041497091766817019 0 0.0080663938076806323 -0.0040650835456753059 0 0.0081349737426020287 -0.0041509875338029455 0 0.0081593091271959291 -0.0040417594287994888 0 0.0080663938076806323 -0.0040650835456753059 0 0.0082610166258183255 -0.0040771281460672366 0 0.0081349737426020287 -0.0041509875338029455 0 0.0081593091271959291 -0.0040417594287994888 0 0.0079513536056853348 -0.0041765146335829631 0 0.0080333593373897276 -0.0041497091766817019 0 0.008015366580125036 -0.0042396103938876816 0 0.0079513536056853348 -0.0041765146335829631 0 0.0080333593373897276 -0.0041497091766817019 0 0.0079995434906348049 -0.0041067800041630414 0 0.0080333593373897276 -0.0041497091766817019 0 0.0079995434906348049 -0.0041067800041630414 0 0.0080663938076806323 -0.0040650835456753059 0 0.0079995434906348049 -0.0041067800041630414 0 0.0079235278408639892 -0.0041143448277290223 0 0.0078862120101704705 -0.0040684914920278044 0 0.0079513536056853348 -0.0041765146335829631 0 0.0079995434906348049 -0.0041067800041630414 0 0.0079235278408639892 -0.0041143448277290223 0 0.0080663938076806323 -0.0040650835456753059 0 0.0081074130139918467 -0.0039876651871043091 0 0.0078862120101704705 -0.0040684914920278044 0 0.0080950109812987867 -0.0040534048004054954 0 0.0080719977305295648 -0.0040229353003926778 0 0.0078862120101704705 -0.0040684914920278044 0 0.0084534764034763874 -0.0045407757706393938 0 0.0077724780189603014 -0.0039402567625043293 0 0.0080719977305295648 -0.0040229353003926778 0 0.0079384639045917051 -0.0039862416163903205 0 0.0078862120101704705 -0.0040684914920278044 0 0.0079995434906348049 -0.0041067800041630414 0 0.0080663938076806323 -0.0040650835456753059 0 0.0078862120101704705 -0.0040684914920278044 0 0.0082610166258183255 -0.0040771281460672366 0 0.0081593091271959291 -0.0040417594287994888 0 0.0081804059819868876 -0.0039643199872078849 0 0.0081593091271959291 -0.0040417594287994888 0 0.0080663938076806323 -0.0040650835456753059 0 0.0081074130139918467 -0.0039876651871043091 0 0.0084534764034763874 -0.0045407757706393938 0 0.0091443768091350758 -0.0055999870223733036 0 0.0084534764034763874 -0.0045407757706393938 0 0.0092683871896025363 -0.0053901784210466678 0 0.0081593091271959291 -0.0040417594287994888 0 0.0081174579246522886 -0.0039827094859075434 0 0.0081804059819868876 -0.0039643199872078849 0 0.0088281416669066387 -0.0053635538993099599 0 0.0087298217398960182 -0.0052354837269851196 0 0.009044938678275917 -0.0053089434570332212 0 0.0091443768091350758 -0.0055999870223733036 0 0.0092683871896025363 -0.0053901784210466678 0 0.0081353619293391358 -0.0040726705718569858 0 0.0084534764034763874 -0.0045407757706393938 0 0.010360719878753352 -0.0071893193808126501 0 0.010399085952716686 -0.0071532375772179763 0 0.010282648569304048 -0.0071285468836883373 0 0.010360719878753352 -0.0071893193808126501 0 0.010402123259616413 -0.0071944308209233318 0 0.010399085952716686 -0.0071532375772179763 0 0.0091443768091350758 -0.0055999870223733036 0 0.0098671251304194539 -0.0067371120197184621 0 0.0089200604230965617 -0.0056064634746500162 0 0.0092876851661571301 -0.0056966900742684264 0 0.009229244743839812 -0.0060184205306438839 0 0.0091443768091350758 -0.0055999870223733036 0 0.0085827807670251222 -0.0048251775447525642 0 0.0092876851661571301 -0.0056966900742684264 0 0.009229244743839812 -0.0060184205306438839 0 0.0094355839411102045 -0.0058910502978429336 0 0.010282648569304048 -0.0071285468836883373 0 0.010425520682384604 -0.0070980604584056691 0 0.010261727602326742 -0.0070324929860564687 0 0.010399085952716686 -0.0071532375772179763 0 0.010282648569304048 -0.0071285468836883373 0 0.010425520682384604 -0.0070980604584056691 0 0.010839666287284309 -0.0075306958730084325 0 0.011281564353403281 -0.0076348865812329364 0 0.011004799640349498 -0.0070690882641366512 0 0.010839666287284309 -0.0075306958730084325 0 0.011281564353403281 -0.0076348865812329364 0 0.011322835471782759 -0.0080801636480429314 0 0.010402123259616413 -0.0071944308209233318 0 0.010399085952716686 -0.0071532375772179763 0 0.010477330351433939 -0.0071760061927588874 0 0.010725081847774319 -0.00748149323193308 0 0.010612692603474099 -0.0067987432958633446 0 0.010399085952716686 -0.0071532375772179763 0 0.010425520682384604 -0.0070980604584056691 0 0.010477330351433939 -0.0071760061927588874 0 0.011576456865301803 -0.0067971791058347953 0 0.010612692603474099 -0.0067987432958633446 0 0.012066479438491741 -0.0079029094114381714 0 0.011281564353403281 -0.0076348865812329364 0 0.011322835471782759 -0.0080801636480429314 0 0.012066479438491741 -0.0079029094114381714 0 0.011281564353403281 -0.0076348865812329364 0 0.01158359756595346 -0.007299406735217358 0 0.011281564353403281 -0.0076348865812329364 0 0.01158359756595346 -0.007299406735217358 0 0.011004799640349498 -0.0070690882641366512 0 0.01158359756595346 -0.007299406735217358 0 0.011004799640349498 -0.0070690882641366512 0 0.011369632329273661 -0.0065450949673878248 0 0.011004799640349498 -0.0070690882641366512 0 0.011369632329273661 -0.0065450949673878248 0 0.010624541813419132 -0.0065104480100183007 0 0.011867680814721485 -0.0069405112380871896 0 0.01158359756595346 -0.007299406735217358 0 0.011369632329273661 -0.0065450949673878248 0 0.012242884487339342 -0.011226867227248385 0 0.011939788812850917 -0.01162357322739032 0 0.011875183296170584 -0.011281915943862587 0 0.011433015009636036 -0.0091546400611706852 0 0.011034363992930804 -0.0090354185635062364 0 0.011939788812850917 -0.01162357322739032 0 0.011875183296170584 -0.011281915943862587 0 0.011420298604242513 -0.011614862248866216 0 0.011666838969772924 -0.010937435735155864 0 0.011875183296170584 -0.011281915943862587 0 0.011511604501478074 -0.011218101666200384 0 0.011875183296170584 -0.011281915943862587 0 0.011511604501478074 -0.011218101666200384 0 0.011420298604242513 -0.011614862248866216 0 0.012061945944353563 -0.010793806104575409 0 0.012242884487339342 -0.011226867227248385 0 0.011875183296170584 -0.011281915943862587 0 0.01136419016910315 -0.010966903088262203 0 0.011088547475865086 -0.011048963517132223 0 0.011229505175822311 -0.011324891881536299 0 0.011088547475865086 -0.011048963517132223 0 0.011229505175822311 -0.011324891881536299 0 0.010922186117065009 -0.011314684778718722 0 0.01136419016910315 -0.010966903088262203 0 0.011229505175822311 -0.011324891881536299 0 0.011511604501478074 -0.011218101666200384 0 0.011229505175822311 -0.011324891881536299 0 0.011511604501478074 -0.011218101666200384 0 0.011420298604242513 -0.011614862248866216 0 0.010624541813419132 -0.0065104480100183007 0 0.010270843431268344 -0.0067070405760855595 0 0.010084814810122557 -0.0065577272458485318 0 0.011034363992930804 -0.0090354185635062364 0 0.010638244245736991 -0.0092394088790670546 0 0.011229505175822311 -0.011324891881536299 0 0.011420298604242513 -0.011614862248866216 0 0.010848780567388623 -0.011604549081703842 0 0.011229505175822311 -0.011324891881536299 0 0.010848780567388623 -0.011604549081703842 0 0.010922186117065009 -0.011314684778718722 0 0.010624541813419132 -0.0065104480100183007 0 0.010270843431268344 -0.0067070405760855595 0 0.010367241511965388 -0.0069521730823713891 0 0.010270843431268344 -0.0067070405760855595 0 0.010367241511965388 -0.0069521730823713891 0 0.010080025437978613 -0.006763186375092072 0 0.011004799640349498 -0.0070690882641366512 0 0.010624541813419132 -0.0065104480100183007 0 0.010367241511965388 -0.0069521730823713891 0 0.010725081847774319 -0.00748149323193308 0 0.010329698801411881 -0.0069029762224611249 0 0.010839666287284309 -0.0075306958730084325 0 0.011004799640349498 -0.0070690882641366512 0 0.010367241511965388 -0.0069521730823713891 0 0.010425520682384604 -0.0070980604584056691 0 0.010261727602326742 -0.0070324929860564687 0 0.010367241511965388 -0.0069521730823713891 0 0.010261727602326742 -0.0070324929860564687 0 0.010367241511965388 -0.0069521730823713891 0 0.010091025802028971 -0.0069830244240036326 0 0.010367241511965388 -0.0069521730823713891 0 0.010091025802028971 -0.0069830244240036326 0 0.010080025437978613 -0.006763186375092072 0 0.007405386651581667 -0.0049790719546850418 0 0.007543928490030891 -0.0048331428208611849 0 0.0073506552665211673 -0.0047305231793119754 0 0.0085046683461302616 -0.0053592464325395777 0 0.0086311513690474576 -0.0056551186771685259 0 0.0095579977286354457 -0.0064214988014393839 0 0.0098819286165248797 -0.0066239895604307325 0 0.009781824988121789 -0.0062321469091563006 0 0.0095579977286354457 -0.0064214988014393839 0 0.0098605184386336628 -0.0066789653929322642 0 0.0098819286165248797 -0.0066239895604307325 0 0.0097987312239680609 -0.0066539153456713915 0 0.0098618957752043337 -0.0066978804416791774 0 0.0098605184386336628 -0.0066789653929322642 0 0.0098819286165248797 -0.0066239895604307325 0 0.009792709291106096 -0.0066302804879711632 0 0.010091025802028971 -0.0069830244240036326 0 0.0098605184386336628 -0.0066789653929322642 0 0.010080025437978613 -0.006763186375092072 0 0.0098605184386336628 -0.0066789653929322642 0 0.010080025437978613 -0.006763186375092072 0 0.010084814810122557 -0.0065577272458485318 0 0.010270843431268344 -0.0067070405760855595 0 0.010080025437978613 -0.006763186375092072 0 0.010084814810122557 -0.0065577272458485318 0 0.010848780567388623 -0.011604549081703842 0 0.010631675496564616 -0.011389092596779322 0 0.010922186117065009 -0.011314684778718722 0 0.0098605184386336628 -0.0066789653929322642 0 0.010084814810122557 -0.0065577272458485318 0 0.009792709291106096 -0.0066302804879711632 0 0.010631675496564616 -0.011389092596779322 0 0.01039060650965914 -0.011333555292418907 0 0.010232682115293844 -0.011540159071226814 0 0.010848780567388623 -0.011604549081703842 0 0.010631675496564616 -0.011389092596779322 0 0.010232682115293844 -0.011540159071226814 0 0.010638244245736991 -0.0092394088790670546 0 0.0092874071683483935 -0.0079659970872520032 0 0.01039060650965914 -0.011333555292418907 0 0.0104962730713738 -0.011189709370126501 0 0.010151820317635549 -0.011149249544835938 0 0.010631675496564616 -0.011389092596779322 0 0.01039060650965914 -0.011333555292418907 0 0.0104962730713738 -0.011189709370126501 0 0.010631675496564616 -0.011389092596779322 0 0.0104962730713738 -0.011189709370126501 0 0.0107684231404122 -0.011158547709696412 0 0.010636126620954941 -0.011098428643210418 0 0.0104962730713738 -0.011189709370126501 0 0.0107684231404122 -0.011158547709696412 0 0.011088547475865086 -0.011048963517132223 0 0.0107684231404122 -0.011158547709696412 0 0.010922186117065009 -0.011314684778718722 0 0.010631675496564616 -0.011389092596779322 0 0.0107684231404122 -0.011158547709696412 0 0.010922186117065009 -0.011314684778718722 0 0.0080029091091596821 -0.011395801033327678 0 0.0093100059004794216 -0.011154675768456144 0 0.0087454781566690901 -0.011660457467862166 0 0.0081485293110926654 -0.012416309816363368 0 0.0094410510619235971 -0.011879392927111468 0 0.0084119199886881334 -0.01033788806077943 0 0.0079976483577204639 -0.010187531117090622 0 0.0086113861374775853 -0.0099432509498665819 0 0.0084119199886881334 -0.01033788806077943 0 0.0079976483577204639 -0.010187531117090622 0 0.0080201098397150242 -0.010510792595386261 0 0.0087454781566690901 -0.011660457467862166 0 0.0082392914609791014 -0.011405945038808837 0 0.0081485293110926654 -0.012416309816363368 0 0.01039060650965914 -0.011333555292418907 0 0.010151820317635549 -0.011149249544835938 0 0.010240618488886678 -0.011448188093929267 0 0.0093100059004794216 -0.011154675768456144 0 0.0093685907366988144 -0.009948546792483328 0 0.0084119199886881334 -0.01033788806077943 0 0.0086113861374775853 -0.0099432509498665819 0 0.0087692888457840262 -0.010476975431431057 0 0.009942355648610568 -0.010939660754122 0 0.0093685907366988144 -0.009948546792483328 0 0.0084119199886881334 -0.01033788806077943 0 0.0086548099199327509 -0.010570744704071905 0 0.0087692888457840262 -0.010476975431431057 0 0.01039060650965914 -0.011333555292418907 0 0.01021085821670906 -0.011466691106142421 0 0.010232682115293844 -0.011540159071226814 0 0.0090018194800637174 -0.0085724340904469003 0 0.0094905122144853735 -0.0081686519571366883 0 0.0096299111400743372 -0.0086395628038374046 0 0.0085464715709333335 -0.0083950960925856001 0 0.0092874071683483935 -0.0079659970872520032 0 0.0085464715709333335 -0.0083950960925856001 0 0.0093685907366988144 -0.009948546792483328 0 0.0093685907366988144 -0.009948546792483328 0 0.0092874071683483935 -0.0079659970872520032 0 0.0075331914925410807 -0.0052468426959233492 0 0.0074775362406869477 -0.0052433776390144746 0 0.0075164221982990257 -0.0050824012375991915 0 0.0078285364991888644 -0.0082426785194557994 0 0.0076070767243709772 -0.0082226539313574841 0 0.0075806305379138347 -0.0084298493356834477 0 0.0085464715709333335 -0.0083950960925856001 0 0.0078382512111190225 -0.0093703247617583901 0 0.0084119199886881334 -0.01033788806077943 0 0.0086548099199327509 -0.010570744704071905 0 0.0080201098397150242 -0.010510792595386261 0 0.0085464715709333335 -0.0083950960925856001 0 0.0075085321950809601 -0.0064316188258572065 0 0.0075331914925410807 -0.0052468426959233492 0 0.0077452782474269179 -0.0050017862510745512 0 0.0075164221982990257 -0.0050824012375991915 0 0.0077452782474269179 -0.0050017862510745512 0 0.0075164221982990257 -0.0050824012375991915 0 0.007543928490030891 -0.0048331428208611849 0 0.007405386651581667 -0.0049790719546850418 0 0.0075164221982990257 -0.0050824012375991915 0 0.007543928490030891 -0.0048331428208611849 0 0.007405386651581667 -0.0049790719546850418 0 0.0074775362406869477 -0.0052433776390144746 0 0.0075164221982990257 -0.0050824012375991915 0 0.0085046683461302616 -0.0053592464325395777 0 0.0092874071683483935 -0.0079659970872520032 0 0.0077452782474269179 -0.0050017862510745512 0 0.007543928490030891 -0.0048331428208611849 0 0.0076765386193521521 -0.0046784384016772861 0 0.0077452782474269179 -0.0050017862510745512 0 0.0076765386193521521 -0.0046784384016772861 0 0.0078013832754381656 -0.0047256268511246813 0 0.0076765386193521521 -0.0046784384016772861 0 0.0076447397655358997 -0.0045227310837043198 0 0.0075549352062478613 -0.0045322242451665481 0 0.0076765386193521521 -0.0046784384016772861 0 0.0076447397655358997 -0.0045227310837043198 0 0.0077414062268889826 -0.0045654870732146436 0 0.0076447397655358997 -0.0045227310837043198 0 0.0076640208291284557 -0.0044421253000854841 0 0.0077414062268889826 -0.0045654870732146436 0 0.0076447397655358997 -0.0045227310837043198 0 0.0076640208291284557 -0.0044421253000854841 0 0.0076115495520994465 -0.0044401855141585553 0 0.0075549352062478613 -0.0045322242451665481 0 0.0076115495520994465 -0.0044401855141585553 0 0.0075825362771373764 -0.0044390784288375722 0 0.0076447397655358997 -0.0045227310837043198 0 0.0075549352062478613 -0.0045322242451665481 0 0.0076115495520994465 -0.0044401855141585553 0 0.007543928490030891 -0.0048331428208611849 0 0.0076765386193521521 -0.0046784384016772861 0 0.0075549352062478613 -0.0045322242451665481 0 0.007543928490030891 -0.0048331428208611849 0 0.0075549352062478613 -0.0045322242451665481 0 0.0073506552665211673 -0.0047305231793119754 0 0.0086311513690474576 -0.0056551186771685259 0 0.0081510201059049013 -0.0047178174449457114 0 0.0075549352062478613 -0.0045322242451665481 0 0.0073506552665211673 -0.0047305231793119754 0 0.0072877431259726101 -0.0044758879720799153 0 0.009781824988121789 -0.0062321469091563006 0 0.0095329069641884399 -0.0060714045597652175 0 0.0096536581352364183 -0.0057853287829335619 0 0.009229244743839812 -0.0060184205306438839 0 0.0095579977286354457 -0.0064214988014393839 0 0.0095329069641884399 -0.0060714045597652175 0 0.010282648569304048 -0.0071285468836883373 0 0.010261727602326742 -0.0070324929860564687 0 0.010091025802028971 -0.0069830244240036326 0 0.0098671251304194539 -0.0067371120197184621 0 0.0097987312239680609 -0.0066539153456713915 0 0.0095579977286354457 -0.0064214988014393839 0 0.009781824988121789 -0.0062321469091563006 0 0.0095329069641884399 -0.0060714045597652175 0 0.009229244743839812 -0.0060184205306438839 0 0.0095329069641884399 -0.0060714045597652175 0 0.0094355839411102045 -0.0058910502978429336 0 0.0079384639045917051 -0.0039862416163903205 0 0.0078408345650387897 -0.0039706632018131722 0 0.0078862120101704705 -0.0040684914920278044 0 0.0092876851661571301 -0.0056966900742684264 0 0.0094355839411102045 -0.0058910502978429336 0 0.0096536581352364183 -0.0057853287829335619 0 0.0085827807670251222 -0.0048251775447525642 0 0.0081510201059049013 -0.0047178174449457114 0 0.0095329069641884399 -0.0060714045597652175 0 0.0094355839411102045 -0.0058910502978429336 0 0.0096536581352364183 -0.0057853287829335619 0 0.0072597033146433463 -0.0044376648322364282 0 0.0081510201059049013 -0.0047178174449457114 0 0.0075549352062478613 -0.0045322242451665481 0 0.0075672921528129582 -0.00444552769697456 0 0.0075825362771373764 -0.0044390784288375722 0 0.0075672921528129582 -0.00444552769697456 0 0.0076024458012214002 -0.0043992581526200092 0 0.0075825362771373764 -0.0044390784288375722 0 0.0076024458012214002 -0.0043992581526200092 0 0.0075825362771373764 -0.0044390784288375722 0 0.007607598769335742 -0.0043951301625556266 0 0.0081510201059049013 -0.0047178174449457114 0 0.0076773113910960315 -0.0041159537677085333 0 0.0078408345650387897 -0.0039706632018131722 0 0.0078862120101704705 -0.0040684914920278044 0 0.0078614841212099051 -0.0041090433101163698 0 0.0075672921528129582 -0.00444552769697456 0 0.0076024458012214002 -0.0043992581526200092 0 0.0076352073425560094 -0.004357868251645778 0 0.0079513536056853348 -0.0041765146335829631 0 0.0078614841212099051 -0.0041090433101163698 0 0.0078487422995175901 -0.0043552138235282215 0 0.0079235278408639892 -0.0041143448277290223 0 0.0078862120101704705 -0.0040684914920278044 0 0.0078614841212099051 -0.0041090433101163698 0 0.0079513536056853348 -0.0041765146335829631 0 0.0079235278408639892 -0.0041143448277290223 0 0.0078614841212099051 -0.0041090433101163698 0 0.0076024458012214002 -0.0043992581526200092 0 0.0076291109297410408 -0.0043664912653239088 0 0.007607598769335742 -0.0043951301625556266 0 0.0076024458012214002 -0.0043992581526200092 0 0.0076352073425560094 -0.004357868251645778 0 0.0076291109297410408 -0.0043664912653239088 0 0.0076352073425560094 -0.004357868251645778 0 0.0076291109297410408 -0.0043664912653239088 0 0.0076869914669592965 -0.0043603080131628096 0 0.0076291109297410408 -0.0043664912653239088 0 0.0076098317619167693 -0.0043774758580243725 0 0.007607598769335742 -0.0043951301625556266 0 0.0076098317619167693 -0.0043774758580243725 0 0.0076278443271108731 -0.0044020101043091972 0 0.007607598769335742 -0.0043951301625556266 0 0.0076098317619167693 -0.0043774758580243725 0 0.0076278443271108731 -0.0044020101043091972 0 0.0076089680284340761 -0.0043787286772065965 0 0.0076640208291284557 -0.0044421253000854841 0 0.0076278443271108731 -0.0044020101043091972 0 0.0076115495520994465 -0.0044401855141585553 0 0.0076278443271108731 -0.0044020101043091972 0 0.0076115495520994465 -0.0044401855141585553 0 0.007607598769335742 -0.0043951301625556266 0 0.0076115495520994465 -0.0044401855141585553 0 0.0075825362771373764 -0.0044390784288375722 0 0.007607598769335742 -0.0043951301625556266 0 0.0075963345205932236 -0.0043810164160642392 0 0.0076234750703423285 -0.0043798706781344775 0 0.0075977246488602105 -0.0044058188702749456 0 0.007554115431521435 -0.0044307984701365839 0 0.0077529863880460492 -0.0043907528481464233 0 0.0075643649404513276 -0.0043899668566981485 0 0.0075963345205932236 -0.0043810164160642392 0 0.0075977246488602105 -0.0044058188702749456 0 0.0076098317619167693 -0.0043774758580243725 0 0.0075963345205932236 -0.0043810164160642392 0 0.0076089680284340761 -0.0043787286772065965 0 0.0075643649404513276 -0.0043899668566981485 0 0.0075963345205932236 -0.0043810164160642392 0 0.0076089680284340761 -0.0043787286772065965 0 0.0076098317619167693 -0.0043774758580243725 0 0.0075963345205932236 -0.0043810164160642392 0 0.0076234750703423285 -0.0043798706781344775 0 0.0076291109297410408 -0.0043664912653239088 0 0.0076098317619167693 -0.0043774758580243725 0 0.0076234750703423285 -0.0043798706781344775 0 0.0076291109297410408 -0.0043664912653239088 0 0.0076234750703423285 -0.0043798706781344775 0 0.0076869914669592965 -0.0043603080131628096 0 0.0076234750703423285 -0.0043798706781344775 0 0.0076869914669592965 -0.0043603080131628096 0 0.0077236097476871459 -0.0043960236571084742 0 0.0076773113910960315 -0.0041159537677085333 0 0.0078675618952384584 -0.0044217099777218646 0 0.0076352073425560094 -0.004357868251645778 0 0.0076869914669592965 -0.0043603080131628096 0 0.0078487422995175901 -0.0043552138235282215 0 0.0076869914669592965 -0.0043603080131628096 0 0.0077236097476871459 -0.0043960236571084742 0 0.0078487422995175901 -0.0043552138235282215 0 0.0077269626103733174 -0.0044923469587767381 0 0.0077236097476871459 -0.0043960236571084742 0 0.0079023163303451483 -0.0044934316669344833 0 0.0077236097476871459 -0.0043960236571084742 0 0.0079023163303451483 -0.0044934316669344833 0 0.0078487422995175901 -0.0043552138235282215 0 0.0076234750703423285 -0.0043798706781344775 0 0.0077269626103733174 -0.0044923469587767381 0 0.0074949484036230581 -0.0045269315784664766 0 0.0076234750703423285 -0.0043798706781344775 0 0.0077269626103733174 -0.0044923469587767381 0 0.0077236097476871459 -0.0043960236571084742 0 0.0077269626103733174 -0.0044923469587767381 0 0.0076675936565596308 -0.0046175486863613219 0 0.0074949484036230581 -0.0045269315784664766 0 0.0077269626103733174 -0.0044923469587767381 0 0.0078720403785549585 -0.0046392172744087077 0 0.0079023163303451483 -0.0044934316669344833 0 0.0077269626103733174 -0.0044923469587767381 0 0.0076675936565596308 -0.0046175486863613219 0 0.0078720403785549585 -0.0046392172744087077 0 0.0076675936565596308 -0.0046175486863613219 0 0.0078720403785549585 -0.0046392172744087077 0 0.0077215267289354609 -0.0047499658347967049 0 0.0078720403785549585 -0.0046392172744087077 0 0.0078474410660008664 -0.0047746706850648061 0 0.0077215267289354609 -0.0047499658347967049 0 0.0076675936565596308 -0.0046175486863613219 0 0.0077215267289354609 -0.0047499658347967049 0 0.0075400125839734213 -0.004692597713211598 0 0.0077215267289354609 -0.0047499658347967049 0 0.0075400125839734213 -0.004692597713211598 0 0.007522392916158427 -0.0048922018436969132 0 0.0075400125839734213 -0.004692597713211598 0 0.0073320340255254753 -0.0047138780000197588 0 0.0073903176916466154 -0.00477820773376146 0 0.0075400125839734213 -0.004692597713211598 0 0.0074949484036230581 -0.0045269315784664766 0 0.0073320340255254753 -0.0047138780000197588 0 0.0076675936565596308 -0.0046175486863613219 0 0.0075400125839734213 -0.004692597713211598 0 0.0074949484036230581 -0.0045269315784664766 0 0.0077529863880460492 -0.0043907528481464233 0 0.0059441281520375986 -0.004567254170680198 0 0.0043664742294104676 -0.0042113846760578706 0 0.0059441281520375986 -0.004567254170680198 0 0.0015442163828288833 -0.0041253622048925739 0 0.0016620368013000664 -0.0042984472507732307 0 0.0015312568985731759 -0.004232185445952958 0 0.0075643649404513276 -0.0043899668566981485 0 0.0075977246488602105 -0.0044058188702749456 0 0.0075495363561441636 -0.0044488974163933333 0 0.0016620368013000664 -0.0042984472507732307 0 0.0015733152797203001 -0.0043197409370813542 0 0.0015312568985731759 -0.004232185445952958 0 0.0059441281520375986 -0.004567254170680198 0 0.0060918173186720491 -0.0046831350103184481 0 0.0073320340255254753 -0.0047138780000197588 0 0.0073346715793781011 -0.0047428800201592706 0 0.0073903176916466154 -0.00477820773376146 0 0.0016620368013000664 -0.0042984472507732307 0 0.0015733152797203001 -0.0043197409370813542 0 0.0016038869512467833 -0.0044395887685463641 0 0.0073259597890074244 -0.0047094902098623699 0 0.0073346715793781011 -0.0047428800201592706 0 0.0072145838540941375 -0.0048615977847616008 0 0.0059441281520375986 -0.004567254170680198 0 0.0045485163257140545 -0.0036716849103911472 0 0.0080198403713255956 -0.0026483884965080727 0 0.0045485163257140545 -0.0036716849103911472 0 0.0073903176916466154 -0.00477820773376146 0 0.007522392916158427 -0.0048922018436969132 0 0.0072145838540941375 -0.0048615977847616008 0 0.0074974714650641117 -0.00058241305677029988 0 0.007035885954070893 -0.00080272348129240207 0 0.0066360718757465425 -0.00048445621380779788 0 0.0073346715793781011 -0.0047428800201592706 0 0.0073903176916466154 -0.00477820773376146 0 0.0072145838540941375 -0.0048615977847616008 0 0.0075400125839734213 -0.004692597713211598 0 0.0073903176916466154 -0.00477820773376146 0 0.007522392916158427 -0.0048922018436969132 0 0.0074974714650641117 -0.00058241305677029988 0 0.0075848913947883798 -0.0010640539058621589 0 0.007035885954070893 -0.00080272348129240207 0 0.0075848913947883798 -0.0010640539058621589 0 0.007035885954070893 -0.00080272348129240207 0 0.0070901339164965993 -0.0012859302826097147 0 0.007035885954070893 -0.00080272348129240207 0 0.0070901339164965993 -0.0012859302826097147 0 0.0062520204577203265 -0.0010942500188954383 0 0.0070901339164965993 -0.0012859302826097147 0 0.0067805202398487797 -0.0016341878388706804 0 0.0072486315918491185 -0.0018309041396977871 0 0.0070901339164965993 -0.0012859302826097147 0 0.0067805202398487797 -0.0016341878388706804 0 0.0062520204577203265 -0.0010942500188954383 0 0.0070901339164965993 -0.0012859302826097147 0 0.0072486315918491185 -0.0018309041396977871 0 0.007730698049591183 -0.0016125977719729169 0 0.0075848913947883798 -0.0010640539058621589 0 0.0070901339164965993 -0.0012859302826097147 0 0.007730698049591183 -0.0016125977719729169 0 0.0072486315918491185 -0.0018309041396977871 0 0.0076723874194592027 -0.0020822568860884077 0 0.0072429019031036556 -0.002496196233507636 0 0.0072486315918491185 -0.0018309041396977871 0 0.0076723874194592027 -0.0020822568860884077 0 0.007730698049591183 -0.0016125977719729169 0 0.0072486315918491185 -0.0018309041396977871 0 0.0067981998328586713 -0.0020865784223812875 0 0.0072429019031036556 -0.002496196233507636 0 0.0067805202398487797 -0.0016341878388706804 0 0.0072486315918491185 -0.0018309041396977871 0 0.0067981998328586713 -0.0020865784223812875 0 0.0083081644437403637 -0.0016908745748186523 0 0.008784596871304437 -0.0014846713753369914 0 0.0087991370586365542 -0.0019917709011519867 0 0.0083081644437403637 -0.0016908745748186523 0 0.0081966126600721972 -0.0021128600690566391 0 0.0087991370586365542 -0.0019917709011519867 0 0.0076723874194592027 -0.0020822568860884077 0 0.0081966126600721972 -0.0021128600690566391 0 0.007730698049591183 -0.0016125977719729169 0 0.0083081644437403637 -0.0016908745748186523 0 0.0081966126600721972 -0.0021128600690566391 0 0.007730698049591183 -0.0016125977719729169 0 0.0075848913947883798 -0.0010640539058621589 0 0.0080480851605925254 -0.0012651581147347126 0 0.007730698049591183 -0.0016125977719729169 0 0.0083081644437403637 -0.0016908745748186523 0 0.0080480851605925254 -0.0012651581147347126 0 0.007730698049591183 -0.0016125977719729169 0 0.0080480851605925254 -0.0012651581147347126 0 0.0090645506195365655 -0.00098634401259370223 0 0.008784596871304437 -0.0014846713753369914 0 0.00808161026307847 -0.0012744916949629758 0 0.0089284006996093596 -0.00097045167240931724 0 0.0083081644437403637 -0.0016908745748186523 0 0.0080480851605925254 -0.0012651581147347126 0 0.008784596871304437 -0.0014846713753369914 0 0.0080480851605925254 -0.0012651581147347126 0 0.0082816471334692891 -0.00071550138798443332 0 0.0087785664344642838 -0.0011015132370328813 0 0.0074974714650641117 -0.00058241305677029988 0 0.0075848913947883798 -0.0010640539058621589 0 0.0082816471334692891 -0.00071550138798443332 0 0.0075848913947883798 -0.0010640539058621589 0 0.0080480851605925254 -0.0012651581147347126 0 0.0082816471334692891 -0.00071550138798443332 0 0.0077215267289354609 -0.0047499658347967049 0 0.007522392916158427 -0.0048922018436969132 0 0.0077898348112326139 -0.0049274269394163758 0 0.0080198403713255956 -0.0026483884965080727 0 0.007925575306248555 -0.0028150949268374533 0 0.0078474410660008664 -0.0047746706850648061 0 0.0077215267289354609 -0.0047499658347967049 0 0.0077898348112326139 -0.0049274269394163758 0 0.0078474410660008664 -0.0047746706850648061 0 0.0077898348112326139 -0.0049274269394163758 0 0.0080082055227529668 -0.0047855639867338054 0 0.0077898348112326139 -0.0049274269394163758 0 0.0080670351292516391 -0.0049653867289559646 0 0.0080082055227529668 -0.0047855639867338054 0 0.0081394067834199713 -0.0048055273187132298 0 0.008218399961751853 -0.0048868719305019239 0 0.0080670351292516391 -0.0049653867289559646 0 0.0081394067834199713 -0.0048055273187132298 0 0.0080670351292516391 -0.0049653867289559646 0 0.0080082055227529668 -0.0047855639867338054 0 0.008218399961751853 -0.0048868719305019239 0 0.0080670351292516391 -0.0049653867289559646 0 0.008299461209032381 -0.0049665549046751713 0 0.0081394067834199713 -0.0048055273187132298 0 0.008218399961751853 -0.0048868719305019239 0 0.0082694443549942327 -0.0048059397466894719 0 0.0090645506195365655 -0.00098634401259370223 0 0.0096932416086185462 -0.0011007003286620854 0 0.010016836631002418 -0.00081748483531861771 0 0.0089284006996093596 -0.00097045167240931724 0 0.0097117981894806436 -0.0014350646378858925 0 0.0084938587097992263 -0.0030003401653252463 0 0.0091615703009447456 -0.0022865449613198607 0 0.0089358535864526457 -0.00084264547758609106 0 0.0087785664344642838 -0.0011015132370328813 0 0.0094464580514136334 -0.0009741759372172697 0 0.0080670351292516391 -0.0049653867289559646 0 0.0084048456420681636 -0.0050615306556525061 0 0.008299461209032381 -0.0049665549046751713 0 0.007925575306248555 -0.0028150949268374533 0 0.0084938587097992263 -0.0030003401653252463 0 0.0082816471334692891 -0.00071550138798443332 0 0.0089358535864526457 -0.00084264547758609106 0 0.0087785664344642838 -0.0011015132370328813 0 0.008784596871304437 -0.0014846713753369914 0 0.0092931503883266365 -0.0012843999331313735 0 0.0091047926757340854 -0.0016443119896031428 0 0.0090645506195365655 -0.00098634401259370223 0 0.008784596871304437 -0.0014846713753369914 0 0.0092931503883266365 -0.0012843999331313735 0 0.0090645506195365655 -0.00098634401259370223 0 0.0092931503883266365 -0.0012843999331313735 0 0.0096932416086185462 -0.0011007003286620854 0 0.0092931503883266365 -0.0012843999331313735 0 0.0096932416086185462 -0.0011007003286620854 0 0.0097045954942379942 -0.0013041859406480499 0 0.0097045954942379942 -0.0013041859406480499 0 0.0095272295017700508 -0.0015734843011950142 0 0.0098600952641408491 -0.0014953995113525203 0 0.0092931503883266365 -0.0012843999331313735 0 0.0097045954942379942 -0.0013041859406480499 0 0.0095272295017700508 -0.0015734843011950142 0 0.0092931503883266365 -0.0012843999331313735 0 0.0095272295017700508 -0.0015734843011950142 0 0.0091047926757340854 -0.0016443119896031428 0 0.0095272295017700508 -0.0015734843011950142 0 0.0093402504351684616 -0.0019445834392568821 0 0.0091047926757340854 -0.0016443119896031428 0 0.0095272295017700508 -0.0015734843011950142 0 0.0098424375085313463 -0.0018369217235208151 0 0.0098600952641408491 -0.0014953995113525203 0 0.0095272295017700508 -0.0015734843011950142 0 0.0093402504351684616 -0.0019445834392568821 0 0.0098424375085313463 -0.0018369217235208151 0 0.0093402504351684616 -0.0019445834392568821 0 0.0098424375085313463 -0.0018369217235208151 0 0.0096521197148112144 -0.0021462815590082298 0 0.008784596871304437 -0.0014846713753369914 0 0.0087991370586365542 -0.0019917709011519867 0 0.0091047926757340854 -0.0016443119896031428 0 0.0093402504351684616 -0.0019445834392568821 0 0.0087991370586365542 -0.0019917709011519867 0 0.009240179232230035 -0.0022904742207567512 0 0.0093402504351684616 -0.0019445834392568821 0 0.0087991370586365542 -0.0019917709011519867 0 0.0091047926757340854 -0.0016443119896031428 0 0.010380592455123249 -0.0018196699587437466 0 0.010928165069666495 -0.0019261742340137432 0 0.010525033707262235 -0.0022490827356010357 0 0.010380592455123249 -0.0018196699587437466 0 0.010683892041104691 -0.0014945933754761953 0 0.010928165069666495 -0.0019261742340137432 0 0.010380592455123249 -0.0018196699587437466 0 0.0098424375085313463 -0.0018369217235208151 0 0.010036668679111842 -0.0022685301008881819 0 0.010380592455123249 -0.0018196699587437466 0 0.0098424375085313463 -0.0018369217235208151 0 0.010158356164535164 -0.0015469001299101878 0 0.0098424375085313463 -0.0018369217235208151 0 0.010158356164535164 -0.0015469001299101878 0 0.0098600952641408491 -0.0014953995113525203 0 0.010158356164535164 -0.0015469001299101878 0 0.010059688190941699 -0.0012175955176112448 0 0.01041162363134315 -0.0013532223587608024 0 0.010158356164535164 -0.0015469001299101878 0 0.0098600952641408491 -0.0014953995113525203 0 0.010059688190941699 -0.0012175955176112448 0 0.0097045954942379942 -0.0013041859406480499 0 0.0098600952641408491 -0.0014953995113525203 0 0.010059688190941699 -0.0012175955176112448 0 0.0096932416086185462 -0.0011007003286620854 0 0.010059688190941699 -0.0012175955176112448 0 0.0099960829651991115 -0.0010357950801958163 0 0.0096932416086185462 -0.0011007003286620854 0 0.0097045954942379942 -0.0013041859406480499 0 0.010059688190941699 -0.0012175955176112448 0 0.010059688190941699 -0.0012175955176112448 0 0.010360184581058886 -0.0011235942650418356 0 0.010207388414884758 -0.0010081542942785798 0 0.010059688190941699 -0.0012175955176112448 0 0.010360184581058886 -0.0011235942650418356 0 0.01041162363134315 -0.0013532223587608024 0 0.010360184581058886 -0.0011235942650418356 0 0.01041162363134315 -0.0013532223587608024 0 0.010664624668968201 -0.0011287037592213032 0 0.010380592455123249 -0.0018196699587437466 0 0.010158356164535164 -0.0015469001299101878 0 0.01041162363134315 -0.0013532223587608024 0 0.010380592455123249 -0.0018196699587437466 0 0.01041162363134315 -0.0013532223587608024 0 0.010683892041104691 -0.0014945933754761953 0 0.01041162363134315 -0.0013532223587608024 0 0.010683892041104691 -0.0014945933754761953 0 0.010664624668968201 -0.0011287037592213032 0 0.0084048456420681636 -0.0050615306556525061 0 0.0091077403932311399 -0.0046958395550127834 0 0.0095530429026475273 -0.0048170080920499295 0 0.010664624668968201 -0.0011287037592213032 0 0.010711604773079409 -0.00090743969220549215 0 0.010447713174387099 -0.00091550437971026804 0 0.010664624668968201 -0.0011287037592213032 0 0.010711604773079409 -0.00090743969220549215 0 0.010857158556462737 -0.00090814570098801662 0 0.010447713174387099 -0.00091550437971026804 0 0.010155152269200657 -0.00079726734880524537 0 0.010877256846058734 -0.00067546689370425611 0 0.0091615703009447456 -0.0022865449613198607 0 0.010501243493049383 -0.0024629271413668524 0 0.010360184581058886 -0.0011235942650418356 0 0.010447713174387099 -0.00091550437971026804 0 0.010207388414884758 -0.0010081542942785798 0 0.010360184581058886 -0.0011235942650418356 0 0.010664624668968201 -0.0011287037592213032 0 0.010447713174387099 -0.00091550437971026804 0 0.010711604773079409 -0.00090743969220549215 0 0.010447713174387099 -0.00091550437971026804 0 0.010877256846058734 -0.00067546689370425611 0 0.0089358535864526457 -0.00084264547758609106 0 0.009552082762345461 -0.00095562250716234277 0 0.0094464580514136334 -0.0009741759372172697 0 0.0096932416086185462 -0.0011007003286620854 0 0.0099960829651991115 -0.0010357950801958163 0 0.010016836631002418 -0.00081748483531861771 0 0.010447713174387099 -0.00091550437971026804 0 0.010207388414884758 -0.0010081542942785798 0 0.010016836631002418 -0.00081748483531861771 0 0.0099960829651991115 -0.0010357950801958163 0 0.010207388414884758 -0.0010081542942785798 0 0.010016836631002418 -0.00081748483531861771 0 0.010059688190941699 -0.0012175955176112448 0 0.0099960829651991115 -0.0010357950801958163 0 0.010207388414884758 -0.0010081542942785798 0 0.010447713174387099 -0.00091550437971026804 0 0.010155152269200657 -0.00079726734880524537 0 0.010016836631002418 -0.00081748483531861771 0 0.0084081661917670067 -0.0049360213668795342 0 0.0084048456420681636 -0.0050615306556525061 0 0.0089042274309720452 -0.0045975841913772162 0 0.0084081661917670067 -0.0049360213668795342 0 0.0083668847144555882 -0.004960375046304602 0 0.0084048456420681636 -0.0050615306556525061 0 0.0084081661917670067 -0.0049360213668795342 0 0.0083668847144555882 -0.004960375046304602 0 0.0083596307307600096 -0.0049210172005604959 0 0.0091615703009447456 -0.0022865449613198607 0 0.0097117981894806436 -0.0014350646378858925 0 0.0083668847144555882 -0.004960375046304602 0 0.0084048456420681636 -0.0050615306556525061 0 0.008299461209032381 -0.0049665549046751713 0 0.008218399961751853 -0.0048868719305019239 0 0.008299461209032381 -0.0049665549046751713 0 0.0083293977999009585 -0.0048756695387447676 0 0.008299461209032381 -0.0049665549046751713 0 0.0083596307307600096 -0.0049210172005604959 0 0.0083293977999009585 -0.0048756695387447676 0 0.0083668847144555882 -0.004960375046304602 0 0.008299461209032381 -0.0049665549046751713 0 0.0083596307307600096 -0.0049210172005604959 0 0.0084081661917670067 -0.0049360213668795342 0 0.0083596307307600096 -0.0049210172005604959 0 0.0084036027616658585 -0.0048624299889190098 0 0.0083596307307600096 -0.0049210172005604959 0 0.0083293977999009585 -0.0048756695387447676 0 0.0084036027616658585 -0.0048624299889190098 0 0.0083293977999009585 -0.0048756695387447676 0 0.0083852574213647973 -0.0048045933795807776 0 0.0084036027616658585 -0.0048624299889190098 0 0.008218399961751853 -0.0048868719305019239 0 0.0083293977999009585 -0.0048756695387447676 0 0.0082694443549942327 -0.0048059397466894719 0 0.0083293977999009585 -0.0048756695387447676 0 0.0083852574213647973 -0.0048045933795807776 0 0.0082694443549942327 -0.0048059397466894719 0 0.0084081661917670067 -0.0049360213668795342 0 0.0084036027616658585 -0.0048624299889190098 0 0.0085159247691164938 -0.0047816226184584105 0 0.008459886722173791 -0.0048642472736193038 0 0.0087014603817068305 -0.0044496042123251126 0 0.0084081661917670067 -0.0049360213668795342 0 0.0089042274309720452 -0.0045975841913772162 0 0.0090490713074253392 -0.0039570248313248796 0 0.0091077403932311399 -0.0046958395550127834 0 0.0089042274309720452 -0.0045975841913772162 0 0.0093132514037062887 -0.0043769071425137605 0 0.0091077403932311399 -0.0046958395550127834 0 0.0093132514037062887 -0.0043769071425137605 0 0.0095530429026475273 -0.0048170080920499295 0 0.0084048456420681636 -0.0050615306556525061 0 0.0091077403932311399 -0.0046958395550127834 0 0.0089042274309720452 -0.0045975841913772162 0 0.0083852574213647973 -0.0048045933795807776 0 0.0084036027616658585 -0.0048624299889190098 0 0.0085159247691164938 -0.0047816226184584105 0 0.0089042274309720452 -0.0045975841913772162 0 0.0093132514037062887 -0.0043769071425137605 0 0.0090490713074253392 -0.0039570248313248796 0 0.0093132514037062887 -0.0043769071425137605 0 0.0090490713074253392 -0.0039570248313248796 0 0.0096254973000401475 -0.0039117518811489357 0 0.0085159247691164938 -0.0047816226184584105 0 0.0085232972294453299 -0.0046493787962966033 0 0.0086977790895216549 -0.0045784410799375652 0 0.0083852574213647973 -0.0048045933795807776 0 0.0085159247691164938 -0.0047816226184584105 0 0.0084281507527224249 -0.0047350030338726675 0 0.0084281507527224249 -0.0047350030338726675 0 0.0085232972294453299 -0.0046493787962966033 0 0.0083922450076770443 -0.0046556530983803196 0 0.0085159247691164938 -0.0047816226184584105 0 0.0084281507527224249 -0.0047350030338726675 0 0.0085232972294453299 -0.0046493787962966033 0 0.0085232972294453299 -0.0046493787962966033 0 0.0085776696216017054 -0.0045505855892262219 0 0.0086977790895216549 -0.0045784410799375652 0 0.0085232972294453299 -0.0046493787962966033 0 0.0084659532043851599 -0.0045471585723866042 0 0.0085776696216017054 -0.0045505855892262219 0 0.0085232972294453299 -0.0046493787962966033 0 0.0084659532043851599 -0.0045471585723866042 0 0.0083922450076770443 -0.0046556530983803196 0 0.0084659532043851599 -0.0045471585723866042 0 0.0085776696216017054 -0.0045505855892262219 0 0.0085609172826108925 -0.0044862309632132478 0 0.0085776696216017054 -0.0045505855892262219 0 0.0085609172826108925 -0.0044862309632132478 0 0.0086394309644019715 -0.0044886764963965181 0 0.0083486183582493594 -0.0045716725118406971 0 0.0082250684749271014 -0.0044752809037757755 0 0.0083698007183329211 -0.0044749589497539363 0 0.0083486183582493594 -0.0045716725118406971 0 0.0082382030285125373 -0.0046244433430555464 0 0.0082250684749271014 -0.0044752809037757755 0 0.0084659532043851599 -0.0045471585723866042 0 0.0083486183582493594 -0.0045716725118406971 0 0.0083698007183329211 -0.0044749589497539363 0 0.0084659532043851599 -0.0045471585723866042 0 0.0083486183582493594 -0.0045716725118406971 0 0.0083922450076770443 -0.0046556530983803196 0 0.0083486183582493594 -0.0045716725118406971 0 0.0083922450076770443 -0.0046556530983803196 0 0.0082382030285125373 -0.0046244433430555464 0 0.0083922450076770443 -0.0046556530983803196 0 0.0083260537162488345 -0.004735668101950764 0 0.0082382030285125373 -0.0046244433430555464 0 0.0083260537162488345 -0.004735668101950764 0 0.0082097189566125387 -0.0047281939921545021 0 0.0082382030285125373 -0.0046244433430555464 0 0.0084281507527224249 -0.0047350030338726675 0 0.0083922450076770443 -0.0046556530983803196 0 0.0083260537162488345 -0.004735668101950764 0 0.0083852574213647973 -0.0048045933795807776 0 0.0084281507527224249 -0.0047350030338726675 0 0.0083260537162488345 -0.004735668101950764 0 0.0083852574213647973 -0.0048045933795807776 0 0.0082694443549942327 -0.0048059397466894719 0 0.0083260537162488345 -0.004735668101950764 0 0.0082694443549942327 -0.0048059397466894719 0 0.0083260537162488345 -0.004735668101950764 0 0.0082097189566125387 -0.0047281939921545021 0 0.0081394067834199713 -0.0048055273187132298 0 0.0082694443549942327 -0.0048059397466894719 0 0.0082097189566125387 -0.0047281939921545021 0 0.0081394067834199713 -0.0048055273187132298 0 0.0080640257525358104 -0.0046585343243980316 0 0.0080082055227529668 -0.0047855639867338054 0 0.0081394067834199713 -0.0048055273187132298 0 0.0082097189566125387 -0.0047281939921545021 0 0.0080640257525358104 -0.0046585343243980316 0 0.0082097189566125387 -0.0047281939921545021 0 0.0080640257525358104 -0.0046585343243980316 0 0.0082382030285125373 -0.0046244433430555464 0 0.0078720403785549585 -0.0046392172744087077 0 0.0080640257525358104 -0.0046585343243980316 0 0.0080082055227529668 -0.0047855639867338054 0 0.0078720403785549585 -0.0046392172744087077 0 0.0078474410660008664 -0.0047746706850648061 0 0.0080082055227529668 -0.0047855639867338054 0 0.0080640257525358104 -0.0046585343243980316 0 0.0080913192771179358 -0.00452718676218785 0 0.0079023163303451483 -0.0044934316669344833 0 0.0078720403785549585 -0.0046392172744087077 0 0.0080640257525358104 -0.0046585343243980316 0 0.0079023163303451483 -0.0044934316669344833 0 0.0080640257525358104 -0.0046585343243980316 0 0.0082382030285125373 -0.0046244433430555464 0 0.0080913192771179358 -0.00452718676218785 0 0.0082382030285125373 -0.0046244433430555464 0 0.0080913192771179358 -0.00452718676218785 0 0.0082250684749271014 -0.0044752809037757755 0 0.0082250684749271014 -0.0044752809037757755 0 0.0081871535177099643 -0.0043536739381327882 0 0.0080301354144955393 -0.0044014234311563283 0 0.0080913192771179358 -0.00452718676218785 0 0.0082250684749271014 -0.0044752809037757755 0 0.0080301354144955393 -0.0044014234311563283 0 0.0080301354144955393 -0.0044014234311563283 0 0.0079023163303451483 -0.0044934316669344833 0 0.0078487422995175901 -0.0043552138235282215 0 0.0080913192771179358 -0.00452718676218785 0 0.0080301354144955393 -0.0044014234311563283 0 0.0079023163303451483 -0.0044934316669344833 0 0.0079513536056853348 -0.0041765146335829631 0 0.0078487422995175901 -0.0043552138235282215 0 0.008015366580125036 -0.0042396103938876816 0 0.0080301354144955393 -0.0044014234311563283 0 0.0078487422995175901 -0.0043552138235282215 0 0.008015366580125036 -0.0042396103938876816 0 0.0081871535177099643 -0.0043536739381327882 0 0.0080301354144955393 -0.0044014234311563283 0 0.008015366580125036 -0.0042396103938876816 0 0.0081871535177099643 -0.0043536739381327882 0 0.008015366580125036 -0.0042396103938876816 0 0.0083294517904797197 -0.0042428543494508085 0 0.0083294363344431875 -0.004045960105106842 0 0.008015366580125036 -0.0042396103938876816 0 0.0083294517904797197 -0.0042428543494508085 0 0.0083294517904797197 -0.0042428543494508085 0 0.0084627610205028677 -0.0041631752805043297 0 0.0084952573515210249 -0.0042899420284913817 0 0.0083294517904797197 -0.0042428543494508085 0 0.0084952573515210249 -0.0042899420284913817 0 0.0083313606817131836 -0.0043732885667917007 0 0.0083294363344431875 -0.004045960105106842 0 0.0083294517904797197 -0.0042428543494508085 0 0.0084627610205028677 -0.0041631752805043297 0 0.0084627610205028677 -0.0041631752805043297 0 0.0086163939836864465 -0.0041546797460824325 0 0.0084952573515210249 -0.0042899420284913817 0 0.0085354245936224392 -0.0040443742207210897 0 0.0084627610205028677 -0.0041631752805043297 0 0.0086163939836864465 -0.0041546797460824325 0 0.0086163939836864465 -0.0041546797460824325 0 0.0084952573515210249 -0.0042899420284913817 0 0.0086517861805293465 -0.0042887023745782245 0 0.0084952573515210249 -0.0042899420284913817 0 0.0086042433848612637 -0.0043934442184612897 0 0.0084709763490254126 -0.0044178575431979379 0 0.0084952573515210249 -0.0042899420284913817 0 0.0086042433848612637 -0.0043934442184612897 0 0.0086517861805293465 -0.0042887023745782245 0 0.0086042433848612637 -0.0043934442184612897 0 0.0085609172826108925 -0.0044862309632132478 0 0.0084709763490254126 -0.0044178575431979379 0 0.0086042433848612637 -0.0043934442184612897 0 0.0085609172826108925 -0.0044862309632132478 0 0.0086394309644019715 -0.0044886764963965181 0 0.0084659532043851599 -0.0045471585723866042 0 0.0085609172826108925 -0.0044862309632132478 0 0.0084709763490254126 -0.0044178575431979379 0 0.0084659532043851599 -0.0045471585723866042 0 0.0084709763490254126 -0.0044178575431979379 0 0.0083698007183329211 -0.0044749589497539363 0 0.0084709763490254126 -0.0044178575431979379 0 0.0083698007183329211 -0.0044749589497539363 0 0.0083313606817131836 -0.0043732885667917007 0 0.0082250684749271014 -0.0044752809037757755 0 0.0083698007183329211 -0.0044749589497539363 0 0.0083313606817131836 -0.0043732885667917007 0 0.0081871535177099643 -0.0043536739381327882 0 0.0083294517904797197 -0.0042428543494508085 0 0.0083313606817131836 -0.0043732885667917007 0 0.0082250684749271014 -0.0044752809037757755 0 0.0081871535177099643 -0.0043536739381327882 0 0.0083313606817131836 -0.0043732885667917007 0 0.0084952573515210249 -0.0042899420284913817 0 0.0084709763490254126 -0.0044178575431979379 0 0.0083313606817131836 -0.0043732885667917007 0 0.011355987262304116 -0.0039161324268329632 0 0.011400476646008392 -0.0038779983951795546 0 0.011404230112920367 -0.003889030276212234 0 0.01083786565944277 -0.0034629044294274339 0 0.010036446527651529 -0.004182978418063683 0 0.011582661891696638 -0.0025940999899914663 0 0.011712378419905788 -0.002559744478867902 0 0.011605054070262449 -0.0027546836242221553 0 0.01083786565944277 -0.0034629044294274339 0 0.011554561825794788 -0.0032508031435501033 0 0.011582661891696638 -0.0025940999899914663 0 0.011605054070262449 -0.0027546836242221553 0 0.011401943337139699 -0.0025899679384868398 0 0.011582661891696638 -0.0025940999899914663 0 0.011401943337139699 -0.0025899679384868398 0 0.011588622042291869 -0.0024428737534315211 0 0.011712378419905788 -0.002559744478867902 0 0.011728329230533104 -0.0025069867976825993 0 0.011588622042291869 -0.0024428737534315211 0 0.011582661891696638 -0.0025940999899914663 0 0.011712378419905788 -0.002559744478867902 0 0.011588622042291869 -0.0024428737534315211 0 0.01083786565944277 -0.0034629044294274339 0 0.011125700964745041 -0.0029488449920705277 0 0.0088728452783084725 -0.0043427804650517142 0 0.0088204482192408788 -0.0043255834116420989 0 0.008794767336848185 -0.0042131415739967053 0 0.0088728452783084725 -0.0043427804650517142 0 0.0088204482192408788 -0.0043255834116420989 0 0.0088303338498510481 -0.0043926149699387166 0 0.0086042433848612637 -0.0043934442184612897 0 0.0087352386640110052 -0.0044139916258889222 0 0.0086394309644019715 -0.0044886764963965181 0 0.0086042433848612637 -0.0043934442184612897 0 0.0087352386640110052 -0.0044139916258889222 0 0.0086517861805293465 -0.0042887023745782245 0 0.0087352386640110052 -0.0044139916258889222 0 0.008794767336848185 -0.0042131415739967053 0 0.0086517861805293465 -0.0042887023745782245 0 0.0088006581189338604 -0.0045149285950198603 0 0.0087981376117972129 -0.0041845386904746599 0 0.0086163939836864465 -0.0041546797460824325 0 0.008794767336848185 -0.0042131415739967053 0 0.0086517861805293465 -0.0042887023745782245 0 0.0087422018293122992 -0.0040916871356576987 0 0.0086163939836864465 -0.0041546797460824325 0 0.008794767336848185 -0.0042131415739967053 0 0.0087422018293122992 -0.0040916871356576987 0 0.008794767336848185 -0.0042131415739967053 0 0.0088554130141270046 -0.0041028206324862744 0 0.0088728452783084725 -0.0043427804650517142 0 0.008794767336848185 -0.0042131415739967053 0 0.0089551814364170548 -0.0041966945422622715 0 0.0089529834852037551 -0.0040329746331240861 0 0.0088554130141270046 -0.0041028206324862744 0 0.0089551814364170548 -0.0041966945422622715 0 0.008794767336848185 -0.0042131415739967053 0 0.0088554130141270046 -0.0041028206324862744 0 0.0089551814364170548 -0.0041966945422622715 0 0.011451135132592915 -0.0038514067800053367 0 0.011423668947873522 -0.003854729541931163 0 0.011404230112920367 -0.003889030276212234 0 0.012322599145831437 -0.0039122088587523795 0 0.011554561825794788 -0.0032508031435501033 0 0.011423668947873522 -0.003854729541931163 0 0.011400476646008392 -0.0038779983951795546 0 0.011404230112920367 -0.003889030276212234 0 0.01717256806891004 -0.0036277588611810197 0 0.016825002324732878 -0.0033571210264455244 0 0.017219725619014949 -0.0029068444469677345 0 0.011500407990205432 -0.0029503658477498715 0 0.011605054070262449 -0.0027546836242221553 0 0.011401943337139699 -0.0025899679384868398 0 0.011429835835171582 -0.0029732571318286396 0 0.011500407990205432 -0.0029503658477498715 0 0.011401943337139699 -0.0025899679384868398 0 0.014772338827841913 -0.0036154599594658142 0 0.014249123494525969 -0.002671744692060878 0 0.016697459174088554 -0.0034210736684336085 0 0.016623804150130456 -0.0033423163454136488 0 0.016590713078549996 -0.0033682336023872247 0 0.016623804150130456 -0.0033423163454136488 0 0.016590713078549996 -0.0033682336023872247 0 0.016514476028664456 -0.0033056284002295688 0 0.014772338827841913 -0.0036154599594658142 0 0.016972366973790738 -0.0035097389369313035 0 0.016825002324732878 -0.0033571210264455244 0 0.016710721750118018 -0.0031316936244998217 0 0.016460546330842662 -0.0031144120942085884 0 0.016972366973790738 -0.0035097389369313035 0 0.016399116926067235 -0.0030817172919912995 0 0.016825002324732878 -0.0033571210264455244 0 0.016710721750118018 -0.0031316936244998217 0 0.016834497772224417 -0.0029791564406731075 0 0.016834497772224417 -0.0029791564406731075 0 0.017219725619014949 -0.0029068444469677345 0 0.016757691162821935 -0.0025833405263070109 0 0.016825002324732878 -0.0033571210264455244 0 0.016834497772224417 -0.0029791564406731075 0 0.017219725619014949 -0.0029068444469677345 0 0.016641166723034822 -0.0030121935399290939 0 0.016710721750118018 -0.0031316936244998217 0 0.016834497772224417 -0.0029791564406731075 0 0.016641166723034822 -0.0030121935399290939 0 0.016834497772224417 -0.0029791564406731075 0 0.016572036103565786 -0.0028211311520170692 0 0.016834497772224417 -0.0029791564406731075 0 0.016757691162821935 -0.0025833405263070109 0 0.016572036103565786 -0.0028211311520170692 0 0.011401943337139699 -0.0025899679384868398 0 0.011383464713138367 -0.0021812095248624833 0 0.011588622042291869 -0.0024428737534315211 0 0.017219725619014949 -0.0029068444469677345 0 0.016757691162821935 -0.0025833405263070109 0 0.017264233447205977 -0.0021309993635867173 0 0.014249123494525969 -0.002671744692060878 0 0.014333862711453874 -0.0021727361242723166 0 0.016757691162821935 -0.0025833405263070109 0 0.016840929511914373 -0.0019849142295311909 0 0.016394651173952158 -0.0022183629676733618 0 0.016757691162821935 -0.0025833405263070109 0 0.016840929511914373 -0.0019849142295311909 0 0.017264233447205977 -0.0021309993635867173 0 0.011383464713138367 -0.0021812095248624833 0 0.011546979456921631 -0.0021050138722425375 0 0.011461977875037457 -0.0019285375911365762 0 0.011546979456921631 -0.0021050138722425375 0 0.011696027544842594 -0.0022078550895092025 0 0.011700912415658134 -0.0020179107299992628 0 0.011696027544842594 -0.0022078550895092025 0 0.011579667618607969 -0.0022592768849131095 0 0.011682511751606176 -0.0023596147324041476 0 0.011546979456921631 -0.0021050138722425375 0 0.011696027544842594 -0.0022078550895092025 0 0.011579667618607969 -0.0022592768849131095 0 0.011383464713138367 -0.0021812095248624833 0 0.011546979456921631 -0.0021050138722425375 0 0.011579667618607969 -0.0022592768849131095 0 0.011383464713138367 -0.0021812095248624833 0 0.011579667618607969 -0.0022592768849131095 0 0.011588622042291869 -0.0024428737534315211 0 0.011579667618607969 -0.0022592768849131095 0 0.011682511751606176 -0.0023596147324041476 0 0.011588622042291869 -0.0024428737534315211 0 0.011728329230533104 -0.0025069867976825993 0 0.011682511751606176 -0.0023596147324041476 0 0.011588622042291869 -0.0024428737534315211 0 0.0087352386640110052 -0.0044139916258889222 0 0.0086394309644019715 -0.0044886764963965181 0 0.0086977790895216549 -0.0045784410799375652 0 0.0085776696216017054 -0.0045505855892262219 0 0.0086394309644019715 -0.0044886764963965181 0 0.0086977790895216549 -0.0045784410799375652 0 0.0088006581189338604 -0.0045149285950198603 0 0.0096774547565228568 -0.0035538488102906953 0 0.011728329230533104 -0.0025069867976825993 0 0.011682511751606176 -0.0023596147324041476 0 0.011818511288613429 -0.0023797024470362561 0 0.01083786565944277 -0.0034629044294274339 0 0.0096774547565228568 -0.0035538488102906953 0 0.011709065113465755 -0.0025626078761435988 0 0.011728329230533104 -0.0025069867976825993 0 0.011818511288613429 -0.0023797024470362561 0 0.011696027544842594 -0.0022078550895092025 0 0.011682511751606176 -0.0023596147324041476 0 0.011818511288613429 -0.0023797024470362561 0 0.0096774547565228568 -0.0035538488102906953 0 0.01076728933064596 -0.0030054587511666188 0 0.0087014603817068305 -0.0044496042123251126 0 0.0096774547565228568 -0.0035538488102906953 0 0.0090490713074253392 -0.0039570248313248796 0 0.0097004674589460122 -0.0030177058303623612 0 0.0096254973000401475 -0.0039117518811489357 0 0.011696027544842594 -0.0022078550895092025 0 0.011818511288613429 -0.0023797024470362561 0 0.011826657705702185 -0.0021140393250046879 0 0.011696027544842594 -0.0022078550895092025 0 0.011826657705702185 -0.0021140393250046879 0 0.011700912415658134 -0.0020179107299992628 0 0.01076728933064596 -0.0030054587511666188 0 0.010501243493049383 -0.0024629271413668524 0 0.0093132514037062887 -0.0043769071425137605 0 0.0096254973000401475 -0.0039117518811489357 0 0.0095530429026475273 -0.0048170080920499295 0 0.011826657705702185 -0.0021140393250046879 0 0.011700912415658134 -0.0020179107299992628 0 0.011828520126562258 -0.0018791813320411584 0 0.011415766552726459 -0.0016167339090922834 0 0.010501243493049383 -0.0024629271413668524 0 0.011564140037887128 -0.0019736334462852564 0 0.011415766552726459 -0.0016167339090922834 0 0.011700912415658134 -0.0020179107299992628 0 0.011719457474028191 -0.0019042621431155258 0 0.011828520126562258 -0.0018791813320411584 0 0.011730058181647643 -0.0018721392741898864 0 0.011609014959625416 -0.0019832206330460999 0 0.011461977875037457 -0.0019285375911365762 0 0.011415766552726459 -0.0016167339090922834 0 0.011479879350332017 -0.0019255577982731254 0 0.011330911331764865 -0.0018540482286957384 0 0.011396686751816446 -0.0018915492781597665 0 0.011461977875037457 -0.0019285375911365762 0 0.011546979456921631 -0.0021050138722425375 0 0.011609014959625416 -0.0019832206330460999 0 0.011461977875037457 -0.0019285375911365762 0 0.011700912415658134 -0.0020179107299992628 0 0.011730058181647643 -0.0018721392741898864 0 0.011609014959625416 -0.0019832206330460999 0 0.011546979456921631 -0.0021050138722425375 0 0.011700912415658134 -0.0020179107299992628 0 0.011609014959625416 -0.0019832206330460999 0 0.011330911331764865 -0.0018540482286957384 0 0.011375664764514924 -0.001922656744399794 0 0.011214973901825355 -0.0019751116335049047 0 0.011396686751816446 -0.0018915492781597665 0 0.011375664764514924 -0.001922656744399794 0 0.011440642747612466 -0.0018674610771080874 0 0.011330911331764865 -0.0018540482286957384 0 0.011396686751816446 -0.0018915492781597665 0 0.011375664764514924 -0.001922656744399794 0 0.011415766552726459 -0.0016167339090922834 0 0.011112470811696952 -0.0015501678364810217 0 0.011133146783748597 -0.00063529600098974099 0 0.010857158556462737 -0.00090814570098801662 0 0.011030504904526107 -0.0012524016797902475 0 0.010711604773079409 -0.00090743969220549215 0 0.010877256846058734 -0.00067546689370425611 0 0.010857158556462737 -0.00090814570098801662 0 0.011133146783748597 -0.00063529600098974099 0 0.010875220940480235 -0.00069690804094282009 0 0.010857158556462737 -0.00090814570098801662 0 0.010501243493049383 -0.0024629271413668524 0 0.010731553145477055 -0.00090107098896204433 0 0.010664624668968201 -0.0011287037592213032 0 0.010857158556462737 -0.00090814570098801662 0 0.011030504904526107 -0.0012524016797902475 0 0.010683892041104691 -0.0014945933754761953 0 0.011030504904526107 -0.0012524016797902475 0 0.010928165069666495 -0.0019261742340137432 0 0.010683892041104691 -0.0014945933754761953 0 0.010664624668968201 -0.0011287037592213032 0 0.011030504904526107 -0.0012524016797902475 0 0.011375664764514924 -0.001922656744399794 0 0.011301022573423591 -0.0021185379835649489 0 0.011506170384853239 -0.0020407929003565862 0 0.011375664764514924 -0.001922656744399794 0 0.011214973901825355 -0.0019751116335049047 0 0.011301022573423591 -0.0021185379835649489 0 0.011214973901825355 -0.0019751116335049047 0 0.011301022573423591 -0.0021185379835649489 0 0.011050661263343781 -0.0021963487836100131 0 0.011301022573423591 -0.0021185379835649489 0 0.011050661263343781 -0.0021963487836100131 0 0.01120397583476376 -0.002371508144837066 0 0.011112470811696952 -0.0015501678364810217 0 0.010984002706525128 -0.0020938233433186711 0 0.017291665860653969 -0.00055379096299766443 0 0.016601761756342922 -0.00022175371450578913 0 0.017284364748764495 0.00021390423183168108 0 0.014397386991162213 -0.0013216817816285276 0 0.014419690327774881 -0.0010049362034656359 0 0.011301022573423591 -0.0021185379835649489 0 0.011506170384853239 -0.0020407929003565862 0 0.011551662487012336 -0.0023878774874770709 0 0.017291665860653969 -0.00055379096299766443 0 0.016699569714398094 -0.0010269009450667903 0 0.016601761756342922 -0.00022175371450578913 0 0.016699569714398094 -0.0010269009450667903 0 0.017286163973644741 -0.0013388327275873952 0 0.016502938209469169 -0.0016488037129149058 0 0.014397386991162213 -0.0013216817816285276 0 0.014362236580336684 -0.0016040958285410338 0 0.011375664764514924 -0.001922656744399794 0 0.011506170384853239 -0.0020407929003565862 0 0.011440642747612466 -0.0018674610771080874 0 0.017291665860653969 -0.00055379096299766443 0 0.016699569714398094 -0.0010269009450667903 0 0.017286163973644741 -0.0013388327275873952 0 0.016840929511914373 -0.0019849142295311909 0 0.017264233447205977 -0.0021309993635867173 0 0.017286163973644741 -0.0013388327275873952 0 0.011396686751816446 -0.0018915492781597665 0 0.011440642747612466 -0.0018674610771080874 0 0.011461977875037457 -0.0019285375911365762 0 0.014333862711453874 -0.0021727361242723166 0 0.014362236580336684 -0.0016040958285410338 0 0.011383464713138367 -0.0021812095248624833 0 0.011440642747612466 -0.0018674610771080874 0 0.011461977875037457 -0.0019285375911365762 0 0.016840929511914373 -0.0019849142295311909 0 0.017286163973644741 -0.0013388327275873952 0 0.016502938209469169 -0.0016488037129149058 0 0.0161130710369276 -0.0013645634725257935 0 0.01569690975429109 -0.0016400781983173167 0 0.016070469564357551 -0.0018832551576133019 0 0.016502938209469169 -0.0016488037129149058 0 0.0161130710369276 -0.0013645634725257935 0 0.016070469564357551 -0.0018832551576133019 0 0.0161130710369276 -0.0013645634725257935 0 0.015782876406349663 -0.0011178940923722543 0 0.01569690975429109 -0.0016400781983173167 0 0.0161130710369276 -0.0013645634725257935 0 0.016171269606315396 -0.00085842425195987592 0 0.015782876406349663 -0.0011178940923722543 0 0.016699569714398094 -0.0010269009450667903 0 0.0161130710369276 -0.0013645634725257935 0 0.016171269606315396 -0.00085842425195987592 0 0.016699569714398094 -0.0010269009450667903 0 0.016502938209469169 -0.0016488037129149058 0 0.0161130710369276 -0.0013645634725257935 0 0.016699569714398094 -0.0010269009450667903 0 0.016171269606315396 -0.00085842425195987592 0 0.016601761756342922 -0.00022175371450578913 0 0.016171269606315396 -0.00085842425195987592 0 0.016042167726017444 -0.00033421578840559272 0 0.01574703643891744 -0.0006981948380083505 0 0.016171269606315396 -0.00085842425195987592 0 0.01574703643891744 -0.0006981948380083505 0 0.015782876406349663 -0.0011178940923722543 0 0.016042167726017444 -0.00033421578840559272 0 0.016601761756342922 -0.00022175371450578913 0 0.016057513694302767 0.00019793331514341274 0 0.016042167726017444 -0.00033421578840559272 0 0.01561033233729235 -0.00028178834545764192 0 0.016057513694302767 0.00019793331514341274 0 0.016171269606315396 -0.00085842425195987592 0 0.016042167726017444 -0.00033421578840559272 0 0.016601761756342922 -0.00022175371450578913 0 0.014999947327494059 -0.00016027150964456201 0 0.015292331413029192 -0.00031701342246104542 0 0.015043842116946015 -0.0006438105772983919 0 0.014999947327494059 -0.00016027150964456201 0 0.015292331413029192 -0.00031701342246104542 0 0.015435558218415208 0.00015307844998381379 0 0.015292331413029192 -0.00031701342246104542 0 0.01561033233729235 -0.00028178834545764192 0 0.015435558218415208 0.00015307844998381379 0 0.016042167726017444 -0.00033421578840559272 0 0.01561033233729235 -0.00028178834545764192 0 0.01574703643891744 -0.0006981948380083505 0 0.015292331413029192 -0.00031701342246104542 0 0.01561033233729235 -0.00028178834545764192 0 0.01536976107491432 -0.0006516452833177272 0 0.01561033233729235 -0.00028178834545764192 0 0.01574703643891744 -0.0006981948380083505 0 0.01536976107491432 -0.0006516452833177272 0 0.01574703643891744 -0.0006981948380083505 0 0.01536976107491432 -0.0006516452833177272 0 0.015505912216796237 -0.00094854218386915398 0 0.01536976107491432 -0.0006516452833177272 0 0.015043842116946015 -0.0006438105772983919 0 0.015274348115796929 -0.00097008732485365917 0 0.014999947327494059 -0.00016027150964456201 0 0.015043842116946015 -0.0006438105772983919 0 0.014999976676530453 -0.00099317159756854754 0 0.01536976107491432 -0.0006516452833177272 0 0.015274348115796929 -0.00097008732485365917 0 0.015505912216796237 -0.00094854218386915398 0 0.015292331413029192 -0.00031701342246104542 0 0.01536976107491432 -0.0006516452833177272 0 0.015043842116946015 -0.0006438105772983919 0 0.01504315816783503 -0.00069387493905963499 0 0.015084155667190279 -0.0013387882443687388 0 0.015043842116946015 -0.0006438105772983919 0 0.014999976676530453 -0.00099317159756854754 0 0.015116837795248486 -0.001367673411641899 0 0.015043842116946015 -0.0006438105772983919 0 0.015274348115796929 -0.00097008732485365917 0 0.015049324331582769 -0.0013238302433074133 0 0.014999976676530453 -0.00099317159756854754 0 0.015116837795248486 -0.001367673411641899 0 0.015000005190542755 -0.0018261314847211978 0 0.015274348115796929 -0.00097008732485365917 0 0.015049324331582769 -0.0013238302433074133 0 0.015424010249781381 -0.0012894259721513619 0 0.015782876406349663 -0.0011178940923722543 0 0.015424010249781381 -0.0012894259721513619 0 0.01569690975429109 -0.0016400781983173167 0 0.01574703643891744 -0.0006981948380083505 0 0.015782876406349663 -0.0011178940923722543 0 0.015505912216796237 -0.00094854218386915398 0 0.015782876406349663 -0.0011178940923722543 0 0.015505912216796237 -0.00094854218386915398 0 0.015424010249781381 -0.0012894259721513619 0 0.015274348115796929 -0.00097008732485365917 0 0.015505912216796237 -0.00094854218386915398 0 0.015424010249781381 -0.0012894259721513619 0 0.015424010249781381 -0.0012894259721513619 0 0.01569690975429109 -0.0016400781983173167 0 0.015343565306282527 -0.0016537098189359385 0 0.01569690975429109 -0.0016400781983173167 0 0.015343565306282527 -0.0016537098189359385 0 0.015450672831955144 -0.0019879448315065808 0 0.015084155667190279 -0.0013387882443687388 0 0.015136308887139432 -0.0020607721236346509 0 0.015049324331582769 -0.0013238302433074133 0 0.015343565306282527 -0.0016537098189359385 0 0.01509155827576926 -0.002031230408039212 0 0.015116837795248486 -0.001367673411641899 0 0.015000005190542755 -0.0018261314847211978 0 0.015179886796454897 -0.0020896565094400241 0 0.015049324331582769 -0.0013238302433074133 0 0.015424010249781381 -0.0012894259721513619 0 0.015343565306282527 -0.0016537098189359385 0 0.015000005190542755 -0.0018261314847211978 0 0.015179886796454897 -0.0020896565094400241 0 0.015000006544516963 -0.0026590939658604883 0 0.015343565306282527 -0.0016537098189359385 0 0.01509155827576926 -0.002031230408039212 0 0.015450672831955144 -0.0019879448315065808 0 0.01509155827576926 -0.002031230408039212 0 0.015331767172445014 -0.002201698542359202 0 0.015450672831955144 -0.0019879448315065808 0 0.01509155827576926 -0.002031230408039212 0 0.015331767172445014 -0.002201698542359202 0 0.015280758668990039 -0.0024354175317348697 0 0.015179886796454897 -0.0020896565094400241 0 0.015000006544516963 -0.0026590939658604883 0 0.015242387467974496 -0.0028137656273929551 0 0.01509155827576926 -0.002031230408039212 0 0.015280758668990039 -0.0024354175317348697 0 0.015153496642888373 -0.0027405490014698053 0 0.015136308887139432 -0.0020607721236346509 0 0.01520116889652977 -0.00278563406732333 0 0.015280758668990039 -0.0024354175317348697 0 0.015153496642888373 -0.0027405490014698053 0 0.015476719020056586 -0.002625136576068221 0 0.015476719020056586 -0.002625136576068221 0 0.015762150175364267 -0.0024642026669832958 0 0.015765664910650554 -0.0027577797163270594 0 0.015280758668990039 -0.0024354175317348697 0 0.015476719020056586 -0.002625136576068221 0 0.015503849566785475 -0.0023518845629184682 0 0.015331767172445014 -0.002201698542359202 0 0.015280758668990039 -0.0024354175317348697 0 0.015503849566785475 -0.0023518845629184682 0 0.015476719020056586 -0.002625136576068221 0 0.015503849566785475 -0.0023518845629184682 0 0.015762150175364267 -0.0024642026669832958 0 0.015503849566785475 -0.0023518845629184682 0 0.015762150175364267 -0.0024642026669832958 0 0.015747488213501526 -0.002105251572158893 0 0.01569690975429109 -0.0016400781983173167 0 0.015747488213501526 -0.002105251572158893 0 0.015450672831955144 -0.0019879448315065808 0 0.015503849566785475 -0.0023518845629184682 0 0.015747488213501526 -0.002105251572158893 0 0.015450672831955144 -0.0019879448315065808 0 0.015331767172445014 -0.002201698542359202 0 0.015503849566785475 -0.0023518845629184682 0 0.015450672831955144 -0.0019879448315065808 0 0.01569690975429109 -0.0016400781983173167 0 0.015747488213501526 -0.002105251572158893 0 0.016070469564357551 -0.0018832551576133019 0 0.016070469564357551 -0.0018832551576133019 0 0.016394651173952158 -0.0022183629676733618 0 0.015996641955360876 -0.0023056946720836692 0 0.015747488213501526 -0.002105251572158893 0 0.016070469564357551 -0.0018832551576133019 0 0.015996641955360876 -0.0023056946720836692 0 0.016840929511914373 -0.0019849142295311909 0 0.016502938209469169 -0.0016488037129149058 0 0.016394651173952158 -0.0022183629676733618 0 0.016502938209469169 -0.0016488037129149058 0 0.016070469564357551 -0.0018832551576133019 0 0.016394651173952158 -0.0022183629676733618 0 0.016757691162821935 -0.0025833405263070109 0 0.016394651173952158 -0.0022183629676733618 0 0.016421654106070317 -0.0026184814157913659 0 0.016394651173952158 -0.0022183629676733618 0 0.016421654106070317 -0.0026184814157913659 0 0.016198595318007745 -0.0024982791237282854 0 0.016421654106070317 -0.0026184814157913659 0 0.016198595318007745 -0.0024982791237282854 0 0.016194148075751195 -0.0027434324288528266 0 0.016757691162821935 -0.0025833405263070109 0 0.016421654106070317 -0.0026184814157913659 0 0.016572036103565786 -0.0028211311520170692 0 0.015762150175364267 -0.0024642026669832958 0 0.015747488213501526 -0.002105251572158893 0 0.015996641955360876 -0.0023056946720836692 0 0.015762150175364267 -0.0024642026669832958 0 0.015996641955360876 -0.0023056946720836692 0 0.015979592883563702 -0.0026100068697161435 0 0.016394651173952158 -0.0022183629676733618 0 0.015996641955360876 -0.0023056946720836692 0 0.016198595318007745 -0.0024982791237282854 0 0.015996641955360876 -0.0023056946720836692 0 0.016198595318007745 -0.0024982791237282854 0 0.015979592883563702 -0.0026100068697161435 0 0.016198595318007745 -0.0024982791237282854 0 0.015979592883563702 -0.0026100068697161435 0 0.016194148075751195 -0.0027434324288528266 0 0.015762150175364267 -0.0024642026669832958 0 0.015979592883563702 -0.0026100068697161435 0 0.015765664910650554 -0.0027577797163270594 0 0.015979592883563702 -0.0026100068697161435 0 0.015979941162043494 -0.0029035809254227356 0 0.015765664910650554 -0.0027577797163270594 0 0.015979941162043494 -0.0029035809254227356 0 0.015765664910650554 -0.0027577797163270594 0 0.015766838608629354 -0.0030625443119273511 0 0.016194148075751195 -0.0027434324288528266 0 0.016141001212086954 -0.0029983075343582204 0 0.01633484723626465 -0.0029527412702134155 0 0.015979941162043494 -0.0029035809254227356 0 0.016194148075751195 -0.0027434324288528266 0 0.016141001212086954 -0.0029983075343582204 0 0.015979592883563702 -0.0026100068697161435 0 0.015979941162043494 -0.0029035809254227356 0 0.016194148075751195 -0.0027434324288528266 0 0.015979941162043494 -0.0029035809254227356 0 0.016141001212086954 -0.0029983075343582204 0 0.015998400427770478 -0.0031769744874445148 0 0.016141001212086954 -0.0029983075343582204 0 0.016204666655922566 -0.0031618667403269999 0 0.015998400427770478 -0.0031769744874445148 0 0.016141001212086954 -0.0029983075343582204 0 0.016204666655922566 -0.0031618667403269999 0 0.01633484723626465 -0.0029527412702134155 0 0.015979941162043494 -0.0029035809254227356 0 0.015998400427770478 -0.0031769744874445148 0 0.015766838608629354 -0.0030625443119273511 0 0.016421654106070317 -0.0026184814157913659 0 0.016572036103565786 -0.0028211311520170692 0 0.01633484723626465 -0.0029527412702134155 0 0.016421654106070317 -0.0026184814157913659 0 0.016194148075751195 -0.0027434324288528266 0 0.01633484723626465 -0.0029527412702134155 0 0.016204666655922566 -0.0031618667403269999 0 0.01633484723626465 -0.0029527412702134155 0 0.016338374535353573 -0.003170001690585155 0 0.01633484723626465 -0.0029527412702134155 0 0.016460546330842662 -0.0031144120942085884 0 0.016338374535353573 -0.003170001690585155 0 0.016572036103565786 -0.0028211311520170692 0 0.01633484723626465 -0.0029527412702134155 0 0.016460546330842662 -0.0031144120942085884 0 0.016641166723034822 -0.0030121935399290939 0 0.016572036103565786 -0.0028211311520170692 0 0.016460546330842662 -0.0031144120942085884 0 0.016641166723034822 -0.0030121935399290939 0 0.016710721750118018 -0.0031316936244998217 0 0.016460546330842662 -0.0031144120942085884 0 0.016257899853985652 -0.00360518610623818 0 0.016439938464995207 -0.0032372919380495267 0 0.016460790923039825 -0.0034166384804760995 0 0.0162024330011439 -0.0038505656319940901 0 0.016439938464995207 -0.0032372919380495267 0 0.016242946182576525 -0.0033697433687554881 0 0.01603729427995235 -0.0039222318696772104 0 0.016486882368966477 -0.0031825578127396177 0 0.016460546330842662 -0.0031144120942085884 0 0.016514476028664456 -0.0033056284002295688 0 0.016439938464995207 -0.0032372919380495267 0 0.016623804150130456 -0.0033423163454136488 0 0.016460546330842662 -0.0031144120942085884 0 0.016514476028664456 -0.0033056284002295688 0 0.016439938464995207 -0.0032372919380495267 0 0.016338374535353573 -0.003170001690585155 0 0.016242946182576525 -0.0033697433687554881 0 0.016204666655922566 -0.0031618667403269999 0 0.016338374535353573 -0.003170001690585155 0 0.016242946182576525 -0.0033697433687554881 0 0.016460546330842662 -0.0031144120942085884 0 0.016439938464995207 -0.0032372919380495267 0 0.016338374535353573 -0.003170001690585155 0 0.016590713078549996 -0.0033682336023872247 0 0.016514476028664456 -0.0033056284002295688 0 0.016460790923039825 -0.0034166384804760995 0 0.016514476028664456 -0.0033056284002295688 0 0.016439938464995207 -0.0032372919380495267 0 0.016460790923039825 -0.0034166384804760995 0 0.0162024330011439 -0.0038505656319940901 0 0.016242946182576525 -0.0033697433687554881 0 0.016129040785362345 -0.003508665480383782 0 0.015998400427770478 -0.0031769744874445148 0 0.015973336390780999 -0.0034335862051185512 0 0.015800739441967457 -0.0033308844633764285 0 0.015998400427770478 -0.0031769744874445148 0 0.015800739441967457 -0.0033308844633764285 0 0.015766838608629354 -0.0030625443119273511 0 0.015998400427770478 -0.0031769744874445148 0 0.016109987808288363 -0.0033297556231670373 0 0.015973336390780999 -0.0034335862051185512 0 0.016204666655922566 -0.0031618667403269999 0 0.016242946182576525 -0.0033697433687554881 0 0.016109987808288363 -0.0033297556231670373 0 0.016204666655922566 -0.0031618667403269999 0 0.015998400427770478 -0.0031769744874445148 0 0.016109987808288363 -0.0033297556231670373 0 0.016109987808288363 -0.0033297556231670373 0 0.016129040785362345 -0.003508665480383782 0 0.015973336390780999 -0.0034335862051185512 0 0.016242946182576525 -0.0033697433687554881 0 0.016109987808288363 -0.0033297556231670373 0 0.016129040785362345 -0.003508665480383782 0 0.015997428898130914 -0.0036348126269500278 0 0.016129040785362345 -0.003508665480383782 0 0.015973336390780999 -0.0034335862051185512 0 0.015997428898130914 -0.0036348126269500278 0 0.015973336390780999 -0.0034335862051185512 0 0.015810180059208253 -0.003570998954339761 0 0.015973336390780999 -0.0034335862051185512 0 0.015810180059208253 -0.003570998954339761 0 0.015800739441967457 -0.0033308844633764285 0 0.015437230117425468 -0.0037848330680687312 0 0.015661002872663442 -0.0035315222633757501 0 0.015579859182412257 -0.0031988915971192713 0 0.015467404166893441 -0.0038678891579154999 0 0.015573894926550633 -0.0032485983779060902 0 0.015810180059208253 -0.003570998954339761 0 0.015661002872663442 -0.0035315222633757501 0 0.015800739441967457 -0.0033308844633764285 0 0.015500705628655053 -0.0039551530077158803 0 0.01528268981153184 -0.0035150744504063337 0 0.015579859182412257 -0.0031988915971192713 0 0.015661002872663442 -0.0035315222633757501 0 0.015800739441967457 -0.0033308844633764285 0 0.015579859182412257 -0.0031988915971192713 0 0.015800739441967457 -0.0033308844633764285 0 0.015766838608629354 -0.0030625443119273511 0 0.015579859182412257 -0.0031988915971192713 0 0.015500705628655053 -0.0039551530077158803 0 0.01528268981153184 -0.0035150744504063337 0 0.014999942731221953 -0.0034919334765871565 0 0.01520116889652977 -0.00278563406732333 0 0.01527359816884215 -0.0034613264192829584 0 0.015153496642888373 -0.0027405490014698053 0 0.01528268981153184 -0.0035150744504063337 0 0.015454238676362288 -0.0029729884822795481 0 0.015000006544516963 -0.0026590939658604883 0 0.015242387467974496 -0.0028137656273929551 0 0.014999942731221953 -0.0034919334765871565 0 0.015242387467974496 -0.0028137656273929551 0 0.01528268981153184 -0.0035150744504063337 0 0.014999942731221953 -0.0034919334765871565 0 0.015153496642888373 -0.0027405490014698053 0 0.015476719020056586 -0.002625136576068221 0 0.015454238676362288 -0.0029729884822795481 0 0.015476719020056586 -0.002625136576068221 0 0.015454238676362288 -0.0029729884822795481 0 0.015765664910650554 -0.0027577797163270594 0 0.01528268981153184 -0.0035150744504063337 0 0.015454238676362288 -0.0029729884822795481 0 0.015579859182412257 -0.0031988915971192713 0 0.015454238676362288 -0.0029729884822795481 0 0.015765664910650554 -0.0027577797163270594 0 0.015766838608629354 -0.0030625443119273511 0 0.015454238676362288 -0.0029729884822795481 0 0.015766838608629354 -0.0030625443119273511 0 0.015579859182412257 -0.0031988915971192713 0 0.001098872717002492 -0.0054306538449006812 0 0.0011417651745247786 -0.0057181539399984958 0 0.00092937055590430566 -0.0055604839049812442 0 0.001098872717002492 -0.0054306538449006812 0 0.0012569542951254896 -0.0054846167249784873 0 0.0011417651745247786 -0.0057181539399984958 0 0.001098872717002492 -0.0054306538449006812 0 0.0012569542951254896 -0.0054846167249784873 0 0.0012140638877776496 -0.0052882083631749753 0 0.0015488924236928452 -0.005784885807823101 0 0.0011417651745247786 -0.0057181539399984958 0 0.0013785869374343821 -0.0060746620556857015 0 0.0012569542951254896 -0.0054846167249784873 0 0.001277460309962424 -0.0056245788934898488 0 0.0011417651745247786 -0.0057181539399984958 0 0.0015020757515107274 -0.0057105664006624809 0 0.001128202541738364 -0.0057042577525036582 0 0.0012569542951254896 -0.0054846167249784873 0 0.001277460309962424 -0.0056245788934898488 0 0.0013833104346605305 -0.0054833867727714812 0 0.0011417651745247786 -0.0057181539399984958 0 0.00080124257468942124 -0.005818156141726657 0 0.00099967073846549972 -0.0060317943521148174 0 0.0011417651745247786 -0.0057181539399984958 0 0.00080124257468942124 -0.005818156141726657 0 0.00092937055590430566 -0.0055604839049812442 0 0.00080124257468942124 -0.005818156141726657 0 0.00063296612022499879 -0.0059901027434021278 0 0.0005215307519562273 -0.0057563021000337179 0 0.00080124257468942124 -0.005818156141726657 0 0.00067787752463150416 -0.0054999347023393097 0 0.0005215307519562273 -0.0057563021000337179 0 0.00080124257468942124 -0.005818156141726657 0 0.00067787752463150416 -0.0054999347023393097 0 0.00092937055590430566 -0.0055604839049812442 0 0.00067787752463150416 -0.0054999347023393097 0 0.00092937055590430566 -0.0055604839049812442 0 0.00089558251093154015 -0.0053119679838780007 0 0.001098872717002492 -0.0054306538449006812 0 0.00092937055590430566 -0.0055604839049812442 0 0.00089558251093154015 -0.0053119679838780007 0 0.00089558251093154015 -0.0053119679838780007 0 0.00084121598097223094 -0.005048864509852897 0 0.0010440752657341948 -0.0051842661528785604 0 0.00089558251093154015 -0.0053119679838780007 0 0.00067847464176107276 -0.0051406361621831927 0 0.00084121598097223094 -0.005048864509852897 0 0.00067787752463150416 -0.0054999347023393097 0 0.00089558251093154015 -0.0053119679838780007 0 0.00067847464176107276 -0.0051406361621831927 0 0.00067787752463150416 -0.0054999347023393097 0 0.00067847464176107276 -0.0051406361621831927 0 0.00043120494255223627 -0.0051791121350551724 0 0.00067847464176107276 -0.0051406361621831927 0 0.00052589160913450034 -0.0048980447537678492 0 0.00067565028216157457 -0.0048903862349575014 0 0.00067847464176107276 -0.0051406361621831927 0 0.00084121598097223094 -0.005048864509852897 0 0.00067565028216157457 -0.0048903862349575014 0 0.00084121598097223094 -0.005048864509852897 0 0.00098237073235979302 -0.0049655382981901204 0 0.0010440752657341948 -0.0051842661528785604 0 0.00084121598097223094 -0.005048864509852897 0 0.00082591414391176301 -0.0048442741027828135 0 0.00067565028216157457 -0.0048903862349575014 0 0.00084121598097223094 -0.005048864509852897 0 0.00098237073235979302 -0.0049655382981901204 0 0.00082591414391176301 -0.0048442741027828135 0 0.00098237073235979302 -0.0049655382981901204 0 0.0010440752657341948 -0.0051842661528785604 0 0.0011720306851744325 -0.0050905064113229998 0 0.00098237073235979302 -0.0049655382981901204 0 0.0011720306851744325 -0.0050905064113229998 0 0.001124284110426954 -0.0049198308752497512 0 0.001098872717002492 -0.0054306538449006812 0 0.00089558251093154015 -0.0053119679838780007 0 0.0010440752657341948 -0.0051842661528785604 0 0.001098872717002492 -0.0054306538449006812 0 0.0010440752657341948 -0.0051842661528785604 0 0.0012140638877776496 -0.0052882083631749753 0 0.0010440752657341948 -0.0051842661528785604 0 0.0012140638877776496 -0.0052882083631749753 0 0.0011720306851744325 -0.0050905064113229998 0 0.0012569542951254896 -0.0054846167249784873 0 0.0012140638877776496 -0.0052882083631749753 0 0.0013458906617179905 -0.005349752666497092 0 0.0012140638877776496 -0.0052882083631749753 0 0.0013458906617179905 -0.005349752666497092 0 0.0013178630007184508 -0.0052161171233306445 0 0.0012140638877776496 -0.0052882083631749753 0 0.0011720306851744325 -0.0050905064113229998 0 0.0013178630007184508 -0.0052161171233306445 0 0.0011720306851744325 -0.0050905064113229998 0 0.0013481607709930393 -0.005018769024253562 0 0.0013178630007184508 -0.0052161171233306445 0 0.0011720306851744325 -0.0050905064113229998 0 0.0013481607709930393 -0.005018769024253562 0 0.001124284110426954 -0.0049198308752497512 0 -0.00053184066970107661 -0.0043976959229068075 0 -0.00060196356333434104 -0.0045080451610088395 0 0.0013481607709930393 -0.005018769024253562 0 0.0014455903005815573 -0.0053145379162063775 0 0.0013178630007184508 -0.0052161171233306445 0 -0.0025845833480074047 -0.0036323196136666342 0 -0.0025859607449539765 -0.0036421427818352945 0 -0.0025992465818531988 -0.0037193734667544912 0 -0.0025859607449539765 -0.0036421427818352945 0 -0.0025992465818531988 -0.0037193734667544912 0 -0.002561933873120985 -0.0036672696673107096 0 0.0014455903005815573 -0.0053145379162063775 0 0.0013458906617179905 -0.005349752666497092 0 0.0013988886483644715 -0.0054011677272313404 0 0.0014455903005815573 -0.0053145379162063775 0 0.0013458906617179905 -0.005349752666497092 0 0.0013178630007184508 -0.0052161171233306445 0 -0.0025533176583504452 -0.0036723085277565949 0 -0.0025562819974966856 -0.0036401547593522001 0 -0.0025410910523007047 -0.0036862760183179076 0 -0.0025562819974966856 -0.0036401547593522001 0 -0.002561933873120985 -0.0036672696673107096 0 -0.0025410910523007047 -0.0036862760183179076 0 -0.002561933873120985 -0.0036672696673107096 0 -0.002564899366068176 -0.0037882287926522852 0 -0.0025410910523007047 -0.0036862760183179076 0 -0.0025992465818531988 -0.0037193734667544912 0 -0.002564899366068176 -0.0037882287926522852 0 -0.0025617126817097822 -0.0038374505548508693 0 -0.0025992465818531988 -0.0037193734667544912 0 -0.002561933873120985 -0.0036672696673107096 0 -0.002564899366068176 -0.0037882287926522852 0 -0.0026568191937605653 -0.0038240923768898265 0 -0.0025598077619991989 -0.0037936589889136173 0 -0.0025266582286308124 -0.0036902816754037951 0 -0.002564899366068176 -0.0037882287926522852 0 -0.0025410910523007047 -0.0036862760183179076 0 -0.0025266582286308124 -0.0036902816754037951 0 -0.0025533176583504452 -0.0036723085277565949 0 -0.0025410910523007047 -0.0036862760183179076 0 -0.0026651958622890713 -0.0039495247932494655 0 -0.0026981650525579551 -0.0038835744516590048 0 -0.0026398310659612569 -0.0038499558220664656 0 -0.0026651958622890713 -0.0039495247932494655 0 -0.002564899366068176 -0.0037882287926522852 0 -0.0025617126817097822 -0.0038374505548508693 0 -0.0026651958622890713 -0.0039495247932494655 0 -0.0026398310659612569 -0.0038499558220664656 0 -0.0025617126817097822 -0.0038374505548508693 0 0.0013631737945164468 -0.0054323800309152527 0 0.0013654798595730217 -0.0053887321369016482 0 0.0012277955082486225 -0.0053639623895634881 0 0.0013631737945164468 -0.0054323800309152527 0 0.0013654798595730217 -0.0053887321369016482 0 0.0013985486160253101 -0.0054207370355884178 0 -0.0026398310659612569 -0.0038499558220664656 0 -0.0025617126817097822 -0.0038374505548508693 0 -0.0026507222686881697 -0.0037878579968240985 0 -0.00055953894941621247 -0.0045518145096897864 0 -0.0010746047614011225 -0.0051062458970141623 0 0.00074354236977087801 -0.0068779354951465426 0 -0.0010746047614011225 -0.0051062458970141623 0 -0.0027355789690909037 -0.0038428757125745106 0 -0.0026398310659612569 -0.0038499558220664656 0 -0.0026507222686881697 -0.0037878579968240985 0 0.0012569542951254896 -0.0054846167249784873 0 0.0013458906617179905 -0.005349752666497092 0 0.0013833104346605305 -0.0054833867727714812 0 0.0013458906617179905 -0.005349752666497092 0 0.0013833104346605305 -0.0054833867727714812 0 0.0013988886483644715 -0.0054011677272313404 0 0.0013833104346605305 -0.0054833867727714812 0 0.0013988886483644715 -0.0054011677272313404 0 0.0013952415886928421 -0.0054401633160647703 0 -0.00060196356333434104 -0.0045080451610088395 0 -0.00055953894941621247 -0.0045518145096897864 0 0.0014455903005815573 -0.0053145379162063775 0 0.0013631737945164468 -0.0054323800309152527 0 0.0013985486160253101 -0.0054207370355884178 0 0.0014455903005815573 -0.0053145379162063775 0 0.0013988886483644715 -0.0054011677272313404 0 0.0013985486160253101 -0.0054207370355884178 0 0.0013988886483644715 -0.0054011677272313404 0 0.0013985486160253101 -0.0054207370355884178 0 0.0013952415886928421 -0.0054401633160647703 0 0.00074354236977087801 -0.0068779354951465426 0 0.0010848069977397901 -0.0064565096386518701 0 0.0013654798595730217 -0.0053887321369016482 0 0.0013952415886928421 -0.0054401633160647703 0 0.0013985912453658689 -0.0054366799536370849 0 0.0013654798595730217 -0.0053887321369016482 0 0.0013985486160253101 -0.0054207370355884178 0 0.0013952415886928421 -0.0054401633160647703 0 0.0015020757515107274 -0.0057105664006624809 0 0.0010848069977397901 -0.0064565096386518701 0 0.001277460309962424 -0.0056245788934898488 0 0.0013833104346605305 -0.0054833867727714812 0 0.0014479775652702506 -0.0056175800528474439 0 0.0015488924236928452 -0.005784885807823101 0 0.0019572639535023126 -0.0058376030855546478 0 0.0017424694450775147 -0.0060791143855996582 0 0.0013833104346605305 -0.0054833867727714812 0 0.0013952415886928421 -0.0054401633160647703 0 0.0013985912453658689 -0.0054366799536370849 0 0.0011793297007646011 -0.0054320187871765759 0 0.0010848069977397901 -0.0064565096386518701 0 0.0017424694450775147 -0.0060791143855996582 0 0.0021322189973999885 -0.006207598758806796 0 0.0017163990376318802 -0.0064870682364095494 0 0.0019572639535023126 -0.0058376030855546478 0 0.0017424694450775147 -0.0060791143855996582 0 0.0021322189973999885 -0.006207598758806796 0 -0.00030497946369157996 -0.0080103852591444872 0 5.8023456493733342e-06 -0.0077630326121173286 0 -0.00023571388241384937 -0.0076927120425291928 0 0.0010848069977397901 -0.0064565096386518701 0 0.00083710362060413477 -0.0065784173101843656 0 -0.00030497946369157996 -0.0080103852591444872 0 0.00015498643195450401 -0.0080394476932028822 0 5.8023456493733342e-06 -0.0077630326121173286 0 0.0021322189973999885 -0.006207598758806796 0 0.0023049781092066316 -0.0066081518691080091 0 0.0017163990376318802 -0.0064870682364095494 0 0.00083710362060413477 -0.0065784173101843656 0 0.00052096698018758928 -0.011043403617747858 0 5.8023456493733342e-06 -0.0077630326121173286 0 -0.0001394027733129055 -0.0074927431802349976 0 -0.00023571388241384937 -0.0076927120425291928 0 0.00052096698018758928 -0.011043403617747858 0 0.0016496869130541163 -0.011575983941200164 0 0.00029041624796284919 -0.016514138008593499 0 0.0012432737157283373 -0.016552229971624165 0 0.00075113910177454805 -0.0160942358931873 0 -0.00030497946369157996 -0.0080103852591444872 0 -0.00078849084566509067 -0.007969372874539268 0 -0.00065599585336402965 -0.0077842879863344134 0 -0.00082236596580974525 -0.0077223682092986048 0 -0.00065599585336402965 -0.0077842879863344134 0 -0.00070769441595315433 -0.0075710669624202837 0 -0.00078849084566509067 -0.007969372874539268 0 -0.00082236596580974525 -0.0077223682092986048 0 -0.00065599585336402965 -0.0077842879863344134 0 -0.00065599585336402965 -0.0077842879863344134 0 -0.0004701667941341064 -0.0077023891312515769 0 -0.00070769441595315433 -0.0075710669624202837 0 -0.00030497946369157996 -0.0080103852591444872 0 -0.00065599585336402965 -0.0077842879863344134 0 -0.0004701667941341064 -0.0077023891312515769 0 -0.00030497946369157996 -0.0080103852591444872 0 -0.0004701667941341064 -0.0077023891312515769 0 -0.00023571388241384937 -0.0076927120425291928 0 -0.0001394027733129055 -0.0074927431802349976 0 -0.00023571388241384937 -0.0076927120425291928 0 -0.00044677853663904895 -0.0074539153622281001 0 0.00052096698018758928 -0.011043403617747858 0 -0.0010121088162714364 -0.01044459699038411 0 -0.0004701667941341064 -0.0077023891312515769 0 -0.00023571388241384937 -0.0076927120425291928 0 -0.00044677853663904895 -0.0074539153622281001 0 -0.0004701667941341064 -0.0077023891312515769 0 -0.00044677853663904895 -0.0074539153622281001 0 -0.00070769441595315433 -0.0075710669624202837 0 -0.00044677853663904895 -0.0074539153622281001 0 -0.00074914187759031654 -0.0074250719310581404 0 -0.00070769441595315433 -0.0075710669624202837 0 -0.0010121088162714364 -0.01044459699038411 0 -0.00075179261895972 -0.010028479050272364 0 -0.00075179261895972 -0.010028479050272364 0 -0.0010546602417303591 -0.0076392658987493112 0 -0.00094701037740531672 -0.0075392470387182524 0 -0.00075764551557672383 -0.0073998672633396271 0 -0.00070769441595315433 -0.0075710669624202837 0 -0.00094701037740531672 -0.0075392470387182524 0 -0.00082236596580974525 -0.0077223682092986048 0 -0.00070769441595315433 -0.0075710669624202837 0 -0.00075179261895972 -0.010028479050272364 0 -0.0012508663570451105 -0.013523001575680161 0 -0.00082070263255160146 -0.013520426897160811 0 -0.00072131714017492036 -0.013937906262143841 0 -0.001030067186613711 -0.013931569376555633 0 -0.0011729332464385973 -0.013484598016385735 0 -0.00082070263255160146 -0.013520426897160811 0 -0.001030067186613711 -0.013931569376555633 0 0.00052096698018758928 -0.011043403617747858 0 -0.00058284393577668237 -0.015463159038556424 0 -0.0011729332464385973 -0.013484598016385735 0 -0.001030067186613711 -0.013931569376555633 0 -0.0013119201822434346 -0.013897737321128582 0 -0.0015219345054184596 -0.013432561211488963 0 -0.0011729332464385973 -0.013484598016385735 0 -0.0013119201822434346 -0.013897737321128582 0 -0.001030067186613711 -0.013931569376555633 0 -0.0013119201822434346 -0.013897737321128582 0 -0.0010678219510495031 -0.014283818304776945 0 -0.00012225769421432548 -0.015857631049500123 0 1.5457171382056764e-05 -0.015242631647866092 0 -0.00059117745156306843 -0.015055164016138517 0 -0.00058284393577668237 -0.015463159038556424 0 -0.00087137822272316718 -0.014525946913959078 0 -0.00012812945028833499 -0.01477742404072312 0 1.5457171382056764e-05 -0.015242631647866092 0 -0.00059117745156306843 -0.015055164016138517 0 -0.001030067186613711 -0.013931569376555633 0 -0.0010678219510495031 -0.014283818304776945 0 -0.00098840204384740508 -0.014230257712784786 0 -0.0011668985031206183 -0.014229863766638887 0 -0.0010530021352050218 -0.01430096342358785 0 -0.00098840204384740508 -0.014230257712784786 0 -0.00072131714017492036 -0.013937906262143841 0 -0.001030067186613711 -0.013931569376555633 0 -0.00098840204384740508 -0.014230257712784786 0 -0.0010211841537697756 -0.014229364824021656 0 -0.0010678219510495031 -0.014283818304776945 0 -0.00098840204384740508 -0.014230257712784786 0 -0.0012508663570451105 -0.013523001575680161 0 -0.0010529584535178215 -0.014237146010034835 0 0.0024142074431378097 -0.017641222170383723 0 0.002330260058857894 -0.017440228521528389 0 0.0024449680739192714 -0.017269202649394494 0 0.0012432737157283373 -0.016552229971624165 0 0.0012127610577666245 -0.01606155115581839 0 0.00075113910177454805 -0.0160942358931873 0 0.0012127610577666245 -0.01606155115581839 0 0.00075113910177454805 -0.0160942358931873 0 0.00087342879254923001 -0.015677085734729479 0 0.0012127610577666245 -0.01606155115581839 0 0.00087342879254923001 -0.015677085734729479 0 0.0014434166721128472 -0.015650299788698217 0 0.00029041624796284919 -0.016514138008593499 0 -0.00012225769421432548 -0.015857631049500123 0 0.00032907486790334956 -0.0160776088287659 0 0.00029041624796284919 -0.016514138008593499 0 0.00075113910177454805 -0.0160942358931873 0 0.00032907486790334956 -0.0160776088287659 0 -0.00012225769421432548 -0.015857631049500123 0 0.00032907486790334956 -0.0160776088287659 0 0.00035437809314606326 -0.015658355994188151 0 0.00075113910177454805 -0.0160942358931873 0 0.00032907486790334956 -0.0160776088287659 0 0.00035437809314606326 -0.015658355994188151 0 0.00075113910177454805 -0.0160942358931873 0 0.00035437809314606326 -0.015658355994188151 0 0.00087342879254923001 -0.015677085734729479 0 0.0005935477835445432 -0.014835944804597594 0 1.5457171382056764e-05 -0.015242631647866092 0 0.00035437809314606326 -0.015658355994188151 0 0.0005935477835445432 -0.014835944804597594 0 0.00035437809314606326 -0.015658355994188151 0 0.00087342879254923001 -0.015677085734729479 0 -0.00012225769421432548 -0.015857631049500123 0 1.5457171382056764e-05 -0.015242631647866092 0 0.00035437809314606326 -0.015658355994188151 0 0.0005935477835445432 -0.014835944804597594 0 0.00087342879254923001 -0.015677085734729479 0 0.0014434166721128472 -0.015650299788698217 0 0.001484064757007769 -0.016224290986206667 0 0.0019063169672950122 -0.016443475480087136 0 0.002330260058857894 -0.017440228521528389 0 0.0024449680739192714 -0.017269202649394494 0 0.0021035139826909529 -0.017094648527442132 0 0.0021035139826909529 -0.017094648527442132 0 0.0018785278723346256 -0.016442958921838342 0 0.0016913429552799432 -0.017231018482289171 0 0.002330260058857894 -0.017440228521528389 0 0.0021035139826909529 -0.017094648527442132 0 0.0016913429552799432 -0.017231018482289171 0 0.0024449680739192714 -0.017269202649394494 0 0.0021035139826909529 -0.017094648527442132 0 0.0018785278723346256 -0.016442958921838342 0 0.0012432737157283373 -0.016552229971624165 0 0.0012127610577666245 -0.01606155115581839 0 0.0015615446036367495 -0.01627104154095407 0 0.0012127610577666245 -0.01606155115581839 0 0.0014434166721128472 -0.015650299788698217 0 0.0015615446036367495 -0.01627104154095407 0 0.0014434166721128472 -0.015650299788698217 0 0.0018785278723346256 -0.016442958921838342 0 0.0015615446036367495 -0.01627104154095407 0 0.0019063169672950122 -0.016443475480087136 0 0.0018605004481945123 -0.016422575134019821 0 0.0017163990376318802 -0.0064870682364095494 0 0.0011872877944415364 -0.0063437276998898054 0 0.0013785869374343821 -0.0060746620556857015 0 0.0012432737157283373 -0.016552229971624165 0 0.0015615446036367495 -0.01627104154095407 0 0.0018223477230423001 -0.016403653820297428 0 0.0016496869130541163 -0.011575983941200164 0 0.0014442192457470061 -0.01136366364785275 0 0.0018785278723346256 -0.016442958921838342 0 0.0015615446036367495 -0.01627104154095407 0 0.0018223477230423001 -0.016403653820297428 0 0.0018785278723346256 -0.016442958921838342 0 0.0018223477230423001 -0.016403653820297428 0 0.0016073003004940789 -0.016310018731690881 0 0.0011872877944415364 -0.0063437276998898054 0 0.0013785869374343821 -0.0060746620556857015 0 0.00099967073846549972 -0.0060317943521148174 0 0.0011417651745247786 -0.0057181539399984958 0 0.0013785869374343821 -0.0060746620556857015 0 0.00099967073846549972 -0.0060317943521148174 0 0.0015488924236928452 -0.005784885807823101 0 0.0017424694450775147 -0.0060791143855996582 0 0.0013785869374343821 -0.0060746620556857015 0 0.0017424694450775147 -0.0060791143855996582 0 0.0017163990376318802 -0.0064870682364095494 0 0.0013785869374343821 -0.0060746620556857015 0 0.00063296612022499879 -0.0059901027434021278 0 0.00077920786767762015 -0.0062164624476009371 0 0.00041982197590150768 -0.0061801243210691456 0 0.00080124257468942124 -0.005818156141726657 0 0.00063296612022499879 -0.0059901027434021278 0 0.00077920786767762015 -0.0062164624476009371 0 0.0011858895962608856 -0.011181230229731215 0 0.00076779900948134811 -0.011273770800488385 0 0.0011872877944415364 -0.0063437276998898054 0 0.00099967073846549972 -0.0060317943521148174 0 0.00077920786767762015 -0.0062164624476009371 0 0.00080124257468942124 -0.005818156141726657 0 0.00099967073846549972 -0.0060317943521148174 0 0.00077920786767762015 -0.0062164624476009371 0 0.0014442192457470061 -0.01136366364785275 0 0.0011858895962608856 -0.011181230229731215 0 0.0018223477230423001 -0.016403653820297428 0 0.0016073003004940789 -0.016310018731690881 0 0.0015423245981254622 -0.016154801398225789 0 0.0016073003004940789 -0.016310018731690881 0 0.0015423245981254622 -0.016154801398225789 0 0.0014255041140679619 -0.016191097711836726 0 0.0016073003004940789 -0.016310018731690881 0 0.0014255041140679619 -0.016191097711836726 0 0.0014476003507306581 -0.016319725440755418 0 0.0015423245981254622 -0.016154801398225789 0 0.0014255041140679619 -0.016191097711836726 0 0.0013243047084011278 -0.016045516106296124 0 0.0010972219280587501 -0.016695557416380388 0 0.0015131497919754187 -0.016735773041431045 0 0.0012472336367095659 -0.017039046036167581 0 0.0016073003004940789 -0.016310018731690881 0 0.0010972219280587501 -0.016695557416380388 0 0.0015131497919754187 -0.016735773041431045 0 0.0015598800428479791 -0.016331591446610005 0 0.0013410756913394711 -0.016469862215197962 0 0.0018785278723346256 -0.016442958921838342 0 0.0016073003004940789 -0.016310018731690881 0 0.0015131497919754187 -0.016735773041431045 0 0.0018785278723346256 -0.016442958921838342 0 0.0015131497919754187 -0.016735773041431045 0 0.0016913429552799432 -0.017231018482289171 0 0.0015131497919754187 -0.016735773041431045 0 0.0016913429552799432 -0.017231018482289171 0 0.0012472336367095659 -0.017039046036167581 0 0.0010972219280587501 -0.016695557416380388 0 0.0012472336367095659 -0.017039046036167581 0 0.0006896096861923126 -0.017059991522227272 0 0.0012171530136783632 -0.017434990202961239 0 0.0012472336367095659 -0.017039046036167581 0 0.0006896096861923126 -0.017059991522227272 0 0.0012171530136783632 -0.017434990202961239 0 0.0016913429552799432 -0.017231018482289171 0 0.0012472336367095659 -0.017039046036167581 0 0.0014476003507306581 -0.016319725440755418 0 0.0012953459219978709 -0.01641793038405721 0 0.0013002255393551095 -0.016245574153186056 0 0.0014255041140679619 -0.016191097711836726 0 0.0014476003507306581 -0.016319725440755418 0 0.0013002255393551095 -0.016245574153186056 0 0.0013410756913394711 -0.016469862215197962 0 0.0007240470031049318 -0.016897446022698676 0 0.0013002255393551095 -0.016245574153186056 0 0.0011029718578329708 -0.016288899740016294 0 0.0011757477748462577 -0.016109013630447783 0 0.0012953459219978709 -0.01641793038405721 0 0.0013002255393551095 -0.016245574153186056 0 0.0011029718578329708 -0.016288899740016294 0 0.0011452709313136914 -0.016530567295472951 0 0.0012953459219978709 -0.01641793038405721 0 0.0011029718578329708 -0.016288899740016294 0 0.0022083957277661279 -0.016381035340342031 0 0.0007240470031049318 -0.016897446022698676 0 0.0022083957277661279 -0.016381035340342031 0 0.0032668652401845067 -0.015872320598274998 0 0.0046015587849535999 -0.015740388813738172 0 0.0047048778640102146 -0.01501414985825379 0 0.0042645194111037253 -0.015021144626316407 0 0.0050661210982093363 -0.015401968193929491 0 0.0047048778640102146 -0.01501414985825379 0 0.0049182785470331244 -0.014339474718450264 0 0.0047048778640102146 -0.01501414985825379 0 0.0042645194111037253 -0.015021144626316407 0 0.0046515523404793754 -0.014562068950149595 0 0.0042251377258907029 -0.014436862958432108 0 0.0046515523404793754 -0.014562068950149595 0 0.0040090209724540906 -0.014743354368554231 0 0.0042645194111037253 -0.015021144626316407 0 0.0046515523404793754 -0.014562068950149595 0 0.0037492565992086786 -0.015052291998826529 0 0.004725986601291976 -0.014554212734149087 0 0.0035879078839406169 -0.014882400086898701 0 0.003971791625566083 -0.015608587285332281 0 0.0042645194111037253 -0.015021144626316407 0 0.0037492565992086786 -0.015052291998826529 0 0.0042251377258907029 -0.014436862958432108 0 0.0044581155577309581 -0.014074708393373095 0 0.0038406558804491221 -0.014186973752184223 0 0.0042251377258907029 -0.014436862958432108 0 0.0044557738807044969 -0.014357277848406536 0 0.0046515523404793754 -0.014562068950149595 0 0.0042251377258907029 -0.014436862958432108 0 0.0044557738807044969 -0.014357277848406536 0 0.0044581155577309581 -0.014074708393373095 0 0.0047048778640102146 -0.01501414985825379 0 0.0046515523404793754 -0.014562068950149595 0 0.0049182785470331244 -0.014339474718450264 0 0.0046515523404793754 -0.014562068950149595 0 0.0046137349031229215 -0.014332638352235692 0 0.0049182785470331244 -0.014339474718450264 0 0.0044557738807044969 -0.014357277848406536 0 0.0046515523404793754 -0.014562068950149595 0 0.0046137349031229215 -0.014332638352235692 0 0.0046137349031229215 -0.014332638352235692 0 0.0049182785470331244 -0.014339474718450264 0 0.0044581155577309581 -0.014074708393373095 0 0.0044557738807044969 -0.014357277848406536 0 0.0046137349031229215 -0.014332638352235692 0 0.0044581155577309581 -0.014074708393373095 0 0.0044581155577309581 -0.014074708393373095 0 0.0044514801789978502 -0.013723625683619654 0 0.0047722978976408627 -0.013493211602967117 0 0.0049182785470331244 -0.014339474718450264 0 0.0044581155577309581 -0.014074708393373095 0 0.0047722978976408627 -0.013493211602967117 0 0.0011029718578329708 -0.016288899740016294 0 0.0010520178840104229 -0.015982780852479669 0 0.0011757477748462577 -0.016109013630447783 0 0.0032668652401845067 -0.015872320598274998 0 0.0018850177075229329 -0.011787939265245677 0 0.0035512280810259867 -0.01044013974514346 0 0.0018850177075229329 -0.011787939265245677 0 0.0041610470141494448 -0.0087347497852969906 0 0.0033227434267828542 -0.0092904965118156893 0 0.0034728956726678161 -0.00863431532890265 0 0.0035512280810259867 -0.01044013974514346 0 0.003510199440172022 -0.011868975250413596 0 0.0044581155577309581 -0.014074708393373095 0 0.0044514801789978502 -0.013723625683619654 0 0.0038406558804491221 -0.014186973752184223 0 0.0021532169153714721 -0.0078894178275567273 0 0.0011904026275270207 -0.0089960668432797018 0 0.00037161051672127018 -0.0058019921166984094 0 0.00038667561046614525 -0.0057651385677092255 0 0.00033176806995814396 -0.0057427887131444588 0 0.00037161051672127018 -0.0058019921166984094 0 0.00038667561046614525 -0.0057651385677092255 0 0.00043567231550323623 -0.005795313283463506 0 0.0021069720306930821 -0.0093785361396314763 0 0.0022454485734084689 -0.0095282094229104247 0 0.0019541174708388848 -0.0095111801280571839 0 0.0041610470141494448 -0.0087347497852969906 0 0.0037888801539514433 -0.008286147230525176 0 0.0034728956726678161 -0.00863431532890265 0 0.0035512280810259867 -0.01044013974514346 0 0.0021532169153714721 -0.0078894178275567273 0 0.00037161051672127018 -0.0058019921166984094 0 0.00043964946424369076 -0.005816136679328023 0 0.00043567231550323623 -0.005795313283463506 0 0.0010852051238012803 -0.015961124582078566 0 0.0010520178840104229 -0.015982780852479669 0 0.0011757477748462577 -0.016109013630447783 0 0.0011904026275270207 -0.0089960668432797018 0 0.00094784197180839281 -0.0074945411485848844 0 0.00043741998246729034 -0.0058157643697950264 0 0.00044881899647540157 -0.0058150379757851171 0 0.00043567231550323623 -0.005795313283463506 0 0.0029564848367006511 -0.010415989158084445 0 0.00095263292015229585 -0.0101874159273733 0 0.0027785858186713747 -0.0090033651518491697 0 0.0010676900804366611 -0.0095125981584694465 0 0.0018850177075229329 -0.011787939265245677 0 0.0011904026275270207 -0.0089960668432797018 0 0.0010676900804366611 -0.0095125981584694465 0 0.0011904026275270207 -0.0089960668432797018 0 0.0018850177075229329 -0.011787939265245677 0 0.0021069720306930821 -0.0093785361396314763 0 0.0019541174708388848 -0.0095111801280571839 0 0.0019502574200782408 -0.0094794573807691126 0 0.00038667561046614525 -0.0057651385677092255 0 0.00043567231550323623 -0.005795313283463506 0 0.00041643451780439233 -0.0057553229042401196 0 0.00043567231550323623 -0.005795313283463506 0 0.00043863243580976436 -0.0057607784409161667 0 0.00041643451780439233 -0.0057553229042401196 0 0.00043567231550323623 -0.005795313283463506 0 0.00044567944092727054 -0.0057840528241048014 0 0.00043863243580976436 -0.0057607784409161667 0 0.00044881899647540157 -0.0058150379757851171 0 0.00044567944092727054 -0.0057840528241048014 0 0.00045921579706960716 -0.0057645180408721361 0 0.00044881899647540157 -0.0058150379757851171 0 0.00043567231550323623 -0.005795313283463506 0 0.00044567944092727054 -0.0057840528241048014 0 0.00044567944092727054 -0.0057840528241048014 0 0.00045921579706960716 -0.0057645180408721361 0 0.00043863243580976436 -0.0057607784409161667 0 0.0010852051238012803 -0.015961124582078566 0 0.0013243047084011278 -0.016045516106296124 0 0.0011757477748462577 -0.016109013630447783 0 0.00044881899647540157 -0.0058150379757851171 0 0.00045921579706960716 -0.0057645180408721361 0 0.00048901154451100391 -0.0057608828697578197 0 0.0010676900804366611 -0.0095125981584694465 0 0.00054321941038486124 -0.005722509633592306 0 -8.2331441218489077e-06 -0.006168712629288425 0 0.0002456064293507579 -0.0059599164262955076 0 0.00041982197590150768 -0.0061801243210691456 0 0.0010676900804366611 -0.0095125981584694465 0 0.00076779900948134811 -0.011273770800488385 0 0.0002456064293507579 -0.0059599164262955076 0 0.00041982197590150768 -0.0061801243210691456 0 0.0005215307519562273 -0.0057563021000337179 0 0.00063296612022499879 -0.0059901027434021278 0 0.00041982197590150768 -0.0061801243210691456 0 0.0005215307519562273 -0.0057563021000337179 0 0.0014255041140679619 -0.016191097711836726 0 0.0013002255393551095 -0.016245574153186056 0 0.0013243047084011278 -0.016045516106296124 0 0.0013002255393551095 -0.016245574153186056 0 0.0013243047084011278 -0.016045516106296124 0 0.0011757477748462577 -0.016109013630447783 0 0.0076070767243709772 -0.0082226539313574841 0 0.0075806305379138347 -0.0084298493356834477 0 0.0074838338130640445 -0.008318291813225626 0 0.0074838338130640445 -0.008318291813225626 0 0.0073436846051378873 -0.0082312157332212251 0 0.0075397481665234328 -0.0084603512131800791 0 0.0079976483577204639 -0.010187531117090622 0 0.0080201098397150242 -0.010510792595386261 0 0.0073662625704303932 -0.010442609456964543 0 0.0076070767243709772 -0.0082226539313574841 0 0.0074838338130640445 -0.008318291813225626 0 0.0073895103395680822 -0.0082112850077568165 0 0.0078382512111190225 -0.0093703247617583901 0 0.0069418251318287645 -0.010307545384733448 0 0.0074838338130640445 -0.008318291813225626 0 0.0073895103395680822 -0.0082112850077568165 0 0.0073436846051378873 -0.0082312157332212251 0 0.0080029091091596821 -0.011395801033327678 0 0.0069418251318287645 -0.010307545384733448 0 0.0073959327146281856 -0.011516060192836595 0 0.0081485293110926654 -0.012416309816363368 0 0.0067512432933050266 -0.012148018035650516 0 0.0081485293110926654 -0.012416309816363368 0 0.0067512432933050266 -0.012148018035650516 0 0.0068896175404967756 -0.012933895170525497 0 0.0067512432933050266 -0.012148018035650516 0 0.0064900817298284511 -0.012888843817138604 0 0.0068896175404967756 -0.012933895170525497 0 0.0064884641718728799 -0.011979671647956021 0 0.00542610274955757 -0.012106554513851718 0 0.0067512432933050266 -0.012148018035650516 0 0.0061980644211915171 -0.012501518588944599 0 0.0064900817298284511 -0.012888843817138604 0 0.0065663298673822711 -0.011629333081741036 0 0.0067512432933050266 -0.012148018035650516 0 0.0061753525844604647 -0.011939914761931883 0 0.0061753525844604647 -0.011939914761931883 0 0.0061839204850834602 -0.012523585571470833 0 0.0056792951281714153 -0.011860794572483343 0 0.0067512432933050266 -0.012148018035650516 0 0.0061753525844604647 -0.011939914761931883 0 0.0061839204850834602 -0.012523585571470833 0 0.0050287452433700969 -0.010865973732510852 0 0.0054730505629289605 -0.011452144203164642 0 0.0046356503241096834 -0.011365955351807252 0 0.00542610274955757 -0.012106554513851718 0 0.0061007759835858058 -0.010634905143109896 0 0.00542610274955757 -0.012106554513851718 0 0.003860055479996999 -0.012153837018639892 0 0.0050287452433700969 -0.010865973732510852 0 0.0046356503241096834 -0.011365955351807252 0 0.0045838604929710636 -0.011153294321173264 0 0.0059636008433317381 -0.0089868546512217908 0 0.0057566159163478159 -0.0092426889519499032 0 0.0061857585785719919 -0.0092882665389848393 0 0.0059636008433317381 -0.0089868546512217908 0 0.0061857585785719919 -0.0092882665389848393 0 0.0059358325672161016 -0.00819605897300087 0 0.0061007759835858058 -0.010634905143109896 0 0.0040983392973483286 -0.010391535347276763 0 0.0059636008433317381 -0.0089868546512217908 0 0.0056723398611769641 -0.0091052280873416842 0 0.0057777956260273372 -0.0086920835482141509 0 0.0040983392973483286 -0.010391535347276763 0 0.0040466870349975016 -0.0086202507353780877 0 0.0059636008433317381 -0.0089868546512217908 0 0.0057566159163478159 -0.0092426889519499032 0 0.0056627866017187733 -0.009116288953569765 0 0.0060416931032898219 -0.009418565706612099 0 0.0061603993073242767 -0.0095930497255066801 0 0.0061007759835858058 -0.010634905143109896 0 0.0069418251318287645 -0.010307545384733448 0 0.0059260495656699198 -0.010330432228978842 0 0.0067026913872965986 -0.010412343261721038 0 0.0061584769449837375 -0.01063969256764415 0 0.0061007759835858058 -0.010634905143109896 0 0.0061603993073242767 -0.0095930497255066801 0 0.0069418251318287645 -0.010307545384733448 0 0.0061603993073242767 -0.0095930497255066801 0 0.0056723398611769641 -0.0091052280873416842 0 0.0057777956260273372 -0.0086920835482141509 0 0.0055418162118772785 -0.0084768634756762027 0 0.0059636008433317381 -0.0089868546512217908 0 0.0057777956260273372 -0.0086920835482141509 0 0.0059358325672161016 -0.00819605897300087 0 0.0027237418943492687 -0.0093006101588753651 0 0.0024635459149187312 -0.0097757853830321307 0 0.00225559892860206 -0.0089233589076438569 0 0.003315087694859678 -0.014552695170339802 0 0.0037577957736629032 -0.014559835896888335 0 0.0038406558804491221 -0.014186973752184223 0 0.0027237418943492687 -0.0093006101588753651 0 0.0025547378163957401 -0.0097860103331890904 0 0.0033227434267828542 -0.0092904965118156893 0 0.003860055479996999 -0.012153837018639892 0 0.003510199440172022 -0.011868975250413596 0 0.0025547378163957401 -0.0097860103331890904 0 0.0024883562804188602 -0.009863231246184441 0 0.0033227434267828542 -0.0092904965118156893 0 0.0027237418943492687 -0.0093006101588753651 0 0.0025547378163957401 -0.0097860103331890904 0 0.0024635459149187312 -0.0097757853830321307 0 0.003791187908945096 -0.01033528374875861 0 0.0040983392973483286 -0.010391535347276763 0 0.003315087694859678 -0.014552695170339802 0 0.0035094507773157368 -0.014709674998919951 0 0.0037577957736629032 -0.014559835896888335 0 0.0025547378163957401 -0.0097860103331890904 0 0.002471405460935413 -0.0097797991471274427 0 0.0024883562804188602 -0.009863231246184441 0 0.0040983392973483286 -0.010391535347276763 0 0.003860055479996999 -0.012153837018639892 0 0.0039788352843375232 -0.012507188119752695 0 0.0045617777825969468 -0.012127011271581183 0 0.004976398435185477 -0.013847869974555607 0 0.003315087694859678 -0.014552695170339802 0 0.0033981131139643119 -0.014881630202106096 0 0.0035094507773157368 -0.014709674998919951 0 0.00542610274955757 -0.012106554513851718 0 0.0047797287122369244 -0.014290531425762811 0 0.003464440255714565 -0.014972249838896341 0 0.0033981131139643119 -0.014881630202106096 0 0.0035094507773157368 -0.014709674998919951 0 0.003860055479996999 -0.012153837018639892 0 0.0047797287122369244 -0.014290531425762811 0 0.003464440255714565 -0.014972249838896341 0 0.0035094507773157368 -0.014709674998919951 0 0.0036938047167581166 -0.014726826133022361 0 0.0035094507773157368 -0.014709674998919951 0 0.0037577957736629032 -0.014559835896888335 0 0.0036938047167581166 -0.014726826133022361 0 0.003464440255714565 -0.014972249838896341 0 0.0036938047167581166 -0.014726826133022361 0 0.0040090209724540906 -0.014743354368554231 0 0.0047997454199358268 -0.015930204313076901 0 0.0035879078839406169 -0.014882400086898701 0 0.0037577957736629032 -0.014559835896888335 0 0.0036938047167581166 -0.014726826133022361 0 0.0040090209724540906 -0.014743354368554231 0 0.0042251377258907029 -0.014436862958432108 0 0.0037577957736629032 -0.014559835896888335 0 0.0040090209724540906 -0.014743354368554231 0 0.0042251377258907029 -0.014436862958432108 0 0.0037577957736629032 -0.014559835896888335 0 0.0038406558804491221 -0.014186973752184223 0 0.0033227434267828542 -0.0092904965118156893 0 0.0034728956726678161 -0.00863431532890265 0 0.0029474563816368204 -0.0087675519724595176 0 0.0037888801539514433 -0.008286147230525176 0 0.0034728956726678161 -0.00863431532890265 0 0.0032329745866914224 -0.0082063812810061511 0 0.0021532169153714721 -0.0078894178275567273 0 0.0017892460591164764 -0.0066918657999299374 0 0.0037389418504758 -0.0082558745420079696 0 0.0032329745866914224 -0.0082063812810061511 0 0.0033669666355909014 -0.0077975600880600933 0 0.0021532169153714721 -0.0078894178275567273 0 0.0037633575167764408 -0.008245146507352745 0 0.0034728956726678161 -0.00863431532890265 0 0.0032329745866914224 -0.0082063812810061511 0 0.0029474563816368204 -0.0087675519724595176 0 0.0032329745866914224 -0.0082063812810061511 0 0.0026707793880339035 -0.0082484891857039101 0 0.0029474563816368204 -0.0087675519724595176 0 0.0032329745866914224 -0.0082063812810061511 0 0.0026707793880339035 -0.0082484891857039101 0 0.0029329060528760732 -0.0078675934850964187 0 0.0027237418943492687 -0.0093006101588753651 0 0.0033227434267828542 -0.0092904965118156893 0 0.0029474563816368204 -0.0087675519724595176 0 0.0026707793880339035 -0.0082484891857039101 0 0.0029474563816368204 -0.0087675519724595176 0 0.00225559892860206 -0.0089233589076438569 0 0.0027237418943492687 -0.0093006101588753651 0 0.0029474563816368204 -0.0087675519724595176 0 0.00225559892860206 -0.0089233589076438569 0 0.0059358325672161016 -0.00819605897300087 0 0.0054281564201904883 -0.0079976456860750989 0 0.0056785303791662247 -0.0071192866394448025 0 0.0057777956260273372 -0.0086920835482141509 0 0.0059358325672161016 -0.00819605897300087 0 0.0055418162118772785 -0.0084768634756762027 0 0.0059358325672161016 -0.00819605897300087 0 0.0055418162118772785 -0.0084768634756762027 0 0.0054281564201904883 -0.0079976456860750989 0 0.0026707793880339035 -0.0082484891857039101 0 0.0020651712079025244 -0.0080801079654460768 0 0.0025182069153006602 -0.007699921077165074 0 0.0040466870349975016 -0.0086202507353780877 0 0.004856843211779433 -0.0063106137329954366 0 0.0026707793880339035 -0.0082484891857039101 0 0.00225559892860206 -0.0089233589076438569 0 0.0020651712079025244 -0.0080801079654460768 0 0.0077452782474269179 -0.0050017862510745512 0 0.0077750434689027349 -0.0049643608450310921 0 0.0078013832754381656 -0.0047256268511246813 0 0.0054281564201904883 -0.0079976456860750989 0 0.0056785303791662247 -0.0071192866394448025 0 0.0047840534335399912 -0.0078781188621108757 0 0.0079219648085642712 -0.004798627955421444 0 0.0077750434689027349 -0.0049643608450310921 0 0.0078013832754381656 -0.0047256268511246813 0 0.004856843211779433 -0.0063106137329954366 0 0.0071614342355907816 -0.0068940430854780299 0 0.0061603993073242767 -0.0095930497255066801 0 0.0071614342355907816 -0.0068940430854780299 0 0.0056723398611769641 -0.0091052280873416842 0 0.0055418162118772785 -0.0084768634756762027 0 0.0047840534335399912 -0.0078781188621108757 0 0.0075085321950809601 -0.0064316188258572065 0 0.0071614342355907816 -0.0068940430854780299 0 0.0055418162118772785 -0.0084768634756762027 0 0.0054281564201904883 -0.0079976456860750989 0 0.0047840534335399912 -0.0078781188621108757 0 0.0075806305379138347 -0.0084298493356834477 0 0.0074838338130640445 -0.008318291813225626 0 0.0075397481665234328 -0.0084603512131800791 0 0.0057378095038830091 -0.0049632732965741696 0 0.004881510174104626 -0.0045003892581052902 0 0.0077414062268889826 -0.0045654870732146436 0 0.0078764480224571363 -0.0046063718060612019 0 0.0078165366166064679 -0.00441986544527219 0 0.0076640208291284557 -0.0044421253000854841 0 0.0077414062268889826 -0.0045654870732146436 0 0.0078165366166064679 -0.00441986544527219 0 0.0079219648085642712 -0.004798627955421444 0 0.0078013832754381656 -0.0047256268511246813 0 0.0078764480224571363 -0.0046063718060612019 0 0.0076765386193521521 -0.0046784384016772861 0 0.0077414062268889826 -0.0045654870732146436 0 0.0078013832754381656 -0.0047256268511246813 0 0.0077414062268889826 -0.0045654870732146436 0 0.0078013832754381656 -0.0047256268511246813 0 0.0078764480224571363 -0.0046063718060612019 0 0.004856843211779433 -0.0063106137329954366 0 0.0057378095038830091 -0.0049632732965741696 0 0.0035434867277553215 -0.0054528418454132307 0 0.0034507684950119783 -0.0055047072130564173 0 0.0034044461704574027 -0.0053943086447209602 0 0.003512412297292029 -0.0053195481903172475 0 0.0035434867277553215 -0.0054528418454132307 0 0.0034044461704574027 -0.0053943086447209602 0 0.004856843211779433 -0.0063106137329954366 0 0.0027919396341811323 -0.0066890737510694387 0 0.0034507684950119783 -0.0055047072130564173 0 0.0034295331281898665 -0.0056141934556546407 0 0.0035799789617530363 -0.0055899814896440345 0 0.0035434867277553215 -0.0054528418454132307 0 0.0034507684950119783 -0.0055047072130564173 0 0.0035799789617530363 -0.0055899814896440345 0 0.0034507684950119783 -0.0055047072130564173 0 0.0032961252864672757 -0.00547328215549279 0 0.0034295331281898665 -0.0056141934556546407 0 0.0021960097418375429 -0.0058811246407975606 0 0.0019381102639634978 -0.0049206888234178577 0 0.0015572981572266147 -0.0049980744559655968 0 0.0014295748174256496 -0.0053732361767224023 0 0.0018346302241753277 -0.0053155560304819962 0 0.0034507684950119783 -0.0055047072130564173 0 0.0032961252864672757 -0.00547328215549279 0 0.0034044461704574027 -0.0053943086447209602 0 0.0026707793880339035 -0.0082484891857039101 0 0.0025182069153006602 -0.007699921077165074 0 0.0029329060528760732 -0.0078675934850964187 0 0.0029672323222378911 -0.0073156248752537 0 0.0025182069153006602 -0.007699921077165074 0 0.0029329060528760732 -0.0078675934850964187 0 0.0021960097418375429 -0.0058811246407975606 0 0.0027919396341811323 -0.0066890737510694387 0 0.0029672323222378911 -0.0073156248752537 0 0.0029329060528760732 -0.0078675934850964187 0 0.0033669666355909014 -0.0077975600880600933 0 0.00029821618996391864 -0.0056902568197976519 0 0.00033176806995814396 -0.0057427887131444588 0 0.00035795961925343291 -0.0056863192359993117 0 0.0021960097418375429 -0.0058811246407975606 0 0.0017892460591164764 -0.0066918657999299374 0 0.0032329745866914224 -0.0082063812810061511 0 0.0029329060528760732 -0.0078675934850964187 0 0.0033669666355909014 -0.0077975600880600933 0 0.00029821618996391864 -0.0056902568197976519 0 0.00033955756173466685 -0.0056339670990637504 0 0.00035795961925343291 -0.0056863192359993117 0 0.0015572981572266147 -0.0049980744559655968 0 0.0012883696852537443 -0.0052123454744189401 0 0.0014295748174256496 -0.0053732361767224023 0 0.0021960097418375429 -0.0058811246407975606 0 0.00064642191755327793 -0.0055120006087875824 0 0.0012444353873958386 -0.0039134653846916992 0 0.0012633239040685488 -0.0039795286562353113 0 0.0013165819068787731 -0.0039494664958467998 0 0.001200859342448899 -0.0039866558348503889 0 0.0011565128722149224 -0.0040695038403197074 0 0.0012502072231352834 -0.0040393561900849027 0 0.001200859342448899 -0.0039866558348503889 0 0.0012633239040685488 -0.0039795286562353113 0 0.0012502072231352834 -0.0040393561900849027 0 0.0012444353873958386 -0.0039134653846916992 0 0.001200859342448899 -0.0039866558348503889 0 0.0012633239040685488 -0.0039795286562353113 0 0.0012633239040685488 -0.0039795286562353113 0 0.001321158165351221 -0.0040039207818836544 0 0.0013165819068787731 -0.0039494664958467998 0 0.0012633239040685488 -0.0039795286562353113 0 0.001321158165351221 -0.0040039207818836544 0 0.0012502072231352834 -0.0040393561900849027 0 0.001321158165351221 -0.0040039207818836544 0 0.0013668460823861195 -0.0039492411708046109 0 0.0013165819068787731 -0.0039494664958467998 0 0.0013668460823861195 -0.0039492411708046109 0 0.0013165819068787731 -0.0039494664958467998 0 0.0013817376736239789 -0.0038939554071494116 0 0.001323007580114848 -0.0045819364076947824 0 0.0019381102639634978 -0.0049206888234178577 0 0.0012444353873958386 -0.0039134653846916992 0 0.0013165819068787731 -0.0039494664958467998 0 0.0013817376736239789 -0.0038939554071494116 0 0.0014003384306110441 -0.00391262629234312 0 0.0014128019459961505 -0.0039812243664734404 0 0.0014914822415194216 -0.0038876701385830753 0 0.0014003384306110441 -0.00391262629234312 0 0.0013872535549545283 -0.0038969205800476097 0 0.0014914822415194216 -0.0038876701385830753 0 0.0019381102639634978 -0.0049206888234178577 0 0.004881510174104626 -0.0045003892581052902 0 0.001619886607936052 -0.0044908361139621433 0 0.0019381102639634978 -0.0049206888234178577 0 0.0013668460823861195 -0.0039492411708046109 0 0.0014003384306110441 -0.00391262629234312 0 0.0014128019459961505 -0.0039812243664734404 0 0.0013668460823861195 -0.0039492411708046109 0 0.0014003384306110441 -0.00391262629234312 0 0.0013817376736239789 -0.0038939554071494116 0 0.0014128019459961505 -0.0039812243664734404 0 0.0015019512156027402 -0.0040192951409872132 0 0.0014219448628680054 -0.0040529923729376157 0 0.0014128019459961505 -0.0039812243664734404 0 0.0014219448628680054 -0.0040529923729376157 0 0.0013633851853860951 -0.0040352927559259011 0 0.001321158165351221 -0.0040039207818836544 0 0.0013668460823861195 -0.0039492411708046109 0 0.0014128019459961505 -0.0039812243664734404 0 0.001321158165351221 -0.0040039207818836544 0 0.0014128019459961505 -0.0039812243664734404 0 0.0013633851853860951 -0.0040352927559259011 0 0.0045342218744992792 -0.0041359415977472924 0 0.004881510174104626 -0.0045003892581052902 0 0.0014128019459961505 -0.0039812243664734404 0 0.0015019512156027402 -0.0040192951409872132 0 0.0014914822415194216 -0.0038876701385830753 0 0.0076278443271108731 -0.0044020101043091972 0 0.0076089680284340761 -0.0043787286772065965 0 0.0076547649527052624 -0.0044304823302697954 0 0.0076640208291284557 -0.0044421253000854841 0 0.0076278443271108731 -0.0044020101043091972 0 0.0076547649527052624 -0.0044304823302697954 0 0.0084813962280703026 -0.0042926848106508066 0 0.004881510174104626 -0.0045003892581052902 0 0.00046989808357216802 -0.0056283993623252463 0 0.0005188165418329719 -0.0056151834320174801 0 0.00050909608841084137 -0.0055417724106889762 0 0.00046989808357216802 -0.0056283993623252463 0 0.0005188165418329719 -0.0056151834320174801 0 0.00047455506358023606 -0.0057029176549747334 0 0.00045690847529669811 -0.0056741564386163824 0 0.00046989808357216802 -0.0056283993623252463 0 0.0004350680942160894 -0.0056685984316480207 0 0.00045690847529669811 -0.0056741564386163824 0 0.00046989808357216802 -0.0056283993623252463 0 0.00047455506358023606 -0.0057029176549747334 0 0.00046989808357216802 -0.0056283993623252463 0 0.00043051731243646363 -0.0056273717195873619 0 0.00045415395315886336 -0.0055881133311114226 0 0.00067787752463150416 -0.0054999347023393097 0 0.0005188165418329719 -0.0056151834320174801 0 0.00050909608841084137 -0.0055417724106889762 0 0.00067787752463150416 -0.0054999347023393097 0 0.0005188165418329719 -0.0056151834320174801 0 0.0005215307519562273 -0.0057563021000337179 0 0.0005188165418329719 -0.0056151834320174801 0 0.0005215307519562273 -0.0057563021000337179 0 0.00047455506358023606 -0.0057029176549747334 0 0.00054321941038486124 -0.005722509633592306 0 0.00044489835828764212 -0.00580769851509588 0 0.00048901154451100391 -0.0057608828697578197 0 0.0005215307519562273 -0.0057563021000337179 0 0.00047455506358023606 -0.0057029176549747334 0 0.00045690847529669811 -0.0056741564386163824 0 0.00047455506358023606 -0.0057029176549747334 0 0.00044718583350958775 -0.0057010404233413161 0 0.00047455506358023606 -0.0057029176549747334 0 0.00045672104305266104 -0.00573092811941266 0 0.00044718583350958775 -0.0057010404233413161 0 0.00048901154451100391 -0.0057608828697578197 0 0.00047455506358023606 -0.0057029176549747334 0 0.00045672104305266104 -0.00573092811941266 0 0.00045921579706960716 -0.0057645180408721361 0 0.00048901154451100391 -0.0057608828697578197 0 0.00045672104305266104 -0.00573092811941266 0 0.00045921579706960716 -0.0057645180408721361 0 0.00045672104305266104 -0.00573092811941266 0 0.00043863243580976436 -0.0057607784409161667 0 0.00045672104305266104 -0.00573092811941266 0 0.000434669798741671 -0.0057313745231802873 0 0.00043863243580976436 -0.0057607784409161667 0 0.000434669798741671 -0.0057313745231802873 0 0.00043863243580976436 -0.0057607784409161667 0 0.00041643451780439233 -0.0057553229042401196 0 0.000434669798741671 -0.0057313745231802873 0 0.00041643451780439233 -0.0057553229042401196 0 0.00039227154112892783 -0.0057233007530864775 0 0.000434669798741671 -0.0057313745231802873 0 0.00042133532445655928 -0.0056988605094699966 0 0.00039227154112892783 -0.0057233007530864775 0 0.00042133532445655928 -0.0056988605094699966 0 0.00039227154112892783 -0.0057233007530864775 0 0.00040282090856244768 -0.0056698753026403767 0 0.000434669798741671 -0.0057313745231802873 0 0.00042133532445655928 -0.0056988605094699966 0 0.00044718583350958775 -0.0057010404233413161 0 0.00042133532445655928 -0.0056988605094699966 0 0.00044718583350958775 -0.0057010404233413161 0 0.0004350680942160894 -0.0056685984316480207 0 0.00045672104305266104 -0.00573092811941266 0 0.000434669798741671 -0.0057313745231802873 0 0.00044718583350958775 -0.0057010404233413161 0 0.00033176806995814396 -0.0057427887131444588 0 0.00039227154112892783 -0.0057233007530864775 0 0.00035795961925343291 -0.0056863192359993117 0 0.00038667561046614525 -0.0057651385677092255 0 0.00033176806995814396 -0.0057427887131444588 0 0.00039227154112892783 -0.0057233007530864775 0 0.00038667561046614525 -0.0057651385677092255 0 0.00041643451780439233 -0.0057553229042401196 0 0.00039227154112892783 -0.0057233007530864775 0 0.00039227154112892783 -0.0057233007530864775 0 0.00035795961925343291 -0.0056863192359993117 0 0.00040282090856244768 -0.0056698753026403767 0 0.00035795961925343291 -0.0056863192359993117 0 0.00037731775746112584 -0.0056501982990786823 0 0.00040282090856244768 -0.0056698753026403767 0 0.00037731775746112584 -0.0056501982990786823 0 0.00040282090856244768 -0.0056698753026403767 0 0.00040671719142291101 -0.0056282267770848002 0 0.00037731775746112584 -0.0056501982990786823 0 0.00040671719142291101 -0.0056282267770848002 0 0.00038998581095891696 -0.0056057932276638361 0 0.00033955756173466685 -0.0056339670990637504 0 0.00035795961925343291 -0.0056863192359993117 0 0.00037731775746112584 -0.0056501982990786823 0 0.00033955756173466685 -0.0056339670990637504 0 0.00037731775746112584 -0.0056501982990786823 0 0.00038998581095891696 -0.0056057932276638361 0 0.00045690847529669811 -0.0056741564386163824 0 0.00044718583350958775 -0.0057010404233413161 0 0.0004350680942160894 -0.0056685984316480207 0 0.00042133532445655928 -0.0056988605094699966 0 0.0004350680942160894 -0.0056685984316480207 0 0.00040282090856244768 -0.0056698753026403767 0 0.0004350680942160894 -0.0056685984316480207 0 0.00040282090856244768 -0.0056698753026403767 0 0.00043051731243646363 -0.0056273717195873619 0 0.00040671719142291101 -0.0056282267770848002 0 0.00043051731243646363 -0.0056273717195873619 0 0.0004244147988083564 -0.0055904102653621312 0 0.00040282090856244768 -0.0056698753026403767 0 0.00040671719142291101 -0.0056282267770848002 0 0.00043051731243646363 -0.0056273717195873619 0 0.00046989808357216802 -0.0056283993623252463 0 0.0004350680942160894 -0.0056685984316480207 0 0.00043051731243646363 -0.0056273717195873619 0 0.0004244147988083564 -0.0055904102653621312 0 0.00044348421240448274 -0.0055572752956211773 0 0.00045415395315886336 -0.0055881133311114226 0 0.00043051731243646363 -0.0056273717195873619 0 0.0004244147988083564 -0.0055904102653621312 0 0.00045415395315886336 -0.0055881133311114226 0 0.00040671719142291101 -0.0056282267770848002 0 0.0004244147988083564 -0.0055904102653621312 0 0.00038998581095891696 -0.0056057932276638361 0 0.0004244147988083564 -0.0055904102653621312 0 0.00040615063117783372 -0.0055611554366831748 0 0.00038998581095891696 -0.0056057932276638361 0 0.00040615063117783372 -0.0055611554366831748 0 0.000391452344538078 -0.005563374712089615 0 0.00043906473478215452 -0.0055168935835034592 0 0.00040615063117783372 -0.0055611554366831748 0 0.00044348421240448274 -0.0055572752956211773 0 0.00043906473478215452 -0.0055168935835034592 0 0.0004244147988083564 -0.0055904102653621312 0 0.00040615063117783372 -0.0055611554366831748 0 0.00044348421240448274 -0.0055572752956211773 0 0.0012883696852537443 -0.0052123454744189401 0 0.0014295748174256496 -0.0053732361767224023 0 0.0010194179168145107 -0.0054271385844097903 0 0.0012444353873958386 -0.0039134653846916992 0 0.001200859342448899 -0.0039866558348503889 0 0.0011158232726249085 -0.003937267956681101 0 0.001323007580114848 -0.0045819364076947824 0 0.0008679881124000838 -0.0050834442004366962 0 0.00064642191755327793 -0.0055120006087875824 0 0.0008679881124000838 -0.0050834442004366962 0 0.00033955756173466685 -0.0056339670990637504 0 0.00038998581095891696 -0.0056057932276638361 0 0.00038858606465486361 -0.0055671903098281341 0 0.00040615063117783372 -0.0055611554366831748 0 0.00038998581095891696 -0.0056057932276638361 0 0.00038858606465486361 -0.0055671903098281341 0 0.00059438592158610908 -0.0051991959211941966 0 0.0008679881124000838 -0.0050834442004366962 0 0.001200859342448899 -0.0039866558348503889 0 0.0011158232726249085 -0.003937267956681101 0 0.0011565128722149224 -0.0040695038403197074 0 0.0011158232726249085 -0.003937267956681101 0 0.0010330075300538273 -0.0040058691084326817 0 0.0011565128722149224 -0.0040695038403197074 0 0.00053245681930145399 -0.0046752798976905383 0 0.00090663695638164656 -0.0042481549830732553 0 0.0008679881124000838 -0.0050834442004366962 0 0.00053245681930145399 -0.0046752798976905383 0 0.00045327072314780593 -0.0045710908383244419 0 0.00038375348557220188 -0.0047314241365087155 0 0.00046937100792003632 -0.0046109976892166928 0 0.00016248681492222187 -0.0049080407812151913 0 0.00043120494255223627 -0.0051791121350551724 0 0.00038375348557220188 -0.0047314241365087155 0 0.00053245681930145399 -0.0046752798976905383 0 0.00032704192853923154 -0.0047658614852394733 0 0.00053245681930145399 -0.0046752798976905383 0 0.00046610083593298554 -0.0054326275558244765 0 0.00046989808357216802 -0.0056283993623252463 0 0.00045415395315886336 -0.0055881133311114226 0 0.00050909608841084137 -0.0055417724106889762 0 0.00044348421240448274 -0.0055572752956211773 0 0.00043906473478215452 -0.0055168935835034592 0 0.00050909608841084137 -0.0055417724106889762 0 0.00044348421240448274 -0.0055572752956211773 0 0.00045415395315886336 -0.0055881133311114226 0 0.00050909608841084137 -0.0055417724106889762 0 0.00067712192241306567 -0.0054819831679386918 0 0.00046610083593298554 -0.0054326275558244765 0 0.00043120494255223627 -0.0051791121350551724 0 0.00052589160913450034 -0.0048980447537678492 0 0.00038375348557220188 -0.0047314241365087155 0 0.00067847464176107276 -0.0051406361621831927 0 0.00043120494255223627 -0.0051791121350551724 0 0.00052589160913450034 -0.0048980447537678492 0 0.00052589160913450034 -0.0048980447537678492 0 0.00055116475378565156 -0.0047494977445582979 0 0.00067565028216157457 -0.0048903862349575014 0 0.00052589160913450034 -0.0048980447537678492 0 0.00047321805140724296 -0.0047573951744880067 0 0.00038375348557220188 -0.0047314241365087155 0 0.00052589160913450034 -0.0048980447537678492 0 0.00047321805140724296 -0.0047573951744880067 0 0.00055116475378565156 -0.0047494977445582979 0 0.00047321805140724296 -0.0047573951744880067 0 0.00055116475378565156 -0.0047494977445582979 0 0.00045091149755890485 -0.0046792906860074939 0 -0.00010916724729322662 -0.0040046983093888931 0 0.00015841102836387051 -0.0040436270247097197 0 -0.00069000777450409613 -0.0033941955760559048 0 -0.00034611749227738249 -0.0034453527639305048 0 -0.00086727750643466348 -0.0035913982007314119 0 0.00055116475378565156 -0.0047494977445582979 0 0.00053617584907595718 -0.0046191761705761851 0 0.00045091149755890485 -0.0046792906860074939 0 -0.00038908411217352209 -0.0034494300039849993 0 -0.00086476646196010471 -0.003529789386911284 0 0.00053617584907595718 -0.0046191761705761851 0 0.00043399929707476433 -0.00465551615955278 0 0.00045091149755890485 -0.0046792906860074939 0 -0.00069000777450409613 -0.0033941955760559048 0 -0.00013877085450430588 -0.0034268925266503067 0 -0.00034611749227738249 -0.0034453527639305048 0 0.00043399929707476433 -0.00465551615955278 0 0.00045091149755890485 -0.0046792906860074939 0 0.00045476059336619902 -0.0046327489522390991 0 -0.00013877085450430588 -0.0034268925266503067 0 -0.00034611749227738249 -0.0034453527639305048 0 -0.0002344742573110633 -0.0035941106361057902 0 0.00045091149755890485 -0.0046792906860074939 0 0.00038375348557220188 -0.0047314241365087155 0 0.00045476059336619902 -0.0046327489522390991 0 0.00047321805140724296 -0.0047573951744880067 0 0.00045091149755890485 -0.0046792906860074939 0 0.00038375348557220188 -0.0047314241365087155 0 0.00045327072314780593 -0.0045710908383244419 0 0.00046937100792003632 -0.0046109976892166928 0 0.00060115645068487705 -0.0045124079538556927 0 0.00038375348557220188 -0.0047314241365087155 0 0.00046937100792003632 -0.0046109976892166928 0 0.00045476059336619902 -0.0046327489522390991 0 0.00046937100792003632 -0.0046109976892166928 0 0.00045476059336619902 -0.0046327489522390991 0 0.00060115645068487705 -0.0045124079538556927 0 0.00045476059336619902 -0.0046327489522390991 0 0.00060115645068487705 -0.0045124079538556927 0 0.00058929488842954768 -0.0046329924451226296 0 0.00060115645068487705 -0.0045124079538556927 0 0.00058929488842954768 -0.0046329924451226296 0 0.00085069982572113026 -0.0044224983937301001 0 0.00015841102836387051 -0.0040436270247097197 0 0.00049077283819989144 -0.0041017123053648727 0 0.00043399929707476433 -0.00465551615955278 0 0.00045476059336619902 -0.0046327489522390991 0 0.00058929488842954768 -0.0046329924451226296 0 -0.00013877085450430588 -0.0034268925266503067 0 0.00041361478509425325 -0.0035746885696043939 0 6.5378357171926892e-05 -0.0037101887589800009 0 6.5378357171926892e-05 -0.0037101887589800009 0 0.00033619221032561968 -0.0039405694604132974 0 2.4211291609723936e-05 -0.0039254104858041676 0 6.5378357171926892e-05 -0.0037101887589800009 0 2.4211291609723936e-05 -0.0039254104858041676 0 -0.000247936788915091 -0.0037923480544896529 0 0.00041361478509425325 -0.0035746885696043939 0 0.00033619221032561968 -0.0039405694604132974 0 0.00067938481133478104 -0.0039645449821450749 0 0.00041361478509425325 -0.0035746885696043939 0 6.5378357171926892e-05 -0.0037101887589800009 0 0.00033619221032561968 -0.0039405694604132974 0 0.00033619221032561968 -0.0039405694604132974 0 0.00013089604443328859 -0.0041110119781424441 0 0.00077019863516447542 -0.0043534077641524524 0 0.00033619221032561968 -0.0039405694604132974 0 0.00067938481133478104 -0.0039645449821450749 0 0.00077019863516447542 -0.0043534077641524524 0 0.00033619221032561968 -0.0039405694604132974 0 2.4211291609723936e-05 -0.0039254104858041676 0 0.00013089604443328859 -0.0041110119781424441 0 2.4211291609723936e-05 -0.0039254104858041676 0 0.00013089604443328859 -0.0041110119781424441 0 -0.0001687125204361137 -0.0040620131931967517 0 2.4211291609723936e-05 -0.0039254104858041676 0 -0.0001687125204361137 -0.0040620131931967517 0 -0.000247936788915091 -0.0037923480544896529 0 -0.0001687125204361137 -0.0040620131931967517 0 -0.00047449452224063453 -0.0040036686295516263 0 -0.000247936788915091 -0.0037923480544896529 0 -0.00047449452224063453 -0.0040036686295516263 0 -0.00059695670194160992 -0.0037598215274262962 0 -0.000247936788915091 -0.0037923480544896529 0 -0.00047449452224063453 -0.0040036686295516263 0 -0.00075607738616795272 -0.0039582519754539523 0 -0.00076485145466911593 -0.0042432088294200856 0 -0.00075607738616795272 -0.0039582519754539523 0 -0.00059695670194160992 -0.0037598215274262962 0 -0.00085953772814920896 -0.0037602888555307835 0 -0.00047449452224063453 -0.0040036686295516263 0 -0.00075607738616795272 -0.0039582519754539523 0 -0.00059695670194160992 -0.0037598215274262962 0 -0.00059695670194160992 -0.0037598215274262962 0 -0.00045630207900401693 -0.0036116755323143406 0 -0.0008655337835605715 -0.0034643452014094982 0 -0.00059695670194160992 -0.0037598215274262962 0 -0.00045630207900401693 -0.0036116755323143406 0 -0.000247936788915091 -0.0037923480544896529 0 -0.00034611749227738249 -0.0034453527639305048 0 -0.00045630207900401693 -0.0036116755323143406 0 -0.0008655337835605715 -0.0034643452014094982 0 -0.00034611749227738249 -0.0034453527639305048 0 -0.00045630207900401693 -0.0036116755323143406 0 -0.0002344742573110633 -0.0035941106361057902 0 -0.00013877085450430588 -0.0034268925266503067 0 6.5378357171926892e-05 -0.0037101887589800009 0 -0.0002344742573110633 -0.0035941106361057902 0 6.5378357171926892e-05 -0.0037101887589800009 0 -0.0002344742573110633 -0.0035941106361057902 0 -0.000247936788915091 -0.0037923480544896529 0 -0.00045630207900401693 -0.0036116755323143406 0 -0.0002344742573110633 -0.0035941106361057902 0 -0.000247936788915091 -0.0037923480544896529 0 0.0015442163828288833 -0.0041253622048925739 0 0.0015019512156027402 -0.0040192951409872132 0 0.001454206604713606 -0.0041084481173757235 0 0.001454206604713606 -0.0041084481173757235 0 0.0014001677924315294 -0.0041503400637911891 0 0.001474993695826694 -0.004172396399916789 0 0.0015442163828288833 -0.0041253622048925739 0 0.001454206604713606 -0.0041084481173757235 0 0.001474993695826694 -0.004172396399916789 0 0.0015019512156027402 -0.0040192951409872132 0 0.001454206604713606 -0.0041084481173757235 0 0.0014219448628680054 -0.0040529923729376157 0 0.0043664742294104676 -0.0042113846760578706 0 0.0045342218744992792 -0.0041359415977472924 0 0.0014219448628680054 -0.0040529923729376157 0 0.0013633851853860951 -0.0040352927559259011 0 0.0013503696063435801 -0.0040800605811677397 0 0.0014219448628680054 -0.0040529923729376157 0 0.0013503696063435801 -0.0040800605811677397 0 0.0013702486894834151 -0.004117343411730306 0 0.0013503696063435801 -0.0040800605811677397 0 0.0013702486894834151 -0.004117343411730306 0 0.0013170067511678711 -0.0041150614842056267 0 0.001454206604713606 -0.0041084481173757235 0 0.0014219448628680054 -0.0040529923729376157 0 0.0013702486894834151 -0.004117343411730306 0 0.001454206604713606 -0.0041084481173757235 0 0.0013702486894834151 -0.004117343411730306 0 0.0014001677924315294 -0.0041503400637911891 0 0.0013702486894834151 -0.004117343411730306 0 0.0014001677924315294 -0.0041503400637911891 0 0.0013038330510765014 -0.0042014163798943004 0 0.0013702486894834151 -0.004117343411730306 0 0.0013170067511678711 -0.0041150614842056267 0 0.0013038330510765014 -0.0042014163798943004 0 0.0010793375713668203 -0.0042771218743496188 0 0.0012965611635405844 -0.0042412412866103914 0 0.00085069982572113026 -0.0044224983937301001 0 0.00089641975182555296 -0.004523990288781074 0 0.0013038330510765014 -0.0042014163798943004 0 0.0013170067511678711 -0.0041150614842056267 0 0.0012664129773324098 -0.0041185060557185965 0 0.0013038330510765014 -0.0042014163798943004 0 0.0013503696063435801 -0.0040800605811677397 0 0.0013170067511678711 -0.0041150614842056267 0 0.0013050013415999463 -0.0040691413053556965 0 0.0013050013415999463 -0.0040691413053556965 0 0.0012502072231352834 -0.0040393561900849027 0 0.0012664129773324098 -0.0041185060557185965 0 0.001321158165351221 -0.0040039207818836544 0 0.0013633851853860951 -0.0040352927559259011 0 0.0013050013415999463 -0.0040691413053556965 0 0.0013633851853860951 -0.0040352927559259011 0 0.0013503696063435801 -0.0040800605811677397 0 0.0013050013415999463 -0.0040691413053556965 0 0.001321158165351221 -0.0040039207818836544 0 0.0013050013415999463 -0.0040691413053556965 0 0.0012502072231352834 -0.0040393561900849027 0 0.0013170067511678711 -0.0041150614842056267 0 0.0013050013415999463 -0.0040691413053556965 0 0.0012664129773324098 -0.0041185060557185965 0 0.00090663695638164656 -0.0042481549830732553 0 0.0010793375713668203 -0.0042771218743496188 0 0.0011565128722149224 -0.0040695038403197074 0 0.0012502072231352834 -0.0040393561900849027 0 0.0012664129773324098 -0.0041185060557185965 0 0.00058929488842954768 -0.0046329924451226296 0 0.00085069982572113026 -0.0044224983937301001 0 0.00089641975182555296 -0.004523990288781074 0 0.00041361478509425325 -0.0035746885696043939 0 0.00067938481133478104 -0.0039645449821450749 0 0.00097652742303104144 -0.003795758128362298 0 0.00049077283819989144 -0.0041017123053648727 0 0.00091784806818042254 -0.0041509809251290422 0 0.00067938481133478104 -0.0039645449821450749 0 0.00093757928106434564 -0.004155594118594251 0 0.00097652742303104144 -0.003795758128362298 0 0.00067938481133478104 -0.0039645449821450749 0 0.00093757928106434564 -0.004155594118594251 0 0.00077019863516447542 -0.0043534077641524524 0 0.00093757928106434564 -0.004155594118594251 0 0.001291645585330105 -0.0044312466585914633 0 0.00077019863516447542 -0.0043534077641524524 0 0.00093757928106434564 -0.004155594118594251 0 0.0011654573496949542 -0.0041639288979123112 0 0.001291645585330105 -0.0044312466585914633 0 0.00093757928106434564 -0.004155594118594251 0 0.0011654573496949542 -0.0041639288979123112 0 0.00097652742303104144 -0.003795758128362298 0 0.00089641975182555296 -0.004523990288781074 0 0.0013038330510765014 -0.0042014163798943004 0 0.0013862385363586111 -0.0041583886608722734 0 0.0011654573496949542 -0.0041639288979123112 0 0.00097652742303104144 -0.003795758128362298 0 0.0012316541477609727 -0.0040918919090309203 0 0.00097652742303104144 -0.003795758128362298 0 0.0012316541477609727 -0.0040918919090309203 0 0.0013862385363586111 -0.0041583886608722734 0 0.00091784806818042254 -0.0041509809251290422 0 0.0013172952388599273 -0.0041620298759484685 0 0.0014001677924315294 -0.0041503400637911891 0 0.0013862385363586111 -0.0041583886608722734 0 0.001474993695826694 -0.004172396399916789 0 0.0014001677924315294 -0.0041503400637911891 0 0.0013038330510765014 -0.0042014163798943004 0 0.0013862385363586111 -0.0041583886608722734 0 0.0013862385363586111 -0.0041583886608722734 0 0.0013520745212690435 -0.0042041161205593472 0 0.0014446357931478869 -0.0042088200628555899 0 0.0012316541477609727 -0.0040918919090309203 0 0.0013862385363586111 -0.0041583886608722734 0 0.0013520745212690435 -0.0042041161205593472 0 0.0011654573496949542 -0.0041639288979123112 0 0.0013520745212690435 -0.0042041161205593472 0 0.001291645585330105 -0.0044312466585914633 0 0.0013520745212690435 -0.0042041161205593472 0 0.0014726746399206601 -0.0043024339121960943 0 0.001291645585330105 -0.0044312466585914633 0 0.0011654573496949542 -0.0041639288979123112 0 0.0012316541477609727 -0.0040918919090309203 0 0.0013520745212690435 -0.0042041161205593472 0 0.0013520745212690435 -0.0042041161205593472 0 0.0014726746399206601 -0.0043024339121960943 0 0.0014446357931478869 -0.0042088200628555899 0 0.0014726746399206601 -0.0043024339121960943 0 0.0015312568985731759 -0.004232185445952958 0 0.0014446357931478869 -0.0042088200628555899 0 0.0014726746399206601 -0.0043024339121960943 0 0.0015733152797203001 -0.0043197409370813542 0 0.0016038869512467833 -0.0044395887685463641 0 0.0014726746399206601 -0.0043024339121960943 0 0.0015733152797203001 -0.0043197409370813542 0 0.0015312568985731759 -0.004232185445952958 0 0.0015442163828288833 -0.0041253622048925739 0 0.0015312568985731759 -0.004232185445952958 0 0.001474993695826694 -0.004172396399916789 0 0.0013862385363586111 -0.0041583886608722734 0 0.0014446357931478869 -0.0042088200628555899 0 0.001474993695826694 -0.004172396399916789 0 0.0015312568985731759 -0.004232185445952958 0 0.0014446357931478869 -0.0042088200628555899 0 0.001474993695826694 -0.004172396399916789 0 0.0042500830378800324 -0.0026861138489503119 0 0.0045485163257140545 -0.0036716849103911472 0 0.007035885954070893 -0.00080272348129240207 0 0.0062520204577203265 -0.0010942500188954383 0 0.0066360718757465425 -0.00048445621380779788 0 0.0045485163257140545 -0.0036716849103911472 0 0.00091928500809123899 -0.0042985420309279232 0 0.0014726746399206601 -0.0043024339121960943 0 0.0016038869512467833 -0.0044395887685463641 0 0.001291645585330105 -0.0044312466585914633 0 0.0021455354980204821 -0.0047029293407526793 0 0.002515668432014092 -0.004122819077951566 0 0.0016600465143912211 -0.0040569387696358277 0 0.0021455354980204821 -0.0047029293407526793 0 0.0016600465143912211 -0.0040569387696358277 0 0.0014084741265905122 -0.0047916293031544984 0 0.0016600465143912211 -0.0040569387696358277 0 0.0014084741265905122 -0.0047916293031544984 0 0.0010628505567496587 -0.0044535915042088585 0 0.0014084741265905122 -0.0047916293031544984 0 0.0010628505567496587 -0.0044535915042088585 0 0.0010781582482286547 -0.0048827334695288162 0 0.00091928500809123899 -0.0042985420309279232 0 0.00092997387822457743 -0.0041897145221635101 0 0.0016600465143912211 -0.0040569387696358277 0 0.00082145649676837549 -0.0040324204727978097 0 0.0010628505567496587 -0.0044535915042088585 0 0.00082145649676837549 -0.0040324204727978097 0 0.00076257232292311586 -0.0043612071822882598 0 0.0010628505567496587 -0.0044535915042088585 0 0.00082145649676837549 -0.0040324204727978097 0 0.00076257232292311586 -0.0043612071822882598 0 0.00045752557129709087 -0.0042179487584464003 0 0.0010628505567496587 -0.0044535915042088585 0 0.00072101185531130857 -0.0047268969734055215 0 0.0010781582482286547 -0.0048827334695288162 0 0.00076257232292311586 -0.0043612071822882598 0 0.0010628505567496587 -0.0044535915042088585 0 0.00072101185531130857 -0.0047268969734055215 0 0.00064930541693700888 -0.0046935360804538371 0 0.0007512244546445787 -0.0050753366638388673 0 0.00072101185531130857 -0.0047268969734055215 0 0.0010781582482286547 -0.0048827334695288162 0 0.00097896415547500453 -0.0052983922173625263 0 0.000563350539558549 -0.0046443487521820983 0 0.00062686894031447639 -0.0049508694237890586 0 0.00046803076681282887 -0.0049416620333266577 0 0.000563350539558549 -0.0046443487521820983 0 0.00062686894031447639 -0.0049508694237890586 0 0.00067759079564408387 -0.0050124574629472783 0 0.0010781582482286547 -0.0048827334695288162 0 0.00097896415547500453 -0.0052983922173625263 0 0.0013267805744759818 -0.0051202559453380724 0 0.0007512244546445787 -0.0050753366638388673 0 0.00082753395970913094 -0.0051225046594146218 0 0.00060096991728319745 -0.0050239174233842618 0 0.00052417151379803779 -0.0050797197869840724 0 0.00046803076681282887 -0.0049416620333266577 0 0.00068114023724562159 -0.0051524738144724689 0 0.00067385363440759197 -0.0050058386666729853 0 0.00080228725789052843 -0.0052520127828528506 0 0.00062686894031447639 -0.0049508694237890586 0 0.00060096991728319745 -0.0050239174233842618 0 0.00046803076681282887 -0.0049416620333266577 0 0.00062686894031447639 -0.0049508694237890586 0 0.00060096991728319745 -0.0050239174233842618 0 0.00067385363440759197 -0.0050058386666729853 0 0.00060096991728319745 -0.0050239174233842618 0 0.000612819657326088 -0.0050835008219852987 0 0.00067385363440759197 -0.0050058386666729853 0 0.00060096991728319745 -0.0050239174233842618 0 0.000612819657326088 -0.0050835008219852987 0 0.00052417151379803779 -0.0050797197869840724 0 0.000612819657326088 -0.0050835008219852987 0 0.00052417151379803779 -0.0050797197869840724 0 0.00057936872954981956 -0.0051703170145758152 0 0.00052417151379803779 -0.0050797197869840724 0 0.00057936872954981956 -0.0051703170145758152 0 0.00044003785537702925 -0.0052080952564312992 0 0.000612819657326088 -0.0050835008219852987 0 0.00057936872954981956 -0.0051703170145758152 0 0.00068114023724562159 -0.0051524738144724689 0 0.00057936872954981956 -0.0051703170145758152 0 0.00068114023724562159 -0.0051524738144724689 0 0.00067018169888167296 -0.0052626170798479501 0 0.000612819657326088 -0.0050835008219852987 0 0.00068114023724562159 -0.0051524738144724689 0 0.00067385363440759197 -0.0050058386666729853 0 0.00069029668822561123 -0.0050126553935051985 0 0.0007512244546445787 -0.0050753366638388673 0 0.00069545579542552058 -0.0046333607348125723 0 0.0011255931788664371 -0.0050812194733608415 0 0.00086671588547596675 -0.0050587621940971815 0 0.0007512244546445787 -0.0050753366638388673 0 0.0021188760049139026 -0.0043676798920345263 0 0.00097896415547500453 -0.0052983922173625263 0 0.0013871975416810433 -0.0053794485476059391 0 0.0013267805744759818 -0.0051202559453380724 0 0.0013871975416810433 -0.0053794485476059391 0 0.0013267805744759818 -0.0051202559453380724 0 0.0017877665011449462 -0.0052463390551425381 0 0.00097896415547500453 -0.0052983922173625263 0 0.0013871975416810433 -0.0053794485476059391 0 0.0014548276085000096 -0.0057718819478403804 0 0.0013871975416810433 -0.0053794485476059391 0 0.0017877665011449462 -0.0052463390551425381 0 0.0014548276085000096 -0.0057718819478403804 0 0.0014084741265905122 -0.0047916293031544984 0 0.0013267805744759818 -0.0051202559453380724 0 0.0017877665011449462 -0.0052463390551425381 0 0.0014084741265905122 -0.0047916293031544984 0 0.0010781582482286547 -0.0048827334695288162 0 0.0013267805744759818 -0.0051202559453380724 0 0.0042500830378800324 -0.0026861138489503119 0 0.0039741963792521142 -0.0033985808937137801 0 0.0021455354980204821 -0.0047029293407526793 0 0.0014084741265905122 -0.0047916293031544984 0 0.0017877665011449462 -0.0052463390551425381 0 0.0058547053772044222 -0.0017133710787729003 0 0.006034434030741543 -0.002084936667761903 0 0.0054496809252664027 -0.0023528140141526625 0 0.0039741963792521142 -0.0033985808937137801 0 0.0021188760049139026 -0.0043676798920345263 0 0.0058547053772044222 -0.0017133710787729003 0 0.006034434030741543 -0.002084936667761903 0 0.0063631871765079213 -0.0018158889338710646 0 0.006034434030741543 -0.002084936667761903 0 0.0063631871765079213 -0.0018158889338710646 0 0.0063377866077589922 -0.0022986810229930921 0 0.0067981998328586713 -0.0020865784223812875 0 0.0063631871765079213 -0.0018158889338710646 0 0.0063377866077589922 -0.0022986810229930921 0 0.0067805202398487797 -0.0016341878388706804 0 0.0067981998328586713 -0.0020865784223812875 0 0.0063631871765079213 -0.0018158889338710646 0 0.0067805202398487797 -0.0016341878388706804 0 0.0062520204577203265 -0.0010942500188954383 0 0.0063631871765079213 -0.0018158889338710646 0 0.0062520204577203265 -0.0010942500188954383 0 0.0058547053772044222 -0.0017133710787729003 0 0.0063631871765079213 -0.0018158889338710646 0 -0.00019848531649259278 -0.0045480158907473403 0 -0.00053038777475632431 -0.0045379620775794901 0 -0.00036096321465268837 -0.0042842860499827792 0 -0.00019848531649259278 -0.0045480158907473403 0 -0.00053038777475632431 -0.0045379620775794901 0 -0.00037202252292950765 -0.004760851368416385 0 -0.00053038777475632431 -0.0045379620775794901 0 -0.00081226221332940623 -0.0047632990270596092 0 -0.00076485145466911593 -0.0042432088294200856 0 -0.00053038777475632431 -0.0045379620775794901 0 -0.00037202252292950765 -0.004760851368416385 0 -0.00081226221332940623 -0.0047632990270596092 0 -0.00053038777475632431 -0.0045379620775794901 0 -0.00036096321465268837 -0.0042842860499827792 0 -0.00076485145466911593 -0.0042432088294200856 0 -0.00047449452224063453 -0.0040036686295516263 0 -0.00036096321465268837 -0.0042842860499827792 0 -0.00076485145466911593 -0.0042432088294200856 0 -0.0001687125204361137 -0.0040620131931967517 0 -0.00047449452224063453 -0.0040036686295516263 0 -0.00036096321465268837 -0.0042842860499827792 0 -0.00019848531649259278 -0.0045480158907473403 0 -0.00036096321465268837 -0.0042842860499827792 0 -4.4331929709303107e-05 -0.0043068229530702608 0 -0.0001687125204361137 -0.0040620131931967517 0 -0.00036096321465268837 -0.0042842860499827792 0 -4.4331929709303107e-05 -0.0043068229530702608 0 0.00013089604443328859 -0.0041110119781424441 0 -4.4331929709303107e-05 -0.0043068229530702608 0 0.00045752557129709087 -0.0042179487584464003 0 -4.4331929709303107e-05 -0.0043068229530702608 0 0.00045752557129709087 -0.0042179487584464003 0 0.00017247074404472013 -0.0045740666483679599 0 0.00013089604443328859 -0.0041110119781424441 0 -0.0001687125204361137 -0.0040620131931967517 0 -4.4331929709303107e-05 -0.0043068229530702608 0 0.00012396037316076474 -0.0041157773126565232 0 0.00092997387822457743 -0.0041897145221635101 0 0.00013089604443328859 -0.0041110119781424441 0 0.00082145649676837549 -0.0040324204727978097 0 0.00045752557129709087 -0.0042179487584464003 0 0.00064930541693700888 -0.0046935360804538371 0 0.00046403768463194119 -0.0042374752744627027 0 0.00076257232292311586 -0.0043612071822882598 0 0.00072101185531130857 -0.0047268969734055215 0 0.00045752557129709087 -0.0042179487584464003 0 0.000563350539558549 -0.0046443487521820983 0 0.00045752557129709087 -0.0042179487584464003 0 0.00017247074404472013 -0.0045740666483679599 0 0.000563350539558549 -0.0046443487521820983 0 0.00017247074404472013 -0.0045740666483679599 0 0.00028684159739872627 -0.0048618691158772709 0 -0.00019848531649259278 -0.0045480158907473403 0 -4.4331929709303107e-05 -0.0043068229530702608 0 0.00017247074404472013 -0.0045740666483679599 0 -0.00019848531649259278 -0.0045480158907473403 0 0.00017247074404472013 -0.0045740666483679599 0 -4.0371781178473962e-05 -0.0048384378617872849 0 -4.0371781178473962e-05 -0.0048384378617872849 0 0.00028684159739872627 -0.0048618691158772709 0 0.0001436773565161477 -0.0051138076216312341 0 0.00017247074404472013 -0.0045740666483679599 0 -4.0371781178473962e-05 -0.0048384378617872849 0 0.00028684159739872627 -0.0048618691158772709 0 0.000563350539558549 -0.0046443487521820983 0 0.00028684159739872627 -0.0048618691158772709 0 0.00046803076681282887 -0.0049416620333266577 0 0.00028684159739872627 -0.0048618691158772709 0 0.00046803076681282887 -0.0049416620333266577 0 0.00035696106856055793 -0.0050761490978112056 0 0.00052417151379803779 -0.0050797197869840724 0 0.00046803076681282887 -0.0049416620333266577 0 0.00035696106856055793 -0.0050761490978112056 0 0.00028684159739872627 -0.0048618691158772709 0 0.00035696106856055793 -0.0050761490978112056 0 0.0001436773565161477 -0.0051138076216312341 0 0.00035696106856055793 -0.0050761490978112056 0 0.00044003785537702925 -0.0052080952564312992 0 0.00026973302742734959 -0.0052415135324057338 0 0.00035696106856055793 -0.0050761490978112056 0 0.0001436773565161477 -0.0051138076216312341 0 0.00026973302742734959 -0.0052415135324057338 0 0.00052417151379803779 -0.0050797197869840724 0 0.00035696106856055793 -0.0050761490978112056 0 0.00044003785537702925 -0.0052080952564312992 0 0.0001436773565161477 -0.0051138076216312341 0 -0.0002879627717219884 -0.0050992384098831559 0 0.00015451376071141777 -0.0053781840733537123 0 -4.0371781178473962e-05 -0.0048384378617872849 0 0.0001436773565161477 -0.0051138076216312341 0 -0.0002879627717219884 -0.0050992384098831559 0 -0.00053862721407293361 -0.0048878350278472411 0 -6.5132419026940769e-06 -0.0052533458978694754 0 -4.0371781178473962e-05 -0.0048384378617872849 0 -0.0002879627717219884 -0.0050992384098831559 0 -0.00037202252292950765 -0.004760851368416385 0 -0.00019848531649259278 -0.0045480158907473403 0 -4.0371781178473962e-05 -0.0048384378617872849 0 -0.00037202252292950765 -0.004760851368416385 0 -0.00053862721407293361 -0.0048878350278472411 0 -0.0010111779014002535 -0.0045987077593642508 0 -0.0002879627717219884 -0.0050992384098831559 0 -0.00037202252292950765 -0.004760851368416385 0 -0.00081226221332940623 -0.0047632990270596092 0 -0.00078976871469558694 -0.0046709740528727344 0 -0.0012507747295160631 -0.0047407131348740448 0 -0.0012125476455831501 -0.00445180226651042 0 -0.00078976871469558694 -0.0046709740528727344 0 -0.0012507747295160631 -0.0047407131348740448 0 -0.0010834525602384584 -0.0050479676524506174 0 -0.0012507747295160631 -0.0047407131348740448 0 -0.0016197694000528267 -0.0046957530950797917 0 -0.0010834525602384584 -0.0050479676524506174 0 -0.0012857599102409107 -0.0047338770972451937 0 -0.0017087099955775962 -0.0047398658551820677 0 -0.0012507747295160631 -0.0047407131348740448 0 -0.0014169730069364739 -0.00457443400268323 0 -0.0015875463595248134 -0.0048367269663099335 0 -0.0012507747295160631 -0.0047407131348740448 0 -0.0016197694000528267 -0.0046957530950797917 0 -0.0018356632965280753 -0.0046256748375498513 0 -0.0014169730069364739 -0.00457443400268323 0 -0.0016604538900713082 -0.0045981439468732949 0 -0.0014061073048461719 -0.0042714900230661724 0 -0.0012507747295160631 -0.0047407131348740448 0 -0.0014169730069364739 -0.00457443400268323 0 -0.0012125476455831501 -0.00445180226651042 0 -0.0016604538900713082 -0.0045981439468732949 0 -0.0019261345243039962 -0.0044299906444202185 0 -0.0020553220574208251 -0.0049082857211120694 0 -0.0017087099955775962 -0.0047398658551820677 0 -0.0021386449499675021 -0.0048173619208385704 0 -0.0015875463595248134 -0.0048367269663099335 0 -0.0016604538900713082 -0.0045981439468732949 0 -0.0020553220574208251 -0.0049082857211120694 0 -0.0014169730069364739 -0.00457443400268323 0 -0.0015875463595248134 -0.0048367269663099335 0 -0.0016604538900713082 -0.0045981439468732949 0 -0.0016604538900713082 -0.0045981439468732949 0 -0.0019261345243039962 -0.0044299906444202185 0 -0.0014061073048461719 -0.0042714900230661724 0 -0.0019261345243039962 -0.0044299906444202185 0 -0.0019236576977461933 -0.0040651718089666109 0 -0.0014061073048461719 -0.0042714900230661724 0 -0.0019236576977461933 -0.0040651718089666109 0 -0.0014061073048461719 -0.0042714900230661724 0 -0.0015704473725829421 -0.0039255159363184491 0 -0.0019261345243039962 -0.0044299906444202185 0 -0.0019236576977461933 -0.0040651718089666109 0 -0.0022366345119528685 -0.0041614830940326182 0 -0.0010111779014002535 -0.0045987077593642508 0 -0.0013908346080231833 -0.0042868224017452517 0 -0.00081226221332940623 -0.0047632990270596092 0 -0.0014061073048461719 -0.0042714900230661724 0 -0.00076485145466911593 -0.0042432088294200856 0 -0.0014169730069364739 -0.00457443400268323 0 -0.0012125476455831501 -0.00445180226651042 0 -0.0014061073048461719 -0.0042714900230661724 0 -0.0014061073048461719 -0.0042714900230661724 0 -0.00076485145466911593 -0.0042432088294200856 0 -0.0010385425899235444 -0.0039506470537567576 0 -0.00075607738616795272 -0.0039582519754539523 0 -0.00076485145466911593 -0.0042432088294200856 0 -0.0010385425899235444 -0.0039506470537567576 0 -0.0010385425899235444 -0.0039506470537567576 0 -0.00085953772814920896 -0.0037602888555307835 0 -0.0010939034742884837 -0.0037004838156498407 0 -0.00075607738616795272 -0.0039582519754539523 0 -0.0010385425899235444 -0.0039506470537567576 0 -0.00085953772814920896 -0.0037602888555307835 0 -0.00059695670194160992 -0.0037598215274262962 0 -0.00085953772814920896 -0.0037602888555307835 0 -0.0008655337835605715 -0.0034643452014094982 0 -0.00085953772814920896 -0.0037602888555307835 0 -0.0010939034742884837 -0.0037004838156498407 0 -0.0008655337835605715 -0.0034643452014094982 0 -0.0010939034742884837 -0.0037004838156498407 0 -0.0008655337835605715 -0.0034643452014094982 0 -0.0013945284300864518 -0.0035474301966244245 0 -0.00086476646196010471 -0.003529789386911284 0 -0.0014128271118628434 -0.0036311670180055153 0 -0.00086727750643466348 -0.0035913982007314119 0 -0.0014358254997722903 -0.0037176646588505087 0 -0.001415147939372518 -0.0035181110165293738 0 -0.0014358254997722903 -0.0037176646588505087 0 -0.0015852589790633673 -0.0036235825404266962 0 -0.001415147939372518 -0.0035181110165293738 0 -0.0010939034742884837 -0.0037004838156498407 0 -0.0013945284300864518 -0.0035474301966244245 0 -0.0013171641480525732 -0.0038437303443498859 0 -0.0013945284300864518 -0.0035474301966244245 0 -0.0013171641480525732 -0.0038437303443498859 0 -0.0015704473725829421 -0.0039255159363184491 0 -0.0014061073048461719 -0.0042714900230661724 0 -0.0010385425899235444 -0.0039506470537567576 0 -0.0013171641480525732 -0.0038437303443498859 0 -0.0014061073048461719 -0.0042714900230661724 0 -0.0013171641480525732 -0.0038437303443498859 0 -0.0015704473725829421 -0.0039255159363184491 0 -0.0010385425899235444 -0.0039506470537567576 0 -0.0010939034742884837 -0.0037004838156498407 0 -0.0013171641480525732 -0.0038437303443498859 0 -0.0019236576977461933 -0.0040651718089666109 0 -0.001845493122512056 -0.0036572540033318296 0 -0.002250128372045892 -0.0037642427568365215 0 -0.0019236576977461933 -0.0040651718089666109 0 -0.0015704473725829421 -0.0039255159363184491 0 -0.001845493122512056 -0.0036572540033318296 0 -0.0019334273300420333 -0.0037722478158634114 0 -0.0020879929245872352 -0.0035774156465089801 0 -0.002250128372045892 -0.0037642427568365215 0 -0.0018865015151507962 -0.0037127086799482009 0 -0.0022210572466103301 -0.0037631754238631092 0 -0.0019334273300420333 -0.0037722478158634114 0 -0.0018527010429111646 -0.0035922663763618395 0 -0.0020879929245872352 -0.0035774156465089801 0 -0.0019334273300420333 -0.0037722478158634114 0 -0.0018527010429111646 -0.0035922663763618395 0 -0.0015852589790633673 -0.0036235825404266962 0 -0.0014128271118628434 -0.0036311670180055153 0 -0.0018865015151507962 -0.0037127086799482009 0 -0.0013945284300864518 -0.0035474301966244245 0 -0.0015704473725829421 -0.0039255159363184491 0 -0.001845493122512056 -0.0036572540033318296 0 -0.0014358254997722903 -0.0037176646588505087 0 -0.0019334273300420333 -0.0037722478158634114 0 -0.0015852589790633673 -0.0036235825404266962 0 0.0011336514726824703 -0.0047079810150586366 0 0.00097609149650390039 -0.0048124131285127375 0 0.00082826551323726021 -0.0046503746134833818 0 -0.0015852589790633673 -0.0036235825404266962 0 -0.001870109481814925 -0.0033062262226113714 0 -0.001415147939372518 -0.0035181110165293738 0 -0.0011467892866002382 -0.003900535050974833 0 -6.0447860245042063e-05 -0.0040239128978347373 0 -0.001870109481814925 -0.0033062262226113714 0 -0.0012899152268748722 -0.0033536789380647376 0 -0.001415147939372518 -0.0035181110165293738 0 -0.0018527010429111646 -0.0035922663763618395 0 -0.0015852589790633673 -0.0036235825404266962 0 -0.0018605419219459222 -0.0033992429261906773 0 -0.0018338432422238329 -0.0033758238953262047 0 -0.0011467892866002382 -0.003900535050974833 0 -0.0011467892866002382 -0.003900535050974833 0 -0.0026596916933575255 -0.0034791665590385135 0 -0.0020879929245872352 -0.0035774156465089801 0 -0.0018605419219459222 -0.0033992429261906773 0 -0.0022682788456914807 -0.0034365490214981016 0 -0.0018527010429111646 -0.0035922663763618395 0 -0.0020879929245872352 -0.0035774156465089801 0 -0.0018605419219459222 -0.0033992429261906773 0 -0.00053184066970107661 -0.0043976959229068075 0 -0.0011467892866002382 -0.003900535050974833 0 0.0013481607709930393 -0.005018769024253562 0 0.0011336514726824703 -0.0047079810150586366 0 0.001124284110426954 -0.0049198308752497512 0 -0.0025845833480074047 -0.0036323196136666342 0 -0.0025306954299986442 -0.0036465689658540423 0 -0.0025883419761425861 -0.0036265057117950469 0 0.0011336514726824703 -0.0047079810150586366 0 0.00097609149650390039 -0.0048124131285127375 0 0.001124284110426954 -0.0049198308752497512 0 0.00098237073235979302 -0.0049655382981901204 0 0.00097609149650390039 -0.0048124131285127375 0 0.001124284110426954 -0.0049198308752497512 0 0.00097609149650390039 -0.0048124131285127375 0 0.00082591414391176301 -0.0048442741027828135 0 0.00082826551323726021 -0.0046503746134833818 0 0.00082591414391176301 -0.0048442741027828135 0 0.00067608965283614078 -0.0047455120675756008 0 0.00082826551323726021 -0.0046503746134833818 0 0.00098237073235979302 -0.0049655382981901204 0 0.00097609149650390039 -0.0048124131285127375 0 0.00082591414391176301 -0.0048442741027828135 0 0.00082591414391176301 -0.0048442741027828135 0 0.00067565028216157457 -0.0048903862349575014 0 0.00067608965283614078 -0.0047455120675756008 0 0.00055116475378565156 -0.0047494977445582979 0 0.00067565028216157457 -0.0048903862349575014 0 0.00067608965283614078 -0.0047455120675756008 0 -0.00069000777450409613 -0.0033941955760559048 0 -0.00086727750643466348 -0.0035913982007314119 0 -0.0012899152268748722 -0.0033536789380647376 0 0.00053617584907595718 -0.0046191761705761851 0 0.00067608965283614078 -0.0047455120675756008 0 0.00082826551323726021 -0.0046503746134833818 0 -0.00010916724729322662 -0.0040046983093888931 0 -6.0447860245042063e-05 -0.0040239128978347373 0 0.00055116475378565156 -0.0047494977445582979 0 0.00053617584907595718 -0.0046191761705761851 0 0.00067608965283614078 -0.0047455120675756008 0 -0.00086727750643466348 -0.0035913982007314119 0 -0.0012899152268748722 -0.0033536789380647376 0 -0.001415147939372518 -0.0035181110165293738 0 -0.0025973234736150447 -0.0035886197923572548 0 -0.0025749400182148289 -0.0036072854430516123 0 -0.0025512272738423031 -0.0035613247339425251 0 -0.0025973234736150447 -0.0035886197923572548 0 -0.0025512272738423031 -0.0035613247339425251 0 -0.0024659614628719513 -0.0036093347748017094 0 -0.0025803044799525099 -0.0035932398379480775 0 -0.0025973234736150447 -0.0035886197923572548 0 -0.0025749400182148289 -0.0036072854430516123 0 -0.0025562819974966856 -0.0036401547593522001 0 -0.0025749400182148289 -0.0036072854430516123 0 -0.0025512272738423031 -0.0035613247339425251 0 -0.0025859607449539765 -0.0036421427818352945 0 -0.002561933873120985 -0.0036672696673107096 0 -0.0025512272738423031 -0.0035613247339425251 0 -0.0025562819974966856 -0.0036401547593522001 0 -0.002561933873120985 -0.0036672696673107096 0 -0.0025512272738423031 -0.0035613247339425251 0 -0.0024311233913058912 -0.0035720199348752133 0 -0.0026596916933575255 -0.0034791665590385135 0 -0.0025859607449539765 -0.0036421427818352945 0 -0.0025512272738423031 -0.0035613247339425251 0 -0.0025883419761425861 -0.0036265057117950469 0 -0.0025845833480074047 -0.0036323196136666342 0 -0.0025859607449539765 -0.0036421427818352945 0 -0.0025883419761425861 -0.0036265057117950469 0 -0.0020879929245872352 -0.0035774156465089801 0 -0.0022682788456914807 -0.0034365490214981016 0 -0.0022698452654274395 -0.003596423580787845 0 -0.0022682788456914807 -0.0034365490214981016 0 -0.0024659614628719513 -0.0036093347748017094 0 -0.0022698452654274395 -0.003596423580787845 0 -0.0025512272738423031 -0.0035613247339425251 0 -0.0022682788456914807 -0.0034365490214981016 0 -0.0024659614628719513 -0.0036093347748017094 0 -0.0024659614628719513 -0.0036093347748017094 0 -0.0022698452654274395 -0.003596423580787845 0 -0.002250128372045892 -0.0037642427568365215 0 -0.0020879929245872352 -0.0035774156465089801 0 -0.0022698452654274395 -0.003596423580787845 0 -0.002250128372045892 -0.0037642427568365215 0 -0.0019236576977461933 -0.0040651718089666109 0 -0.002250128372045892 -0.0037642427568365215 0 -0.0022366345119528685 -0.0041614830940326182 0 -0.0024659614628719513 -0.0036093347748017094 0 -0.002250128372045892 -0.0037642427568365215 0 -0.0024785529569318946 -0.0039131026469269624 0 -0.002250128372045892 -0.0037642427568365215 0 -0.0024785529569318946 -0.0039131026469269624 0 -0.0022366345119528685 -0.0041614830940326182 0 -0.0033540170033076041 -0.0037930027925006608 0 -0.0026803554184634533 -0.0036199222005721915 0 -0.002931863965506563 -0.0042948230041011531 0 -0.0025973234736150447 -0.0035886197923572548 0 -0.0024659614628719513 -0.0036093347748017094 0 -0.0026803554184634533 -0.0036199222005721915 0 -0.0024659614628719513 -0.0036093347748017094 0 -0.0024785529569318946 -0.0039131026469269624 0 -0.0026803554184634533 -0.0036199222005721915 0 -0.0028612155758477053 -0.0032364480935333116 0 -0.0026837819370717541 -0.0035630703021314446 0 -0.0025803044799525099 -0.0035932398379480775 0 -0.0025973234736150447 -0.0035886197923572548 0 -0.0026803554184634533 -0.0036199222005721915 0 -0.0031360528534351275 -0.0027859040837657036 0 -0.0031134151935223466 -0.0032627958619801923 0 -0.0026803554184634533 -0.0036199222005721915 0 -0.0024785529569318946 -0.0039131026469269624 0 -0.0026803554184634533 -0.0036199222005721915 0 -0.002931863965506563 -0.0042948230041011531 0 -0.0024785529569318946 -0.0039131026469269624 0 -0.002931863965506563 -0.0042948230041011531 0 -0.0025245499585274064 -0.0043208957101023614 0 -0.002931863965506563 -0.0042948230041011531 0 -0.0025245499585274064 -0.0043208957101023614 0 -0.002917055043524853 -0.0046798050476965876 0 -0.0030955509175995305 -0.0045336318601218372 0 -0.002931863965506563 -0.0042948230041011531 0 -0.002917055043524853 -0.0046798050476965876 0 -0.0024785529569318946 -0.0039131026469269624 0 -0.0022366345119528685 -0.0041614830940326182 0 -0.0025245499585274064 -0.0043208957101023614 0 -0.0022366345119528685 -0.0041614830940326182 0 -0.0025245499585274064 -0.0043208957101023614 0 -0.0022718086748564023 -0.0045775795136569616 0 -0.0019261345243039962 -0.0044299906444202185 0 -0.0022366345119528685 -0.0041614830940326182 0 -0.0022718086748564023 -0.0045775795136569616 0 -0.0019261345243039962 -0.0044299906444202185 0 -0.0022718086748564023 -0.0045775795136569616 0 -0.0020553220574208251 -0.0049082857211120694 0 -0.0025245499585274064 -0.0043208957101023614 0 -0.0022718086748564023 -0.0045775795136569616 0 -0.0025939744074596361 -0.0046497383319985524 0 -0.0022718086748564023 -0.0045775795136569616 0 -0.0025939744074596361 -0.0046497383319985524 0 -0.0025732607798365299 -0.0048978026588099759 0 -0.0022718086748564023 -0.0045775795136569616 0 -0.0020553220574208251 -0.0049082857211120694 0 -0.0025732607798365299 -0.0048978026588099759 0 -0.0021386449499675021 -0.0048173619208385704 0 -0.0025436105400583491 -0.0048894067935943367 0 -0.0025245499585274064 -0.0043208957101023614 0 -0.002917055043524853 -0.0046798050476965876 0 -0.0025939744074596361 -0.0046497383319985524 0 -0.002917055043524853 -0.0046798050476965876 0 -0.0025939744074596361 -0.0046497383319985524 0 -0.0028561959598408476 -0.0049293489081219787 0 -0.0025939744074596361 -0.0046497383319985524 0 -0.0028561959598408476 -0.0049293489081219787 0 -0.0025732607798365299 -0.0048978026588099759 0 -0.0031631024412969288 -0.0049775074368227385 0 -0.002917055043524853 -0.0046798050476965876 0 -0.0028561959598408476 -0.0049293489081219787 0 -0.0031631024412969288 -0.0049775074368227385 0 -0.0028561959598408476 -0.0049293489081219787 0 -0.003098538213298732 -0.0051458729095726777 0 -0.0028561959598408476 -0.0049293489081219787 0 -0.0027678289351501344 -0.0050906705560126633 0 -0.003098538213298732 -0.0051458729095726777 0 -0.0028561959598408476 -0.0049293489081219787 0 -0.0027678289351501344 -0.0050906705560126633 0 -0.0025732607798365299 -0.0048978026588099759 0 -0.0027678289351501344 -0.0050906705560126633 0 -0.0025732607798365299 -0.0048978026588099759 0 -0.002485424490805964 -0.0050617224914470595 0 -0.0027678289351501344 -0.0050906705560126633 0 -0.002485424490805964 -0.0050617224914470595 0 -0.0027816085036772363 -0.0052775720555026237 0 -0.0027678289351501344 -0.0050906705560126633 0 -0.0027816085036772363 -0.0052775720555026237 0 -0.003098538213298732 -0.0051458729095726777 0 -0.0022215131185631511 -0.0047285361242249352 0 -0.0025732607798365299 -0.0048978026588099759 0 -0.002485424490805964 -0.0050617224914470595 0 -0.0022215131185631511 -0.0047285361242249352 0 -0.002485424490805964 -0.0050617224914470595 0 -0.0021660744660406224 -0.0050442856085025104 0 -0.002485424490805964 -0.0050617224914470595 0 -0.0023679729629815806 -0.005291746858847912 0 -0.0021660744660406224 -0.0050442856085025104 0 -0.002485424490805964 -0.0050617224914470595 0 -0.0023679729629815806 -0.005291746858847912 0 -0.0027816085036772363 -0.0052775720555026237 0 -0.0023679729629815806 -0.005291746858847912 0 -0.0027816085036772363 -0.0052775720555026237 0 -0.0026399230881927883 -0.0054582417708030993 0 -0.0023679729629815806 -0.005291746858847912 0 -0.0021516638232528442 -0.0054257971873464617 0 -0.002056079805546823 -0.0052403592300637927 0 -0.0027816085036772363 -0.0052775720555026237 0 -0.0026399230881927883 -0.0054582417708030993 0 -0.003052695606375758 -0.0055684869359461982 0 -0.0027816085036772363 -0.0052775720555026237 0 -0.003098538213298732 -0.0051458729095726777 0 -0.0031304991402797294 -0.0053193851320988937 0 -0.0027816085036772363 -0.0052775720555026237 0 -0.0031304991402797294 -0.0053193851320988937 0 -0.003052695606375758 -0.0055684869359461982 0 -0.0028637592082595277 -0.0055495854227919864 0 -0.0031546074421374671 -0.0054640124815969254 0 -0.003151447924198328 -0.0057699749793772622 0 -0.0027443806601652266 -0.0056574211527568204 0 -0.0026399230881927883 -0.0054582417708030993 0 -0.003052695606375758 -0.0055684869359461982 0 -0.0027994763334139869 -0.0056048131946336011 0 -0.0031052466124585026 -0.0055136319741002603 0 -0.0027994763334139869 -0.0056048131946336011 0 -0.0025069519368786449 -0.0057084975598319177 0 -0.0028637592082595277 -0.0055495854227919864 0 -0.0024809133991997262 -0.0057074073761934708 0 -0.0027665208343385394 -0.0057549801281134155 0 -0.0027443806601652266 -0.0056574211527568204 0 -0.0026399230881927883 -0.0054582417708030993 0 -0.0023789540807200769 -0.0055214309349532198 0 -0.0023679729629815806 -0.005291746858847912 0 -0.0026399230881927883 -0.0054582417708030993 0 -0.0023789540807200769 -0.0055214309349532198 0 -0.0023789540807200769 -0.0055214309349532198 0 -0.0021850963044260335 -0.0055322665710864933 0 -0.0021516638232528442 -0.0054257971873464617 0 -0.0023679729629815806 -0.005291746858847912 0 -0.0023789540807200769 -0.0055214309349532198 0 -0.0021516638232528442 -0.0054257971873464617 0 -0.0023789540807200769 -0.0055214309349532198 0 -0.0021850963044260335 -0.0055322665710864933 0 -0.0021785826000291766 -0.0056419174728486576 0 -0.0023789540807200769 -0.0055214309349532198 0 -0.0021785826000291766 -0.0056419174728486576 0 -0.0024809133991997262 -0.0057074073761934708 0 -0.0027443806601652266 -0.0056574211527568204 0 -0.0023789540807200769 -0.0055214309349532198 0 -0.0024809133991997262 -0.0057074073761934708 0 -0.0024809133991997262 -0.0057074073761934708 0 -0.0024978220587295501 -0.005915494923127383 0 -0.0027665208343385394 -0.0057549801281134155 0 -0.0024809133991997262 -0.0057074073761934708 0 -0.0022439931106697734 -0.0058821885302999376 0 -0.0024978220587295501 -0.005915494923127383 0 -0.0021785826000291766 -0.0056419174728486576 0 -0.0024809133991997262 -0.0057074073761934708 0 -0.0022439931106697734 -0.0058821885302999376 0 -0.0021718319999801932 -0.0056016148103330147 0 -0.0022232382843163302 -0.0059674463710175409 0 -0.0022439931106697734 -0.0058821885302999376 0 -0.0023977706716852547 -0.0060156889786631808 0 -0.0024978220587295501 -0.005915494923127383 0 -0.0022232382843163302 -0.0059674463710175409 0 -0.002219978144786671 -0.0047439593362443673 0 -0.0022439931106697734 -0.0058821885302999376 0 -0.0023977706716852547 -0.0060156889786631808 0 -0.0022897335242594917 -0.0060868517270119349 0 -0.0023977706716852547 -0.0060156889786631808 0 -0.0022897335242594917 -0.0060868517270119349 0 -0.0024799150019382344 -0.0061258355802407891 0 -0.0023977706716852547 -0.0060156889786631808 0 -0.0024978220587295501 -0.005915494923127383 0 -0.0024799150019382344 -0.0061258355802407891 0 -0.0024978220587295501 -0.005915494923127383 0 -0.00283536081738938 -0.0059489491684592086 0 -0.0024799150019382344 -0.0061258355802407891 0 -0.0057654307402757211 1.6385614790227526e-05 0 -0.0057776147028713604 1.1737892894153002e-05 0 -0.0057581226752264321 -7.21258187464754e-06 0 -0.0057654307402757211 1.6385614790227526e-05 0 -0.0057581226752264321 -7.21258187464754e-06 0 -0.005639296425910708 -1.5773257287471601e-05 0 -0.0042990520494032205 -0.0032597689640963537 0 -0.0034673087038559567 -0.0011772906567903878 0 -0.0057776147028713604 1.1737892894153002e-05 0 -0.0057862309674438063 5.5141070138412115e-06 0 -0.0057858941278378113 1.8894728147837936e-05 0 -0.0057654307402757211 1.6385614790227526e-05 0 -0.0057776147028713604 1.1737892894153002e-05 0 -0.0057862309674438063 5.5141070138412115e-06 0 -0.0057862309674438063 5.5141070138412115e-06 0 -0.0057858941278378113 1.8894728147837936e-05 0 -0.0057933554980640319 -1.0023924113409656e-05 0 -0.0057858941278378113 1.8894728147837936e-05 0 -0.0057933554980640319 -1.0023924113409656e-05 0 -0.005783041853270882 -1.3452795864940365e-05 0 -0.0057933554980640319 -1.0023924113409656e-05 0 -0.0058148173802746363 -5.9785545320292026e-05 0 -0.005783041853270882 -1.3452795864940365e-05 0 -0.0057862309674438063 5.5141070138412115e-06 0 -0.0057933554980640319 -1.0023924113409656e-05 0 -0.0058148173802746363 -5.9785545320292026e-05 0 -0.0042990520494032205 -0.0032597689640963537 0 -0.0044975355834790415 -0.0025438600577225839 0 -0.0057654307402757211 1.6385614790227526e-05 0 -0.0057862309674438063 5.5141070138412115e-06 0 -0.0058148173802746363 -5.9785545320292026e-05 0 -0.00283536081738938 -0.0059489491684592086 0 -0.0030410101649661707 -0.0058320348702610046 0 -0.0027665208343385394 -0.0057549801281134155 0 -0.0028637592082595277 -0.0055495854227919864 0 -0.0027665208343385394 -0.0057549801281134155 0 -0.003151447924198328 -0.0057699749793772622 0 -0.0030410101649661707 -0.0058320348702610046 0 -0.0027665208343385394 -0.0057549801281134155 0 -0.003151447924198328 -0.0057699749793772622 0 -0.0044975355834790415 -0.0025438600577225839 0 -0.003545278049805178 -0.003826296924232823 0 -0.0024978220587295501 -0.005915494923127383 0 -0.00283536081738938 -0.0059489491684592086 0 -0.0027665208343385394 -0.0057549801281134155 0 -0.0017258314783816806 -0.0055521632013649513 0 -0.0016829439750570177 -0.0055423691475700006 0 -0.0016499306248524352 -0.0054961124692433829 0 -0.0017258314783816806 -0.0055521632013649513 0 -0.0016499306248524352 -0.0054961124692433829 0 -0.0018096674905317214 -0.0055802838575010252 0 -0.0016829439750570177 -0.0055423691475700006 0 -0.0016856081544388442 -0.0054737425294523901 0 -0.0016499306248524352 -0.0054961124692433829 0 -0.0016829439750570177 -0.0055423691475700006 0 -0.0016121146781648168 -0.0055679445878572846 0 -0.0017327535697995845 -0.0055166238761895454 0 -0.0016829439750570177 -0.0055423691475700006 0 -0.0016856081544388442 -0.0054737425294523901 0 -0.0017327535697995845 -0.0055166238761895454 0 -0.0014832173768021988 -0.0049461997208812775 0 -0.001491700403664959 -0.0051460899297847617 0 -0.0010220531966047758 -0.0045691902445951539 0 -0.001544978660057013 -0.0051575066873809656 0 -0.0012617812171711595 -0.0049996750707317524 0 -0.0016856081544388442 -0.0054737425294523901 0 -0.0017720024446267494 -0.0054552848107326905 0 -0.001544978660057013 -0.0051575066873809656 0 -0.0016856081544388442 -0.0054737425294523901 0 -0.0017327535697995845 -0.0055166238761895454 0 -0.0017720024446267494 -0.0054552848107326905 0 -0.0016856081544388442 -0.0054737425294523901 0 -0.0016499306248524352 -0.0054961124692433829 0 -0.001544978660057013 -0.0051575066873809656 0 -0.0016499306248524352 -0.0054961124692433829 0 -0.0015951535979148793 -0.0052787857375703497 0 -0.001544978660057013 -0.0051575066873809656 0 -0.0016499306248524352 -0.0054961124692433829 0 -0.0014460516426295913 -0.0053532974870439017 0 -0.0015951535979148793 -0.0052787857375703497 0 -0.0016499306248524352 -0.0054961124692433829 0 -0.0019347882349536126 -0.005755650956445502 0 -0.0018096674905317214 -0.0055802838575010252 0 -0.0017045695568662436 -0.0055094522337900556 0 -0.0015991565515938949 -0.0056003540217361815 0 -0.0011273432450538557 -0.005248761249457984 0 -0.0014460516426295913 -0.0053532974870439017 0 -0.0013001888726857441 -0.0051738115918767936 0 -0.0021395020195778005 -0.0056998938158963012 0 -0.0021511872701319447 -0.005823646728741012 0 -0.0019347882349536126 -0.005755650956445502 0 -0.002219978144786671 -0.0047439593362443673 0 -0.0015991565515938949 -0.0056003540217361815 0 -0.0021395020195778005 -0.0056998938158963012 0 -0.0019347882349536126 -0.005755650956445502 0 -0.0019878971994624762 -0.0056187316975132764 0 -0.0021785826000291766 -0.0056419174728486576 0 -0.0021395020195778005 -0.0056998938158963012 0 -0.0019878971994624762 -0.0056187316975132764 0 -0.0019878971994624762 -0.0056187316975132764 0 -0.0018096674905317214 -0.0055802838575010252 0 -0.0018406232614985095 -0.005530837339353804 0 -0.0019347882349536126 -0.005755650956445502 0 -0.0019878971994624762 -0.0056187316975132764 0 -0.0018096674905317214 -0.0055802838575010252 0 -0.0017258314783816806 -0.0055521632013649513 0 -0.0018096674905317214 -0.0055802838575010252 0 -0.0018406232614985095 -0.005530837339353804 0 -0.0018406232614985095 -0.005530837339353804 0 -0.0020366943353547916 -0.0055357441003519407 0 -0.0019300467000935759 -0.0054018778525008904 0 -0.0019878971994624762 -0.0056187316975132764 0 -0.0018406232614985095 -0.005530837339353804 0 -0.0020366943353547916 -0.0055357441003519407 0 -0.0021785826000291766 -0.0056419174728486576 0 -0.0019878971994624762 -0.0056187316975132764 0 -0.0020366943353547916 -0.0055357441003519407 0 -0.0021850963044260335 -0.0055322665710864933 0 -0.0021785826000291766 -0.0056419174728486576 0 -0.0020366943353547916 -0.0055357441003519407 0 -0.0020366943353547916 -0.0055357441003519407 0 -0.0021516638232528442 -0.0054257971873464617 0 -0.0019300467000935759 -0.0054018778525008904 0 -0.0021850963044260335 -0.0055322665710864933 0 -0.0020366943353547916 -0.0055357441003519407 0 -0.0021516638232528442 -0.0054257971873464617 0 -0.0018406232614985095 -0.005530837339353804 0 -0.0019300467000935759 -0.0054018778525008904 0 -0.0017422477249885949 -0.0053956132140155584 0 -0.0017422477249885949 -0.0053956132140155584 0 -0.0017163667753218482 -0.0055338011055257198 0 -0.0015615368342808123 -0.0053928358899499578 0 -0.0018406232614985095 -0.005530837339353804 0 -0.0017422477249885949 -0.0053956132140155584 0 -0.0017163667753218482 -0.0055338011055257198 0 -0.0017258314783816806 -0.0055521632013649513 0 -0.0016829439750570177 -0.0055423691475700006 0 -0.0017163667753218482 -0.0055338011055257198 0 -0.0017258314783816806 -0.0055521632013649513 0 -0.0018406232614985095 -0.005530837339353804 0 -0.0017163667753218482 -0.0055338011055257198 0 -0.0016829439750570177 -0.0055423691475700006 0 -0.0017163667753218482 -0.0055338011055257198 0 -0.0016121146781648168 -0.0055679445878572846 0 -0.0017163667753218482 -0.0055338011055257198 0 -0.0016121146781648168 -0.0055679445878572846 0 -0.0015615368342808123 -0.0053928358899499578 0 -0.0016121146781648168 -0.0055679445878572846 0 -0.0015615368342808123 -0.0053928358899499578 0 -0.0013172656753049404 -0.0054773295609362744 0 -0.0015615368342808123 -0.0053928358899499578 0 -0.0015770538607572948 -0.0051642052658873979 0 -0.0013246197842332246 -0.0052515679798156838 0 -0.0017422477249885949 -0.0053956132140155584 0 -0.0015615368342808123 -0.0053928358899499578 0 -0.0015770538607572948 -0.0051642052658873979 0 -0.0017422477249885949 -0.0053956132140155584 0 -0.0015770538607572948 -0.0051642052658873979 0 -0.0018162462826665322 -0.0052144095027878779 0 -0.0015770538607572948 -0.0051642052658873979 0 -0.0017231023106384577 -0.0050387121747224152 0 -0.0018162462826665322 -0.0052144095027878779 0 -0.0015770538607572948 -0.0051642052658873979 0 -0.0015188643961941408 -0.0048871080063291701 0 -0.0013005176977652999 -0.0049834987371510818 0 -0.0015770538607572948 -0.0051642052658873979 0 -0.0017231023106384577 -0.0050387121747224152 0 -0.0015188643961941408 -0.0048871080063291701 0 -0.0021516638232528442 -0.0054257971873464617 0 -0.0019300467000935759 -0.0054018778525008904 0 -0.002056079805546823 -0.0052403592300637927 0 -0.0019300467000935759 -0.0054018778525008904 0 -0.0017422477249885949 -0.0053956132140155584 0 -0.0018162462826665322 -0.0052144095027878779 0 -0.0019300467000935759 -0.0054018778525008904 0 -0.002056079805546823 -0.0052403592300637927 0 -0.0018162462826665322 -0.0052144095027878779 0 -0.002056079805546823 -0.0052403592300637927 0 -0.0018162462826665322 -0.0052144095027878779 0 -0.0019210946831318568 -0.0050453808509955773 0 -0.0017231023106384577 -0.0050387121747224152 0 -0.0018162462826665322 -0.0052144095027878779 0 -0.0019210946831318568 -0.0050453808509955773 0 -0.0023679729629815806 -0.005291746858847912 0 -0.002056079805546823 -0.0052403592300637927 0 -0.0021660744660406224 -0.0050442856085025104 0 -0.002056079805546823 -0.0052403592300637927 0 -0.0019210946831318568 -0.0050453808509955773 0 -0.0021660744660406224 -0.0050442856085025104 0 -0.0019210946831318568 -0.0050453808509955773 0 -0.0021660744660406224 -0.0050442856085025104 0 -0.001965924187556956 -0.0048461264683935254 0 -0.0019210946831318568 -0.0050453808509955773 0 -0.001965924187556956 -0.0048461264683935254 0 -0.0017639860768278851 -0.0048904734448551781 0 -0.0017231023106384577 -0.0050387121747224152 0 -0.0019210946831318568 -0.0050453808509955773 0 -0.0017639860768278851 -0.0048904734448551781 0 -0.0018356632965280753 -0.0046256748375498513 0 -0.001965924187556956 -0.0048461264683935254 0 -0.001737629856939238 -0.0047751380628095804 0 -0.001965924187556956 -0.0048461264683935254 0 -0.0017639860768278851 -0.0048904734448551781 0 -0.001737629856939238 -0.0047751380628095804 0 -0.0022215131185631511 -0.0047285361242249352 0 -0.0021660744660406224 -0.0050442856085025104 0 -0.001965924187556956 -0.0048461264683935254 0 -0.0018356632965280753 -0.0046256748375498513 0 -0.0022215131185631511 -0.0047285361242249352 0 -0.001965924187556956 -0.0048461264683935254 0 -0.0015188643961941408 -0.0048871080063291701 0 -0.0015606669587171359 -0.0047766507703225136 0 -0.0013667224180175903 -0.0047990837793378989 0 -0.0015188643961941408 -0.0048871080063291701 0 -0.0017639860768278851 -0.0048904734448551781 0 -0.0015606669587171359 -0.0047766507703225136 0 -0.0017231023106384577 -0.0050387121747224152 0 -0.0015188643961941408 -0.0048871080063291701 0 -0.0017639860768278851 -0.0048904734448551781 0 -0.0017639860768278851 -0.0048904734448551781 0 -0.001737629856939238 -0.0047751380628095804 0 -0.0015606669587171359 -0.0047766507703225136 0 -0.0016197694000528267 -0.0046957530950797917 0 -0.0018356632965280753 -0.0046256748375498513 0 -0.001737629856939238 -0.0047751380628095804 0 -0.0016197694000528267 -0.0046957530950797917 0 -0.001737629856939238 -0.0047751380628095804 0 -0.0015606669587171359 -0.0047766507703225136 0 -0.0015937659761582101 -0.0047084889556222673 0 -0.0012076566583838328 -0.0048529913858772946 0 -0.0015606669587171359 -0.0047766507703225136 0 -0.0013610774947383113 -0.0046597083608383716 0 -0.0013667224180175903 -0.0047990837793378989 0 -0.0016197694000528267 -0.0046957530950797917 0 -0.0015606669587171359 -0.0047766507703225136 0 -0.0013610774947383113 -0.0046597083608383716 0 -0.00078976871469558694 -0.0046709740528727344 0 -0.0010834525602384584 -0.0050479676524506174 0 -0.00072590146062028816 -0.0050380842539011631 0 -0.0013610774947383113 -0.0046597083608383716 0 -0.0013667224180175903 -0.0047990837793378989 0 -0.0012032663762574247 -0.0047906400357326873 0 -0.0013667224180175903 -0.0047990837793378989 0 -0.0012032663762574247 -0.0047906400357326873 0 -0.0013005176977652999 -0.0049834987371510818 0 -0.0015188643961941408 -0.0048871080063291701 0 -0.0013667224180175903 -0.0047990837793378989 0 -0.0013005176977652999 -0.0049834987371510818 0 -0.0012032663762574247 -0.0047906400357326873 0 -0.0013005176977652999 -0.0049834987371510818 0 -0.0010512179876415177 -0.0048771611493085322 0 -0.0013610774947383113 -0.0046597083608383716 0 -0.0012032663762574247 -0.0047906400357326873 0 -0.00091873737546062264 -0.0046476673031515519 0 -0.0012032663762574247 -0.0047906400357326873 0 -0.00091873737546062264 -0.0046476673031515519 0 -0.0010512179876415177 -0.0048771611493085322 0 -0.00091873737546062264 -0.0046476673031515519 0 -0.00085729432055255139 -0.0048449063056794986 0 -0.0010512179876415177 -0.0048771611493085322 0 -0.0010834525602384584 -0.0050479676524506174 0 -0.00072590146062028816 -0.0050380842539011631 0 -0.00045951606162765473 -0.0053483066596162546 0 -0.00078976871469558694 -0.0046709740528727344 0 -0.00072590146062028816 -0.0050380842539011631 0 -0.00017025275669349161 -0.0051096916664660139 0 -0.0012076566583838328 -0.0048529913858772946 0 -0.00069935538045604094 -0.005001741652732942 0 -0.00072590146062028816 -0.0050380842539011631 0 -0.00017025275669349161 -0.0051096916664660139 0 -0.00045951606162765473 -0.0053483066596162546 0 0.0001436773565161477 -0.0051138076216312341 0 0.00015451376071141777 -0.0053781840733537123 0 0.00026973302742734959 -0.0052415135324057338 0 0.00015451376071141777 -0.0053781840733537123 0 0.00034343669052999313 -0.0053343849058284099 0 0.0004280065102584596 -0.005446155329755958 0 0.00044003785537702925 -0.0052080952564312992 0 0.00046386292085651035 -0.0053359863566057077 0 0.00034343669052999313 -0.0053343849058284099 0 0.00044003785537702925 -0.0052080952564312992 0 0.00046386292085651035 -0.0053359863566057077 0 0.0005498674052775614 -0.0052625680443556698 0 0.00015451376071141777 -0.0053781840733537123 0 0.00026973302742734959 -0.0052415135324057338 0 0.00034343669052999313 -0.0053343849058284099 0 0.00044003785537702925 -0.0052080952564312992 0 0.00026973302742734959 -0.0052415135324057338 0 0.00034343669052999313 -0.0053343849058284099 0 0.00046386292085651035 -0.0053359863566057077 0 0.00034343669052999313 -0.0053343849058284099 0 0.0004280065102584596 -0.005446155329755958 0 0.00046386292085651035 -0.0053359863566057077 0 0.0004280065102584596 -0.005446155329755958 0 0.00056307990842028514 -0.0053962254580258613 0 0.00015451376071141777 -0.0053781840733537123 0 0.0004280065102584596 -0.005446155329755958 0 0.00049993537578838009 -0.0056937687274685438 0 -0.00017025275669349161 -0.0051096916664660139 0 0.00034983012691239805 -0.0056757229833198641 0 0.00049993537578838009 -0.0056937687274685438 0 -6.5132419026940769e-06 -0.0052533458978694754 0 0.00047901905240494997 -0.0056718484747731723 0 -0.00037167104249335732 -0.0047011376631014316 0 -0.0006432964874304478 -0.0047947629748892606 0 -0.00047030750186006533 -0.0048276282414442878 0 9.5774351069129261e-05 -0.0051745252682383414 0 -0.00069935538045604094 -0.005001741652732942 0 -0.00017025275669349161 -0.0051096916664660139 0 0.00034983012691239805 -0.0056757229833198641 0 -0.00045951606162765473 -0.0053483066596162546 0 -0.00037167104249335732 -0.0047011376631014316 0 -0.00091873737546062264 -0.0046476673031515519 0 -0.0006432964874304478 -0.0047947629748892606 0 -0.00091873737546062264 -0.0046476673031515519 0 -0.0006432964874304478 -0.0047947629748892606 0 -0.00085729432055255139 -0.0048449063056794986 0 -0.00085729432055255139 -0.0048449063056794986 0 -0.00073997599836738001 -0.0048976384016960741 0 -0.0008951419538117889 -0.005000257090939304 0 -0.0006432964874304478 -0.0047947629748892606 0 -0.00085729432055255139 -0.0048449063056794986 0 -0.00073997599836738001 -0.0048976384016960741 0 -0.0006432964874304478 -0.0047947629748892606 0 -0.00073997599836738001 -0.0048976384016960741 0 -0.00051253989900541959 -0.0049271905198340566 0 -0.00073997599836738001 -0.0048976384016960741 0 -0.00051253989900541959 -0.0049271905198340566 0 -0.00066710431420621526 -0.0050839437030156774 0 -0.00073997599836738001 -0.0048976384016960741 0 -0.0008951419538117889 -0.005000257090939304 0 -0.00066710431420621526 -0.0050839437030156774 0 -0.00051253989900541959 -0.0049271905198340566 0 -0.00033501257125456376 -0.0051147089817816542 0 -0.00066710431420621526 -0.0050839437030156774 0 -0.00037167104249335732 -0.0047011376631014316 0 -0.00034782265044809921 -0.004887728552829233 0 -0.00047030750186006533 -0.0048276282414442878 0 -0.00034782265044809921 -0.004887728552829233 0 -0.00047030750186006533 -0.0048276282414442878 0 -0.00051253989900541959 -0.0049271905198340566 0 -0.0006432964874304478 -0.0047947629748892606 0 -0.00047030750186006533 -0.0048276282414442878 0 -0.00051253989900541959 -0.0049271905198340566 0 -0.00034782265044809921 -0.004887728552829233 0 -0.00051253989900541959 -0.0049271905198340566 0 -0.00033501257125456376 -0.0051147089817816542 0 -0.00033501257125456376 -0.0051147089817816542 0 -0.00066710431420621526 -0.0050839437030156774 0 -0.00060257077704741282 -0.0053791230633626437 0 -0.00066710431420621526 -0.0050839437030156774 0 -0.00087097376593413473 -0.0052042520874548337 0 -0.00060257077704741282 -0.0053791230633626437 0 -0.0008951419538117889 -0.005000257090939304 0 -0.00066710431420621526 -0.0050839437030156774 0 -0.00087097376593413473 -0.0052042520874548337 0 -0.00087097376593413473 -0.0052042520874548337 0 -0.0011252548221850679 -0.0053147211254917139 0 -0.0010998017437069641 -0.005097454078112444 0 -0.0008951419538117889 -0.005000257090939304 0 -0.00087097376593413473 -0.0052042520874548337 0 -0.0010998017437069641 -0.005097454078112444 0 -0.0011252548221850679 -0.0053147211254917139 0 -0.0013246197842332246 -0.0052515679798156838 0 -0.0010998017437069641 -0.005097454078112444 0 -0.0015770538607572948 -0.0051642052658873979 0 -0.0013246197842332246 -0.0052515679798156838 0 -0.0013005176977652999 -0.0049834987371510818 0 -0.0013246197842332246 -0.0052515679798156838 0 -0.0013005176977652999 -0.0049834987371510818 0 -0.0010998017437069641 -0.005097454078112444 0 -0.0013005176977652999 -0.0049834987371510818 0 -0.0010512179876415177 -0.0048771611493085322 0 -0.0010998017437069641 -0.005097454078112444 0 -0.00085729432055255139 -0.0048449063056794986 0 -0.0008951419538117889 -0.005000257090939304 0 -0.0010512179876415177 -0.0048771611493085322 0 -0.0008951419538117889 -0.005000257090939304 0 -0.0010512179876415177 -0.0048771611493085322 0 -0.0010998017437069641 -0.005097454078112444 0 0.006525844884928197 -0.0030238459657348669 0 0.0060951710794347842 -0.002978690312003747 0 0.006559395190555292 -0.0034303558937303154 0 0.0063585800011125918 -0.0027202680668762186 0 0.006058707259335762 -0.0028343954765146051 0 0.0060951710794347842 -0.002978690312003747 0 0.0063585800011125918 -0.0027202680668762186 0 0.0061588952348909445 -0.0025696993838090014 0 0.006058707259335762 -0.0028343954765146051 0 0.006525844884928197 -0.0030238459657348669 0 0.0063585800011125918 -0.0027202680668762186 0 0.0060951710794347842 -0.002978690312003747 0 0.006525844884928197 -0.0030238459657348669 0 0.0063585800011125918 -0.0027202680668762186 0 0.0067775747815028379 -0.0028095689330972463 0 0.0063585800011125918 -0.0027202680668762186 0 0.0067032928936542942 -0.0024822952791896096 0 0.0067775747815028379 -0.0028095689330972463 0 0.0063585800011125918 -0.0027202680668762186 0 0.0063377866077589922 -0.0022986810229930921 0 0.0067032928936542942 -0.0024822952791896096 0 0.0067981998328586713 -0.0020865784223812875 0 0.0063377866077589922 -0.0022986810229930921 0 0.0067032928936542942 -0.0024822952791896096 0 0.0063377866077589922 -0.0022986810229930921 0 0.0061588952348909445 -0.0025696993838090014 0 0.00594571034632717 -0.0024209821224916057 0 0.0063585800011125918 -0.0027202680668762186 0 0.0063377866077589922 -0.0022986810229930921 0 0.0061588952348909445 -0.0025696993838090014 0 0.0049039258302372149 -0.0037513248903816711 0 0.0021188760049139026 -0.0043676798920345263 0 0.00594571034632717 -0.0024209821224916057 0 0.006058707259335762 -0.0028343954765146051 0 0.0054496809252664027 -0.0023528140141526625 0 0.006034434030741543 -0.002084936667761903 0 0.00594571034632717 -0.0024209821224916057 0 0.0054496809252664027 -0.0023528140141526625 0 0.0061588952348909445 -0.0025696993838090014 0 0.00594571034632717 -0.0024209821224916057 0 0.006058707259335762 -0.0028343954765146051 0 0.006034434030741543 -0.002084936667761903 0 0.0063377866077589922 -0.0022986810229930921 0 0.00594571034632717 -0.0024209821224916057 0 0.0016555143882756747 -0.005602360805220555 0 0.0010310488146336692 -0.0055226362975693598 0 0.0011329014309858422 -0.0050744642369329835 0 0.0013138520418459045 -0.005732299247049817 0 0.0016555143882756747 -0.005602360805220555 0 0.0010310488146336692 -0.0055226362975693598 0 0.006058707259335762 -0.0028343954765146051 0 0.0060919464822230618 -0.0029853902156431176 0 0.0054496809252664027 -0.0023528140141526625 0 0.0050884226212955111 -0.0033591309808076613 0 0.0049039258302372149 -0.0037513248903816711 0 0.0013138520418459045 -0.005732299247049817 0 0.00087573278795719542 -0.005741197946907888 0 0.0010310488146336692 -0.0055226362975693598 0 0.00087573278795719542 -0.005741197946907888 0 0.0010310488146336692 -0.0055226362975693598 0 0.00087581007346618938 -0.005577941978983713 0 0.0010310488146336692 -0.0055226362975693598 0 0.00087581007346618938 -0.005577941978983713 0 0.00083251389018052402 -0.0054499350956146051 0 0.0021188760049139026 -0.0043676798920345263 0 0.0011706979384359848 -0.0054103584309181836 0 0.0010111751634669427 -0.0055114675715788224 0 0.00082753395970913094 -0.0051225046594146218 0 0.0010310488146336692 -0.0055226362975693598 0 0.00083251389018052402 -0.0054499350956146051 0 0.00080228725789052843 -0.0052520127828528506 0 0.0010310488146336692 -0.0055226362975693598 0 0.00086671588547596675 -0.0050587621940971815 0 0.00099322219788378378 -0.0053059591658033752 0 0.0010310488146336692 -0.0055226362975693598 0 0.0011329014309858422 -0.0050744642369329835 0 0.00099322219788378378 -0.0053059591658033752 0 0.0011255931788664371 -0.0050812194733608415 0 0.00086671588547596675 -0.0050587621940971815 0 0.00099322219788378378 -0.0053059591658033752 0 0.00083251389018052402 -0.0054499350956146051 0 0.00080228725789052843 -0.0052520127828528506 0 0.0007190066973258892 -0.0053860395995454077 0 0.00080228725789052843 -0.0052520127828528506 0 0.0007190066973258892 -0.0053860395995454077 0 0.00067018169888167296 -0.0052626170798479501 0 0.00068114023724562159 -0.0051524738144724689 0 0.00080228725789052843 -0.0052520127828528506 0 0.00067018169888167296 -0.0052626170798479501 0 0.00046386292085651035 -0.0053359863566057077 0 0.0005498674052775614 -0.0052625680443556698 0 0.00056307990842028514 -0.0053962254580258613 0 0.00057936872954981956 -0.0051703170145758152 0 0.00044003785537702925 -0.0052080952564312992 0 0.0005498674052775614 -0.0052625680443556698 0 0.00067018169888167296 -0.0052626170798479501 0 0.0005498674052775614 -0.0052625680443556698 0 0.00056307990842028514 -0.0053962254580258613 0 0.00057936872954981956 -0.0051703170145758152 0 0.00067018169888167296 -0.0052626170798479501 0 0.0005498674052775614 -0.0052625680443556698 0 0.0007190066973258892 -0.0053860395995454077 0 0.00056307990842028514 -0.0053962254580258613 0 0.00064272772578549589 -0.0054636043191880939 0 0.0007190066973258892 -0.0053860395995454077 0 0.00067018169888167296 -0.0052626170798479501 0 0.00056307990842028514 -0.0053962254580258613 0 0.0004280065102584596 -0.005446155329755958 0 0.00056307990842028514 -0.0053962254580258613 0 0.00056131023106075709 -0.0055411632342743933 0 0.0004280065102584596 -0.005446155329755958 0 0.00056131023106075709 -0.0055411632342743933 0 0.00049993537578838009 -0.0056937687274685438 0 0.00056307990842028514 -0.0053962254580258613 0 0.00056131023106075709 -0.0055411632342743933 0 0.00064272772578549589 -0.0054636043191880939 0 0.00056131023106075709 -0.0055411632342743933 0 0.00072956983892663108 -0.0055382291445562962 0 0.00066290247056986643 -0.0056247206774896596 0 0.00056131023106075709 -0.0055411632342743933 0 0.00064272772578549589 -0.0054636043191880939 0 0.00072956983892663108 -0.0055382291445562962 0 0.00083251389018052402 -0.0054499350956146051 0 0.0007190066973258892 -0.0053860395995454077 0 0.00072956983892663108 -0.0055382291445562962 0 0.0007190066973258892 -0.0053860395995454077 0 0.00064272772578549589 -0.0054636043191880939 0 0.00072956983892663108 -0.0055382291445562962 0 0.00087581007346618938 -0.005577941978983713 0 0.00083251389018052402 -0.0054499350956146051 0 0.00072956983892663108 -0.0055382291445562962 0 0.00087573278795719542 -0.005741197946907888 0 0.00087581007346618938 -0.005577941978983713 0 0.00072956983892663108 -0.0055382291445562962 0 0.00087573278795719542 -0.005741197946907888 0 0.00072956983892663108 -0.0055382291445562962 0 0.00066290247056986643 -0.0056247206774896596 0 0.00087573278795719542 -0.005741197946907888 0 0.00066290247056986643 -0.0056247206774896596 0 0.00049993537578838009 -0.0056937687274685438 0 0.00056131023106075709 -0.0055411632342743933 0 0.00066290247056986643 -0.0056247206774896596 0 0.00049993537578838009 -0.0056937687274685438 0 -0.00037167104249335732 -0.0047011376631014316 0 -0.00014438090440526874 -0.0049156950448137476 0 0.0001802068890048871 -0.0048801770019944813 0 -0.00014438090440526874 -0.0049156950448137476 0 3.6210016981699433e-06 -0.0051325723832141958 0 0.0001802068890048871 -0.0048801770019944813 0 9.5774351069129261e-05 -0.0051745252682383414 0 9.8687552736685238e-05 -0.0056486181609098109 0 0.00034983012691239805 -0.0056757229833198641 0 0.00049993537578838009 -0.0056937687274685438 0 0.0010475159089132859 -0.0059590029019744488 0 0.00087573278795719542 -0.005741197946907888 0 0.00049993537578838009 -0.0056937687274685438 0 0.0010475159089132859 -0.0059590029019744488 0 -0.00037167104249335732 -0.0047011376631014316 0 -0.00034782265044809921 -0.004887728552829233 0 -0.00014438090440526874 -0.0049156950448137476 0 -0.00034782265044809921 -0.004887728552829233 0 -0.00033501257125456376 -0.0051147089817816542 0 -0.00014438090440526874 -0.0049156950448137476 0 -0.00033501257125456376 -0.0051147089817816542 0 3.6210016981699433e-06 -0.0051325723832141958 0 -0.00012945492446398343 -0.0055392266706916051 0 -0.00033501257125456376 -0.0051147089817816542 0 -0.00014438090440526874 -0.0049156950448137476 0 3.6210016981699433e-06 -0.0051325723832141958 0 3.6210016981699433e-06 -0.0051325723832141958 0 0.0001802068890048871 -0.0048801770019944813 0 0.00032336454163358583 -0.0051318648760446239 0 0.0013138520418459045 -0.005732299247049817 0 0.00087573278795719542 -0.005741197946907888 0 0.0010475159089132859 -0.0059590029019744488 0 9.8687552736685238e-05 -0.0056486181609098109 0 0.0036987133140075003 -0.0035630210185500963 0 0.0013138520418459045 -0.005732299247049817 0 0.0016555143882756747 -0.005602360805220555 0 0.001793697560204931 -0.0061995086132406885 0 0.0013138520418459045 -0.005732299247049817 0 0.0010475159089132859 -0.0059590029019744488 0 0.001793697560204931 -0.0061995086132406885 0 0.00037459769672461702 -0.0050289627226661263 0 0.00026743056991706469 -0.0049938219572703627 0 0.00032336454163358583 -0.0051318648760446239 0 0.0001802068890048871 -0.0048801770019944813 0 0.00037459769672461702 -0.0050289627226661263 0 0.00032336454163358583 -0.0051318648760446239 0 0.0058514957480770118 -0.0035917274710799019 0 0.0062970947431903899 -0.0031784099175735307 0 0.0069378267377256291 -0.0039683239727727289 0 0.0036987133140075003 -0.0035630210185500963 0 0.003583365293603541 -0.0025430003107404743 0 0.0068749907930090162 0.00042906299719339049 0 0.0070156551092974114 -0.00012496429713681605 0 0.0074732046381365946 0.0002584910493518308 0 0.0036987133140075003 -0.0035630210185500963 0 0.0076227850416264288 -0.0017583832358460721 0 0.0049039258302372149 -0.0037513248903816711 0 0.0036987133140075003 -0.0035630210185500963 0 0.005606965848051473 -0.0024771275120866313 0 0.0058514957480770118 -0.0035917274710799019 0 0.0062970947431903899 -0.0031784099175735307 0 0.0049039258302372149 -0.0037513248903816711 0 0.0064753085415823934 -0.0032530052606923304 0 0.006525844884928197 -0.0030238459657348669 0 0.006559395190555292 -0.0034303558937303154 0 0.0068373986029216923 -0.0031769176250567182 0 0.00021295109407534424 -0.0047887350653878034 0 0.00026743056991706469 -0.0049938219572703627 0 0.0003286736125563292 -0.0049201664697299764 0 0.0071330380578314822 -0.00069914017674315863 0 0.0070156551092974114 -0.00012496429713681605 0 0.0073025655895030345 -0.00030621904472981544 0 0.0042660327064391809 -0.0014463940514812244 0 0.003583365293603541 -0.0025430003107404743 0 0.00026743056991706469 -0.0049938219572703627 0 0.0003286736125563292 -0.0049201664697299764 0 0.00032336454163358583 -0.0051318648760446239 0 0.00021295109407534424 -0.0047887350653878034 0 0.0003286736125563292 -0.0049201664697299764 0 0.000375553661513782 -0.0047013299328269057 0 0.00062945376150677298 -0.0049549089336197016 0 0.0006421372716152819 -0.0045922024590457763 0 0.00087179093445731784 -0.0047903559176450576 0 0.0003286736125563292 -0.0049201664697299764 0 0.00062945376150677298 -0.0049549089336197016 0 0.000375553661513782 -0.0047013299328269057 0 3.6210016981699433e-06 -0.0051325723832141958 0 0.00032336454163358583 -0.0051318648760446239 0 -0.00012945492446398343 -0.0055392266706916051 0 0.0003286736125563292 -0.0049201664697299764 0 0.00032336454163358583 -0.0051318648760446239 0 0.00062945376150677298 -0.0049549089336197016 0 0.00032385198531176084 -0.0051477919414567863 0 0.0002299370826084642 -0.0052457940475542269 0 0.00062945376150677298 -0.0049549089336197016 0 0.0006421372716152819 -0.0045922024590457763 0 0.000375553661513782 -0.0047013299328269057 0 0.0035986661925256984 0.004670978421291494 0 0.0020095773838599037 0.0065777832882936635 0 0.0027690426937896882 0.0017190697519941442 0 0.0027610273355845446 0.0015434956810575716 0 0.0025896550969426793 0.0015357426877519573 0 0.0031003353514316807 0.0014531986599249872 0 0.0035986661925256984 0.004670978421291494 0 0.0027690426937896882 0.0017190697519941442 0 0.0027768500516717996 0.0015483896591335325 0 0.0030476786906720971 0.001729918253184687 0 0.0027995427422434255 0.0018554372731483628 0 0.0027690426937896882 0.0017190697519941442 0 0.0030476786906720971 0.001729918253184687 0 0.0027768500516717996 0.0015483896591335325 0 0.0030476786906720971 0.001729918253184687 0 0.003242643450207125 0.0015522409553663892 0 0.0030476786906720971 0.001729918253184687 0 0.003242643450207125 0.0015522409553663892 0 0.003297694378710748 0.0019506698862696429 0 0.0035986661925256984 0.004670978421291494 0 0.0057097645294744755 0.004646761460738111 0 0.0027995427422434255 0.0018554372731483628 0 0.0030476786906720971 0.001729918253184687 0 0.003297694378710748 0.0019506698862696429 0 0.0018448908613745805 -0.0015006325983064153 0 0.0013482456812934555 -0.0014039289455344706 0 0.0037842374853624037 0.0020446806466589838 0 0.003297694378710748 0.0019506698862696429 0 0.0035161408426417325 0.0017759941117397862 0 0.003242643450207125 0.0015522409553663892 0 0.003297694378710748 0.0019506698862696429 0 0.0035161408426417325 0.0017759941117397862 0 0.0072392236369526021 0.0043623859590317653 0 0.0070513492551343392 0.0041643222514448639 0 0.0069681576897108197 0.0043615393614541351 0 0.0057097645294744755 0.004646761460738111 0 0.008851200773736129 0.0074922215091150299 0 0.0057097645294744755 0.004646761460738111 0 0.0051241773281842998 0.0028812468774129011 0 0.0070513492551343392 0.0041643222514448639 0 0.0069681576897108197 0.0043615393614541351 0 0.0067869971284292389 0.004250433659136286 0 0.008851200773736129 0.0074922215091150299 0 0.010255514229387227 0.0095733259749945631 0 0.0092356293979732433 0.007638061278800074 0 0.0099854079107158655 0.0076504122677218973 0 0.0099023663359396798 0.008035923010858953 0 0.008851200773736129 0.0074922215091150299 0 0.0096739334934698266 0.005984798168515249 0 0.0070513492551343392 0.0041643222514448639 0 0.0068321106278068028 0.0039388321826439778 0 0.0067869971284292389 0.004250433659136286 0 0.0042660327064391809 -0.0014463940514812244 0 0.0013482456812934555 -0.0014039289455344706 0 0.0037842374853624037 0.0020446806466589838 0 0.0035161408426417325 0.0017759941117397862 0 0.0037972450909135838 0.0019888523920206661 0 0.0051241773281842998 0.0028812468774129011 0 0.0060967166502006063 0.0012968992250296167 0 0.0042660327064391809 -0.0014463940514812244 0 0.0060967166502006063 0.0012968992250296167 0 0.005443788345219012 -0.00020563804333904986 0 0.0056385181803705947 -0.0011251386039272801 0 0.00718809158289801 0.00025890446466764606 0 -0.001296481945542241 -0.0058236908825535253 0 -0.00099073951901063311 -0.005559682202301199 0 -0.00099054082309712934 -0.0060237636035729656 0 -0.0016121146781648168 -0.0055679445878572846 0 -0.0017467460651588904 -0.0055457796800234835 0 -0.0017327535697995845 -0.0055166238761895454 0 -0.001296481945542241 -0.0058236908825535253 0 -0.0013172656753049404 -0.0054773295609362744 0 -0.00099073951901063311 -0.005559682202301199 0 -0.0016121146781648168 -0.0055679445878572846 0 -0.001296481945542241 -0.0058236908825535253 0 -0.0013172656753049404 -0.0054773295609362744 0 -0.0015712382246771829 -0.0056091157188123209 0 -0.0016391341516376807 -0.0056392440581718483 0 -0.0011252548221850679 -0.0053147211254917139 0 -0.0013246197842332246 -0.0052515679798156838 0 -0.0013172656753049404 -0.0054773295609362744 0 -0.0015615368342808123 -0.0053928358899499578 0 -0.0013246197842332246 -0.0052515679798156838 0 -0.0013172656753049404 -0.0054773295609362744 0 -0.0011252548221850679 -0.0053147211254917139 0 -0.0013172656753049404 -0.0054773295609362744 0 -0.00099073951901063311 -0.005559682202301199 0 -0.00087097376593413473 -0.0052042520874548337 0 -0.0011252548221850679 -0.0053147211254917139 0 -0.00099073951901063311 -0.005559682202301199 0 -0.00099073951901063311 -0.005559682202301199 0 -0.00060257077704741282 -0.0053791230633626437 0 -0.0005739285227078512 -0.0057970582014984333 0 -0.00087097376593413473 -0.0052042520874548337 0 -0.00099073951901063311 -0.005559682202301199 0 -0.00060257077704741282 -0.0053791230633626437 0 -0.00033501257125456376 -0.0051147089817816542 0 -0.00012945492446398343 -0.0055392266706916051 0 -0.00060257077704741282 -0.0053791230633626437 0 -0.00012945492446398343 -0.0055392266706916051 0 -0.00060257077704741282 -0.0053791230633626437 0 -0.0005739285227078512 -0.0057970582014984333 0 0.0002299370826084642 -0.0052457940475542269 0 0.00021984623590472243 -0.0052829017583396901 0 -0.00099073951901063311 -0.005559682202301199 0 -0.0005739285227078512 -0.0057970582014984333 0 -0.00099054082309712934 -0.0060237636035729656 0 0.00087179093445731784 -0.0047903559176450576 0 0.00090857063034878525 -0.0045012424344061455 0 0.0010929332405045602 -0.0046384550260926928 0 0.0013435172438421188 -0.00020316240447138247 0 -0.00032820254533417011 -0.0052833962746497145 0 0.00021984623590472243 -0.0052829017583396901 0 -0.00032820254533417011 -0.0052833962746497145 0 0.0006421372716152819 -0.0045922024590457763 0 0.00087179093445731784 -0.0047903559176450576 0 0.00090857063034878525 -0.0045012424344061455 0 0.0013015517302811511 0.0080819132749699422 0 0.0015036612078738231 0.0079620169063990363 0 0.0015499137103441685 0.0081313249518947493 0 0.0020095773838599037 0.0065777832882936635 0 0.0012790206131129006 0.0082414024297323921 0 0.0027995427422434255 0.0018554372731483628 0 0.0027690426937896882 0.0017190697519941442 0 0.0022590613078682853 0.0017227710921486176 0 0.0027690426937896882 0.0017190697519941442 0 0.0025896550969426793 0.0015357426877519573 0 0.0022590613078682853 0.0017227710921486176 0 0.0018448908613745805 -0.0015006325983064153 0 0.0013435172438421188 -0.00020316240447138247 0 0.0020095773838599037 0.0065777832882936635 0 0.0013435172438421188 -0.00020316240447138247 0 0.0015036612078738231 0.0079620169063990363 0 0.0018116109316421516 0.008118668125966514 0 0.0016819901582549796 0.0081961401710858358 0 0.0013435172438421188 -0.00020316240447138247 0 0.00070680487526181214 0.0019515030678238579 0 0.0015036612078738231 0.0079620169063990363 0 0.0015499137103441685 0.0081313249518947493 0 0.0016819901582549796 0.0081961401710858358 0 0.00065435028825893467 -0.0043701594647116565 0 -0.00037872666667739994 -0.0046918781712738814 0 -0.00011188213148785669 -0.0039338621057521499 0 -0.00037872666667739994 -0.0046918781712738814 0 -0.00011188213148785669 -0.0039338621057521499 0 -0.0010220531966047758 -0.0045691902445951539 0 -0.0016391341516376807 -0.0056392440581718483 0 -0.00032820254533417011 -0.0052833962746497145 0 -0.0017467460651588904 -0.0055457796800234835 0 -0.0017870590589637212 -0.0055138061105697656 0 -0.0017327535697995845 -0.0055166238761895454 0 -0.0017870590589637212 -0.0055138061105697656 0 -0.0017327535697995845 -0.0055166238761895454 0 -0.0017720024446267494 -0.0054552848107326905 0 -0.00032820254533417011 -0.0052833962746497145 0 -0.0014832173768021988 -0.0049461997208812775 0 -0.00037872666667739994 -0.0046918781712738814 0 -0.0010220531966047758 -0.0045691902445951539 0 -0.0012617812171711595 -0.0049996750707317524 0 0.00070680487526181214 0.0019515030678238579 0 0.00034574355555628834 0.0016401883636527593 0 0.0018116109316421516 0.008118668125966514 0 0.0019118855534179218 0.0083968849980821589 0 0.002010778905408316 0.0082607553998693007 0 0.0019118855534179218 0.0083968849980821589 0 0.001968132400881555 0.0085152044265604816 0 0.0020180420488596605 0.0084519125464341104 0 0.0019118855534179218 0.0083968849980821589 0 0.0019069802319015994 0.0085442003216081325 0 0.0017825759510699032 0.0085112893191998853 0 0.0019118855534179218 0.0083968849980821589 0 0.0019069802319015994 0.0085442003216081325 0 0.001968132400881555 0.0085152044265604816 0 0.0019118855534179218 0.0083968849980821589 0 0.0017825759510699032 0.0085112893191998853 0 0.0017718149256086145 0.0083199374263211254 0 0.0017825759510699032 0.0085112893191998853 0 0.0017718149256086145 0.0083199374263211254 0 0.0016357789265968536 0.0083816829878138998 0 0.0018116109316421516 0.008118668125966514 0 0.0019118855534179218 0.0083968849980821589 0 0.0017718149256086145 0.0083199374263211254 0 0.0017718149256086145 0.0083199374263211254 0 0.0016819901582549796 0.0081961401710858358 0 0.0016357789265968536 0.0083816829878138998 0 0.0018116109316421516 0.008118668125966514 0 0.0017718149256086145 0.0083199374263211254 0 0.0016819901582549796 0.0081961401710858358 0 0.0015499137103441685 0.0081313249518947493 0 0.0016819901582549796 0.0081961401710858358 0 0.0015356887575370165 0.0082736162500026984 0 0.0015499137103441685 0.0081313249518947493 0 0.0015356887575370165 0.0082736162500026984 0 0.0014219310536288355 0.0082514964908155311 0 0.0015356887575370165 0.0082736162500026984 0 0.0014355280354446341 0.0084202154622297822 0 0.0016357789265968536 0.0083816829878138998 0 0.0016819901582549796 0.0081961401710858358 0 0.0015356887575370165 0.0082736162500026984 0 0.0016357789265968536 0.0083816829878138998 0 0.0012944235588282756 0.0081454919790945358 0 0.0015499137103441685 0.0081313249518947493 0 0.0014219310536288355 0.0082514964908155311 0 0.0012944235588282756 0.0081454919790945358 0 0.0014219310536288355 0.0082514964908155311 0 0.0013039101251914906 0.0083154120114863096 0 0.0015356887575370165 0.0082736162500026984 0 0.0014219310536288355 0.0082514964908155311 0 0.0014355280354446341 0.0084202154622297822 0 0.0014219310536288355 0.0082514964908155311 0 0.0013039101251914906 0.0083154120114863096 0 0.0014355280354446341 0.0084202154622297822 0 0.0013039101251914906 0.0083154120114863096 0 0.0014355280354446341 0.0084202154622297822 0 0.0011822506935052124 0.0085483680334704736 0 0.0014355280354446341 0.0084202154622297822 0 0.0014173734948638743 0.008720546435029666 0 0.0011822506935052124 0.0085483680334704736 0 0.0014355280354446341 0.0084202154622297822 0 0.0015986653815945532 0.0085525887248549884 0 0.0014173734948638743 0.008720546435029666 0 0.0017825759510699032 0.0085112893191998853 0 0.0016357789265968536 0.0083816829878138998 0 0.0015986653815945532 0.0085525887248549884 0 0.0014355280354446341 0.0084202154622297822 0 0.0016357789265968536 0.0083816829878138998 0 0.0015986653815945532 0.0085525887248549884 0 0.0017825759510699032 0.0085112893191998853 0 0.0015986653815945532 0.0085525887248549884 0 0.001693686952372419 0.00875201905538232 0 0.0015986653815945532 0.0085525887248549884 0 0.001693686952372419 0.00875201905538232 0 0.0014173734948638743 0.008720546435029666 0 0.001693686952372419 0.00875201905538232 0 0.0014173734948638743 0.008720546435029666 0 0.001539142211454353 0.0090058202626661175 0 0.0014173734948638743 0.008720546435029666 0 0.0010493561066227417 0.0085028087116020105 0 0.0009981746703344506 0.0090721515870973348 0 6.5627543953283038e-05 0.0080219888377345387 0 0.0049717050486283035 0.0097513807669298517 0 0.0014173734948638743 0.008720546435029666 0 0.001539142211454353 0.0090058202626661175 0 0.0009981746703344506 0.0090721515870973348 0 0.001539142211454353 0.0090058202626661175 0 0.0009981746703344506 0.0090721515870973348 0 0.0014917757989904726 0.0094668095665234736 0 0.001539142211454353 0.0090058202626661175 0 0.0018417668459734127 0.0089883366261727052 0 0.0014917757989904726 0.0094668095665234736 0 0.001693686952372419 0.00875201905538232 0 0.001539142211454353 0.0090058202626661175 0 0.0018417668459734127 0.0089883366261727052 0 0.0023976321841057257 0.0089652133816989221 0 0.0013919413002770591 0.009492692194640287 0 0.0024970664878299128 0.0092128554293910165 0 0.0033299233607323271 0.0094309483049049656 0 0.0028802305997202497 0.0096239843680085389 0 0.0024970664878299128 0.0092128554293910165 0 0.0033299233607323271 0.0094309483049049656 0 0.0034920133855910257 0.0088868083918401536 0 0.0018417668459734127 0.0089883366261727052 0 0.0018842401274244123 0.0087478035496164393 0 0.002028465025185115 0.0087170142518153953 0 0.0023976321841057257 0.0089652133816989221 0 0.0017598107745693914 0.0096363851343969908 0 0.0020031425462099001 0.0086837268761098818 0 0.0018842401274244123 0.0087478035496164393 0 0.002028465025185115 0.0087170142518153953 0 0.0020031425462099001 0.0086837268761098818 0 0.0019737452758911665 0.0086084164144193259 0 0.0018842401274244123 0.0087478035496164393 0 0.0020031425462099001 0.0086837268761098818 0 0.0019737452758911665 0.0086084164144193259 0 0.0020119096741979536 0.0086262937432088852 0 0.001968132400881555 0.0085152044265604816 0 0.0019737452758911665 0.0086084164144193259 0 0.0020131371097942504 0.0085649243152228979 0 0.0019069802319015994 0.0085442003216081325 0 0.001968132400881555 0.0085152044265604816 0 0.0019737452758911665 0.0086084164144193259 0 0.0019069802319015994 0.0085442003216081325 0 0.0019737452758911665 0.0086084164144193259 0 0.0018842401274244123 0.0087478035496164393 0 0.0017825759510699032 0.0085112893191998853 0 0.001693686952372419 0.00875201905538232 0 0.0018842401274244123 0.0087478035496164393 0 0.0019069802319015994 0.0085442003216081325 0 0.0017825759510699032 0.0085112893191998853 0 0.0018842401274244123 0.0087478035496164393 0 0.001693686952372419 0.00875201905538232 0 0.0018417668459734127 0.0089883366261727052 0 0.0018842401274244123 0.0087478035496164393 0 0.010335666100436279 0.011312845549376407 0 0.010612738930095953 0.011129630301241832 0 0.010569387142601602 0.011516354985395303 0 0.010335666100436279 0.011312845549376407 0 0.010360930897663984 0.011022456971167122 0 0.010612738930095953 0.011129630301241832 0 0.010335666100436279 0.011312845549376407 0 0.010360930897663984 0.011022456971167122 0 0.010261990590471037 0.011061408487046176 0 0.010360930897663984 0.011022456971167122 0 0.010393869371561903 0.010859451512897559 0 0.010531148386067274 0.010941532035233107 0 0.010360930897663984 0.011022456971167122 0 0.010393869371561903 0.010859451512897559 0 0.010207737765798966 0.010749192789973739 0 0.010484880704749561 0.010725886695918459 0 0.010393869371561903 0.010859451512897559 0 0.010207737765798966 0.010749192789973739 0 0.010484880704749561 0.010725886695918459 0 0.010393869371561903 0.010859451512897559 0 0.010531148386067274 0.010941532035233107 0 0.010360930897663984 0.011022456971167122 0 0.010531148386067274 0.010941532035233107 0 0.010612738930095953 0.011129630301241832 0 0.010531148386067274 0.010941532035233107 0 0.010797598422370778 0.010898572362943143 0 0.010612738930095953 0.011129630301241832 0 0.010797598422370778 0.010898572362943143 0 0.010612738930095953 0.011129630301241832 0 0.011122126201910051 0.011083564969561263 0 0.0070297458250635709 0.0074367417556890263 0 0.008607364036998022 0.0074609019114488381 0 0.0075717932873924443 0.00684229603341236 0 0.010484880704749561 0.010725886695918459 0 0.010531148386067274 0.010941532035233107 0 0.010797598422370778 0.010898572362943143 0 0.008851200773736129 0.0074922215091150299 0 0.0092452172478876809 0.0089027112372257484 0 0.0070297458250635709 0.0074367417556890263 0 0.0075717932873924443 0.00684229603341236 0 0.0068356388928879535 0.0072627753538300373 0 0.010612738930095953 0.011129630301241832 0 0.011122126201910051 0.011083564969561263 0 0.010569387142601602 0.011516354985395303 0 0.011140649515133352 0.011152052216154559 0 0.011099525015326418 0.011749725751864389 0 0.010569387142601602 0.011516354985395303 0 0.009346307351349779 0.009772045300948733 0 0.011196160215274848 0.011818388445701674 0 0.011291451298453751 0.011510699336633535 0 0.011140649515133352 0.011152052216154559 0 0.011099525015326418 0.011749725751864389 0 0.011291451298453751 0.011510699336633535 0 0.011140649515133352 0.011152052216154559 0 0.01156781509426634 0.011410445633492984 0 0.0052778896367810836 0.0074097446173405383 0 0.0068356388928879535 0.0072627753538300373 0 0.0061127953830135123 0.0069374114614002575 0 0.0052778896367810836 0.0074097446173405383 0 0.00702777085910904 0.0074331462688713417 0 0.0068356388928879535 0.0072627753538300373 0 0.0092452172478876809 0.0089027112372257484 0 0.009346307351349779 0.009772045300948733 0 0.0075717932873924443 0.00684229603341236 0 0.0065456722356939051 0.0062327650110413323 0 0.0067666321903273909 0.0068187567081267149 0 0.0065456722356939051 0.0062327650110413323 0 0.0061127953830135123 0.0069374114614002575 0 0.0052737539850623823 0.0070182058901721561 0 0.0067666321903273909 0.0068187567081267149 0 0.0068356388928879535 0.0072627753538300373 0 0.0061127953830135123 0.0069374114614002575 0 0.0075717932873924443 0.00684229603341236 0 0.0067666321903273909 0.0068187567081267149 0 0.0068356388928879535 0.0072627753538300373 0 0.0057097645294744755 0.004646761460738111 0 0.0063776158155334191 0.0054381545008032198 0 0.0065456722356939051 0.0062327650110413323 0 0.0067666321903273909 0.0068187567081267149 0 0.0061127953830135123 0.0069374114614002575 0 0.009346307351349779 0.009772045300948733 0 0.0038201911790548739 0.0076647344876284171 0 0.0013039101251914906 0.0083154120114863096 0 0.0011839529808571306 0.0082207523991992722 0 0.0011822506935052124 0.0085483680334704736 0 0.0052778896367810836 0.0074097446173405383 0 0.0061127953830135123 0.0069374114614002575 0 0.0052737539850623823 0.0070182058901721561 0 0.0020095773838599037 0.0065777832882936635 0 0.0038201911790548739 0.0076647344876284171 0 0.0012944235588282756 0.0081454919790945358 0 0.0013039101251914906 0.0083154120114863096 0 0.0011839529808571306 0.0082207523991992722 0 0.0037830977623303746 0.0065798810721166756 0 0.0027175038545432287 0.0065654420124710436 0 0.0037734707180740947 0.0058937452755108179 0 0.0035986661925256984 0.004670978421291494 0 0.0038201911790548739 0.0076647344876284171 0 0.009346307351349779 0.009772045300948733 0 0.0049717050486283035 0.0097513807669298517 0 0.0038201911790548739 0.0076647344876284171 0 0.0049717050486283035 0.0097513807669298517 0 0.0066910961535898072 0.0090548024363550726 0 0.0057845462575875665 0.0096154723585445325 0 0.0057716474858015643 0.0085094955059069038 0 0.011291451298453751 0.011510699336633535 0 0.01156781509426634 0.011410445633492984 0 0.011614355892167808 0.012099142594115327 0 0.0049717050486283035 0.0097513807669298517 0 0.0064561461851902948 0.010659765792214022 0 0.011614355892167808 0.012099142594115327 0 0.011099525015326418 0.011749725751864389 0 0.011355517446568906 0.012480237585734454 0 0.011099525015326418 0.011749725751864389 0 0.010948184959016038 0.012443363354937313 0 0.011355517446568906 0.012480237585734454 0 0.011291451298453751 0.011510699336633535 0 0.011614355892167808 0.012099142594115327 0 0.011099525015326418 0.011749725751864389 0 0.011099525015326418 0.011749725751864389 0 0.010746717016379102 0.011941538384341808 0 0.010569387142601602 0.011516354985395303 0 0.010746717016379102 0.011941538384341808 0 0.010611407406605888 0.012367649037021427 0 0.010948184959016038 0.012443363354937313 0 0.011099525015326418 0.011749725751864389 0 0.010746717016379102 0.011941538384341808 0 0.010948184959016038 0.012443363354937313 0 0.010746717016379102 0.011941538384341808 0 0.010611407406605888 0.012367649037021427 0 0.010531552511168819 0.012073615344135509 0 0.010531552511168819 0.012073615344135509 0 0.010384550078911465 0.01227078655637652 0 0.010336926106309673 0.012002112068919954 0 0.010746717016379102 0.011941538384341808 0 0.010531552511168819 0.012073615344135509 0 0.010508180817803938 0.011844723071775053 0 0.010384550078911465 0.01227078655637652 0 0.010292465716995337 0.012749296107039615 0 0.010105447024994108 0.012174033253600986 0 0.010531552511168819 0.012073615344135509 0 0.010336926106309673 0.012002112068919954 0 0.010508180817803938 0.011844723071775053 0 0.010611407406605888 0.012367649037021427 0 0.010531552511168819 0.012073615344135509 0 0.010384550078911465 0.01227078655637652 0 0.010336926106309673 0.012002112068919954 0 0.010330236187236145 0.011721703706995188 0 0.010169779637914291 0.012124558992664335 0 0.010384550078911465 0.01227078655637652 0 0.010336926106309673 0.012002112068919954 0 0.010105447024994108 0.012174033253600986 0 0.010350233878803456 0.012159242612783535 0 0.01038639986061113 0.01228428425121603 0 0.010336926106309673 0.012002112068919954 0 0.010330236187236145 0.011721703706995188 0 0.010508180817803938 0.011844723071775053 0 0.010746717016379102 0.011941538384341808 0 0.010508180817803938 0.011844723071775053 0 0.010569387142601602 0.011516354985395303 0 0.010330236187236145 0.011721703706995188 0 0.010508180817803938 0.011844723071775053 0 0.010569387142601602 0.011516354985395303 0 0.010335666100436279 0.011312845549376407 0 0.010330236187236145 0.011721703706995188 0 0.010569387142601602 0.011516354985395303 0 0.01059133030913125 0.013307212478733645 0 0.010292465716995337 0.012749296107039615 0 0.010707334992205855 0.012841959857286436 0 0.010556303823535788 0.013247947592244709 0 0.010451602501629669 0.013016614626532381 0 0.01059133030913125 0.013307212478733645 0 0.010570580280639943 0.013185418073969064 0 0.010461477521305671 0.013236771763312644 0 0.010451602501629669 0.013016614626532381 0 0.01038639986061113 0.01228428425121603 0 0.010611407406605888 0.012367649037021427 0 0.010292465716995337 0.012749296107039615 0 0.010707334992205855 0.012841959857286436 0 0.010611407406605888 0.012367649037021427 0 0.010384550078911465 0.01227078655637652 0 0.010292465716995337 0.012749296107039615 0 0.010707334992205855 0.012841959857286436 0 0.010948184959016038 0.012443363354937313 0 0.011003868593854636 0.013251851475636357 0 0.010611407406605888 0.012367649037021427 0 0.010707334992205855 0.012841959857286436 0 0.010948184959016038 0.012443363354937313 0 0.01059133030913125 0.013307212478733645 0 0.010707334992205855 0.012841959857286436 0 0.011003868593854636 0.013251851475636357 0 0.011003868593854636 0.013251851475636357 0 0.011355517446568906 0.012480237585734454 0 0.011611221973047132 0.012838724983449377 0 0.010948184959016038 0.012443363354937313 0 0.011003868593854636 0.013251851475636357 0 0.011355517446568906 0.012480237585734454 0 0.0064561461851902948 0.010659765792214022 0 0.0061911888725250551 0.011302212090498006 0 0.011614355892167808 0.012099142594115327 0 0.011355517446568906 0.012480237585734454 0 0.011611221973047132 0.012838724983449377 0 0.00092488812477163152 0.0099416517936026568 0 0.00095315772554164981 0.010946974174149891 0 0.0014090914945435655 0.010676510387494396 0 0.011003868593854636 0.013251851475636357 0 0.011611221973047132 0.012838724983449377 0 0.011571282557237718 0.01352057034486169 0 0.0061911888725250551 0.011302212090498006 0 0.0068449224267872278 0.012582351882158669 0 0.0068449224267872278 0.012582351882158669 0 0.0071967596176480721 0.013418543536598734 0 0.0032874682472189948 0.012865502774189491 0 0.0032343733514393893 0.012825327630955029 0 0.0032342479664478445 0.012787911478285617 0 0.01114465540369443 0.013475651036679429 0 0.011005994837142728 0.013661481618595752 0 0.011058276558277774 0.013794769380361159 0 0.01114465540369443 0.013475651036679429 0 0.011005994837142728 0.013661481618595752 0 0.010949052835770832 0.01354034781099742 0 0.011005994837142728 0.013661481618595752 0 0.010899144984710242 0.013711767623235643 0 0.010965648182198551 0.013780872095437295 0 0.011005994837142728 0.013661481618595752 0 0.010899144984710242 0.013711767623235643 0 0.010949052835770832 0.01354034781099742 0 0.012799123144468127 0.013867699171225722 0 0.0068449224267872278 0.012582351882158669 0 0.011003868593854636 0.013251851475636357 0 0.01114465540369443 0.013475651036679429 0 0.010949052835770832 0.01354034781099742 0 0.011003868593854636 0.013251851475636357 0 0.010949052835770832 0.01354034781099742 0 0.010769705207029832 0.013584701064833841 0 0.01059133030913125 0.013307212478733645 0 0.011003868593854636 0.013251851475636357 0 0.010769705207029832 0.013584701064833841 0 0.010899144984710242 0.013711767623235643 0 0.010949052835770832 0.01354034781099742 0 0.010769705207029832 0.013584701064833841 0 0.010899144984710242 0.013711767623235643 0 0.010769705207029832 0.013584701064833841 0 0.010778164426958855 0.013838541668751854 0 0.010769705207029832 0.013584701064833841 0 0.010597951508099205 0.013631918271278541 0 0.010658861911872305 0.013818367907387894 0 0.010769705207029832 0.013584701064833841 0 0.010658861911872305 0.013818367907387894 0 0.010778164426958855 0.013838541668751854 0 0.01059133030913125 0.013307212478733645 0 0.010769705207029832 0.013584701064833841 0 0.010597951508099205 0.013631918271278541 0 0.0024375503838497724 0.010083983799044681 0 0.0020934893191972173 0.010505630771199082 0 0.0023506987591921948 0.010925323222480226 0 0.0024375503838497724 0.010083983799044681 0 0.003146206256905358 0.010615361153281653 0 0.0023506987591921948 0.010925323222480226 0 0.0024375503838497724 0.010083983799044681 0 0.003146206256905358 0.010615361153281653 0 0.0033151424928766003 0.0099247756904669426 0 0.0024375503838497724 0.010083983799044681 0 0.0033151424928766003 0.0099247756904669426 0 0.0028802305997202497 0.0096239843680085389 0 0.0033299233607323271 0.0094309483049049656 0 0.0033151424928766003 0.0099247756904669426 0 0.0028802305997202497 0.0096239843680085389 0 0.0024970664878299128 0.0092128554293910165 0 0.0024375503838497724 0.010083983799044681 0 0.0028802305997202497 0.0096239843680085389 0 0.0024970664878299128 0.0092128554293910165 0 0.0024375503838497724 0.010083983799044681 0 0.0014917757989904726 0.0094668095665234736 0 0.0024375503838497724 0.010083983799044681 0 0.0014917757989904726 0.0094668095665234736 0 0.001701596494488403 0.010290190448503536 0 0.0009981746703344506 0.0090721515870973348 0 0.00092488812477163152 0.0099416517936026568 0 0.0014917757989904726 0.0094668095665234736 0 0.00092488812477163152 0.0099416517936026568 0 0.0014917757989904726 0.0094668095665234736 0 0.001701596494488403 0.010290190448503536 0 0.00092488812477163152 0.0099416517936026568 0 0.001701596494488403 0.010290190448503536 0 0.0014090914945435655 0.010676510387494396 0 0.001701596494488403 0.010290190448503536 0 0.0018329937592167689 0.010734643529132214 0 0.0014090914945435655 0.010676510387494396 0 0.0024375503838497724 0.010083983799044681 0 0.001701596494488403 0.010290190448503536 0 0.0020934893191972173 0.010505630771199082 0 0.001701596494488403 0.010290190448503536 0 0.0020934893191972173 0.010505630771199082 0 0.0018329937592167689 0.010734643529132214 0 0.0018686949894940136 0.011964093013006735 0 0.0022485167993230746 0.011174294063726784 0 0.0020934893191972173 0.010505630771199082 0 0.0018329937592167689 0.010734643529132214 0 0.0023506987591921948 0.010925323222480226 0 0.0018329937592167689 0.010734643529132214 0 0.0015826341982324943 0.011273536983401675 0 0.0023506987591921948 0.010925323222480226 0 0.00095315772554164981 0.010946974174149891 0 0.0014090914945435655 0.010676510387494396 0 0.0015826341982324943 0.011273536983401675 0 0.0068449224267872278 0.012582351882158669 0 0.0018686949894940136 0.011964093013006735 0 0.0018329937592167689 0.010734643529132214 0 0.0014090914945435655 0.010676510387494396 0 0.0015826341982324943 0.011273536983401675 0 0.0032343733514393893 0.012825327630955029 0 0.0031897535086663001 0.012796747359861469 0 0.0032087156440819384 0.012786981837258854 0 0.0032874682472189948 0.012865502774189491 0 0.0032343733514393893 0.012825327630955029 0 0.0031979543228204624 0.012837471726863533 0 0.0031098136375071329 0.012343310710096804 0 0.0018686949894940136 0.011964093013006735 0 0.0032343733514393893 0.012825327630955029 0 0.0031897023396507832 0.012847742235940976 0 0.0031897535086663001 0.012796747359861469 0 0.0031897023396507832 0.012847742235940976 0 0.0031004874345683434 0.012797960297645851 0 0.0031897535086663001 0.012796747359861469 0 0.0014342226172111244 0.011873583371165567 0 0.0021788972890887932 0.012259965825151183 0 0.0022456978413578437 0.01148151736269858 0 0.0018686949894940136 0.011964093013006735 0 0.0027515027249893831 0.012587331105147991 0 0.0021788972890887932 0.012259965825151183 0 0.002859603260401519 0.011812069665920981 0 0.0029728939687630298 0.012628284437091544 0 0.0021788972890887932 0.012259965825151183 0 0.0022456978413578437 0.01148151736269858 0 0.002859603260401519 0.011812069665920981 0 0.0031510229868914608 0.010790475740730752 0 0.0022485167993230746 0.011174294063726784 0 0.0030810224815961316 0.010985821135396973 0 0.0022456978413578437 0.01148151736269858 0 0.002859603260401519 0.011812069665920981 0 0.0030810224815961316 0.010985821135396973 0 0.002859603260401519 0.011812069665920981 0 0.0034845372545282333 0.011640047774017103 0 0.0034079447144390877 0.011927264532758787 0 0.0022986576196217571 0.012495027066278841 0 0.002859603260401519 0.011812069665920981 0 0.0032184286939224314 0.012571226180251884 0 0.0029728939687630298 0.012628284437091544 0 0.002859603260401519 0.011812069665920981 0 0.0034935978411601148 0.012418464299721862 0 0.0032184286939224314 0.012571226180251884 0 0.002859603260401519 0.011812069665920981 0 0.0038722454938503225 0.012431870512194779 0 0.0034845372545282333 0.011640047774017103 0 0.0022986576196217571 0.012495027066278841 0 0.001706516819375965 0.011708453626557007 0 0.0038722454938503225 0.012431870512194779 0 0.0041249429749498114 0.011305279545890737 0 0.0034845372545282333 0.011640047774017103 0 -0.00087532953210286318 0.011987160455858889 0 -0.0010588305733048782 0.012170173185503388 0 -0.00094927806143683014 0.012294002716887615 0 -0.00087532953210286318 0.011987160455858889 0 -0.0010588305733048782 0.012170173185503388 0 -0.0011886959166642788 0.012060787732128818 0 -0.0010588305733048782 0.012170173185503388 0 -0.00094927806143683014 0.012294002716887615 0 -0.0012185697105671506 0.012337082009469136 0 -0.0010588305733048782 0.012170173185503388 0 -0.0012185697105671506 0.012337082009469136 0 -0.0011886959166642788 0.012060787732128818 0 0.0030810224815961316 0.010985821135396973 0 0.0041249429749498114 0.011305279545890737 0 0.0034845372545282333 0.011640047774017103 0 0.003146206256905358 0.010615361153281653 0 0.0033151424928766003 0.0099247756904669426 0 0.0040196989634937166 0.010379207984817092 0 0.0030810224815961316 0.010985821135396973 0 0.0041249429749498114 0.011305279545890737 0 0.0040196989634937166 0.010379207984817092 0 0.0031510229868914608 0.010790475740730752 0 0.0039681019970157902 0.010402124767535385 0 -0.00094927806143683014 0.012294002716887615 0 -0.0010084617141108542 0.012581251927499423 0 -0.0012185697105671506 0.012337082009469136 0 0.001706516819375965 0.011708453626557007 0 -0.00014532373605026443 0.011345139731967317 0 -0.00014532373605026443 0.011345139731967317 0 -0.0016363292363604036 0.012160103907087981 0 0.0041249429749498114 0.011305279545890737 0 0.0040196989634937166 0.010379207984817092 0 0.0043488817011705276 0.010010294256061049 0 -0.0019823834481124494 0.011482972049911151 0 -0.0018236895862816993 0.011519300775222736 0 -0.0016887742597667386 0.011870978713849024 0 -0.00014532373605026443 0.011345139731967317 0 -0.00028971914633777666 0.011433185071794088 0 -0.0019813265343882505 0.011474979084392699 0 -0.0019718644019572373 0.011430966903304878 0 -0.001994566133689995 0.011341305138889693 0 -0.0019823834481124494 0.011482972049911151 0 -0.0019718644019572373 0.011430966903304878 0 -0.0018236895862816993 0.011519300775222736 0 -0.0019718644019572373 0.011430966903304878 0 -0.0018236895862816993 0.011519300775222736 0 -0.00185476820970834 0.011349741561331166 0 -0.0019718644019572373 0.011430966903304878 0 -0.00185476820970834 0.011349741561331166 0 -0.0019423477100274534 0.011345579687468571 0 -0.00185476820970834 0.011349741561331166 0 -0.0019423477100274534 0.011345579687468571 0 -0.0019652045785620957 0.01122436449554837 0 -0.001994566133689995 0.011341305138889693 0 -0.002114189939570312 0.011235106071657387 0 -0.0019652045785620957 0.01122436449554837 0 -0.00014532373605026443 0.011345139731967317 0 0.00088312786568373817 0.010323983564622698 0 -0.0019813265343882505 0.011474979084392699 0 -0.001994566133689995 0.011341305138889693 0 -0.002114189939570312 0.011235106071657387 0 -0.0019718644019572373 0.011430966903304878 0 -0.0019423477100274534 0.011345579687468571 0 -0.001994566133689995 0.011341305138889693 0 -0.0019423477100274534 0.011345579687468571 0 -0.001994566133689995 0.011341305138889693 0 -0.0019652045785620957 0.01122436449554837 0 0.0033151424928766003 0.0099247756904669426 0 0.0040196989634937166 0.010379207984817092 0 0.0038234696170072655 0.0098472891177492586 0 0.0043488817011705276 0.010010294256061049 0 0.0038234696170072655 0.0098472891177492586 0 0.0038933968713697762 0.0094203220992948901 0 0.0033299233607323271 0.0094309483049049656 0 0.0038234696170072655 0.0098472891177492586 0 0.0038933968713697762 0.0094203220992948901 0 0.0033299233607323271 0.0094309483049049656 0 0.0033151424928766003 0.0099247756904669426 0 0.0038234696170072655 0.0098472891177492586 0 0.0040196989634937166 0.010379207984817092 0 0.0043488817011705276 0.010010294256061049 0 0.0038234696170072655 0.0098472891177492586 0 -0.0015675948779042023 0.011514381060259819 0 -0.0018331620805291881 0.01153040379811817 0 -0.001579079380829448 0.011661807399381729 0 -0.0015675948779042023 0.011514381060259819 0 -0.0018331620805291881 0.01153040379811817 0 -0.0016825132081936328 0.011182257553322986 0 -0.0015675948779042023 0.011514381060259819 0 -0.001579079380829448 0.011661807399381729 0 -0.0014797133879113379 0.011724077726136921 0 -0.00185476820970834 0.011349741561331166 0 -0.0016191477984092036 0.011457915937863326 0 -0.0018782675573758485 0.011042012516010485 0 -0.0018236895862816993 0.011519300775222736 0 -0.00185476820970834 0.011349741561331166 0 -0.0016191477984092036 0.011457915937863326 0 -0.0016191477984092036 0.011457915937863326 0 -0.0014649845185932347 0.01189416094730333 0 -0.0016887742597667386 0.011870978713849024 0 -0.0018236895862816993 0.011519300775222736 0 -0.0016191477984092036 0.011457915937863326 0 -0.0016887742597667386 0.011870978713849024 0 -0.0017237787205323979 0.011495076254582556 0 -0.001571851864563657 0.011917045431582609 0 -0.0018331620805291881 0.01153040379811817 0 -0.001579079380829448 0.011661807399381729 0 -0.0016188042259208568 0.011795373369100855 0 -0.0018331620805291881 0.01153040379811817 0 -0.0016188042259208568 0.011795373369100855 0 -0.0016707764874480757 0.011965615357715401 0 -0.001579079380829448 0.011661807399381729 0 -0.0016188042259208568 0.011795373369100855 0 -0.0015161107870792416 0.011807388712977103 0 -0.0016188042259208568 0.011795373369100855 0 -0.0016707764874480757 0.011965615357715401 0 -0.00156745173027304 0.01192900976833519 0 -0.0016707764874480757 0.011965615357715401 0 -0.0015325248831122534 0.012031124182372998 0 -0.0015771337027293403 0.012011722520871465 0 -0.0016707764874480757 0.011965615357715401 0 -0.00156745173027304 0.01192900976833519 0 -0.0015771337027293403 0.012011722520871465 0 -0.0014649845185932347 0.01189416094730333 0 -0.0016887742597667386 0.011870978713849024 0 -0.0014688818861113889 0.012036112083711222 0 -0.0016363292363604036 0.012160103907087981 0 -0.0014251322531004073 0.012030563682629617 0 -0.0011886959166642788 0.012060787732128818 0 -0.0014688818861113889 0.012036112083711222 0 -0.0012974406034422408 0.011957953040886597 0 -0.0012185697105671506 0.012337082009469136 0 -0.0011886959166642788 0.012060787732128818 0 -0.0014688818861113889 0.012036112083711222 0 -0.001571851864563657 0.011917045431582609 0 -0.0015370623886107571 0.012018256680172109 0 -0.0014649845185932347 0.01189416094730333 0 -0.0014688818861113889 0.012036112083711222 0 -0.0015325248831122534 0.012031124182372998 0 -0.0014688818861113889 0.012036112083711222 0 -0.0015325248831122534 0.012031124182372998 0 -0.0014348119002703138 0.01191974048721617 0 -0.0015325248831122534 0.012031124182372998 0 -0.0016161890343774539 0.012047287576937191 0 -0.0015771337027293403 0.012011722520871465 0 -0.0015325248831122534 0.012031124182372998 0 -0.0016161890343774539 0.012047287576937191 0 -0.0016719332839624929 0.011991965517739053 0 -0.0016161890343774539 0.012047287576937191 0 -0.0017638144737087001 0.012076005249491734 0 -0.0016719332839624929 0.011991965517739053 0 -0.0016161890343774539 0.012047287576937191 0 -0.0017638144737087001 0.012076005249491734 0 -0.0015118261843296849 0.011984942385072831 0 -0.0017638144737087001 0.012076005249491734 0 -0.001804316897377592 0.011988040709138528 0 -0.0016719332839624929 0.011991965517739053 0 -0.0017638144737087001 0.012076005249491734 0 -0.0019276161330337468 0.01201754282060442 0 -0.001804316897377592 0.011988040709138528 0 -0.0017638144737087001 0.012076005249491734 0 -0.0019008495804334999 0.012095274325338799 0 -0.0019276161330337468 0.01201754282060442 0 -0.0017638144737087001 0.012076005249491734 0 -0.0018187528812509471 0.01217777436038933 0 -0.0019008495804334999 0.012095274325338799 0 -0.0017511627110854337 0.012040847764434542 0 -0.0016717197632216882 0.012098058984639087 0 -0.0017638144737087001 0.012076005249491734 0 -0.0018187528812509471 0.01217777436038933 0 -0.0018119633593008976 0.012190011075508477 0 -0.001915421047155693 0.012198935885313579 0 -0.002180864428820639 0.011832593276249902 0 -0.0018187528812509471 0.01217777436038933 0 -0.0018049186639031247 0.012166103707249937 0 -0.0017809160325423267 0.01215294133815276 0 -0.0018187528812509471 0.01217777436038933 0 -0.0018049186639031247 0.012166103707249937 0 -0.0018119633593008976 0.012190011075508477 0 -0.0016161890343774539 0.012047287576937191 0 -0.0015118261843296849 0.011984942385072831 0 -0.0015771337027293403 0.012011722520871465 0 -0.0015118261843296849 0.011984942385072831 0 -0.00156745173027304 0.01192900976833519 0 -0.0015771337027293403 0.012011722520871465 0 -0.0025815557246981363 0.011435801514713418 0 -0.0023901496170184171 0.011820001200456952 0 -0.0024668718300558537 0.011595324811939338 0 -0.0025347544744087338 0.011462760718201083 0 -0.0024409398461811985 0.011522406823674256 0 -0.0024668718300558537 0.011595324811939338 0 -0.0025347544744087338 0.011462760718201083 0 -0.0025355208294719762 0.011651243441239629 0 -0.00273814700345275 0.011511284495803114 0 -0.0025923719301514485 0.011461941495815796 0 -0.0026777459145080622 0.011658116369157468 0 -0.0019008495804334999 0.012095274325338799 0 -0.0019378002640516264 0.01215460977343035 0 -0.0020674619342572914 0.012026277186463907 0 -0.0023479159837251126 0.011825754090770428 0 -0.0023901496170184171 0.011820001200456952 0 -0.0019008495804334999 0.012095274325338799 0 -0.0019276161330337468 0.01201754282060442 0 -0.0020674619342572914 0.012026277186463907 0 -0.0023479159837251126 0.011825754090770428 0 -0.002180864428820639 0.011832593276249902 0 -0.0018187528812509471 0.01217777436038933 0 -0.0019378002640516264 0.01215460977343035 0 -0.001868135894180629 0.012285706821509515 0 -0.00273814700345275 0.011511284495803114 0 -0.0026976034918063654 0.011420401349523471 0 -0.0027940986086817834 0.011368019823094475 0 -0.00273814700345275 0.011511284495803114 0 -0.0026976034918063654 0.011420401349523471 0 -0.0025923719301514485 0.011461941495815796 0 -0.0018187528812509471 0.01217777436038933 0 -0.0019008495804334999 0.012095274325338799 0 -0.0019378002640516264 0.01215460977343035 0 -0.0026976034918063654 0.011420401349523471 0 -0.0025923719301514485 0.011461941495815796 0 -0.0026643420609890347 0.011341242900543776 0 -0.0026643420609890347 0.011341242900543776 0 -0.0026130993193768954 0.01118620333222045 0 -0.0025157091111231203 0.011270190890857941 0 -0.0025815557246981363 0.011435801514713418 0 -0.002508287760121537 0.011267158257993619 0 -0.0025923719301514485 0.011461941495815796 0 -0.0026643420609890347 0.011341242900543776 0 -0.0025157091111231203 0.011270190890857941 0 -0.0026976034918063654 0.011420401349523471 0 -0.0026643420609890347 0.011341242900543776 0 -0.0027940986086817834 0.011368019823094475 0 -0.0026643420609890347 0.011341242900543776 0 -0.0027463386739763757 0.011249587550125614 0 -0.0026130993193768954 0.01118620333222045 0 -0.0026643420609890347 0.011341242900543776 0 -0.0027940986086817834 0.011368019823094475 0 -0.0027463386739763757 0.011249587550125614 0 -0.0023648112745135834 0.011704478020945333 0 -0.0022381398950824288 0.011394188720836015 0 -0.0024742828579276551 0.011433525741970142 0 -0.002180864428820639 0.011832593276249902 0 -0.00248866932812126 0.011350838418182093 0 -0.0027463386739763757 0.011249587550125614 0 -0.0026993820358226796 0.011135329325817928 0 -0.0026130993193768954 0.01118620333222045 0 -0.002440909784522609 0.010778335279770885 0 -0.002069995641812265 0.011619851815124552 0 -0.0021639485245849529 0.010708478753865113 0 -0.0024025437081650358 0.010806742498606305 0 -0.0021420753939216872 0.010652283556729147 0 -0.0022381398950824288 0.011394188720836015 0 -0.0021122454754869571 0.011082625068454369 0 -0.0024742828579276551 0.011433525741970142 0 -0.0022356796291198248 0.010621828482017766 0 -0.002432727272592289 0.010003903295036098 0 -0.00248866932812126 0.011350838418182093 0 -0.002440909784522609 0.010778335279770885 0 -0.0026130993193768954 0.01118620333222045 0 -0.0025326086064809744 0.011114915823562466 0 -0.0025157091111231203 0.011270190890857941 0 -0.0018119633593008976 0.012190011075508477 0 -0.0018848224301184337 0.01207521062905393 0 -0.0018168181575096418 0.012125535522151556 0 -0.0015118261843296849 0.011984942385072831 0 -0.0014400059632101081 0.011707769455713744 0 -0.0015161107870792416 0.011807388712977103 0 -0.0016717197632216882 0.012098058984639087 0 -0.0015732818977427724 0.011669185497327433 0 -0.0014400059632101081 0.011707769455713744 0 -0.0014797133879113379 0.011724077726136921 0 -0.0015161107870792416 0.011807388712977103 0 -0.0015732818977427724 0.011669185497327433 0 -0.0015211314562479819 0.011663779348560492 0 -0.001579079380829448 0.011661807399381729 0 -0.0014797133879113379 0.011724077726136921 0 -0.0015161107870792416 0.011807388712977103 0 -0.0016188042259208568 0.011795373369100855 0 -0.00156745173027304 0.01192900976833519 0 -0.0015161107870792416 0.011807388712977103 0 -0.0015118261843296849 0.011984942385072831 0 -0.00156745173027304 0.01192900976833519 0 -0.0015161107870792416 0.011807388712977103 0 -0.0018049186639031247 0.012166103707249937 0 -0.0018119633593008976 0.012190011075508477 0 -0.0018168181575096418 0.012125535522151556 0 -0.0018049186639031247 0.012166103707249937 0 -0.0017809160325423267 0.01215294133815276 0 -0.0018168181575096418 0.012125535522151556 0 -0.002180864428820639 0.011832593276249902 0 -0.002069995641812265 0.011619851815124552 0 -0.0017809160325423267 0.01215294133815276 0 -0.0017944254243813511 0.012102318903552213 0 -0.0018168181575096418 0.012125535522151556 0 -0.0017623457530052818 0.012068403173004982 0 -0.0018168181575096418 0.012125535522151556 0 -0.0017869765656292448 0.012007097848426769 0 -0.0018848224301184337 0.01207521062905393 0 -0.0018168181575096418 0.012125535522151556 0 -0.0017869765656292448 0.012007097848426769 0 -0.002069995641812265 0.011619851815124552 0 -0.0019525069568123909 0.011980274033416146 0 -0.0021639485245849529 0.010708478753865113 0 -0.0023620025717659469 0.010907925663339797 0 -0.0024025437081650358 0.010806742498606305 0 -0.0015732818977427724 0.011669185497327433 0 -0.0022356796291198248 0.010621828482017766 0 -0.002069995641812265 0.011619851815124552 0 -0.0022356796291198248 0.010621828482017766 0 -0.001371450604062308 0.011041162279992732 0 -0.0014223533427441609 0.011019632898991999 0 -0.0014138730738676507 0.010960462841847939 0 -0.0015732818977427724 0.011669185497327433 0 -0.0014792954662236103 0.011055783639881234 0 -0.0015675948779042023 0.011514381060259819 0 -0.001383321181939294 0.011668454208762797 0 -0.0014504437661112715 0.011252283375950824 0 -0.0014508510891550633 0.01108850263146398 0 -0.001493864067652958 0.010972159610662505 0 -0.0014491940509322452 0.010991628201858226 0 -0.0014508510891550633 0.01108850263146398 0 -0.0014223533427441609 0.011019632898991999 0 -0.0014491940509322452 0.010991628201858226 0 -0.0014508510891550633 0.01108850263146398 0 -0.001371450604062308 0.011041162279992732 0 -0.0014223533427441609 0.011019632898991999 0 -0.0015675948779042023 0.011514381060259819 0 -0.001383321181939294 0.011668454208762797 0 -0.0014797133879113379 0.011724077726136921 0 -0.001493864067652958 0.010972159610662505 0 -0.001463383790083537 0.010915034083840421 0 -0.0014491940509322452 0.010991628201858226 0 -0.001463383790083537 0.010915034083840421 0 -0.0014138730738676507 0.010960462841847939 0 -0.0014086459996986132 0.010900077489552285 0 -0.0016179207036773073 0.011019385602027745 0 -0.0020155931193513595 0.01042246399471158 0 -0.0014223533427441609 0.011019632898991999 0 -0.0014491940509322452 0.010991628201858226 0 -0.0014138730738676507 0.010960462841847939 0 -0.001463383790083537 0.010915034083840421 0 -0.0014491940509322452 0.010991628201858226 0 -0.0014138730738676507 0.010960462841847939 0 -0.0029192694326089915 0.0097035035427004441 0 -0.0032919667033499858 0.008766738015737378 0 -0.0025853047853889276 0.0087129606981881103 0 -0.001371450604062308 0.011041162279992732 0 -0.0014138730738676507 0.010960462841847939 0 -0.0014200550454446968 0.010901989787401473 0 -0.0022356796291198248 0.010621828482017766 0 -0.0020155931193513595 0.01042246399471158 0 -0.0032919667033499858 0.008766738015737378 0 -0.0025853047853889276 0.0087129606981881103 0 -0.0025493208804861552 0.007989948041952466 0 -0.0032919667033499858 0.008766738015737378 0 -0.0025493208804861552 0.007989948041952466 0 -0.0034151864409123021 0.0077558916955603159 0 -0.0013972941608803371 0.010919915045926284 0 -0.0014109778039401201 0.010862974734863527 0 -0.0013930037974074399 0.010633580247922082 0 -0.0014696637071290545 0.0107653421161901 0 -0.0014109778039401201 0.010862974734863527 0 -0.0013930037974074399 0.010633580247922082 0 -0.0020155931193513595 0.01042246399471158 0 -0.0023227851594298651 0.0069773508422835539 0 -0.0014696637071290545 0.0107653421161901 0 -0.0014743639736354496 0.010852411193728715 0 -0.0014109778039401201 0.010862974734863527 0 -0.001463383790083537 0.010915034083840421 0 -0.0014743639736354496 0.010852411193728715 0 -0.0014109778039401201 0.010862974734863527 0 -0.001463383790083537 0.010915034083840421 0 -0.0014743639736354496 0.010852411193728715 0 -0.0015702002478544981 0.010857683652477423 0 -0.001463383790083537 0.010915034083840421 0 -0.0014086459996986132 0.010900077489552285 0 -0.0014109778039401201 0.010862974734863527 0 -0.0020155931193513595 0.01042246399471158 0 -0.001753840451182327 0.010797406283748841 0 -0.0031963663528402795 0.0090313816121877152 0 -0.0034892995613782134 0.0091995208202018293 0 -0.0030510138204109644 0.0081057247171709423 0 -0.0026130993193768954 0.01118620333222045 0 -0.0026313467914942392 0.011071601877553966 0 -0.0025326086064809744 0.011114915823562466 0 -0.0024182731909838566 0.010452844172403403 0 -0.0025439670880168831 0.010564977477945312 0 -0.0024453460719368846 0.010513380181895102 0 -0.002440909784522609 0.010778335279770885 0 -0.0026658099125393222 0.010594939276643334 0 -0.0026993820358226796 0.011135329325817928 0 -0.0026130993193768954 0.01118620333222045 0 -0.0026313467914942392 0.011071601877553966 0 -0.0026658099125393222 0.010594939276643334 0 -0.002432727272592289 0.010003903295036098 0 -0.0029192694326089915 0.0097035035427004441 0 -0.0020798794910058412 0.0092202839895758858 0 -0.0025853047853889276 0.0087129606981881103 0 -0.002440909784522609 0.010778335279770885 0 -0.002432727272592289 0.010003903295036098 0 -0.0025853047853889276 0.0087129606981881103 0 -0.0016819727982225684 0.0082198101832246604 0 -0.0025493208804861552 0.007989948041952466 0 -0.0020798794910058412 0.0092202839895758858 0 -0.0025853047853889276 0.0087129606981881103 0 -0.0016819727982225684 0.0082198101832246604 0 -0.0031963663528402795 0.0090313816121877152 0 -0.0030510138204109644 0.0081057247171709423 0 -0.0024233979031537838 0.0082764844636185469 0 -0.0026658099125393222 0.010594939276643334 0 -0.0034219977185811065 0.007968479536967275 0 -0.002432727272592289 0.010003903295036098 0 -0.003107629087732669 0.0066264875736486289 0 -0.0034017428213500541 0.0033796450518684407 0 -0.0033388305237693336 0.0034742396685767626 0 -0.0034511697228781549 0.0034606049842780579 0 -0.003107629087732669 0.0066264875736486289 0 -0.0048175642568835863 0.0026818558157066224 0 -0.0032837730684229269 0.0033922660655661121 0 -0.0033388305237693336 0.0034742396685767626 0 -0.0032290516746357944 0.0034417070439033818 0 -0.003107629087732669 0.0066264875736486289 0 -0.0030555431646598105 0.0054645179392510306 0 -0.0034017428213500541 0.0033796450518684407 0 -0.0032837730684229269 0.0033922660655661121 0 -0.0033388305237693336 0.0034742396685767626 0 -0.0046336241842864058 0.0018881877572657125 0 -0.0034673087038559567 -0.0011772906567903878 0 -0.0057776147028713604 1.1737892894153002e-05 0 -0.0057581226752264321 -7.21258187464754e-06 0 -0.0057738661995320861 5.2121798132874988e-05 0 -0.0057581226752264321 -7.21258187464754e-06 0 -0.0057738661995320861 5.2121798132874988e-05 0 -0.00576635822041367 9.2315957458214437e-05 0 -0.0046336241842864058 0.0018881877572657125 0 -0.0048175642568835863 0.0026818558157066224 0 -0.0057776147028713604 1.1737892894153002e-05 0 -0.0057858941278378113 1.8894728147837936e-05 0 -0.0057738661995320861 5.2121798132874988e-05 0 -0.0057858941278378113 1.8894728147837936e-05 0 -0.0057738661995320861 5.2121798132874988e-05 0 -0.0057698901760547061 4.6218101211917669e-05 0 -0.0023227851594298651 0.0069773508422835539 0 -0.00060115731728640391 0.0050797881683748271 0 -0.0014696637071290545 0.0107653421161901 0 -0.0013930037974074399 0.010633580247922082 0 -0.0015532307669706008 0.010581735935788268 0 -0.0032837730684229269 0.0033922660655661121 0 -0.0031600575998079593 0.0034127432134906715 0 -0.0032290516746357944 0.0034417070439033818 0 -0.0030555431646598105 0.0054645179392510306 0 -0.0023227851594298651 0.0069773508422835539 0 -0.0032290516746357944 0.0034417070439033818 0 -0.0032165863319099219 0.0034795712133087534 0 -0.0031531020743674424 0.0034494853614820023 0 -0.0033388305237693336 0.0034742396685767626 0 -0.0032290516746357944 0.0034417070439033818 0 -0.0032165863319099219 0.0034795712133087534 0 -0.002219978144786671 -0.0047439593362443673 0 -0.0017584711535318224 -0.00019114149086559012 0 -0.0034673087038559567 -0.0011772906567903878 0 -0.0017584711535318224 -0.00019114149086559012 0 -0.0022482088246406 -0.001929371535948587 0 -0.0025214820451769787 -0.0019847787087868452 0 -0.002272868702128077 -0.0021217702463628969 0 -0.002219978144786671 -0.0047439593362443673 0 -0.0034673087038559567 -0.0011772906567903878 0 -0.0031600575998079593 0.0034127432134906715 0 -0.0032290516746357944 0.0034417070439033818 0 -0.0031531020743674424 0.0034494853614820023 0 -0.0023227851594298651 0.0069773508422835539 0 -0.0017584711535318224 -0.00019114149086559012 0 -0.0013888632793394465 0.0042795465896158782 0 -0.0014524819537470395 0.0037566572025267502 0 -0.0020314156080389859 0.0041032025897807783 0 -0.0017584711535318224 -0.00019114149086559012 0 -0.00060115731728640391 0.0050797881683748271 0 -0.0011273432450538557 -0.005248761249457984 0 -0.0011018780654123489 -0.0050857736442999927 0 -0.0013001888726857441 -0.0051738115918767936 0 -0.0014460516426295913 -0.0053532974870439017 0 -0.0013001888726857441 -0.0051738115918767936 0 -0.0014796356514248771 -0.0052132260925276744 0 -0.0013001888726857441 -0.0051738115918767936 0 -0.0013129794720564086 -0.0049577434754064518 0 -0.0014796356514248771 -0.0052132260925276744 0 -0.0011018780654123489 -0.0050857736442999927 0 -0.0013001888726857441 -0.0051738115918767936 0 -0.0013129794720564086 -0.0049577434754064518 0 -0.0015532307669706008 0.010581735935788268 0 -0.0015702002478544981 0.010857683652477423 0 -0.0017104702360570679 0.010816202886466888 0 -0.0014696637071290545 0.0107653421161901 0 -0.0015532307669706008 0.010581735935788268 0 -0.0015702002478544981 0.010857683652477423 0 0.0020656689580365911 0.0083376469442035788 0 0.0020813691141761442 0.0083909435193089601 0 0.002089390659739673 0.0084430203470367109 0 -0.00060115731728640391 0.0050797881683748271 0 0.00023163296995660707 0.01025519153827489 0 0.0020656689580365911 0.0083376469442035788 0 0.0020813691141761442 0.0083909435193089601 0 0.0020790042911748596 0.0083519069789400758 0 -0.0015532307669706008 0.010581735935788268 0 -0.0017104702360570679 0.010816202886466888 0 -0.0018332769369796965 0.01085024649607174 0 0.0020813691141761442 0.0083909435193089601 0 0.0020764219481477714 0.0084300045007504286 0 0.002089390659739673 0.0084430203470367109 0 -0.00060115731728640391 0.0050797881683748271 0 0.00033247859527802727 0.0011658665711141757 0 -0.0013129794720564086 -0.0049577434754064518 0 -0.0016807985387863099 -0.0052515150768147126 0 -0.0014796356514248771 -0.0052132260925276744 0 -0.0014460516426295913 -0.0053532974870439017 0 -0.0014796356514248771 -0.0052132260925276744 0 -0.0015951535979148793 -0.0052787857375703497 0 -0.0016807985387863099 -0.0052515150768147126 0 -0.0014796356514248771 -0.0052132260925276744 0 -0.0015951535979148793 -0.0052787857375703497 0 0.00033247859527802727 0.0011658665711141757 0 0.00034574355555628834 0.0016401883636527593 0 0.0020790042911748596 0.0083519069789400758 0 0.002010778905408316 0.0082607553998693007 0 0.0020635087386349951 0.0084028408356981409 0 -0.0016807985387863099 -0.0052515150768147126 0 -0.0015951535979148793 -0.0052787857375703497 0 -0.001544978660057013 -0.0051575066873809656 0 -0.0016807985387863099 -0.0052515150768147126 0 -0.001544978660057013 -0.0051575066873809656 0 -0.0012617812171711595 -0.0049996750707317524 0 0.002010778905408316 0.0082607553998693007 0 0.0020180420488596605 0.0084519125464341104 0 0.0020635087386349951 0.0084028408356981409 0 0.0019118855534179218 0.0083968849980821589 0 0.002010778905408316 0.0082607553998693007 0 0.0020180420488596605 0.0084519125464341104 0 0.0020180420488596605 0.0084519125464341104 0 0.0020567058900130167 0.0084927613901779556 0 0.0020334251827310583 0.0085249198194416818 0 0.0020180420488596605 0.0084519125464341104 0 0.0020131371097942504 0.0085649243152228979 0 0.0020334251827310583 0.0085249198194416818 0 0.0020180420488596605 0.0084519125464341104 0 0.0020635087386349951 0.0084028408356981409 0 0.0020567058900130167 0.0084927613901779556 0 0.001968132400881555 0.0085152044265604816 0 0.0020180420488596605 0.0084519125464341104 0 0.0020131371097942504 0.0085649243152228979 0 0.0020813691141761442 0.0083909435193089601 0 0.0020635087386349951 0.0084028408356981409 0 0.0020764219481477714 0.0084300045007504286 0 0.0020813691141761442 0.0083909435193089601 0 0.0020790042911748596 0.0083519069789400758 0 0.0020635087386349951 0.0084028408356981409 0 0.0020635087386349951 0.0084028408356981409 0 0.0020567058900130167 0.0084927613901779556 0 0.0020764219481477714 0.0084300045007504286 0 0.0020567058900130167 0.0084927613901779556 0 0.0020764219481477714 0.0084300045007504286 0 0.002089390659739673 0.0084430203470367109 0 -0.00012351906804835836 0.0099773265038596588 0 0.00023163296995660707 0.01025519153827489 0 0.0020414090238936268 0.0085648276077791245 0 0.002024284653484215 0.0086584244370330361 0 0.002089390659739673 0.0084430203470367109 0 -0.0016652559572825161 0.010786882603283058 0 -0.0015412646117165824 0.010775882733086892 0 -0.0018332769369796965 0.01085024649607174 0 -0.0020434574179454311 0.010974258479605649 0 -0.0018782675573758485 0.011042012516010485 0 -0.001832161670797625 0.010856894278261628 0 0.0020567058900130167 0.0084927613901779556 0 0.0020414090238936268 0.0085648276077791245 0 0.002089390659739673 0.0084430203470367109 0 -0.0016652559572825161 0.010786882603283058 0 -0.0018332769369796965 0.01085024649607174 0 -0.001832161670797625 0.010856894278261628 0 -0.0020039741149556946 0.010884151113945431 0 -0.0017858225245463827 0.010845324393175171 0 0.0019737452758911665 0.0086084164144193259 0 0.0020131371097942504 0.0085649243152228979 0 0.0020119096741979536 0.0086262937432088852 0 0.0020131371097942504 0.0085649243152228979 0 0.0020228487869018695 0.0086040431892367465 0 0.0020119096741979536 0.0086262937432088852 0 0.0020131371097942504 0.0085649243152228979 0 0.0020414090238936268 0.0085648276077791245 0 0.0020228487869018695 0.0086040431892367465 0 0.0020131371097942504 0.0085649243152228979 0 0.0020334251827310583 0.0085249198194416818 0 0.0020414090238936268 0.0085648276077791245 0 0.0020567058900130167 0.0084927613901779556 0 0.0020334251827310583 0.0085249198194416818 0 0.0020414090238936268 0.0085648276077791245 0 0.0020414090238936268 0.0085648276077791245 0 0.0020228487869018695 0.0086040431892367465 0 0.002024284653484215 0.0086584244370330361 0 -0.0020039741149556946 0.010884151113945431 0 -0.00012351906804835836 0.0099773265038596588 0 -0.0020434574179454311 0.010974258479605649 0 -0.0021580655874313031 0.01102581571017517 0 -0.0021060423891119109 0.0110894647302506 0 0.0020228487869018695 0.0086040431892367465 0 0.002024284653484215 0.0086584244370330361 0 0.0020119096741979536 0.0086262937432088852 0 0.002024284653484215 0.0086584244370330361 0 0.0020098373289105754 0.008659290619306639 0 0.0020119096741979536 0.0086262937432088852 0 0.0020031425462099001 0.0086837268761098818 0 0.0020098373289105754 0.008659290619306639 0 0.0020119096741979536 0.0086262937432088852 0 0.002024284653484215 0.0086584244370330361 0 0.0020098373289105754 0.008659290619306639 0 0.0020057109212549243 0.0086752168201488615 0 0.0016810567407090386 0.0093182489546262005 0 0.0017598107745693914 0.0096363851343969908 0 0.0020031425462099001 0.0086837268761098818 0 0.0020098373289105754 0.008659290619306639 0 0.0020057109212549243 0.0086752168201488615 0 0.0017598107745693914 0.0096363851343969908 0 0.00088312786568373817 0.010323983564622698 0 -0.0021580655874313031 0.01102581571017517 0 -0.0022096168788137104 0.01104052688370351 0 -0.0021060423891119109 0.0110894647302506 0 -0.00012351906804835836 0.0099773265038596588 0 0.0017598107745693914 0.0096363851343969908 0 -0.0022096168788137104 0.01104052688370351 0 -0.0021060423891119109 0.0110894647302506 0 -0.002114189939570312 0.011235106071657387 0 -0.0021060423891119109 0.0110894647302506 0 -0.002114189939570312 0.011235106071657387 0 -0.0019838902335470887 0.011082996600423188 0 0.0033299233607323271 0.0094309483049049656 0 0.0034920133855910257 0.0088868083918401536 0 0.0038933968713697762 0.0094203220992948901 0 -0.00185476820970834 0.011349741561331166 0 -0.0018782675573758485 0.011042012516010485 0 -0.0019652045785620957 0.01122436449554837 0 -0.0018782675573758485 0.011042012516010485 0 -0.0019838902335470887 0.011082996600423188 0 -0.0019652045785620957 0.01122436449554837 0 -0.0020434574179454311 0.010974258479605649 0 -0.0018782675573758485 0.011042012516010485 0 -0.0019838902335470887 0.011082996600423188 0 -0.0020434574179454311 0.010974258479605649 0 -0.0021060423891119109 0.0110894647302506 0 -0.0019838902335470887 0.011082996600423188 0 -0.002114189939570312 0.011235106071657387 0 -0.0019838902335470887 0.011082996600423188 0 -0.0019652045785620957 0.01122436449554837 0 -0.0018782675573758485 0.011042012516010485 0 -0.0016825132081936328 0.011182257553322986 0 -0.0017479495917347751 0.010936674258336155 0 -0.0018331620805291881 0.01153040379811817 0 -0.0018782675573758485 0.011042012516010485 0 -0.0016825132081936328 0.011182257553322986 0 -0.0017237787205323979 0.011495076254582556 0 -0.001870539766664936 0.011078732686881266 0 -0.0014792954662236103 0.011055783639881234 0 -0.0015596440771731351 0.010892120464712541 0 -0.0015675948779042023 0.011514381060259819 0 -0.0014504437661112715 0.011252283375950824 0 -0.0016825132081936328 0.011182257553322986 0 -0.0014504437661112715 0.011252283375950824 0 -0.0016825132081936328 0.011182257553322986 0 -0.0015702002478544981 0.010857683652477423 0 -0.001493864067652958 0.010972159610662505 0 -0.001463383790083537 0.010915034083840421 0 -0.0015702002478544981 0.010857683652477423 0 -0.0016825132081936328 0.011182257553322986 0 -0.0015702002478544981 0.010857683652477423 0 -0.0017479495917347751 0.010936674258336155 0 -0.0014696637071290545 0.0107653421161901 0 -0.0014743639736354496 0.010852411193728715 0 -0.0015702002478544981 0.010857683652477423 0 -0.0017104702360570679 0.010816202886466888 0 -0.0017864279308647292 0.010859110778060068 0 -0.0017479495917347751 0.010936674258336155 0 -0.0015702002478544981 0.010857683652477423 0 -0.0017104702360570679 0.010816202886466888 0 -0.0017479495917347751 0.010936674258336155 0 -0.001832161670797625 0.010856894278261628 0 -0.0017864279308647292 0.010859110778060068 0 -0.0017479495917347751 0.010936674258336155 0 -0.0017104702360570679 0.010816202886466888 0 -0.0018332769369796965 0.01085024649607174 0 -0.0017864279308647292 0.010859110778060068 0 -0.0018332769369796965 0.01085024649607174 0 -0.001832161670797625 0.010856894278261628 0 -0.0017864279308647292 0.010859110778060068 0 -0.0018782675573758485 0.011042012516010485 0 -0.001832161670797625 0.010856894278261628 0 -0.0017479495917347751 0.010936674258336155 0 0.01555657488185601 0.0029845842761746073 0 0.015691135225465284 0.0036328110345307243 0 0.016086618375804374 0.0030379931428221162 0 0.01555657488185601 0.0029845842761746073 0 0.014999972722537136 0.0032205844336107032 0 0.015691135225465284 0.0036328110345307243 0 0.01555657488185601 0.0029845842761746073 0 0.014999972722537136 0.0032205844336107032 0 0.01499998609778041 0.0023631089911230058 0 0.014999972722537136 0.0032205844336107032 0 0.015691135225465284 0.0036328110345307243 0 0.014999971733939401 0.0040780509254196157 0 0.015691135225465284 0.0036328110345307243 0 0.01665159389919969 0.0034791388148792822 0 0.016086618375804374 0.0030379931428221162 0 0.01665159389919969 0.0034791388148792822 0 0.016086618375804374 0.0030379931428221162 0 0.016660877684648138 0.0025981773644404038 0 0.016086618375804374 0.0030379931428221162 0 0.015964922419917083 0.0024265377327923887 0 0.016660877684648138 0.0025981773644404038 0 0.015964922419917083 0.0024265377327923887 0 0.016660877684648138 0.0025981773644404038 0 0.016631670188983382 0.0018630426713597357 0 0.015964922419917083 0.0024265377327923887 0 0.015826023439108799 0.0016970848857856687 0 0.016631670188983382 0.0018630426713597357 0 0.01555657488185601 0.0029845842761746073 0 0.015964922419917083 0.0024265377327923887 0 0.01499998609778041 0.0023631089911230058 0 0.015964922419917083 0.0024265377327923887 0 0.01499998609778041 0.0023631089911230058 0 0.015826023439108799 0.0016970848857856687 0 0.01555657488185601 0.0029845842761746073 0 0.016086618375804374 0.0030379931428221162 0 0.015964922419917083 0.0024265377327923887 0 0.01499998609778041 0.0023631089911230058 0 0.01499997745606315 0.0015057072842676225 0 0.015826023439108799 0.0016970848857856687 0 0.015000363595218103 0.0015056703766010791 0 0.015657797313625391 0.0015723769348992144 0 0.01499999656085896 0.0015053918280248301 0 0.015790187245969565 0.001512068517787652 0 0.015649196973735985 0.00083014092659007511 0 0.01499999656085896 0.0015053918280248301 0 0.014999964347711994 0.00067266855507004241 0 0.015649196973735985 0.00083014092659007511 0 0.014999964347711994 0.00067266855507004241 0 0.015649196973735985 0.00083014092659007511 0 0.015435558218415208 0.00015307844998381379 0 0.01561033233729235 -0.00028178834545764192 0 0.015435558218415208 0.00015307844998381379 0 0.016057513694302767 0.00019793331514341274 0 0.015649196973735985 0.00083014092659007511 0 0.015435558218415208 0.00015307844998381379 0 0.016057513694302767 0.00019793331514341274 0 0.014999947327494059 -0.00016027150964456201 0 0.014999964347711994 0.00067266855507004241 0 0.015435558218415208 0.00015307844998381379 0 0.016601761756342922 -0.00022175371450578913 0 0.016057513694302767 0.00019793331514341274 0 0.016754358375059564 0.00033869961407948749 0 0.015649196973735985 0.00083014092659007511 0 0.016057513694302767 0.00019793331514341274 0 0.016410346444943876 0.00087044709282285714 0 0.016057513694302767 0.00019793331514341274 0 0.016410346444943876 0.00087044709282285714 0 0.016754358375059564 0.00033869961407948749 0 0.015790187245969565 0.001512068517787652 0 0.015649196973735985 0.00083014092659007511 0 0.016410346444943876 0.00087044709282285714 0 0.015790187245969565 0.001512068517787652 0 0.016410346444943876 0.00087044709282285714 0 0.01653910270442293 0.00156791339312524 0 0.015657797313625391 0.0015723769348992144 0 0.017226233425537828 0.0018855460899919326 0 0.017226233425537828 0.0018855460899919326 0 0.014566089934009667 0.00090535105482091201 0 0.01653910270442293 0.00156791339312524 0 0.017264853226426027 0.00095391116261184131 0 0.017250129630497251 0.0016511147293148999 0 0.016410346444943876 0.00087044709282285714 0 0.01653910270442293 0.00156791339312524 0 0.017264853226426027 0.00095391116261184131 0 0.011455360576350665 -0.0031676234888690464 0 0.01155447522704124 -0.0028600990526071279 0 0.011533455890837435 -0.0032445412811535975 0 0.014384273841829128 -0.0013368335604045454 0 0.014566089934009667 0.00090535105482091201 0 0.011455360576350665 -0.0031676234888690464 0 0.01155447522704124 -0.0028600990526071279 0 0.011383567656602291 -0.003003717555604221 0 0.016410346444943876 0.00087044709282285714 0 0.017264853226426027 0.00095391116261184131 0 0.016754358375059564 0.00033869961407948749 0 0.01155447522704124 -0.0028600990526071279 0 0.011551662487012336 -0.0023878774874770709 0 0.011215188338841811 -0.0026643404464412315 0 0.014384273841829128 -0.0013368335604045454 0 0.014419690327774881 -0.0010049362034656359 0 0.017264853226426027 0.00095391116261184131 0 0.017284364748764495 0.00021390423183168108 0 0.016754358375059564 0.00033869961407948749 0 0.016601761756342922 -0.00022175371450578913 0 0.017284364748764495 0.00021390423183168108 0 0.016754358375059564 0.00033869961407948749 0 0.010984002706525128 -0.0020938233433186711 0 0.010861154676117618 -0.0025309961593646506 0 0.011050661263343781 -0.0021963487836100131 0 0.01120397583476376 -0.002371508144837066 0 0.010844233118925052 -0.0025631250064769031 0 0.011301022573423591 -0.0021185379835649489 0 0.011551662487012336 -0.0023878774874770709 0 0.01120397583476376 -0.002371508144837066 0 0.011551662487012336 -0.0023878774874770709 0 0.01120397583476376 -0.002371508144837066 0 0.011215188338841811 -0.0026643404464412315 0 0.011215188338841811 -0.0026643404464412315 0 0.010844233118925052 -0.0025631250064769031 0 0.010911488632755657 -0.0028393652011453265 0 0.01120397583476376 -0.002371508144837066 0 0.011215188338841811 -0.0026643404464412315 0 0.010844233118925052 -0.0025631250064769031 0 0.010911488632755657 -0.0028393652011453265 0 0.011214464115888565 -0.002934658851767353 0 0.010983617917538683 -0.0031017616926860988 0 0.011215188338841811 -0.0026643404464412315 0 0.010911488632755657 -0.0028393652011453265 0 0.011214464115888565 -0.002934658851767353 0 0.010911488632755657 -0.0028393652011453265 0 0.010983617917538683 -0.0031017616926860988 0 0.010669044686643458 -0.0030110777914454986 0 0.01155447522704124 -0.0028600990526071279 0 0.011214464115888565 -0.002934658851767353 0 0.011383567656602291 -0.003003717555604221 0 0.01155447522704124 -0.0028600990526071279 0 0.011215188338841811 -0.0026643404464412315 0 0.011214464115888565 -0.002934658851767353 0 0.011214464115888565 -0.002934658851767353 0 0.011383567656602291 -0.003003717555604221 0 0.011216586639421095 -0.0031515242532096969 0 0.011455360576350665 -0.0031676234888690464 0 0.011383567656602291 -0.003003717555604221 0 0.011216586639421095 -0.0031515242532096969 0 0.011216586639421095 -0.0031515242532096969 0 0.011062203306332563 -0.0033009597914322865 0 0.011244262770524958 -0.0033689969533404977 0 0.010908683058421008 -0.0033494513681288436 0 0.011501942247524448 -0.00075105828490250272 0 0.011455360576350665 -0.0031676234888690464 0 0.011216586639421095 -0.0031515242532096969 0 0.011244262770524958 -0.0033689969533404977 0 0.011214464115888565 -0.002934658851767353 0 0.011216586639421095 -0.0031515242532096969 0 0.010983617917538683 -0.0031017616926860988 0 0.011216586639421095 -0.0031515242532096969 0 0.010983617917538683 -0.0031017616926860988 0 0.011062203306332563 -0.0033009597914322865 0 0.010983617917538683 -0.0031017616926860988 0 0.011062203306332563 -0.0033009597914322865 0 0.010820910494976434 -0.0033471983503177405 0 0.011957030337007303 0.00085190468347266562 0 0.010981826190182066 -1.4684466632473696e-05 0 0.012148590934724167 0.00017912471627044298 0 0.011062203306332563 -0.0033009597914322865 0 0.011244262770524958 -0.0033689969533404977 0 0.010863851643815965 -0.0034174760224089211 0 0.013288857509632808 0.0037957797710313273 0 0.012552512113921844 0.0034783111943402583 0 0.012488339220635232 0.0030749176566366252 0 0.011501942247524448 -0.00075105828490250272 0 0.011165727411154571 -0.00078577483893489436 0 0.012327055171011313 0.0027051963456864174 0 0.011501942247524448 -0.00075105828490250272 0 0.011062203306332563 -0.0033009597914322865 0 0.010863851643815965 -0.0034174760224089211 0 0.010833729179902 -0.0033161063170049875 0 0.011013499052723962 -0.0032695799769751595 0 0.010805628901656969 -0.003110023247960933 0 0.012327055171011313 0.0027051963456864174 0 0.011165727411154571 -0.00078577483893489436 0 0.013288857509632808 0.0037957797710313273 0 0.012826046814419586 0.0037656746367273754 0 0.013236145343598533 0.0039747771022427443 0 0.013288857509632808 0.0037957797710313273 0 0.012826046814419586 0.0037656746367273754 0 0.012552512113921844 0.0034783111943402583 0 0.012826046814419586 0.0037656746367273754 0 0.013236145343598533 0.0039747771022427443 0 0.012362724543343419 0.0038514101578923385 0 0.012613275115864457 0.0036223413049795705 0 0.012681574136128068 0.0039334114044500684 0 0.012327055171011313 0.0027051963456864174 0 0.012613275115864457 0.0036223413049795705 0 0.01287478363984379 0.0041725108614485305 0 0.012748873322642173 0.0040928913540678119 0 0.013221277069366823 0.0043318253958235615 0 0.012572387973402524 0.0040036424379210631 0 0.012851438256307531 0.0044111529076786274 0 0.01318004065985001 0.004282437787446732 0 0.013253907635044412 0.0040323953467545732 0 0.012572387973402524 0.0040036424379210631 0 0.012238373743035181 0.0042207718722006397 0 0.012246823830039794 0.0041892217846087477 0 0.012285792867963328 0.0041981800336489761 0 0.012613275115864457 0.0036223413049795705 0 0.011652717333284358 0.0029694233801730329 0 0.012368670862545698 0.0034260889987021048 0 0.012452039734897058 0.0031406315981132677 0 0.01193202857941417 0.0030485161981813006 0 0.01287478363984379 0.0041725108614485305 0 0.012613275115864457 0.0036223413049795705 0 0.013253907635044412 0.0040323953467545732 0 0.012572387973402524 0.0040036424379210631 0 0.012362724543343419 0.0038514101578923385 0 0.012179395782820616 0.0042437698011925989 0 0.011916219811927999 0.0041878222870074221 0 0.01235612719934001 0.0045658594339918384 0 0.012153305616381014 0.0040106066674148316 0 0.012291498748821966 0.0042149954073524036 0 0.012381213312162676 0.0040641516818293979 0 0.012153305616381014 0.0040106066674148316 0 0.012179395782820616 0.0042437698011925989 0 0.012291498748821966 0.0042149954073524036 0 0.012153305616381014 0.0040106066674148316 0 0.012381213312162676 0.0040641516818293979 0 0.012362724543343419 0.0038514101578923385 0 0.012153305616381014 0.0040106066674148316 0 0.012179395782820616 0.0042437698011925989 0 0.011916219811927999 0.0041878222870074221 0 0.012179395782820616 0.0042437698011925989 0 0.012291498748821966 0.0042149954073524036 0 0.01235612719934001 0.0045658594339918384 0 0.012291498748821966 0.0042149954073524036 0 0.012517795004195418 0.0042932896422104893 0 0.01235612719934001 0.0045658594339918384 0 0.012517795004195418 0.0042932896422104893 0 0.012572387973402524 0.0040036424379210631 0 0.012851438256307531 0.0044111529076786274 0 0.012291498748821966 0.0042149954073524036 0 0.012517795004195418 0.0042932896422104893 0 0.012381213312162676 0.0040641516818293979 0 0.012517795004195418 0.0042932896422104893 0 0.012572387973402524 0.0040036424379210631 0 0.012381213312162676 0.0040641516818293979 0 0.012572387973402524 0.0040036424379210631 0 0.012381213312162676 0.0040641516818293979 0 0.012362724543343419 0.0038514101578923385 0 0.012826046814419586 0.0037656746367273754 0 0.012362724543343419 0.0038514101578923385 0 0.012552512113921844 0.0034783111943402583 0 0.012362724543343419 0.0038514101578923385 0 0.012123713319806523 0.0036865949061437846 0 0.012552512113921844 0.0034783111943402583 0 0.012153305616381014 0.0040106066674148316 0 0.012123713319806523 0.0036865949061437846 0 0.011916219811927999 0.0041878222870074221 0 0.012153305616381014 0.0040106066674148316 0 0.012362724543343419 0.0038514101578923385 0 0.012123713319806523 0.0036865949061437846 0 0.012056957160559354 0.0033952332908476308 0 0.012488339220635232 0.0030749176566366252 0 0.011743092160349532 0.0029430676188108148 0 0.012123713319806523 0.0036865949061437846 0 0.012056957160559354 0.0033952332908476308 0 0.012552512113921844 0.0034783111943402583 0 0.011455360576350665 -0.0031676234888690464 0 0.01136312104833026 -0.0032250819673514683 0 0.011533455890837435 -0.0032445412811535975 0 0.012056957160559354 0.0033952332908476308 0 0.012552512113921844 0.0034783111943402583 0 0.012488339220635232 0.0030749176566366252 0 0.011501942247524448 -0.00075105828490250272 0 0.014566089934009667 0.00090535105482091201 0 0.012056957160559354 0.0033952332908476308 0 0.011743092160349532 0.0029430676188108148 0 0.011771936764515071 0.004277337892907471 0 0.016660877684648138 0.0025981773644404038 0 0.016631670188983382 0.0018630426713597357 0 0.017425239750741253 0.0019985953426921534 0 0.016660877684648138 0.0025981773644404038 0 0.017425239750741253 0.0019985953426921534 0 0.017455660750844176 0.0028280086119599796 0 0.014566089934009667 0.00090535105482091201 0 0.014621964171545048 0.0039114872477680612 0 0.012123713319806523 0.0036865949061437846 0 0.012056957160559354 0.0033952332908476308 0 0.011771936764515071 0.004277337892907471 0 0.012123713319806523 0.0036865949061437846 0 0.011771936764515071 0.004277337892907471 0 0.011916219811927999 0.0041878222870074221 0 0.011771936764515071 0.004277337892907471 0 0.011895523623153688 0.0055713975047899777 0 0.012591883059769781 0.0052220866403749214 0 0.014621964171545048 0.0039114872477680612 0 0.014686336629912899 0.004523472225075746 0 0.01665159389919969 0.0034791388148792822 0 0.016660877684648138 0.0025981773644404038 0 0.017455660750844176 0.0028280086119599796 0 0.01665159389919969 0.0034791388148792822 0 0.017455660750844176 0.0028280086119599796 0 0.017479385830051094 0.0036779543236546081 0 0.011895523623153688 0.0055713975047899777 0 0.012591883059769781 0.0052220866403749214 0 0.012461609645402836 0.0061835511695541717 0 0.01251051519457895 0.0053384320497455945 0 0.013162825461205245 0.0061299522133905259 0 0.012427097424349423 0.0053580955617930724 0 0.013361362819319064 0.0059000687819020193 0 0.013034720882330217 0.0065912569322826133 0 0.012427097424349423 0.0053580955617930724 0 0.013361362819319064 0.0059000687819020193 0 0.013080635861560694 0.0052021200932274051 0 0.013361362819319064 0.0059000687819020193 0 0.013080635861560694 0.0052021200932274051 0 0.013677962530552578 0.0052268037483718909 0 0.013080635861560694 0.0052021200932274051 0 0.012804685380657637 0.0048188768938590377 0 0.013140655084075199 0.0046011308465976099 0 0.012427097424349423 0.0053580955617930724 0 0.013080635861560694 0.0052021200932274051 0 0.012804685380657637 0.0048188768938590377 0 0.013080635861560694 0.0052021200932274051 0 0.01340251614650205 0.0048126547417212586 0 0.013677962530552578 0.0052268037483718909 0 0.013080635861560694 0.0052021200932274051 0 0.01340251614650205 0.0048126547417212586 0 0.013140655084075199 0.0046011308465976099 0 0.013212210322202517 0.004357104093881823 0 0.01340251614650205 0.0048126547417212586 0 0.013140655084075199 0.0046011308465976099 0 0.01287478363984379 0.0041725108614485305 0 0.012919348566448137 0.004358501463852988 0 0.012804685380657637 0.0048188768938590377 0 0.013140655084075199 0.0046011308465976099 0 0.012851438256307531 0.0044111529076786274 0 0.012804685380657637 0.0048188768938590377 0 0.012851438256307531 0.0044111529076786274 0 0.012666550817193416 0.0045045303868318197 0 0.013221277069366823 0.0043318253958235615 0 0.013140655084075199 0.0046011308465976099 0 0.012851438256307531 0.0044111529076786274 0 0.011916219811927999 0.0041878222870074221 0 0.012427097424349423 0.0053580955617930724 0 0.01235612719934001 0.0045658594339918384 0 0.012517795004195418 0.0042932896422104893 0 0.012851438256307531 0.0044111529076786274 0 0.012666550817193416 0.0045045303868318197 0 0.011946339353489073 0.0042415548478024877 0 0.01251051519457895 0.0053384320497455945 0 0.012804685380657637 0.0048188768938590377 0 0.012666550817193416 0.0045045303868318197 0 0.01235612719934001 0.0045658594339918384 0 0.011771936764515071 0.004277337892907471 0 0.011916219811927999 0.0041878222870074221 0 0.012591883059769781 0.0052220866403749214 0 0.012517795004195418 0.0042932896422104893 0 0.012666550817193416 0.0045045303868318197 0 0.01235612719934001 0.0045658594339918384 0 0.012427097424349423 0.0053580955617930724 0 0.012804685380657637 0.0048188768938590377 0 0.01235612719934001 0.0045658594339918384 0 0.011232053242828291 0.0036444415322545087 0 0.011261045079801501 0.0035461618257962152 0 0.011096746685806159 0.0035104806028652107 0 0.011698394516642062 0.0053207914665006333 0 0.013252896996067185 0.0045879174316957403 0 0.014497827511031319 0.0049997706029037761 0 0.013884513689930707 0.0046975795335096032 0 0.014408645612081694 0.0052723069418042588 0 0.011698394516642062 0.0053207914665006333 0 0.012701712386528259 0.0070817324317929498 0 0.011698394516642062 0.0053207914665006333 0 0.011764568560301114 0.0082375525455514482 0 0.011698394516642062 0.0053207914665006333 0 0.010084949619345905 0.0025495639919416069 0 0.010102719665313538 0.0048369530122547525 0 0.009778504277745197 0.0049187205806602756 0 0.0099802956390534769 0.0051645232303668999 0 0.011698394516642062 0.0053207914665006333 0 0.011652717333284358 0.0029694233801730329 0 0.012383492870380899 0.0043162965164524484 0 0.012312079113611351 0.0042666285288395665 0 0.012285792867963328 0.0041981800336489761 0 0.013884513689930707 0.0046975795335096032 0 0.013677962530552578 0.0052268037483718909 0 0.014408645612081694 0.0052723069418042588 0 0.01287478363984379 0.0041725108614485305 0 0.013252896996067185 0.0045879174316957403 0 0.013212210322202517 0.004357104093881823 0 0.01340251614650205 0.0048126547417212586 0 0.013884513689930707 0.0046975795335096032 0 0.01340251614650205 0.0048126547417212586 0 0.013884513689930707 0.0046975795335096032 0 0.013677962530552578 0.0052268037483718909 0 0.013677962530552578 0.0052268037483718909 0 0.014575123812010725 0.0053152412699006002 0 0.01416120648271115 0.0065646637001889416 0 0.013361362819319064 0.0059000687819020193 0 0.013677962530552578 0.0052268037483718909 0 0.01416120648271115 0.0065646637001889416 0 0.014311669668657235 0.0052866668409781992 0 0.012701712386528259 0.0070817324317929498 0 0.011725450508774741 0.011007625274198084 0 0.011842766207844305 0.011258456771792897 0 0.011559686147431442 0.011650211813067702 0 0.011842766207844305 0.011258456771792897 0 0.011986342872788647 0.011033172600662677 0 0.0119398486469167 0.011507759754863074 0 0.012701712386528259 0.0070817324317929498 0 0.012829281499912778 0.0094653753469938467 0 0.011725450508774741 0.011007625274198084 0 0.011842766207844305 0.011258456771792897 0 0.011986342872788647 0.011033172600662677 0 0.01197984020041613 0.0070441388902460298 0 0.011934275943174677 0.0071815873587469442 0 0.012151902052185739 0.0072027063997138242 0 0.012701712386528259 0.0070817324317929498 0 0.011764568560301114 0.0082375525455514482 0 0.011986342872788647 0.011033172600662677 0 0.012484706093568474 0.011499913386199746 0 0.012176068987748293 0.011545649155293854 0 0.011457090008018362 0.0066812178666661014 0 0.010995671923970708 0.0065057849250663054 0 0.011241997520720918 0.0065133321798282115 0 0.010518325743298116 0.0090123983440218679 0 0.010598612710384789 0.0090132079924252779 0 0.010425238386010597 0.0088928007036223836 0 0.011764568560301114 0.0082375525455514482 0 0.01076479057883881 0.010988103801271623 0 0.011986342872788647 0.011033172600662677 0 0.012176068987748293 0.011545649155293854 0 0.0119398486469167 0.011507759754863074 0 0.010198503376375604 0.0069303038841631278 0 0.011764568560301114 0.0082375525455514482 0 0.010198503376375604 0.0069303038841631278 0 0.0090377882255718561 0.0089646932696044214 0 0.0099176251742422675 0.0077322574605097815 0 0.0088290335427418064 0.0072592775949988936 0 0.0085426725776758076 0.0076580884186299002 0 0.010518325743298116 0.0090123983440218679 0 0.010369007019455761 0.0089616330242770856 0 0.010425238386010597 0.0088928007036223836 0 0.010198503376375604 0.0069303038841631278 0 0.0080640027116341273 0.007489639046889535 0 0.00964604402349728 0.0046473354758174721 0 0.0090726654729415025 0.0046238066999787948 0 0.0093480244021760337 0.0048001207787265465 0 0.0086673742900028831 0.0094692219653838786 0 0.0080640027116341273 0.007489639046889535 0 0.0085508190877523274 0.0089557992862354385 0 0.0081287545549237721 0.0087668800164888965 0 0.0085101746084937403 0.0082258792416379494 0 0.0090377882255718561 0.0089646932696044214 0 0.0080640027116341273 0.007489639046889535 0 0.0084715775244126115 0.010103232765604757 0 0.0082888817127536301 0.010020464041716597 0 0.0084762342524436936 0.010210201053806357 0 0.0086673742900028831 0.0094692219653838786 0 0.0090377882255718561 0.0089646932696044214 0 0.0080640027116341273 0.007489639046889535 0 0.0083594334724444528 0.0026590626654986534 0 0.0095475769683464502 0.0011756349688341534 0 0.0091032016434951079 0.0010959185995094512 0 0.0093181654568006197 0.00090150959656247649 0 0.0083594334724444528 0.0026590626654986534 0 0.0093769323634744235 0.0030970966245778527 0 0.0093480244021760337 0.0048001207787265465 0 0.0090966924417216957 0.0050179510627354389 0 0.0095371583623693017 0.0050940601969104785 0 0.0090726654729415025 0.0046238066999787948 0 0.0093480244021760337 0.0048001207787265465 0 0.0090966924417216957 0.0050179510627354389 0 0.0062067196352414682 0.0046709571542235054 0 0.0060922483556066108 0.0028386174484831468 0 0.0063654610206065705 0.0028868900689083998 0 0.0083594334724444528 0.0026590626654986534 0 0.0079463551018425869 0.0026189593962733845 0 0.0093769323634744235 0.0030970966245778527 0 0.010084949619345905 0.0025495639919416069 0 0.00964604402349728 0.0046473354758174721 0 0.0093480244021760337 0.0048001207787265465 0 0.009778504277745197 0.0049187205806602756 0 0.0093480244021760337 0.0048001207787265465 0 0.009778504277745197 0.0049187205806602756 0 0.0095371583623693017 0.0050940601969104785 0 0.009778504277745197 0.0049187205806602756 0 0.0095371583623693017 0.0050940601969104785 0 0.0099802956390534769 0.0051645232303668999 0 0.010102719665313538 0.0048369530122547525 0 0.00964604402349728 0.0046473354758174721 0 0.009778504277745197 0.0049187205806602756 0 0.011698394516642062 0.0053207914665006333 0 0.010198503376375604 0.0069303038841631278 0 0.0089407516723294198 0.00078593468782621196 0 0.0087980457930281093 0.00050965063145436119 0 0.0086350296672114534 0.0010190847999862324 0 0.0091032016434951079 0.0010959185995094512 0 0.0089407516723294198 0.00078593468782621196 0 0.0086350296672114534 0.0010190847999862324 0 0.0091032016434951079 0.0010959185995094512 0 0.0091004223413653738 0.00074322776212437029 0 0.0089407516723294198 0.00078593468782621196 0 0.0091004223413653738 0.00074322776212437029 0 0.0092376960413245428 0.00048474226898883108 0 0.0090698932454036253 0.00054132000919703915 0 0.0091004223413653738 0.00074322776212437029 0 0.0089407516723294198 0.00078593468782621196 0 0.0090698932454036253 0.00054132000919703915 0 0.0089407516723294198 0.00078593468782621196 0 0.0087980457930281093 0.00050965063145436119 0 0.0090698932454036253 0.00054132000919703915 0 0.0083594334724444528 0.0026590626654986534 0 0.0083427961297338118 0.00019326634967716712 0 0.0095475769683464502 0.0011756349688341534 0 0.0093181654568006197 0.00090150959656247649 0 0.0095148552352892057 0.00059442867049396117 0 0.0091004223413653738 0.00074322776212437029 0 0.0095834298967642072 0.00053992790233229639 0 0.0092376960413245428 0.00048474226898883108 0 0.0060885833328120729 0.0028209403053084422 0 0.0060409329846263819 0.00049527134325070882 0 0.0063515952092606867 0.00079309661596312379 0 0.0091004223413653738 0.00074322776212437029 0 0.0093181654568006197 0.00090150959656247649 0 0.0095148552352892057 0.00059442867049396117 0 0.0094451876763110686 0.00059187916215190466 0 0.0083427961297338118 0.00019326634967716712 0 0.0091032016434951079 0.0010959185995094512 0 0.0091004223413653738 0.00074322776212437029 0 0.0093181654568006197 0.00090150959656247649 0 0.0095725724280383458 0.00034110013808810817 0 0.0092376960413245428 0.00048474226898883108 0 0.0088596355627586342 0.00025539557455741565 0 0.0088906056893497676 -0.0022758659137464311 0 0.0095016145623184403 -0.0023462322400699658 0 0.0090124627944586349 -0.0037089697630696048 0 0.0093313672215614204 -0.0036710439607287853 0 0.0091554674854257816 -0.0035736946130767041 0 0.0095725724280383458 0.00034110013808810817 0 0.0095834298967642072 0.00053992790233229639 0 0.0092376960413245428 0.00048474226898883108 0 0.0088906056893497676 -0.0022758659137464311 0 0.0083427961297338118 0.00019326634967716712 0 0.0087822141444348009 0.00048620361836371082 0 0.0090698932454036253 0.00054132000919703915 0 0.0088596355627586342 0.00025539557455741565 0 0.0096930248195693427 0.00023005126473185549 0 0.0089658914871107512 0.00034733193288290188 0 0.0096930248195693427 0.00023005126473185549 0 0.0095016145623184403 -0.0023462322400699658 0 0.0092376960413245428 0.00048474226898883108 0 0.0090698932454036253 0.00054132000919703915 0 0.0088596355627586342 0.00025539557455741565 0 0.0095016145623184403 -0.0023462322400699658 0 0.010310259706344863 -0.0027650648719805687 0 0.0098053809097714776 -0.0016749193074865941 0 0.0097092823247738238 -0.0014050580451511366 0 0.010344651612511659 -0.0013305941365138957 0 0.0098053809097714776 -0.0016749193074865941 0 0.010426970324298575 -0.0015804675560865376 0 0.010344651612511659 -0.0013305941365138957 0 0.0096930248195693427 0.00023005126473185549 0 0.010694303063632173 -3.7591570361203193e-05 0 0.010084949619345905 0.0025495639919416069 0 0.011652717333284358 0.0029694233801730329 0 0.010816355347257868 0.0014932596763368854 0 0.010641659121513054 0.0011815034594334446 0 0.010998260831019678 0.0014031048587344846 0 0.010542438308703122 0.0014492597715487483 0 0.010816355347257868 0.0014932596763368854 0 0.010641659121513054 0.0011815034594334446 0 0.0096930248195693427 0.00023005126473185549 0 0.010084949619345905 0.0025495639919416069 0 0.010641659121513054 0.0011815034594334446 0 0.011045111545839358 0.0012521208655809691 0 0.010998260831019678 0.0014031048587344846 0 0.012238373743035181 0.0042207718722006397 0 0.012312079113611351 0.0042666285288395665 0 0.012285792867963328 0.0041981800336489761 0 0.011149751610406206 0.0013412108965237166 0 0.011045111545839358 0.0012521208655809691 0 0.010998260831019678 0.0014031048587344846 0 0.012327055171011313 0.0027051963456864174 0 0.011652717333284358 0.0029694233801730329 0 0.010310259706344863 -0.0027650648719805687 0 0.010805628901656969 -0.003110023247960933 0 0.010816355347257868 0.0014932596763368854 0 0.010998260831019678 0.0014031048587344846 0 0.011089174130184691 0.0015317383732738016 0 0.010694303063632173 -3.7591570361203193e-05 0 0.011165727411154571 -0.00078577483893489436 0 0.010426970324298575 -0.0015804675560865376 0 0.011045301608907194 -0.0014868124878362474 0 0.010977380479553959 -0.0012584605432443411 0 0.010426970324298575 -0.0015804675560865376 0 0.010344651612511659 -0.0013305941365138957 0 0.010977380479553959 -0.0012584605432443411 0 0.011149751610406206 0.0013412108965237166 0 0.010998260831019678 0.0014031048587344846 0 0.011089174130184691 0.0015317383732738016 0 0.011165727411154571 -0.00078577483893489436 0 0.010805628901656969 -0.003110023247960933 0 0.010805628901656969 -0.003110023247960933 0 0.010628053562204028 -0.0033351818397805602 0 0.010759242272049822 -0.0041387643461726154 0 0.010376535182570538 -0.0038743648706375195 0 0.010565844388643652 -0.0034333749669775071 0 0.010983617917538683 -0.0031017616926860988 0 0.010820910494976434 -0.0033471983503177405 0 0.010669044686643458 -0.0030110777914454986 0 0.010204751563462055 -0.0042105051714191296 0 0.010759242272049822 -0.0041387643461726154 0 0.010376535182570538 -0.0038743648706375195 0 0.010376535182570538 -0.0038743648706375195 0 0.009971974315071375 -0.0037103991270264289 0 0.010565844388643652 -0.0034333749669775071 0 0.0096417572361728147 -0.0042770684453116324 0 0.010204751563462055 -0.0042105051714191296 0 0.009971974315071375 -0.0037103991270264289 0 0.010204751563462055 -0.0042105051714191296 0 0.010376535182570538 -0.0038743648706375195 0 0.009971974315071375 -0.0037103991270264289 0 0.0099955139987756604 -0.0031223056218932575 0 0.010565844388643652 -0.0034333749669775071 0 0.010391153082927932 -0.0026631871203238126 0 0.009971974315071375 -0.0037103991270264289 0 0.0099955139987756604 -0.0031223056218932575 0 0.010565844388643652 -0.0034333749669775071 0 0.009971974315071375 -0.0037103991270264289 0 0.0099955139987756604 -0.0031223056218932575 0 0.0096037791185423008 -0.0033218659244911644 0 0.010628053562204028 -0.0033351818397805602 0 0.01040205861327642 -0.0026390017580086001 0 0.010911488632755657 -0.0028393652011453265 0 0.010669044686643458 -0.0030110777914454986 0 0.010391153082927932 -0.0026631871203238126 0 0.010844233118925052 -0.0025631250064769031 0 0.010911488632755657 -0.0028393652011453265 0 0.010391153082927932 -0.0026631871203238126 0 0.0099955139987756604 -0.0031223056218932575 0 0.010391153082927932 -0.0026631871203238126 0 0.0099234706578796607 -0.00267152871507548 0 0.0099955139987756604 -0.0031223056218932575 0 0.0099234706578796607 -0.00267152871507548 0 0.0095833279423012969 -0.0028924007853675265 0 0.010391153082927932 -0.0026631871203238126 0 0.0099234706578796607 -0.00267152871507548 0 0.010036668679111842 -0.0022685301008881819 0 0.010391153082927932 -0.0026631871203238126 0 0.010036668679111842 -0.0022685301008881819 0 0.010525033707262235 -0.0022490827356010357 0 0.0099234706578796607 -0.00267152871507548 0 0.010036668679111842 -0.0022685301008881819 0 0.0095654726557510578 -0.0024912359411844213 0 0.0098424375085313463 -0.0018369217235208151 0 0.010036668679111842 -0.0022685301008881819 0 0.0096521197148112144 -0.0021462815590082298 0 0.010380592455123249 -0.0018196699587437466 0 0.010036668679111842 -0.0022685301008881819 0 0.010525033707262235 -0.0022490827356010357 0 0.010844233118925052 -0.0025631250064769031 0 0.010391153082927932 -0.0026631871203238126 0 0.010525033707262235 -0.0022490827356010357 0 0.010928165069666495 -0.0019261742340137432 0 0.010844233118925052 -0.0025631250064769031 0 0.010525033707262235 -0.0022490827356010357 0 0.0089166620822640884 -0.0024535822330146047 0 0.009240179232230035 -0.0022904742207567512 0 0.0091591946187690627 -0.0027176467760546487 0 0.0087991370586365542 -0.0019917709011519867 0 0.0089166620822640884 -0.0024535822330146047 0 0.009240179232230035 -0.0022904742207567512 0 0.0087991370586365542 -0.0019917709011519867 0 0.0089166620822640884 -0.0024535822330146047 0 0.0085879201684581543 -0.0023368310970594002 0 0.0093402504351684616 -0.0019445834392568821 0 0.009240179232230035 -0.0022904742207567512 0 0.0096521197148112144 -0.0021462815590082298 0 0.009240179232230035 -0.0022904742207567512 0 0.0096521197148112144 -0.0021462815590082298 0 0.0095654726557510578 -0.0024912359411844213 0 0.010036668679111842 -0.0022685301008881819 0 0.0096521197148112144 -0.0021462815590082298 0 0.0095654726557510578 -0.0024912359411844213 0 0.009240179232230035 -0.0022904742207567512 0 0.0095654726557510578 -0.0024912359411844213 0 0.0091591946187690627 -0.0027176467760546487 0 0.0095654726557510578 -0.0024912359411844213 0 0.0095833279423012969 -0.0028924007853675265 0 0.0091591946187690627 -0.0027176467760546487 0 0.0099234706578796607 -0.00267152871507548 0 0.0095654726557510578 -0.0024912359411844213 0 0.0095833279423012969 -0.0028924007853675265 0 0.0095833279423012969 -0.0028924007853675265 0 0.0091591946187690627 -0.0027176467760546487 0 0.0091870940558593395 -0.0031224672728704323 0 0.0091591946187690627 -0.0027176467760546487 0 0.0089390017031600547 -0.0029890560726699654 0 0.0091870940558593395 -0.0031224672728704323 0 0.0089166620822640884 -0.0024535822330146047 0 0.0091591946187690627 -0.0027176467760546487 0 0.0087214536013885836 -0.0027195619771837234 0 0.0091591946187690627 -0.0027176467760546487 0 0.0089390017031600547 -0.0029890560726699654 0 0.0087214536013885836 -0.0027195619771837234 0 0.0089485565784674283 -0.0028813263838811417 0 0.008911789538328118 -0.0039276137190575322 0 0.0089390017031600547 -0.0029890560726699654 0 0.0091870940558593395 -0.0031224672728704323 0 0.009006788045425455 -0.0034244758517670794 0 0.0089390017031600547 -0.0029890560726699654 0 0.0088453742141464745 -0.0037198930453426278 0 0.0085798848679713713 -0.0033818202159873203 0 0.0091870940558593395 -0.0031224672728704323 0 0.0092613633613604657 -0.003433565716281812 0 0.009006788045425455 -0.0034244758517670794 0 0.0091692750385634035 -0.0030673605411605542 0 0.009423027579025826 -0.0038356679050375059 0 0.009971974315071375 -0.0037103991270264289 0 0.0096037791185423008 -0.0033218659244911644 0 0.0094297691670809716 -0.0037083019094999942 0 0.0091870940558593395 -0.0031224672728704323 0 0.0096037791185423008 -0.0033218659244911644 0 0.0094297691670809716 -0.0037083019094999942 0 0.0099955139987756604 -0.0031223056218932575 0 0.0095833279423012969 -0.0028924007853675265 0 0.0096037791185423008 -0.0033218659244911644 0 0.0095833279423012969 -0.0028924007853675265 0 0.0091870940558593395 -0.0031224672728704323 0 0.0096037791185423008 -0.0033218659244911644 0 0.0095016145623184403 -0.0023462322400699658 0 0.009423027579025826 -0.0038356679050375059 0 0.0096417572361728147 -0.0042770684453116324 0 0.009971974315071375 -0.0037103991270264289 0 0.0094297691670809716 -0.0037083019094999942 0 0.0093313672215614204 -0.0036710439607287853 0 0.0092613633613604657 -0.003433565716281812 0 0.0091554674854257816 -0.0035736946130767041 0 0.0090124627944586349 -0.0037089697630696048 0 0.009006788045425455 -0.0034244758517670794 0 0.0091554674854257816 -0.0035736946130767041 0 0.0087873195090084882 -0.0043895069046123959 0 0.0088453742141464745 -0.0037198930453426278 0 0.0085527684786766769 -0.0041375821974343179 0 0.0088906056893497676 -0.0022758659137464311 0 0.008911789538328118 -0.0039276137190575322 0 0.0092613633613604657 -0.003433565716281812 0 0.009006788045425455 -0.0034244758517670794 0 0.0091554674854257816 -0.0035736946130767041 0 0.0088453742141464745 -0.0037198930453426278 0 0.0082906588367669381 -0.0038998966499821032 0 0.0085798848679713713 -0.0033818202159873203 0 0.0088453742141464745 -0.0037198930453426278 0 0.0082906588367669381 -0.0038998966499821032 0 0.0085527684786766769 -0.0041375821974343179 0 0.0079036641159596528 -0.0036762785244651881 0 0.0075012017010474925 -0.0037266788011018704 0 0.0076816855662970298 -0.0042073888828250677 0 0.0082906588367669381 -0.0038998966499821032 0 0.0079036641159596528 -0.0036762785244651881 0 0.0076816855662970298 -0.0042073888828250677 0 0.0082906588367669381 -0.0038998966499821032 0 0.0079036641159596528 -0.0036762785244651881 0 0.0081898045138687862 -0.0033455426635163616 0 0.0081898045138687862 -0.0033455426635163616 0 0.0080623560079975502 -0.0029169474246875161 0 0.0076371194708864491 -0.0032941586533056081 0 0.0079036641159596528 -0.0036762785244651881 0 0.0081898045138687862 -0.0033455426635163616 0 0.0076371194708864491 -0.0032941586533056081 0 0.0082906588367669381 -0.0038998966499821032 0 0.0081898045138687862 -0.0033455426635163616 0 0.0085798848679713713 -0.0033818202159873203 0 0.0081898045138687862 -0.0033455426635163616 0 0.0085798848679713713 -0.0033818202159873203 0 0.0084770216772864296 -0.0029840060427981296 0 0.0089390017031600547 -0.0029890560726699654 0 0.0084770216772864296 -0.0029840060427981296 0 0.0087214536013885836 -0.0027195619771837234 0 0.0089390017031600547 -0.0029890560726699654 0 0.0085798848679713713 -0.0033818202159873203 0 0.0084770216772864296 -0.0029840060427981296 0 0.0084770216772864296 -0.0029840060427981296 0 0.0087214536013885836 -0.0027195619771837234 0 0.0083228871239420781 -0.0025909540496132409 0 0.0084770216772864296 -0.0029840060427981296 0 0.0080623560079975502 -0.0029169474246875161 0 0.0083228871239420781 -0.0025909540496132409 0 0.0081898045138687862 -0.0033455426635163616 0 0.0084770216772864296 -0.0029840060427981296 0 0.0080623560079975502 -0.0029169474246875161 0 0.0080623560079975502 -0.0029169474246875161 0 0.0076398574112100737 -0.0028413769051406305 0 0.0076371194708864491 -0.0032941586533056081 0 0.0080623560079975502 -0.0029169474246875161 0 0.0078744221171606187 -0.0024726736523406068 0 0.0076398574112100737 -0.0028413769051406305 0 0.0080623560079975502 -0.0029169474246875161 0 0.0078744221171606187 -0.0024726736523406068 0 0.0083228871239420781 -0.0025909540496132409 0 0.0081966126600721972 -0.0021128600690566391 0 0.0078744221171606187 -0.0024726736523406068 0 0.0083228871239420781 -0.0025909540496132409 0 0.0076723874194592027 -0.0020822568860884077 0 0.0081966126600721972 -0.0021128600690566391 0 0.0078744221171606187 -0.0024726736523406068 0 0.0081966126600721972 -0.0021128600690566391 0 0.0087991370586365542 -0.0019917709011519867 0 0.0085879201684581543 -0.0023368310970594002 0 0.0081966126600721972 -0.0021128600690566391 0 0.0085879201684581543 -0.0023368310970594002 0 0.0083228871239420781 -0.0025909540496132409 0 0.0089166620822640884 -0.0024535822330146047 0 0.0087214536013885836 -0.0027195619771837234 0 0.0085879201684581543 -0.0023368310970594002 0 0.0087214536013885836 -0.0027195619771837234 0 0.0085879201684581543 -0.0023368310970594002 0 0.0083228871239420781 -0.0025909540496132409 0 0.0067032928936542942 -0.0024822952791896096 0 0.0072429019031036556 -0.002496196233507636 0 0.0067775747815028379 -0.0028095689330972463 0 0.0067981998328586713 -0.0020865784223812875 0 0.0067032928936542942 -0.0024822952791896096 0 0.0072429019031036556 -0.002496196233507636 0 0.0076723874194592027 -0.0020822568860884077 0 0.0078744221171606187 -0.0024726736523406068 0 0.0072429019031036556 -0.002496196233507636 0 0.0078744221171606187 -0.0024726736523406068 0 0.0072429019031036556 -0.002496196233507636 0 0.0076398574112100737 -0.0028413769051406305 0 0.0072429019031036556 -0.002496196233507636 0 0.0076398574112100737 -0.0028413769051406305 0 0.0073912372840758394 -0.0030500967632562659 0 0.0072429019031036556 -0.002496196233507636 0 0.0073912372840758394 -0.0030500967632562659 0 0.0070844432629579264 -0.0029620793397113375 0 0.0076398574112100737 -0.0028413769051406305 0 0.0073912372840758394 -0.0030500967632562659 0 0.0076371194708864491 -0.0032941586533056081 0 0.0073912372840758394 -0.0030500967632562659 0 0.0070844432629579264 -0.0029620793397113375 0 0.007174773369467949 -0.0032755890823256387 0 0.0070844432629579264 -0.0029620793397113375 0 0.0068373986029216923 -0.0031769176250567182 0 0.007174773369467949 -0.0032755890823256387 0 0.0072429019031036556 -0.002496196233507636 0 0.0070844432629579264 -0.0029620793397113375 0 0.0067775747815028379 -0.0028095689330972463 0 0.006525844884928197 -0.0030238459657348669 0 0.0067775747815028379 -0.0028095689330972463 0 0.0068373986029216923 -0.0031769176250567182 0 0.0070844432629579264 -0.0029620793397113375 0 0.0067775747815028379 -0.0028095689330972463 0 0.0068373986029216923 -0.0031769176250567182 0 0.006559395190555292 -0.0034303558937303154 0 0.0068373986029216923 -0.0031769176250567182 0 0.0069524959602849804 -0.0034905876769324991 0 0.0068373986029216923 -0.0031769176250567182 0 0.0069524959602849804 -0.0034905876769324991 0 0.007174773369467949 -0.0032755890823256387 0 0.0069524959602849804 -0.0034905876769324991 0 0.007174773369467949 -0.0032755890823256387 0 0.0072368293157718984 -0.0035659986123242502 0 0.006559395190555292 -0.0034303558937303154 0 0.0069524959602849804 -0.0034905876769324991 0 0.0069997000775875052 -0.0038923153524493314 0 0.0073912372840758394 -0.0030500967632562659 0 0.0076371194708864491 -0.0032941586533056081 0 0.007174773369467949 -0.0032755890823256387 0 0.0076371194708864491 -0.0032941586533056081 0 0.007174773369467949 -0.0032755890823256387 0 0.0072368293157718984 -0.0035659986123242502 0 0.0076371194708864491 -0.0032941586533056081 0 0.0072368293157718984 -0.0035659986123242502 0 0.0075012017010474925 -0.0037266788011018704 0 0.0079036641159596528 -0.0036762785244651881 0 0.0076371194708864491 -0.0032941586533056081 0 0.0075012017010474925 -0.0037266788011018704 0 0.0076227850416264288 -0.0017583832358460721 0 0.0077587707572516016 -0.0021698491210916777 0 0.0075012017010474925 -0.0037266788011018704 0 0.0069997000775875052 -0.0038923153524493314 0 0.0076816855662970298 -0.0042073888828250677 0 0.0069378267377256291 -0.0039683239727727289 0 0.0069997000775875052 -0.0038923153524493314 0 0.0076816855662970298 -0.0042073888828250677 0 0.0072368293157718984 -0.0035659986123242502 0 0.0075012017010474925 -0.0037266788011018704 0 0.0069997000775875052 -0.0038923153524493314 0 0.0062970947431903899 -0.0031784099175735307 0 0.0069378267377256291 -0.0039683239727727289 0 0.0069997000775875052 -0.0038923153524493314 0 0.0064753085415823934 -0.0032530052606923304 0 0.0069478363635427504 -0.0038524838548439494 0 0.0069524959602849804 -0.0034905876769324991 0 0.0072368293157718984 -0.0035659986123242502 0 0.0069997000775875052 -0.0038923153524493314 0 0.0074732046381365946 0.0002584910493518308 0 0.0073025655895030345 -0.00030621904472981544 0 0.0076748335006396294 -7.4182129113818199e-06 0 0.0070156551092974114 -0.00012496429713681605 0 0.0074732046381365946 0.0002584910493518308 0 0.0073025655895030345 -0.00030621904472981544 0 0.0073025655895030345 -0.00030621904472981544 0 0.0076628470515004189 -0.00033763896923326756 0 0.0076748335006396294 -7.4182129113818199e-06 0 0.0073025655895030345 -0.00030621904472981544 0 0.0073076029169723711 -0.00065424944479808864 0 0.0076628470515004189 -0.00033763896923326756 0 0.008108530053978923 0.00065225743639784326 0 0.0081442360283697172 0.00017104902705364209 0 0.0071330380578314822 -0.00069914017674315863 0 0.0073025655895030345 -0.00030621904472981544 0 0.0073076029169723711 -0.00065424944479808864 0 0.0042660327064391809 -0.0014463940514812244 0 0.008108530053978923 0.00065225743639784326 0 0.0095949919191690054 0.0013917055858052795 0 0.0080273869918769513 0.00094571539807425972 0 0.0083956751439793424 0.0020606483378724687 0 0.008108530053978923 0.00065225743639784326 0 0.0086739503951001173 0.0011939416061745604 0 0.0086775961515401009 0.00070674828033441084 0 0.0080273869918769513 0.00094571539807425972 0 0.0077887485660514356 0.00049695508219454077 0 0.0092806683545627808 0.0012397897268307276 0 0.0086775961515401009 0.00070674828033441084 0 0.0080273869918769513 0.00094571539807425972 0 0.0086775961515401009 0.00070674828033441084 0 0.0079783980791261339 7.1090962305197969e-05 0 0.0077887485660514356 0.00049695508219454077 0 0.0074732046381365946 0.0002584910493518308 0 0.0076748335006396294 -7.4182129113818199e-06 0 0.0079724849088210446 2.2905726272013262e-05 0 0.0081442360283697172 0.00017104902705364209 0 0.0080064261106480693 7.6516037446208417e-05 0 0.0076628470515004189 -0.00033763896923326756 0 0.0076748335006396294 -7.4182129113818199e-06 0 0.0079783980791261339 7.1090962305197969e-05 0 0.0076748335006396294 -7.4182129113818199e-06 0 0.0079724849088210446 2.2905726272013262e-05 0 0.0079783980791261339 7.1090962305197969e-05 0 0.0082906588367669381 -0.0038998966499821032 0 0.0076816855662970298 -0.0042073888828250677 0 0.0083794991559218868 -0.0044449604415091335 0 0.0079724849088210446 2.2905726272013262e-05 0 0.0073991298306643411 0.00036218574373948965 0 0.0069730060412610739 0.00027810125978467787 0 0.0079724849088210446 2.2905726272013262e-05 0 0.0079783980791261339 7.1090962305197969e-05 0 0.0073991298306643411 0.00036218574373948965 0 0.0077587707572516016 -0.0021698491210916777 0 0.0076517161747240575 -0.0011571316532368982 0 0.0073991298306643411 0.00036218574373948965 0 0.0077887485660514356 0.00049695508219454077 0 0.0075135810638256402 0.00066758808581229704 0 0.0073991298306643411 0.00036218574373948965 0 0.0071699446083898812 0.00071168095022560113 0 0.0075135810638256402 0.00066758808581229704 0 0.0079783980791261339 7.1090962305197969e-05 0 0.0073991298306643411 0.00036218574373948965 0 0.0077887485660514356 0.00049695508219454077 0 0.0082906588367669381 -0.0038998966499821032 0 0.0085527684786766769 -0.0041375821974343179 0 0.0083794991559218868 -0.0044449604415091335 0 0.0087873195090084882 -0.0043895069046123959 0 0.0085527684786766769 -0.0041375821974343179 0 0.0083794991559218868 -0.0044449604415091335 0 0.007317020659264469 -0.00033480418432942316 0 0.0076517161747240575 -0.0011571316532368982 0 0.006899746250929182 0.00028613667396712732 0 0.0067366747898000299 0.00066059992093823279 0 0.0071699446083898812 0.00071168095022560113 0 0.0073991298306643411 0.00036218574373948965 0 0.006899746250929182 0.00028613667396712732 0 0.0071699446083898812 0.00071168095022560113 0 0.0083427961297338118 0.00019326634967716712 0 0.0076517161747240575 -0.0011571316532368982 0 0.0087017413498865909 -0.00098682207347737896 0 0.0086803015131514238 -0.0013727798389891043 0 0.0079065825358759709 -0.0010841624520016566 0 0.0060409329846263819 0.00049527134325070882 0 0.006899746250929182 0.00028613667396712732 0 0.0067366747898000299 0.00066059992093823279 0 0.0088906056893497676 -0.0022758659137464311 0 0.0076517161747240575 -0.0011571316532368982 0 0.0063515952092606867 0.00079309661596312379 0 0.0067393681305818343 0.0020913525810166292 0 0.0081536055512295563 0.0018684975987877438 0 0.0067366747898000299 0.00066059992093823279 0 0.0063515952092606867 0.00079309661596312379 0 0.007247896714745519 0.0012368247945285025 0 0.0067393681305818343 0.0020913525810166292 0 0.0081536055512295563 0.0018684975987877438 0 0.0063654610206065705 0.0028868900689083998 0 0.0060885833328120729 0.0028209403053084422 0 0.0063515952092606867 0.00079309661596312379 0 0.0067393681305818343 0.0020913525810166292 0 0.0063337296101617768 0.00068756251035812486 0 0.0074733505688110114 0.0031040591385672763 0 0.0060409329846263819 0.00049527134325070882 0 0.0067366747898000299 0.00066059992093823279 0 0.0063515952092606867 0.00079309661596312379 0 0.0067366747898000299 0.00066059992093823279 0 0.0071699446083898812 0.00071168095022560113 0 0.007247896714745519 0.0012368247945285025 0 0.0080273869918769513 0.00094571539807425972 0 0.0071986971628386744 0.0012458402849152017 0 0.0083956751439793424 0.0020606483378724687 0 0.0080273869918769513 0.00094571539807425972 0 0.0077887485660514356 0.00049695508219454077 0 0.0075135810638256402 0.00066758808581229704 0 0.0080273869918769513 0.00094571539807425972 0 0.0075135810638256402 0.00066758808581229704 0 0.0073778944748901388 0.0010062931440350665 0 0.0071699446083898812 0.00071168095022560113 0 0.0073778944748901388 0.0010062931440350665 0 0.007247896714745519 0.0012368247945285025 0 0.0071699446083898812 0.00071168095022560113 0 0.0075135810638256402 0.00066758808581229704 0 0.0073778944748901388 0.0010062931440350665 0 0.0080273869918769513 0.00094571539807425972 0 0.0073778944748901388 0.0010062931440350665 0 0.0071986971628386744 0.0012458402849152017 0 0.0078016045015233924 0.0021212070444676617 0 0.0074733505688110114 0.0031040591385672763 0 0.0074733505688110114 0.0031040591385672763 0 0.0096000582130240149 0.0055225298990586756 0 0.0084047954575426319 0.0073369680224986819 0 0.0092575720417883683 0.0088486790292870831 0 0.0084596730620921708 0.009526116964321478 0 0.0084047954575426319 0.0073369680224986819 0 0.0092575720417883683 0.0088486790292870831 0 0.010182453851371006 0.0084878172414365703 0 0.0062067196352414682 0.0046709571542235054 0 0.0081536055512295563 0.0018684975987877438 0 0.0063654610206065705 0.0028868900689083998 0 0.0080640027116341273 0.007489639046889535 0 0.0074733505688110114 0.0031040591385672763 0 0.0069702347723127412 0.0093695973278367529 0 0.0084047954575426319 0.0073369680224986819 0 0.0084596730620921708 0.009526116964321478 0 0.0060885833328120729 0.0028209403053084422 0 0.0067393681305818343 0.0020913525810166292 0 0.0063654610206065705 0.0028868900689083998 0 0.0080640027116341273 0.007489639046889535 0 0.0087831980843161416 0.0096840339311362687 0 0.0084482755028685262 0.009774848110318677 0 0.0087205254446253572 0.0099500572461209431 0 0.0090957402259716821 0.0098113517169206403 0 0.0088457030745223274 0.01007619542135834 0 0.0087205254446253572 0.0099500572461209431 0 0.0090957402259716821 0.0098113517169206403 0 0.0088457030745223274 0.01007619542135834 0 0.0090957402259716821 0.0098113517169206403 0 0.0090133997191152813 0.010320426052147754 0 0.0084622398745499705 0.010091246879315358 0 0.0084482755028685262 0.009774848110318677 0 0.0085731967489684549 0.010008991072862704 0 0.0087205254446253572 0.0099500572461209431 0 0.0086785725898991285 0.010088881640533886 0 0.0085731967489684549 0.010008991072862704 0 0.0086785725898991285 0.010088881640533886 0 0.0085595738026652234 0.010140603516322004 0 0.008718695959449364 0.010250393871827029 0 0.0088457030745223274 0.01007619542135834 0 0.0086785725898991285 0.010088881640533886 0 0.008718695959449364 0.010250393871827029 0 0.0088457030745223274 0.01007619542135834 0 0.0087205254446253572 0.0099500572461209431 0 0.0086785725898991285 0.010088881640533886 0 0.0086785725898991285 0.010088881640533886 0 0.0085595738026652234 0.010140603516322004 0 0.0085731967489684549 0.010008991072862704 0 0.0086673742900028831 0.0094692219653838786 0 0.0086808220353606982 0.0095263864389616201 0 0.0084683425379136999 0.010100474216721986 0 0.0085595738026652234 0.010140603516322004 0 0.0084762342524436936 0.010210201053806357 0 0.0086673742900028831 0.0094692219653838786 0 0.0086596311246256441 0.0096535560115706253 0 0.0084622398745499705 0.010091246879315358 0 0.0085595738026652234 0.010140603516322004 0 0.0085731967489684549 0.010008991072862704 0 0.0084482755028685262 0.009774848110318677 0 0.0087205254446253572 0.0099500572461209431 0 0.0085731967489684549 0.010008991072862704 0 0.0087831980843161416 0.0096840339311362687 0 0.0098669030020542142 0.0096897574804073565 0 0.0090957402259716821 0.0098113517169206403 0 0.0094717026187423475 0.010109508349518336 0 0.0099714842405627894 0.0096708870281430187 0 0.0092575720417883683 0.0088486790292870831 0 0.0084596730620921708 0.009526116964321478 0 0.0099714842405627894 0.0096708870281430187 0 0.0090957402259716821 0.0098113517169206403 0 0.0094717026187423475 0.010109508349518336 0 0.0090133997191152813 0.010320426052147754 0 0.0095060970749656064 0.010117748456912804 0 0.010345154133403497 0.010129178676186982 0 0.0094717026187423475 0.010109508349518336 0 0.0099714842405627894 0.0096708870281430187 0 0.010428598174933088 0.010053344293462439 0 0.0099714842405627894 0.0096708870281430187 0 0.010406643730756801 0.009484096585086697 0 0.010182453851371006 0.0084878172414365703 0 0.0092575720417883683 0.0088486790292870831 0 0.0099714842405627894 0.0096708870281430187 0 0.010182453851371006 0.0084878172414365703 0 0.010406643730756801 0.009484096585086697 0 0.01104489075554593 0.0096598641858940786 0 0.010182453851371006 0.0084878172414365703 0 0.0099714842405627894 0.0096708870281430187 0 0.010406643730756801 0.009484096585086697 0 0.010428598174933088 0.010053344293462439 0 0.010406643730756801 0.009484096585086697 0 0.010428598174933088 0.010053344293462439 0 0.01104489075554593 0.0096598641858940786 0 0.01104489075554593 0.0096598641858940786 0 0.011748490221659701 0.0095154011521633493 0 0.010182453851371006 0.0084878172414365703 0 0.010428598174933088 0.010053344293462439 0 0.01104489075554593 0.0096598641858940786 0 0.011631599449580218 0.01006741682278529 0 0.010345154133403497 0.010129178676186982 0 0.010255514229387227 0.0095733259749945631 0 0.0096739334934698266 0.005984798168515249 0 0.0096000582130240149 0.0055225298990586756 0 0.01104489075554593 0.0096598641858940786 0 0.011631599449580218 0.01006741682278529 0 0.011748490221659701 0.0095154011521633493 0 0.010255514229387227 0.0095733259749945631 0 0.0096739334934698266 0.005984798168515249 0 0.0060967166502006063 0.0012968992250296167 0 0.0096739334934698266 0.005984798168515249 0 0.009931407939288284 0.001701430754774478 0 0.0095949919191690054 0.0013917055858052795 0 0.0083956751439793424 0.0020606483378724687 0 0.009931407939288284 0.001701430754774478 0 0.0096932846694265436 0.0028954645072029506 0 0.0083956751439793424 0.0020606483378724687 0 0.0060967166502006063 0.0012968992250296167 0 0.008108530053978923 0.00065225743639784326 0 0.0099690599495910331 0.011153853769446654 0 0.0095172902578805774 0.010975168368321929 0 0.0095810459166453983 0.011628623825114733 0 0.0099690599495910331 0.011153853769446654 0 0.0097574763998328814 0.010577541630099392 0 0.0095172902578805774 0.010975168368321929 0 0.010153021832444742 0.011201194239102428 0 0.010156829509993101 0.010711382025973732 0 0.010085522303386512 0.011520170441012932 0 0.010166002045436055 0.010824445367295966 0 0.010250441921036992 0.011427625613621716 0 0.0099690599495910331 0.011153853769446654 0 0.010156829509993101 0.010711382025973732 0 0.01046970729310023 0.011470600806011165 0 0.010335666100436279 0.011312845549376407 0 0.010153021832444742 0.011201194239102428 0 0.010085522303386512 0.011520170441012932 0 0.010335666100436279 0.011312845549376407 0 0.010153021832444742 0.011201194239102428 0 0.010261990590471037 0.011061408487046176 0 0.010255514229387227 0.0095733259749945631 0 0.010177659123867375 0.01152772157467385 0 0.010006074965206689 0.010233041078768334 0 0.010582794978832327 0.010258181117545527 0 0.010156829509993101 0.010711382025973732 0 0.010360930897663984 0.011022456971167122 0 0.010207737765798966 0.010749192789973739 0 0.010261990590471037 0.011061408487046176 0 0.010207737765798966 0.010749192789973739 0 0.010153021832444742 0.011201194239102428 0 0.010261990590471037 0.011061408487046176 0 0.010582794978832327 0.010258181117545527 0 0.010153021832444742 0.011201194239102428 0 0.010156829509993101 0.010711382025973732 0 0.010006074965206689 0.010233041078768334 0 0.010156829509993101 0.010711382025973732 0 0.0097574763998328814 0.010577541630099392 0 0.0094717026187423475 0.010109508349518336 0 0.010006074965206689 0.010233041078768334 0 0.0097574763998328814 0.010577541630099392 0 0.0099690599495910331 0.011153853769446654 0 0.010156829509993101 0.010711382025973732 0 0.0097574763998328814 0.010577541630099392 0 0.0094717026187423475 0.010109508349518336 0 0.0097574763998328814 0.010577541630099392 0 0.0093146751860407363 0.010605891285482064 0 0.0094717026187423475 0.010109508349518336 0 0.0093146751860407363 0.010605891285482064 0 0.0090133997191152813 0.010320426052147754 0 0.0097574763998328814 0.010577541630099392 0 0.0093146751860407363 0.010605891285482064 0 0.0095172902578805774 0.010975168368321929 0 0.0087155220543960639 0.010449946272621595 0 0.0090133997191152813 0.010320426052147754 0 0.0087895848452250944 0.011024838280476075 0 0.0087155220543960639 0.010449946272621595 0 0.0087895848452250944 0.011024838280476075 0 0.0080489029202195968 0.010363819280897031 0 0.0093146751860407363 0.010605891285482064 0 0.0090133997191152813 0.010320426052147754 0 0.0087895848452250944 0.011024838280476075 0 0.0085595738026652234 0.010140603516322004 0 0.0084762342524436936 0.010210201053806357 0 0.008718695959449364 0.010250393871827029 0 0.0084762342524436936 0.010210201053806357 0 0.008718695959449364 0.010250393871827029 0 0.0087155220543960639 0.010449946272621595 0 0.008718695959449364 0.010250393871827029 0 0.0087155220543960639 0.010449946272621595 0 0.0090133997191152813 0.010320426052147754 0 0.0088457030745223274 0.01007619542135834 0 0.008718695959449364 0.010250393871827029 0 0.0090133997191152813 0.010320426052147754 0 0.011396368591631852 0.012503127936609753 0 0.011421782689728155 0.012288313465873196 0 0.011704950679622565 0.012293331454511792 0 0.0099594683057987292 0.01179622723089677 0 0.01029345376350748 0.011957457308047498 0 0.0093146751860407363 0.010605891285482064 0 0.0087895848452250944 0.011024838280476075 0 0.0095172902578805774 0.010975168368321929 0 0.0087895848452250944 0.011024838280476075 0 0.0095172902578805774 0.010975168368321929 0 0.0095810459166453983 0.011628623825114733 0 0.011396368591631852 0.012503127936609753 0 0.010968724809052486 0.01233711621903588 0 0.011421782689728155 0.012288313465873196 0 0.010968724809052486 0.01233711621903588 0 0.011421782689728155 0.012288313465873196 0 0.01134621884052919 0.012074807925211511 0 0.011421782689728155 0.012288313465873196 0 0.01134621884052919 0.012074807925211511 0 0.011607275305223715 0.012191512090365444 0 0.01134621884052919 0.012074807925211511 0 0.011562533818359181 0.011620508803204869 0 0.01167411303207631 0.012066697510788196 0 0.01134621884052919 0.012074807925211511 0 0.01167411303207631 0.012066697510788196 0 0.011607275305223715 0.012191512090365444 0 0.01134621884052919 0.012074807925211511 0 0.010898144910669833 0.011950252982517888 0 0.011120048610654343 0.011733987149523664 0 0.010968724809052486 0.01233711621903588 0 0.01134621884052919 0.012074807925211511 0 0.010898144910669833 0.011950252982517888 0 0.010898144910669833 0.011950252982517888 0 0.010428944028557775 0.011953767702326378 0 0.01061997068717461 0.011660226962988414 0 0.010968724809052486 0.01233711621903588 0 0.010898144910669833 0.011950252982517888 0 0.010428944028557775 0.011953767702326378 0 0.010428944028557775 0.011953767702326378 0 0.010141915606966633 0.011614007463976403 0 0.01036886113388074 0.011775001150216553 0 0.0095810459166453983 0.011628623825114733 0 0.010428944028557775 0.011953767702326378 0 0.010141915606966633 0.011614007463976403 0 0.0099690599495910331 0.011153853769446654 0 0.0095810459166453983 0.011628623825114733 0 0.010141915606966633 0.011614007463976403 0 0.01029345376350748 0.011957457308047498 0 0.010386517032712039 0.011956407241851956 0 0.0099690599495910331 0.011153853769446654 0 0.010141915606966633 0.011614007463976403 0 0.01046970729310023 0.011470600806011165 0 0.010330236187236145 0.011721703706995188 0 0.010085522303386512 0.011520170441012932 0 0.010169779637914291 0.012124558992664335 0 0.01046970729310023 0.011470600806011165 0 0.01036886113388074 0.011775001150216553 0 0.01038548680726081 0.011970310762830472 0 0.010250441921036992 0.011427625613621716 0 0.01038639986061113 0.01228428425121603 0 0.010335666100436279 0.011312845549376407 0 0.010330236187236145 0.011721703706995188 0 0.010085522303386512 0.011520170441012932 0 0.010141915606966633 0.011614007463976403 0 0.01046970729310023 0.011470600806011165 0 0.01036886113388074 0.011775001150216553 0 0.010428944028557775 0.011953767702326378 0 0.01038548680726081 0.011970310762830472 0 0.01061997068717461 0.011660226962988414 0 0.010428944028557775 0.011953767702326378 0 0.01036886113388074 0.011775001150216553 0 0.01038548680726081 0.011970310762830472 0 0.01047453699589761 0.013154236036090748 0 0.010309397694616548 0.013175342665492633 0 0.010461477521305671 0.013236771763312644 0 0.010570580280639943 0.013185418073969064 0 0.010537540349401353 0.013014010813955713 0 0.01047453699589761 0.013154236036090748 0 0.01038639986061113 0.01228428425121603 0 0.010385482101385153 0.012348888038438316 0 0.010537540349401353 0.013014010813955713 0 0.01047453699589761 0.013154236036090748 0 0.010309397694616548 0.013175342665492633 0 0.010570580280639943 0.013185418073969064 0 0.01047453699589761 0.013154236036090748 0 0.010461477521305671 0.013236771763312644 0 0.010237902611405407 0.01336091577535462 0 0.010461477521305671 0.013236771763312644 0 0.010444637377934418 0.013414078148291321 0 0.010309397694616548 0.013175342665492633 0 0.010237902611405407 0.01336091577535462 0 0.010461477521305671 0.013236771763312644 0 0.01059133030913125 0.013307212478733645 0 0.010461477521305671 0.013236771763312644 0 0.010444637377934418 0.013414078148291321 0 0.010444637377934418 0.013414078148291321 0 0.010597951508099205 0.013631918271278541 0 0.010468581347404381 0.013645963536062216 0 0.01059133030913125 0.013307212478733645 0 0.010444637377934418 0.013414078148291321 0 0.010597951508099205 0.013631918271278541 0 0.010444637377934418 0.013414078148291321 0 0.010468581347404381 0.013645963536062216 0 0.010212039899925749 0.013611247696864916 0 0.010237902611405407 0.01336091577535462 0 0.010444637377934418 0.013414078148291321 0 0.010212039899925749 0.013611247696864916 0 0.010553978040188519 0.014130531032980825 0 0.010575160944251618 0.013945483257128898 0 0.010468581347404381 0.013645963536062216 0 0.010212039899925749 0.013611247696864916 0 0.010576029723643679 0.013972504746005922 0 0.010976053161996409 0.014426257542019228 0 0.010922987780431903 0.014038570704760368 0 0.010576029723643679 0.013972504746005922 0 0.010597951508099205 0.013631918271278541 0 0.010468581347404381 0.013645963536062216 0 0.010576029723643679 0.013972504746005922 0 0.010597951508099205 0.013631918271278541 0 0.010576029723643679 0.013972504746005922 0 0.010658861911872305 0.013818367907387894 0 0.011279523784087434 0.014316515254141401 0 0.010976053161996409 0.014426257542019228 0 0.010922987780431903 0.014038570704760368 0 0.010237902611405407 0.01336091577535462 0 0.010212039899925749 0.013611247696864916 0 0.010036272406539976 0.01337212405418196 0 0.010553978040188519 0.014130531032980825 0 0.011266454692133599 0.013053206278018887 0 0.011279523784087434 0.014316515254141401 0 0.010976053161996409 0.014426257542019228 0 0.011242823713811273 0.014601902639008806 0 0.011279523784087434 0.014316515254141401 0 0.011242823713811273 0.014601902639008806 0 0.01146036901146545 0.014363397338959848 0 0.011266454692133599 0.013053206278018887 0 0.01191569586167494 0.013904894774348092 0 0.012653064768859357 0.012852646975308449 0 0.012348173956709792 0.012500641647967251 0 0.012190004117111207 0.012811200937340532 0 0.011229070032611857 0.011240710679500649 0 0.011120048610654343 0.011733987149523664 0 0.011562533818359181 0.011620508803204869 0 0.011266454692133599 0.013053206278018887 0 0.011952047020629561 0.011981183957636107 0 0.010385482101385153 0.012348888038438316 0 0.011266454692133599 0.013053206278018887 0 0.010309397694616548 0.013175342665492633 0 0.010237902611405407 0.01336091577535462 0 0.010036272406539976 0.01337212405418196 0 0.01061997068717461 0.011660226962988414 0 0.011229070032611857 0.011240710679500649 0 0.011120048610654343 0.011733987149523664 0 0.010898144910669833 0.011950252982517888 0 0.01061997068717461 0.011660226962988414 0 0.011120048610654343 0.011733987149523664 0 0.01134621884052919 0.012074807925211511 0 0.011120048610654343 0.011733987149523664 0 0.011562533818359181 0.011620508803204869 0 0.011952047020629561 0.011981183957636107 0 0.01190774542882578 0.012122941723469836 0 0.011998745660436967 0.012523233619421268 0 0.012348173956709792 0.012500641647967251 0 0.011878686147534094 0.012120095976171851 0 0.011562533818359181 0.011620508803204869 0 0.01167411303207631 0.012066697510788196 0 0.011878686147534094 0.012120095976171851 0 0.011998745660436967 0.012523233619421268 0 0.011783679519064082 0.012332927723674883 0 0.011878686147534094 0.012120095976171851 0 0.011783679519064082 0.012332927723674883 0 0.011844899676982467 0.012791042433225215 0 0.011577583184810985 0.012559360270438568 0 0.011998745660436967 0.012523233619421268 0 0.011783679519064082 0.012332927723674883 0 0.011844899676982467 0.012791042433225215 0 0.011998745660436967 0.012523233619421268 0 0.011844899676982467 0.012791042433225215 0 0.012190004117111207 0.012811200937340532 0 0.011998745660436967 0.012523233619421268 0 0.012348173956709792 0.012500641647967251 0 0.012190004117111207 0.012811200937340532 0 0.012653064768859357 0.012852646975308449 0 0.012190004117111207 0.012811200937340532 0 0.012166202868097937 0.013255879020225453 0 0.011844899676982467 0.012791042433225215 0 0.012190004117111207 0.012811200937340532 0 0.012166202868097937 0.013255879020225453 0 0.011844899676982467 0.012791042433225215 0 0.012166202868097937 0.013255879020225453 0 0.011586256047774796 0.013201579465152821 0 0.01146036901146545 0.014363397338959848 0 0.011426518549523684 0.014249679873758707 0 0.011447507958325789 0.014264047565395515 0 0.012166202868097937 0.013255879020225453 0 0.011586256047774796 0.013201579465152821 0 0.011750880785320989 0.013696365736108431 0 0.01191569586167494 0.013904894774348092 0 0.011557899418646052 0.013973781615161792 0 0.011279523784087434 0.014316515254141401 0 0.01146036901146545 0.014363397338959848 0 0.011447507958325789 0.014264047565395515 0 0.011209990211884438 0.013700630747374083 0 0.011586256047774796 0.013201579465152821 0 0.011034065652562743 0.013358745261320771 0 0.011209990211884438 0.013700630747374083 0 0.011586256047774796 0.013201579465152821 0 0.011750880785320989 0.013696365736108431 0 0.011586256047774796 0.013201579465152821 0 0.011346111690121025 0.012782437278735733 0 0.011034065652562743 0.013358745261320771 0 0.011844899676982467 0.012791042433225215 0 0.011586256047774796 0.013201579465152821 0 0.011589657114908499 0.012833627985899447 0 0.011586256047774796 0.013201579465152821 0 0.011346111690121025 0.012782437278735733 0 0.011589657114908499 0.012833627985899447 0 0.011346111690121025 0.012782437278735733 0 0.011589657114908499 0.012833627985899447 0 0.011577583184810985 0.012559360270438568 0 0.011844899676982467 0.012791042433225215 0 0.011589657114908499 0.012833627985899447 0 0.011577583184810985 0.012559360270438568 0 0.011783679519064082 0.012332927723674883 0 0.011577583184810985 0.012559360270438568 0 0.011557325966788767 0.012273745654449168 0 0.011346111690121025 0.012782437278735733 0 0.011577583184810985 0.012559360270438568 0 0.011408348490513434 0.012442840201780093 0 0.011557325966788767 0.012273745654449168 0 0.011408348490513434 0.012442840201780093 0 0.011523899835567392 0.012212345586630674 0 0.011577583184810985 0.012559360270438568 0 0.011557325966788767 0.012273745654449168 0 0.011408348490513434 0.012442840201780093 0 0.011892389933010424 0.011626275266898453 0 0.011476143520152915 0.011579522372724945 0 0.011408348490513434 0.012442840201780093 0 0.011523899835567392 0.012212345586630674 0 0.011020136973177646 0.012391728328081773 0 0.011346111690121025 0.012782437278735733 0 0.011408348490513434 0.012442840201780093 0 0.011020136973177646 0.012391728328081773 0 0.012208554149043118 0.010876302416939413 0 0.011892389933010424 0.011626275266898453 0 0.012212328583171131 0.010407880645874589 0 0.012302049942019395 0.010500216692515876 0 0.012172039881701666 0.010537308509526416 0 0.012212328583171131 0.010407880645874589 0 0.012242293655228043 0.010378793517516378 0 0.012302049942019395 0.010500216692515876 0 0.011727387314798202 0.012143966569139677 0 0.011807207329995247 0.012167355438918026 0 0.011834609259809647 0.012207460789162117 0 0.012757062843456358 0.0094945020633125914 0 0.012208554149043118 0.010876302416939413 0 0.012208554149043118 0.010876302416939413 0 0.01140946076683102 0.012361119739562748 0 0.011432235907949841 0.012187194910113702 0 0.011482623736120256 0.012270215978288391 0 0.011730713000097126 0.012035775984193739 0 0.012757062843456358 0.0094945020633125914 0 0.012771908550062726 0.0092147751275308814 0 0.012749823383480473 0.0097880028540942594 0 0.012632093826612997 0.010116079542006381 0 0.012556611673637639 0.0099846907131716355 0 0.012771908550062726 0.0092147751275308814 0 0.012208554149043118 0.010876302416939413 0 0.011808922302735851 0.012153592690376426 0 0.011853075247442947 0.012166270854745177 0 0.011945643936050762 0.012184587873417599 0 0.011727387314798202 0.012143966569139677 0 0.011808922302735851 0.012153592690376426 0 0.011730713000097126 0.012035775984193739 0 0.011808922302735851 0.012153592690376426 0 0.011807207329995247 0.012167355438918026 0 0.011853075247442947 0.012166270854745177 0 0.011727387314798202 0.012143966569139677 0 0.011808922302735851 0.012153592690376426 0 0.011807207329995247 0.012167355438918026 0 0.011557325966788767 0.012273745654449168 0 0.011537196653329269 0.012237502524330998 0 0.011841084973077709 0.01210152274219122 0 0.011853075247442947 0.012166270854745177 0 0.011834609259809647 0.012207460789162117 0 0.011849322152315827 0.012153966304058697 0 0.011807207329995247 0.012167355438918026 0 0.011853075247442947 0.012166270854745177 0 0.011834609259809647 0.012207460789162117 0 0.011901270149215775 0.011783183952843482 0 0.011892389933010424 0.011626275266898453 0 0.011834609259809647 0.012207460789162117 0 0.011841084973077709 0.01210152274219122 0 0.011849322152315827 0.012153966304058697 0 0.011783679519064082 0.012332927723674883 0 0.011841084973077709 0.01210152274219122 0 0.011878686147534094 0.012120095976171851 0 0.011892389933010424 0.011626275266898453 0 0.011716093304877766 0.012296030039087236 0 0.011783679519064082 0.012332927723674883 0 0.011557325966788767 0.012273745654449168 0 0.011841084973077709 0.01210152274219122 0 0.011841084973077709 0.01210152274219122 0 0.01167411303207631 0.012066697510788196 0 0.011878686147534094 0.012120095976171851 0 0.011841084973077709 0.01210152274219122 0 0.01167411303207631 0.012066697510788196 0 0.011607275305223715 0.012191512090365444 0 0.011421782689728155 0.012288313465873196 0 0.011607275305223715 0.012191512090365444 0 0.011704950679622565 0.012293331454511792 0 0.011607275305223715 0.012191512090365444 0 0.011758426423004587 0.01219135646873201 0 0.011704950679622565 0.012293331454511792 0 0.011841084973077709 0.01210152274219122 0 0.011607275305223715 0.012191512090365444 0 0.011758426423004587 0.01219135646873201 0 0.011758426423004587 0.01219135646873201 0 0.011704950679622565 0.012293331454511792 0 0.011855312262655779 0.012174200416410904 0 0.011704950679622565 0.012293331454511792 0 0.011855312262655779 0.012174200416410904 0 0.011945643936050762 0.012184587873417599 0 0.011853075247442947 0.012166270854745177 0 0.011849322152315827 0.012153966304058697 0 0.011855312262655779 0.012174200416410904 0 0.011841084973077709 0.01210152274219122 0 0.011849322152315827 0.012153966304058697 0 0.011855312262655779 0.012174200416410904 0 0.011841084973077709 0.01210152274219122 0 0.011758426423004587 0.01219135646873201 0 0.011855312262655779 0.012174200416410904 0 0.011853075247442947 0.012166270854745177 0 0.011855312262655779 0.012174200416410904 0 0.011945643936050762 0.012184587873417599 0 0.011704950679622565 0.012293331454511792 0 0.011945643936050762 0.012184587873417599 0 0.011819327900326781 0.012481306000418902 0 0.011965778118871673 0.012181988126907661 0 0.011951671855655327 0.012122480658408581 0 0.011945643936050762 0.012184587873417599 0 0.012253180482773239 0.011835555510275392 0 0.011904433004797623 0.011842155398969005 0 0.011396368591631852 0.012503127936609753 0 0.011704950679622565 0.012293331454511792 0 0.011637916235377644 0.012486708933129028 0 0.011704950679622565 0.012293331454511792 0 0.011819327900326781 0.012481306000418902 0 0.011637916235377644 0.012486708933129028 0 0.0099594683057987292 0.01179622723089677 0 0.01076479057883881 0.010988103801271623 0 0.0084762342524436936 0.010210201053806357 0 0.0087155220543960639 0.010449946272621595 0 0.0080489029202195968 0.010363819280897031 0 0.011396368591631852 0.012503127936609753 0 0.011637916235377644 0.012486708933129028 0 0.011693870836906326 0.012662445363302325 0 0.011819327900326781 0.012481306000418902 0 0.011637916235377644 0.012486708933129028 0 0.011693870836906326 0.012662445363302325 0 0.0090377882255718561 0.0089646932696044214 0 0.01076479057883881 0.010988103801271623 0 0.0082888817127536301 0.010020464041716597 0 0.0084762342524436936 0.010210201053806357 0 0.0080489029202195968 0.010363819280897031 0 0.012176068987748293 0.011545649155293854 0 0.0119398486469167 0.011507759754863074 0 0.011904433004797623 0.011842155398969005 0 0.012253180482773239 0.011835555510275392 0 0.012176068987748293 0.011545649155293854 0 0.011904433004797623 0.011842155398969005 0 0.011951671855655327 0.012122480658408581 0 0.01076479057883881 0.010988103801271623 0 0.012253180482773239 0.011835555510275392 0 0.012484706093568474 0.011499913386199746 0 0.012176068987748293 0.011545649155293854 0 0.0119398486469167 0.011507759754863074 0 0.011559686147431442 0.011650211813067702 0 0.011904433004797623 0.011842155398969005 0 0.011842766207844305 0.011258456771792897 0 0.0119398486469167 0.011507759754863074 0 0.011559686147431442 0.011650211813067702 0 0.013361362819319064 0.0059000687819020193 0 0.01416120648271115 0.0065646637001889416 0 0.013034720882330217 0.0065912569322826133 0 0.012771908550062726 0.0092147751275308814 0 0.012829281499912778 0.0094653753469938467 0 0.013716939642200677 0.007858548741178379 0 0.01416120648271115 0.0065646637001889416 0 0.013034720882330217 0.0065912569322826133 0 0.011432235907949841 0.012187194910113702 0 0.011559686147431442 0.011650211813067702 0 0.011730713000097126 0.012035775984193739 0 0.011559686147431442 0.011650211813067702 0 0.011730713000097126 0.012035775984193739 0 0.011904433004797623 0.011842155398969005 0 0.011945643936050762 0.012184587873417599 0 0.011730713000097126 0.012035775984193739 0 0.011904433004797623 0.011842155398969005 0 0.011808922302735851 0.012153592690376426 0 0.011945643936050762 0.012184587873417599 0 0.011730713000097126 0.012035775984193739 0 0.012690327467230046 0.0070466850181929875 0 0.012461609645402836 0.0061835511695541717 0 0.01196654852230384 0.0068147912826165436 0 0.012690327467230046 0.0070466850181929875 0 0.013167499312374502 0.0062314269980327614 0 0.012461609645402836 0.0061835511695541717 0 0.012771908550062726 0.0092147751275308814 0 0.013162825461205245 0.0061299522133905259 0 0.01370791145215481 0.0072181048227908853 0 0.013167499312374502 0.0062314269980327614 0 0.013215270256486949 0.0071771825857995866 0 0.012690327467230046 0.0070466850181929875 0 0.013167499312374502 0.0062314269980327614 0 0.013215270256486949 0.0071771825857995866 0 0.012591883059769781 0.0052220866403749214 0 0.013167499312374502 0.0062314269980327614 0 0.012461609645402836 0.0061835511695541717 0 0.014686336629912899 0.004523472225075746 0 0.014706589071157801 0.0057609131405151363 0 0.017479385830051094 0.0036779543236546081 0 0.016872351028055014 0.0043562038773081284 0 0.017492584850807735 0.0045374084082830555 0 0.011895523623153688 0.0055713975047899777 0 0.012461609645402836 0.0061835511695541717 0 0.01196654852230384 0.0068147912826165436 0 0.01665159389919969 0.0034791388148792822 0 0.017479385830051094 0.0036779543236546081 0 0.016872351028055014 0.0043562038773081284 0 0.016872351028055014 0.0043562038773081284 0 0.017492584850807735 0.0045374084082830555 0 0.017041214373784679 0.0049700632516720177 0 0.017492584850807735 0.0045374084082830555 0 0.017041214373784679 0.0049700632516720177 0 0.017490518531731544 0.0053981931383825267 0 0.014706589071157801 0.0057609131405151363 0 0.014915242649771279 0.0064029080792645555 0 0.017041214373784679 0.0049700632516720177 0 0.016819125384369225 0.0056066633804955765 0 0.016534873084124595 0.0049497626413876825 0 0.016872351028055014 0.0043562038773081284 0 0.017041214373784679 0.0049700632516720177 0 0.016534873084124595 0.0049497626413876825 0 0.016819125384369225 0.0056066633804955765 0 0.017490518531731544 0.0053981931383825267 0 0.017067658535933585 0.0059682471819257578 0 0.017041214373784679 0.0049700632516720177 0 0.016819125384369225 0.0056066633804955765 0 0.017490518531731544 0.0053981931383825267 0 0.012010404137774548 0.0080192478505641349 0 0.012958588916689022 0.0077258281399429181 0 0.0128867610754852 0.0083223786113104086 0 0.012690327467230046 0.0070466850181929875 0 0.012010404137774548 0.0080192478505641349 0 0.012958588916689022 0.0077258281399429181 0 0.012690327467230046 0.0070466850181929875 0 0.01196654852230384 0.0068147912826165436 0 0.012010404137774548 0.0080192478505641349 0 0.012690327467230046 0.0070466850181929875 0 0.013215270256486949 0.0071771825857995866 0 0.012958588916689022 0.0077258281399429181 0 0.013553204100712096 0.0076448876188236776 0 0.01370791145215481 0.0072181048227908853 0 0.013215270256486949 0.0071771825857995866 0 0.013553204100712096 0.0076448876188236776 0 0.013215270256486949 0.0071771825857995866 0 0.012958588916689022 0.0077258281399429181 0 0.012757062843456358 0.0094945020633125914 0 0.012603869539598902 0.00910114446832095 0 0.012362462461137192 0.0099615578213050025 0 0.011984924990995901 0.010358046777764651 0 0.012144281798998192 0.010535478375679008 0 0.012212328583171131 0.010407880645874589 0 0.012172039881701666 0.010537308509526416 0 0.012144281798998192 0.010535478375679008 0 0.012757062843456358 0.0094945020633125914 0 0.011997304858900857 0.010821532680961924 0 0.013553204100712096 0.0076448876188236776 0 0.012958588916689022 0.0077258281399429181 0 0.0128867610754852 0.0083223786113104086 0 0.012172039881701666 0.010537308509526416 0 0.012144281798998192 0.010535478375679008 0 0.011671594843283725 0.010700631123958493 0 0.011020136973177646 0.012391728328081773 0 0.010489954711516435 0.012563474761019258 0 0.010779272453912598 0.012835567385776505 0 0.011476143520152915 0.011579522372724945 0 0.011559328709284935 0.010579015030571848 0 0.011984924990995901 0.010358046777764651 0 0.012144281798998192 0.010535478375679008 0 0.011671594843283725 0.010700631123958493 0 0.012010404137774548 0.0080192478505641349 0 0.0128867610754852 0.0083223786113104086 0 0.012233311312394655 0.009007486636555033 0 0.012603869539598902 0.00910114446832095 0 0.011559328709284935 0.010579015030571848 0 0.010489954711516435 0.012563474761019258 0 0.010779272453912598 0.012835567385776505 0 0.010384823863728038 0.012666792628107677 0 0.010779272453912598 0.012835567385776505 0 0.01038172751332244 0.013286942216256439 0 0.010384823863728038 0.012666792628107677 0 0.011346111690121025 0.012782437278735733 0 0.011020136973177646 0.012391728328081773 0 0.010779272453912598 0.012835567385776505 0 0.011346111690121025 0.012782437278735733 0 0.010779272453912598 0.012835567385776505 0 0.011034065652562743 0.013358745261320771 0 0.010708445939081873 0.013502208230911325 0 0.011162966785010562 0.01282105205611505 0 0.010779272453912598 0.012835567385776505 0 0.011034065652562743 0.013358745261320771 0 0.01038172751332244 0.013286942216256439 0 0.01078427173724201 0.01367134826081153 0 0.011034065652562743 0.013358745261320771 0 0.010517358696081855 0.013416336684629921 0 0.01078427173724201 0.01367134826081153 0 0.010525707670368534 0.013653200124312936 0 0.010517358696081855 0.013416336684629921 0 0.011209990211884438 0.013700630747374083 0 0.01078427173724201 0.01367134826081153 0 0.011034065652562743 0.013358745261320771 0 0.010928000082020425 0.014256131791876675 0 0.011014486895475557 0.014123166156070763 0 0.011038640425766454 0.014324607032251496 0 0.010928000082020425 0.014256131791876675 0 0.011014486895475557 0.014123166156070763 0 0.010903900380664163 0.014115502771194844 0 0.010525707670368534 0.013653200124312936 0 0.01028017587696165 0.013364317321031946 0 0.010429931058004148 0.013840051395856968 0 0.012149220040592689 0.012270254158112693 0 0.010658109711458754 0.014297603820286107 0 0.010687717260751343 0.013711661006184556 0 0.011162966785010562 0.01282105205611505 0 0.010525707670368534 0.013653200124312936 0 0.01028017587696165 0.013364317321031946 0 0.010533255810484921 0.013374436956996718 0 0.011162966785010562 0.01282105205611505 0 0.013525290281675997 0.0090560515501999523 0 0.012723470692958016 0.010913233818740896 0 0.013432463411531389 0.010941231292407252 0 0.012492048437970004 0.010238036326214287 0 0.013432463411531389 0.010941231292407252 0 0.012492048437970004 0.010238036326214287 0 0.01341721328048825 0.009281091317904196 0 0.012149220040592689 0.012270254158112693 0 0.011162966785010562 0.01282105205611505 0 0.014037230999020052 0.010606048665679607 0 0.013879668812760532 0.010139288663327367 0 0.013451780224223405 0.010584478280754596 0 0.012149220040592689 0.012270254158112693 0 0.013824462934193763 0.010482664594320087 0 0.012149220040592689 0.012270254158112693 0 0.015364452553141728 0.0082120290835937301 0 0.015364452553141728 0.0082120290835937301 0 0.013824462934193763 0.010482664594320087 0 0.017025125507064608 0.0066896398481413252 0 0.016739030033267394 0.0069793679770490591 0 0.016748376088362635 0.0065714935577890011 0 0.017025125507064608 0.0066896398481413252 0 0.016748376088362635 0.0065714935577890011 0 0.01694030450116308 0.0064134896725190089 0 0.01694030450116308 0.0064134896725190089 0 0.017067658535933585 0.0059682471819257578 0 0.01662107207044072 0.006159821955366707 0 0.016748376088362635 0.0065714935577890011 0 0.01694030450116308 0.0064134896725190089 0 0.01662107207044072 0.006159821955366707 0 0.015364452553141728 0.0082120290835937301 0 0.016198757515211368 0.0066579741408776911 0 0.015364452553141728 0.0082120290835937301 0 0.013525290281675997 0.0090560515501999523 0 0.017032514439362174 0.0067131749772081284 0 0.01694030450116308 0.0064134896725190089 0 0.017478153740156332 0.0062570988549837947 0 0.01694030450116308 0.0064134896725190089 0 0.017478153740156332 0.0062570988549837947 0 0.017067658535933585 0.0059682471819257578 0 0.011559328709284935 0.010579015030571848 0 0.013525290281675997 0.0090560515501999523 0 0.012234550917376926 0.0090083407630274694 0 0.01203925887806123 0.0092137420584334755 0 0.01215186336021851 0.0090359362346629467 0 0.012010404137774548 0.0080192478505641349 0 0.01203925887806123 0.0092137420584334755 0 0.01215186336021851 0.0090359362346629467 0 0.012010404137774548 0.0080192478505641349 0 0.012233311312394655 0.009007486636555033 0 0.01215186336021851 0.0090359362346629467 0 0.014915242649771279 0.0064029080792645555 0 0.013525290281675997 0.0090560515501999523 0 0.017490518531731544 0.0053981931383825267 0 0.017478153740156332 0.0062570988549837947 0 0.017067658535933585 0.0059682471819257578 0 0.011559328709284935 0.010579015030571848 0 0.011708178983975529 0.010468882590375764 0 0.016819125384369225 0.0056066633804955765 0 0.017067658535933585 0.0059682471819257578 0 0.01662107207044072 0.006159821955366707 0 0.016819125384369225 0.0056066633804955765 0 0.01662107207044072 0.006159821955366707 0 0.016160417483614999 0.0056111053763191589 0 0.016126121615753934 0.0062363772682155431 0 0.01662107207044072 0.006159821955366707 0 0.016160417483614999 0.0056111053763191589 0 0.016126121615753934 0.0062363772682155431 0 0.0157067291407148 0.0059631217334239362 0 0.016160417483614999 0.0056111053763191589 0 0.016126121615753934 0.0062363772682155431 0 0.015798799498106454 0.0063793670819065574 0 0.0157067291407148 0.0059631217334239362 0 0.016126121615753934 0.0062363772682155431 0 0.016411621160941012 0.0066060669779507619 0 0.01599937163922039 0.0066676301174307265 0 0.016126121615753934 0.0062363772682155431 0 0.01599937163922039 0.0066676301174307265 0 0.015798799498106454 0.0063793670819065574 0 0.016126121615753934 0.0062363772682155431 0 0.01662107207044072 0.006159821955366707 0 0.016411621160941012 0.0066060669779507619 0 0.016748376088362635 0.0065714935577890011 0 0.01662107207044072 0.006159821955366707 0 0.016411621160941012 0.0066060669779507619 0 0.016739030033267394 0.0069793679770490591 0 0.016748376088362635 0.0065714935577890011 0 0.016411621160941012 0.0066060669779507619 0 0.013824462934193763 0.010482664594320087 0 0.015138129150895539 0.0084601849445559672 0 0.016739030033267394 0.0069793679770490591 0 0.016411621160941012 0.0066060669779507619 0 0.016234635236736392 0.0069462290185309267 0 0.016411621160941012 0.0066060669779507619 0 0.01599937163922039 0.0066676301174307265 0 0.016234635236736392 0.0069462290185309267 0 0.01599937163922039 0.0066676301174307265 0 0.016234635236736392 0.0069462290185309267 0 0.015731920544852604 0.0069221579309544264 0 0.015138129150895539 0.0084601849445559672 0 0.014783214245091429 0.008063048354799849 0 0.013607734631272286 0.010043456005904648 0 0.013424954237179796 0.010356731903344785 0 0.013744171640914531 0.010511430035152912 0 0.013424954237179796 0.010356731903344785 0 0.013081415041641099 0.010029018967232057 0 0.013256841194177443 0.010638959998232772 0 0.013424954237179796 0.010356731903344785 0 0.013744171640914531 0.010511430035152912 0 0.013201878374418337 0.010716928783594908 0 0.013607734631272286 0.010043456005904648 0 0.013424954237179796 0.010356731903344785 0 0.013081415041641099 0.010029018967232057 0 0.013258804028073241 0.010586496146632436 0 0.013657433218704901 0.0097692943306729903 0 0.014165336872966977 0.010068798555153155 0 0.013607734631272286 0.010043456005904648 0 0.013744171640914531 0.010511430035152912 0 0.010928000082020425 0.014256131791876675 0 0.010903900380664163 0.014115502771194844 0 0.010787675076470013 0.014252130197945988 0 0.013824462934193763 0.010482664594320087 0 0.012021181250089243 0.012638595069850904 0 0.015335026748122361 0.0071259197778179677 0 0.015472914743199031 0.0076260189370436745 0 0.014999984566083794 0.0075079398977642804 0 0.015335026748122361 0.0071259197778179677 0 0.014999971504036575 0.0066504498488061713 0 0.014999984566083794 0.0075079398977642804 0 0.014783214245091429 0.008063048354799849 0 0.013657433218704901 0.0097692943306729903 0 0.015335026748122361 0.0071259197778179677 0 0.015602892057405083 0.0072972268557148535 0 0.015472914743199031 0.0076260189370436745 0 0.015602892057405083 0.0072972268557148535 0 0.015762198734109865 0.0069618756626685149 0 0.015949822235580533 0.0076334950734522943 0 0.015335026748122361 0.0071259197778179677 0 0.015602892057405083 0.0072972268557148535 0 0.01557382379961674 0.0069490604883262015 0 0.015602892057405083 0.0072972268557148535 0 0.01557382379961674 0.0069490604883262015 0 0.015762198734109865 0.0069618756626685149 0 0.015420714249071472 0.0077284937317992717 0 0.014783214245091429 0.008063048354799849 0 0.01557382379961674 0.0069490604883262015 0 0.015756415941561821 0.0069563831106943703 0 0.01566735319155332 0.0066724946169341749 0 0.014783214245091429 0.008063048354799849 0 0.015162383139964762 0.0068530488781624131 0 0.01599937163922039 0.0066676301174307265 0 0.015731920544852604 0.0069221579309544264 0 0.01566735319155332 0.0066724946169341749 0 0.01599937163922039 0.0066676301174307265 0 0.01566735319155332 0.0066724946169341749 0 0.015798799498106454 0.0063793670819065574 0 0.01566735319155332 0.0066724946169341749 0 0.015368456274038518 0.0067285677368487517 0 0.015425446456915019 0.0063646352555580595 0 0.01557382379961674 0.0069490604883262015 0 0.01566735319155332 0.0066724946169341749 0 0.015368456274038518 0.0067285677368487517 0 0.015335026748122361 0.0071259197778179677 0 0.015368456274038518 0.0067285677368487517 0 0.014999971504036575 0.0066504498488061713 0 0.015368456274038518 0.0067285677368487517 0 0.014999971504036575 0.0066504498488061713 0 0.015425446456915019 0.0063646352555580595 0 0.015335026748122361 0.0071259197778179677 0 0.01557382379961674 0.0069490604883262015 0 0.015368456274038518 0.0067285677368487517 0 0.014999971504036575 0.0066504498488061713 0 0.015425446456915019 0.0063646352555580595 0 0.014999973126334271 0.0057929940140104153 0 0.01566735319155332 0.0066724946169341749 0 0.015425446456915019 0.0063646352555580595 0 0.015798799498106454 0.0063793670819065574 0 0.015425446456915019 0.0063646352555580595 0 0.015798799498106454 0.0063793670819065574 0 0.0157067291407148 0.0059631217334239362 0 0.0157067291407148 0.0059631217334239362 0 0.015529970308891252 0.0054324479399027268 0 0.016160417483614999 0.0056111053763191589 0 0.015425446456915019 0.0063646352555580595 0 0.0157067291407148 0.0059631217334239362 0 0.014999973126334271 0.0057929940140104153 0 0.0157067291407148 0.0059631217334239362 0 0.014999973126334271 0.0057929940140104153 0 0.015529970308891252 0.0054324479399027268 0 0.014999973126334271 0.0057929940140104153 0 0.014999968820692966 0.0049355253865953847 0 0.015529970308891252 0.0054324479399027268 0 0.014999968820692966 0.0049355253865953847 0 0.01577807887657387 0.0048574739968846948 0 0.015529970308891252 0.0054324479399027268 0 0.01577807887657387 0.0048574739968846948 0 0.015529970308891252 0.0054324479399027268 0 0.016160417483614999 0.0056111053763191589 0 0.016819125384369225 0.0056066633804955765 0 0.016160417483614999 0.0056111053763191589 0 0.016534873084124595 0.0049497626413876825 0 0.01577807887657387 0.0048574739968846948 0 0.016160417483614999 0.0056111053763191589 0 0.016534873084124595 0.0049497626413876825 0 0.01577807887657387 0.0048574739968846948 0 0.016534873084124595 0.0049497626413876825 0 0.016207806133099321 0.0042515197745632222 0 0.015691135225465284 0.0036328110345307243 0 0.01665159389919969 0.0034791388148792822 0 0.016207806133099321 0.0042515197745632222 0 0.016872351028055014 0.0043562038773081284 0 0.016534873084124595 0.0049497626413876825 0 0.016207806133099321 0.0042515197745632222 0 0.01665159389919969 0.0034791388148792822 0 0.016872351028055014 0.0043562038773081284 0 0.016207806133099321 0.0042515197745632222 0 0.015691135225465284 0.0036328110345307243 0 0.016207806133099321 0.0042515197745632222 0 0.015555794820722276 0.0042831688921827187 0 0.015691135225465284 0.0036328110345307243 0 0.014999971733939401 0.0040780509254196157 0 0.015555794820722276 0.0042831688921827187 0 0.014999968820692966 0.0049355253865953847 0 0.014999971733939401 0.0040780509254196157 0 0.015555794820722276 0.0042831688921827187 0 0.014999968820692966 0.0049355253865953847 0 0.01577807887657387 0.0048574739968846948 0 0.015555794820722276 0.0042831688921827187 0 0.01577807887657387 0.0048574739968846948 0 0.016207806133099321 0.0042515197745632222 0 0.015555794820722276 0.0042831688921827187 0 0.015431510885009507 0.010612363735162169 0 0.015962530723420916 0.010631719727495657 0 0.015610294621576405 0.010189248441075226 0 0.015431510885009507 0.010612363735162169 0 0.015619807404391417 0.0110937420075114 0 0.015962530723420916 0.010631719727495657 0 0.015431510885009507 0.010612363735162169 0 0.01499998366188654 0.010882934801711763 0 0.014999970747032607 0.010102661683605617 0 0.015000096573215712 0.010882987564413185 0 0.015607710006057329 0.011116757284990472 0 0.015431510885009507 0.010612363735162169 0 0.01499998366188654 0.010882934801711763 0 0.015619807404391417 0.0110937420075114 0 0.015619807404391417 0.0110937420075114 0 0.016137964093257896 0.010981416011350963 0 0.016234444594207444 0.011317771320198386 0 0.015607710006057329 0.011116757284990472 0 0.016194861545551907 0.011303905520548019 0 0.015619807404391417 0.0110937420075114 0 0.016137964093257896 0.010981416011350963 0 0.015962530723420916 0.010631719727495657 0 0.016437899737944097 0.011106845656219458 0 0.016822111904062048 0.010995245788507989 0 0.016478877912227363 0.01147773263430503 0 0.016437899737944097 0.011106845656219458 0 0.016395753387899729 0.010774651450042352 0 0.016822111904062048 0.010995245788507989 0 0.016137964093257896 0.010981416011350963 0 0.016437899737944097 0.011106845656219458 0 0.016234444594207444 0.011317771320198386 0 0.016137964093257896 0.010981416011350963 0 0.016437899737944097 0.011106845656219458 0 0.016395753387899729 0.010774651450042352 0 0.016395753387899729 0.010774651450042352 0 0.016545666848577143 0.010516375577858355 0 0.016822111904062048 0.010995245788507989 0 0.016395753387899729 0.010774651450042352 0 0.016270107693045942 0.010470781702671088 0 0.016545666848577143 0.010516375577858355 0 0.016137964093257896 0.010981416011350963 0 0.016395753387899729 0.010774651450042352 0 0.015962530723420916 0.010631719727495657 0 0.016395753387899729 0.010774651450042352 0 0.016270107693045942 0.010470781702671088 0 0.015962530723420916 0.010631719727495657 0 0.016270107693045942 0.010470781702671088 0 0.015962530723420916 0.010631719727495657 0 0.016075873363065773 0.010282462675191036 0 0.016075873363065773 0.010282462675191036 0 0.016340931688580005 0.010178768664525224 0 0.015837115224283459 0.0099660926717116335 0 0.015962530723420916 0.010631719727495657 0 0.016075873363065773 0.010282462675191036 0 0.015610294621576405 0.010189248441075226 0 0.016124337413973285 0.01017787349219134 0 0.014427816815711448 0.010798801689240323 0 0.016270107693045942 0.010470781702671088 0 0.016075873363065773 0.010282462675191036 0 0.016340931688580005 0.010178768664525224 0 0.016545666848577143 0.010516375577858355 0 0.016340931688580005 0.010178768664525224 0 0.016845786075501207 0.010467932954210054 0 0.016270107693045942 0.010470781702671088 0 0.016545666848577143 0.010516375577858355 0 0.016340931688580005 0.010178768664525224 0 0.010814220694744305 0.01482398132174855 0 0.010831056621208649 0.01473329178990098 0 0.010867412846204436 0.014839643755788706 0 0.010814220694744305 0.01482398132174855 0 0.010831056621208649 0.01473329178990098 0 0.01078169534188418 0.014719220156578249 0 0.010814220694744305 0.01482398132174855 0 0.01078169534188418 0.014719220156578249 0 0.01072720689537101 0.014722625328178758 0 0.013398654799300885 0.012641796189113539 0 0.014427816815711448 0.010798801689240323 0 0.01078169534188418 0.014719220156578249 0 0.01072720689537101 0.014722625328178758 0 0.010740208410070461 0.014648992357370799 0 0.015811510328425701 0.0097478245177868589 0 0.015610294621576405 0.010189248441075226 0 0.015405767663173909 0.0095354441880221574 0 0.01072720689537101 0.014722625328178758 0 0.010669086907370198 0.014626469655474476 0 0.010740208410070461 0.014648992357370799 0 0.014427816815711448 0.010798801689240323 0 0.012821301452328997 0.012033548020548002 0 0.014427816815711448 0.010798801689240323 0 0.015213755114758011 0.009492793704680768 0 0.014926268290269128 0.0093103487406794999 0 0.014959933708333996 0.0093014473416906333 0 0.014943495648750993 0.0093209004676273501 0 0.016075873363065773 0.010282462675191036 0 0.015811510328425701 0.0097478245177868589 0 0.015610294621576405 0.010189248441075226 0 0.015610294621576405 0.010189248441075226 0 0.014999970747032607 0.010102661683605617 0 0.015405767663173909 0.0095354441880221574 0 0.015431510885009507 0.010612363735162169 0 0.015610294621576405 0.010189248441075226 0 0.014999970747032607 0.010102661683605617 0 0.014999970747032607 0.010102661683605617 0 0.015405767663173909 0.0095354441880221574 0 0.014999984258407937 0.0093222607372276285 0 0.015213755114758011 0.009492793704680768 0 0.015000003911422997 0.0093222287944987863 0 0.015000021362657613 0.0092673802597402141 0 0.014999968235152617 0.0089675840773616993 0 0.01526760190568387 0.0088062215494969197 0 0.014999914209777232 0.0092680587410122906 0 0.014980954117225484 0.0093093576376570269 0 0.01497393161146335 0.0093834137316134887 0 0.014959933708333996 0.0093014473416906333 0 0.015000067337995205 0.0093216366133776572 0 0.014980954117225484 0.0093093576376570269 0 0.015000067337995205 0.0093216366133776572 0 0.014999914209777232 0.0092680587410122906 0 0.014980954117225484 0.0093093576376570269 0 0.015000941424537386 0.0092658625770056669 0 0.014233856131588752 0.01074214617488964 0 0.014959933708333996 0.0093014473416906333 0 0.014980954117225484 0.0093093576376570269 0 0.014943495648750993 0.0093209004676273501 0 0.014980954117225484 0.0093093576376570269 0 0.014943495648750993 0.0093209004676273501 0 0.01497393161146335 0.0093834137316134887 0 0.012821301452328997 0.012033548020548002 0 0.014233856131588752 0.01074214617488964 0 0.010669086907370198 0.014626469655474476 0 0.010716100576728995 0.014538498648448471 0 0.010611959675098384 0.014507380246503826 0 0.010669086907370198 0.014626469655474476 0 0.010716100576728995 0.014538498648448471 0 0.010740208410070461 0.014648992357370799 0 0.010716100576728995 0.014538498648448471 0 0.010611959675098384 0.014507380246503826 0 0.010644358997221952 0.014440795542532693 0 0.010716100576728995 0.014538498648448471 0 0.010644358997221952 0.014440795542532693 0 0.010741926968447958 0.01442426189389198 0 0.014999997968022869 0.0089675114139076296 0 0.015235493247687753 0.0087251598601505373 0 0.014999997862721793 0.0083654029256116317 0 0.014999968235152617 0.0089675840773616993 0 0.01526760190568387 0.0088062215494969197 0 0.015223746972335311 0.0087422272217086115 0 0.015000396117777421 0.0089672562009301543 0 0.014693070843183055 0.0095922998397985921 0 0.014233856131588752 0.01074214617488964 0 0.014693070843183055 0.0095922998397985921 0 0.014233856131588752 0.01074214617488964 0 0.012923855768588559 0.01163686822637232 0 0.014693070843183055 0.0095922998397985921 0 0.012923855768588559 0.01163686822637232 0 0.014110063996704943 0.0098080790787203973 0 0.014368284732789401 0.010196673079290104 0 0.013087743836476077 0.011509388576704358 0 0.014693070843183055 0.0095922998397985921 0 0.014999766364138191 0.0083654288302265362 0 0.015219844828783261 0.0087303044224421207 0 0.015438822296366202 0.0085005331024871466 0 0.014999955375687284 0.0083654227851578319 0 0.015438822296366202 0.0085005331024871466 0 0.014999955375687284 0.0083654227851578319 0 0.015316916673493327 0.0080311298111021175 0 0.012923855768588559 0.01163686822637232 0 0.011962706238401287 0.012920103892672756 0 0.010644358997221952 0.014440795542532693 0 0.010741926968447958 0.01442426189389198 0 0.010790899545021002 0.014275017588099461 0 0.012923855768588559 0.01163686822637232 0 0.014709029037952258 0.0091266614384967869 0 0.013077604359260999 0.01130963464084116 0 0.01320327345173079 0.011077473696500377 0 0.013368492212386339 0.010984652717243869 0 0.015438822296366202 0.0085005331024871466 0 0.015316916673493327 0.0080311298111021175 0 0.015694848884392106 0.0080638812108611152 0 0.015316916673493327 0.0080311298111021175 0 0.015694848884392106 0.0080638812108611152 0 0.015472914743199031 0.0076260189370436745 0 0.015694848884392106 0.0080638812108611152 0 0.015472914743199031 0.0076260189370436745 0 0.015949822235580533 0.0076334950734522943 0 0.015602892057405083 0.0072972268557148535 0 0.015472914743199031 0.0076260189370436745 0 0.015949822235580533 0.0076334950734522943 0 0.014709029037952258 0.0091266614384967869 0 0.013657433218704901 0.0097692943306729903 0 0.01320327345173079 0.011077473696500377 0 0.013328778398636979 0.010844453349117742 0 0.013368492212386339 0.010984652717243869 0 0.014999955375687284 0.0083654227851578319 0 0.015316916673493327 0.0080311298111021175 0 0.014999984566083794 0.0075079398977642804 0 0.015316916673493327 0.0080311298111021175 0 0.015472914743199031 0.0076260189370436745 0 0.014999984566083794 0.0075079398977642804 0 0.010928000082020425 0.014256131791876675 0 0.010787675076470013 0.014252130197945988 0 0.010863639763766874 0.014345357764505918 0 0.010787675076470013 0.014252130197945988 0 0.010863639763766874 0.014345357764505918 0 0.010791815020539499 0.014406258905069641 0 0.010863639763766874 0.014345357764505918 0 0.010791815020539499 0.014406258905069641 0 0.010880032538877938 0.014435379534933039 0 0.013744171640914531 0.010511430035152912 0 0.013201878374418337 0.010716928783594908 0 0.013280597662583399 0.01101168338216562 0 0.012021181250089243 0.012638595069850904 0 0.011962706238401287 0.012920103892672756 0 0.010787675076470013 0.014252130197945988 0 0.010687927098062759 0.014371323120905647 0 0.010791815020539499 0.014406258905069641 0 0.013657433218704901 0.0097692943306729903 0 0.011962706238401287 0.012920103892672756 0 0.011962706238401287 0.012920103892672756 0 0.010772511021406058 0.014682916049043317 0 0.010741926968447958 0.01442426189389198 0 0.010790899545021002 0.014275017588099461 0 0.010816762585894101 0.014441651281318321 0 0.010687927098062759 0.014371323120905647 0 0.01073654979232239 0.014518676676588151 0 0.010791815020539499 0.014406258905069641 0 0.010791815020539499 0.014406258905069641 0 0.010844042431717403 0.014545906629019759 0 0.010880032538877938 0.014435379534933039 0 0.01073654979232239 0.014518676676588151 0 0.010791815020539499 0.014406258905069641 0 0.010844042431717403 0.014545906629019759 0 0.01073654979232239 0.014518676676588151 0 0.010844042431717403 0.014545906629019759 0 0.01079917439402063 0.0146229395255151 0 0.010844042431717403 0.014545906629019759 0 0.01079917439402063 0.0146229395255151 0 0.010852380620325756 0.01464877339366207 0 0.010772511021406058 0.014682916049043317 0 0.010782685749755296 0.014531745234957793 0 0.010716100576728995 0.014538498648448471 0 0.010816762585894101 0.014441651281318321 0 0.01079917439402063 0.0146229395255151 0 0.010716100576728995 0.014538498648448471 0 0.010741926968447958 0.01442426189389198 0 0.010816762585894101 0.014441651281318321 0 0.010716100576728995 0.014538498648448471 0 0.01079917439402063 0.0146229395255151 0 0.010740208410070461 0.014648992357370799 0 0.01078169534188418 0.014719220156578249 0 0.01079917439402063 0.0146229395255151 0 0.010740208410070461 0.014648992357370799 0 0.010831056621208649 0.01473329178990098 0 0.01078169534188418 0.014719220156578249 0 0.01079917439402063 0.0146229395255151 0 0.010831056621208649 0.01473329178990098 0 0.01079917439402063 0.0146229395255151 0 0.010852380620325756 0.01464877339366207 0 0.010852380620325756 0.01464877339366207 0 0.010890417590262947 0.014741463785018269 0 0.010929618973116778 0.014605700932318702 0 0.010831056621208649 0.01473329178990098 0 0.010852380620325756 0.01464877339366207 0 0.010890417590262947 0.014741463785018269 0 0.010966015811034839 0.014748382172150042 0 0.010929618973116778 0.014605700932318702 0 0.01098321207505625 0.014641705835753078 0 0.010890417590262947 0.014741463785018269 0 0.010966015811034839 0.014748382172150042 0 0.010929618973116778 0.014605700932318702 0 0.010929618973116778 0.014605700932318702 0 0.011028032395613015 0.014505392951466599 0 0.01098321207505625 0.014641705835753078 0 0.010844042431717403 0.014545906629019759 0 0.010852380620325756 0.01464877339366207 0 0.010929618973116778 0.014605700932318702 0 0.010844042431717403 0.014545906629019759 0 0.010929618973116778 0.014605700932318702 0 0.010949976449686301 0.014486504997315162 0 0.010844042431717403 0.014545906629019759 0 0.010880032538877938 0.014435379534933039 0 0.010949976449686301 0.014486504997315162 0 0.010880032538877938 0.014435379534933039 0 0.010949976449686301 0.014486504997315162 0 0.010934452248003256 0.014371239636473273 0 0.010949976449686301 0.014486504997315162 0 0.011028032395613015 0.014505392951466599 0 0.011038640425766454 0.014324607032251496 0 0.010929618973116778 0.014605700932318702 0 0.010949976449686301 0.014486504997315162 0 0.011028032395613015 0.014505392951466599 0 0.010949976449686301 0.014486504997315162 0 0.011038640425766454 0.014324607032251496 0 0.010934452248003256 0.014371239636473273 0 0.010844679711181778 0.014348305737957066 0 0.010658109711458754 0.014297603820286107 0 0.010659705134149258 0.014295706674692979 0 0.010429931058004148 0.013840051395856968 0 0.010662085268025763 0.013901120609618419 0 0.010525707670368534 0.013653200124312936 0 0.010429931058004148 0.013840051395856968 0 0.010662085268025763 0.013901120609618419 0 0.010928000082020425 0.014256131791876675 0 0.011038640425766454 0.014324607032251496 0 0.010934452248003256 0.014371239636473273 0 0.010928000082020425 0.014256131791876675 0 0.010863639763766874 0.014345357764505918 0 0.010934452248003256 0.014371239636473273 0 0.010863639763766874 0.014345357764505918 0 0.010880032538877938 0.014435379534933039 0 0.010934452248003256 0.014371239636473273 0 0.011209990211884438 0.013700630747374083 0 0.01078427173724201 0.01367134826081153 0 0.01091792871658996 0.014031991915278451 0 0.011209990211884438 0.013700630747374083 0 0.01091792871658996 0.014031991915278451 0 0.011267460903754448 0.014241669664746806 0 0.010659705134149258 0.014295706674692979 0 0.01091792871658996 0.014031991915278451 0 0.010662085268025763 0.013901120609618419 0 0.01078427173724201 0.01367134826081153 0 0.01091792871658996 0.014031991915278451 0 0.010662085268025763 0.013901120609618419 0 0.01078427173724201 0.01367134826081153 0 0.010525707670368534 0.013653200124312936 0 0.010662085268025763 0.013901120609618419 0 0.010659705134149258 0.014295706674692979 0 0.01091792871658996 0.014031991915278451 0 0.011040319643207949 0.014403620350512533 0 0.01091792871658996 0.014031991915278451 0 0.011040319643207949 0.014403620350512533 0 0.011267460903754448 0.014241669664746806 0 0.011040319643207949 0.014403620350512533 0 0.011259221956279637 0.014663101571585489 0 0.011267460903754448 0.014241669664746806 0 0.011040319643207949 0.014403620350512533 0 0.01098321207505625 0.014641705835753078 0 0.011259221956279637 0.014663101571585489 0 0.010659705134149258 0.014295706674692979 0 0.011040319643207949 0.014403620350512533 0 0.01098321207505625 0.014641705835753078 0 0.010844679711181778 0.014348305737957066 0 0.0109624868658 0.014626383902422225 0 0.010966015811034839 0.014748382172150042 0 0.01098321207505625 0.014641705835753078 0 0.011097011486079646 0.01481351268096133 0 0.011265051888751558 0.014975164115704844 0 0.011097011486079646 0.01481351268096133 0 0.011259221956279637 0.014663101571585489 0 0.01098321207505625 0.014641705835753078 0 0.011097011486079646 0.01481351268096133 0 0.011259221956279637 0.014663101571585489 0 0.011265051888751558 0.014975164115704844 0 0.011156312608886703 0.014968402777656726 0 0.011097011486079646 0.01481351268096133 0 0.011265051888751558 0.014975164115704844 0 0.011284838436116603 0.015144282048548518 0 0.011461002541193031 0.015300732476189601 0 0.011265051888751558 0.014975164115704844 0 0.011284838436116603 0.015144282048548518 0 0.011156312608886703 0.014968402777656726 0 0.011121287883070213 0.015082186547192546 0 0.01098961815589173 0.015012015768136964 0 0.011037074071561844 0.015258869348826186 0 0.011284838436116603 0.015144282048548518 0 0.011121287883070213 0.015082186547192546 0 0.011219460820929832 0.015199966693971905 0 0.011121287883070213 0.015082186547192546 0 0.01102985404133964 0.014896858036324177 0 0.011156312608886703 0.014968402777656726 0 0.011284838436116603 0.015144282048548518 0 0.011121287883070213 0.015082186547192546 0 0.011156312608886703 0.014968402777656726 0 0.011121287883070213 0.015082186547192546 0 0.01102985404133964 0.014896858036324177 0 0.01098961815589173 0.015012015768136964 0 0.010966015811034839 0.014748382172150042 0 0.01102985404133964 0.014896858036324177 0 0.011097011486079646 0.01481351268096133 0 0.01102985404133964 0.014896858036324177 0 0.011156312608886703 0.014968402777656726 0 0.011097011486079646 0.01481351268096133 0 0.010966015811034839 0.014748382172150042 0 0.01102985404133964 0.014896858036324177 0 0.010931548226403753 0.014868395257162255 0 0.010890417590262947 0.014741463785018269 0 0.010966015811034839 0.014748382172150042 0 0.010931548226403753 0.014868395257162255 0 0.010831056621208649 0.01473329178990098 0 0.010890417590262947 0.014741463785018269 0 0.010867412846204436 0.014839643755788706 0 0.010890417590262947 0.014741463785018269 0 0.010931548226403753 0.014868395257162255 0 0.010867412846204436 0.014839643755788706 0 0.013398654799300885 0.012641796189113539 0 0.013953263308089414 0.012745532867514228 0 0.010931548226403753 0.014868395257162255 0 0.010867412846204436 0.014839643755788706 0 0.010894330012732436 0.014987285972133762 0 0.010814220694744305 0.01482398132174855 0 0.010867412846204436 0.014839643755788706 0 0.010894330012732436 0.014987285972133762 0 0.010931548226403753 0.014868395257162255 0 0.010894330012732436 0.014987285972133762 0 0.01098961815589173 0.015012015768136964 0 0.010894330012732436 0.014987285972133762 0 0.01098961815589173 0.015012015768136964 0 0.010987798428694772 0.015163206562933785 0 0.01102985404133964 0.014896858036324177 0 0.010931548226403753 0.014868395257162255 0 0.01098961815589173 0.015012015768136964 0 0.01098961815589173 0.015012015768136964 0 0.010987798428694772 0.015163206562933785 0 0.011037074071561844 0.015258869348826186 0 0.013456011867816248 0.013398990000436421 0 0.015331782595335122 0.013216212866510098 0 0.013953263308089414 0.012745532867514228 0 0.013456011867816248 0.013398990000436421 0 0.016845786075501207 0.010467932954210054 0 0.017136455332984891 0.010627227894718582 0 0.016822111904062048 0.010995245788507989 0 0.012796287091133231 0.016121459511678642 0 0.013326812492047086 0.015602198715345326 0 0.01280563785658924 0.015650219702320101 0 0.012796287091133231 0.016121459511678642 0 0.01280563785658924 0.015650219702320101 0 0.012572034092411491 0.016053757944147345 0 0.016545666848577143 0.010516375577858355 0 0.016845786075501207 0.010467932954210054 0 0.016822111904062048 0.010995245788507989 0 0.015331782595335122 0.013216212866510098 0 0.015105498130223445 0.013368239810120225 0 0.01280563785658924 0.015650219702320101 0 0.012656687804213787 0.015253560274317429 0 0.013042208200487317 0.015250411366879549 0 0.013326812492047086 0.015602198715345326 0 0.01280563785658924 0.015650219702320101 0 0.013042208200487317 0.015250411366879549 0 0.01280563785658924 0.015650219702320101 0 0.012411565573263722 0.015474524060187875 0 0.012656687804213787 0.015253560274317429 0 0.012411565573263722 0.015474524060187875 0 0.012295972901708091 0.015265525391909569 0 0.012656687804213787 0.015253560274317429 0 0.01280563785658924 0.015650219702320101 0 0.012486414916688102 0.015701630833932483 0 0.012411565573263722 0.015474524060187875 0 0.012486414916688102 0.015701630833932483 0 0.012202245875183641 0.015619769150122429 0 0.012411565573263722 0.015474524060187875 0 0.012202245875183641 0.015619769150122429 0 0.012411565573263722 0.015474524060187875 0 0.011993698331832892 0.015403258370195891 0 0.012411565573263722 0.015474524060187875 0 0.011993698331832892 0.015403258370195891 0 0.012295972901708091 0.015265525391909569 0 0.011993698331832892 0.015403258370195891 0 0.011622083093044173 0.015432088516038743 0 0.012009623059126852 0.015200431051747273 0 0.011993698331832892 0.015403258370195891 0 0.011644310979938437 0.015557876367592224 0 0.011622083093044173 0.015432088516038743 0 0.012202245875183641 0.015619769150122429 0 0.011993698331832892 0.015403258370195891 0 0.011644310979938437 0.015557876367592224 0 0.011644310979938437 0.015557876367592224 0 0.01138035942125082 0.015301045432899509 0 0.011037074071561844 0.015258869348826186 0 0.011284838436116603 0.015144282048548518 0 0.01138035942125082 0.015301045432899509 0 0.011461002541193031 0.015300732476189601 0 0.011644310979938437 0.015557876367592224 0 0.01138035942125082 0.015301045432899509 0 0.011461002541193031 0.015300732476189601 0 0.011284838436116603 0.015144282048548518 0 0.01138035942125082 0.015301045432899509 0 0.011219460820929832 0.015199966693971905 0 0.012202245875183641 0.015619769150122429 0 0.011644310979938437 0.015557876367592224 0 0.012572034092411491 0.016053757944147345 0 0.011121287883070213 0.015082186547192546 0 0.011219460820929832 0.015199966693971905 0 0.011037074071561844 0.015258869348826186 0 0.01159667946501809 0.015709599814724324 0 0.012107027280177525 0.0149701263926972 0 0.01138035942125082 0.015301045432899509 0 0.011219460820929832 0.015199966693971905 0 0.011037074071561844 0.015258869348826186 0 0.013456011867816248 0.013398990000436421 0 0.012107027280177525 0.0149701263926972 0 0.012486414916688102 0.015701630833932483 0 0.012202245875183641 0.015619769150122429 0 0.012572034092411491 0.016053757944147345 0 0.01280563785658924 0.015650219702320101 0 0.012486414916688102 0.015701630833932483 0 0.012572034092411491 0.016053757944147345 0 0.011462670314840275 0.015422733569259063 0 0.011415491703049471 0.015336432177587823 0 0.01142421624476732 0.015178328964691819 0 0.011462670314840275 0.015422733569259063 0 0.011461002541193031 0.015300732476189601 0 0.011403399596083484 0.015144004092367774 0 0.011644310979938437 0.015557876367592224 0 0.011461002541193031 0.015300732476189601 0 0.011552837720227882 0.015453568313172829 0 0.011462670314840275 0.015422733569259063 0 0.011461002541193031 0.015300732476189601 0 0.011552837720227882 0.015453568313172829 0 0.011462670314840275 0.015422733569259063 0 0.011552837720227882 0.015453568313172829 0 0.011622083093044173 0.015432088516038743 0 0.011462670314840275 0.015422733569259063 0 0.011622083093044173 0.015432088516038743 0 0.011398805653737619 0.015423889066871905 0 0.011644310979938437 0.015557876367592224 0 0.011552837720227882 0.015453568313172829 0 0.011622083093044173 0.015432088516038743 0 0.011430285740984593 0.015428516054872284 0 0.011214276745154473 0.015495388470566609 0 0.011462670314840275 0.015422733569259063 0 0.011277562566470037 0.015478093832330533 0 0.011112126153574381 0.01557912929115637 0 0.011462670314840275 0.015422733569259063 0 0.011398805653737619 0.015423889066871905 0 0.011277562566470037 0.015478093832330533 0 0.011277562566470037 0.015478093832330533 0 0.011112126153574381 0.01557912929115637 0 0.011115811104056744 0.015436798477756681 0 0.011462670314840275 0.015422733569259063 0 0.011365545354370465 0.015384197176522807 0 0.011381137731590536 0.015383611825802071 0 0.011306139176720076 0.015430569874283146 0 0.01137768894584203 0.015327989741516104 0 0.011381137731590536 0.015383611825802071 0 0.011365545354370465 0.015384197176522807 0 0.011306139176720076 0.015430569874283146 0 0.011381137731590536 0.015383611825802071 0 0.011226253418355991 0.015438409917476626 0 0.010815651610652972 0.015484260006571335 0 0.011306139176720076 0.015430569874283146 0 0.01137768894584203 0.015327989741516104 0 0.01128629177386932 0.015296068948026287 0 0.01137768894584203 0.015327989741516104 0 0.011458118177480752 0.015299693284627582 0 0.011304282022600703 0.0153633199373011 0 0.01137768894584203 0.015327989741516104 0 0.011415491703049471 0.015336432177587823 0 0.011458118177480752 0.015299693284627582 0 0.011462670314840275 0.015422733569259063 0 0.011381137731590536 0.015383611825802071 0 0.011415491703049471 0.015336432177587823 0 0.01137768894584203 0.015327989741516104 0 0.011381137731590536 0.015383611825802071 0 0.011415491703049471 0.015336432177587823 0 0.011415491703049471 0.015336432177587823 0 0.01142421624476732 0.015178328964691819 0 0.011458118177480752 0.015299693284627582 0 0.01142421624476732 0.015178328964691819 0 0.011458118177480752 0.015299693284627582 0 0.011488815224975591 0.014850888585287559 0 0.011459168100176 0.015250197227602532 0 0.011519618444176257 0.015293158514212922 0 0.011458118177480752 0.015299693284627582 0 0.011317957090299596 0.015490207040707893 0 0.011304282022600703 0.0153633199373011 0 0.011458118177480752 0.015299693284627582 0 0.011488815224975591 0.014850888585287559 0 0.011684288959411395 0.014861722113290522 0 0.01142421624476732 0.015178328964691819 0 0.011488815224975591 0.014850888585287559 0 0.011406991567437744 0.014891136181420505 0 0.011406991567437744 0.014891136181420505 0 0.011403399596083484 0.015144004092367774 0 0.011332739615642989 0.014912141316144463 0 0.01142421624476732 0.015178328964691819 0 0.011406991567437744 0.014891136181420505 0 0.011403399596083484 0.015144004092367774 0 0.011462670314840275 0.015422733569259063 0 0.01142421624476732 0.015178328964691819 0 0.011403399596083484 0.015144004092367774 0 0.011265051888751558 0.014975164115704844 0 0.011461002541193031 0.015300732476189601 0 0.011403399596083484 0.015144004092367774 0 0.011265051888751558 0.014975164115704844 0 0.011403399596083484 0.015144004092367774 0 0.011332739615642989 0.014912141316144463 0 0.011265051888751558 0.014975164115704844 0 0.011332739615642989 0.014912141316144463 0 0.011259221956279637 0.014663101571585489 0 0.011406991567437744 0.014891136181420505 0 0.011332739615642989 0.014912141316144463 0 0.011259221956279637 0.014663101571585489 0 0.011406991567437744 0.014891136181420505 0 0.011259221956279637 0.014663101571585489 0 0.011424512830637125 0.014644311373889621 0 0.011259221956279637 0.014663101571585489 0 0.01139296675286784 0.014427739880190341 0 0.011424512830637125 0.014644311373889621 0 0.011259221956279637 0.014663101571585489 0 0.01139296675286784 0.014427739880190341 0 0.011267460903754448 0.014241669664746806 0 0.01139296675286784 0.014427739880190341 0 0.011267460903754448 0.014241669664746806 0 0.011426518549523684 0.014249679873758707 0 0.011278966664677389 0.014235366568271032 0 0.011557899418646052 0.013973781615161792 0 0.011209990211884438 0.013700630747374083 0 0.011267460903754448 0.014241669664746806 0 0.011750880785320989 0.013696365736108431 0 0.011447507958325789 0.014264047565395515 0 0.011444926365980795 0.014330493911417764 0 0.011463562526522321 0.014298096924516732 0 0.011426518549523684 0.014249679873758707 0 0.011447507958325789 0.014264047565395515 0 0.011444926365980795 0.014330493911417764 0 0.01139296675286784 0.014427739880190341 0 0.011444926365980795 0.014330493911417764 0 0.01148211163420078 0.014497920698627617 0 0.01139296675286784 0.014427739880190341 0 0.011426518549523684 0.014249679873758707 0 0.011444926365980795 0.014330493911417764 0 0.011444926365980795 0.014330493911417764 0 0.011463562526522321 0.014298096924516732 0 0.01148211163420078 0.014497920698627617 0 0.01148211163420078 0.014497920698627617 0 0.011575480062293846 0.01464339153510783 0 0.011560024480005142 0.014459638402670548 0 0.011463562526522321 0.014298096924516732 0 0.01148211163420078 0.014497920698627617 0 0.011560024480005142 0.014459638402670548 0 0.01139296675286784 0.014427739880190341 0 0.01148211163420078 0.014497920698627617 0 0.011424512830637125 0.014644311373889621 0 0.011488815224975591 0.014850888585287559 0 0.011406991567437744 0.014891136181420505 0 0.011424512830637125 0.014644311373889621 0 0.011488815224975591 0.014850888585287559 0 0.01148211163420078 0.014497920698627617 0 0.011424512830637125 0.014644311373889621 0 0.011488815224975591 0.014850888585287559 0 0.01148211163420078 0.014497920698627617 0 0.011575480062293846 0.01464339153510783 0 0.011488815224975591 0.014850888585287559 0 0.011575480062293846 0.01464339153510783 0 0.011684288959411395 0.014861722113290522 0 0.011575480062293846 0.01464339153510783 0 0.01163266122615916 0.014619938353174355 0 0.011684288959411395 0.014861722113290522 0 0.01163266122615916 0.014619938353174355 0 0.01171300354387117 0.014519822643151728 0 0.011684288959411395 0.014861722113290522 0 0.011233462147805365 0.015577616117966349 0 0.011216449617357153 0.01549181926593703 0 0.011317957090299596 0.015490207040707893 0 0.011152002632588634 0.014440865875049044 0 0.011519618444176257 0.015293158514212922 0 0.010595106648980628 0.014218241459321821 0 0.010741975118758417 0.014523995461059643 0 0.010599685493580058 0.014203342986021052 0 0.010742359511624682 0.01477446931281509 0 0.010470636093083704 0.014664755047722682 0 0.011152002632588634 0.014440865875049044 0 0.010830475523388682 0.015145889020736448 0 0.010599685493580058 0.014203342986021052 0 0.010480289067132161 0.01401994205730568 0 0.010470636093083704 0.014664755047722682 0 0.010599685493580058 0.014203342986021052 0 0.010691794110397803 0.013989843875117817 0 0.010728101664047337 0.014178689080174552 0 0.011152002632588634 0.014440865875049044 0 0.01082803858743406 0.01360596797958874 0 0.010691794110397803 0.013989843875117817 0 0.010480289067132161 0.01401994205730568 0 0.010826412865999075 0.01381930067249278 0 0.01115533819299001 0.01329562538757539 0 0.011217703056375056 0.013723190979056703 0 0.010826412865999075 0.01381930067249278 0 0.010599685493580058 0.014203342986021052 0 0.010691794110397803 0.013989843875117817 0 0.010480289067132161 0.01401994205730568 0 0.011152002632588634 0.014440865875049044 0 0.01137425912718488 0.01397090661416359 0 0.011575480062293846 0.01464339153510783 0 0.01163266122615916 0.014619938353174355 0 0.011560024480005142 0.014459638402670548 0 0.01163266122615916 0.014619938353174355 0 0.01171300354387117 0.014519822643151728 0 0.011560024480005142 0.014459638402670548 0 0.01171300354387117 0.014519822643151728 0 0.011560024480005142 0.014459638402670548 0 0.011582658433409729 0.01433300896974519 0 0.011463562526522321 0.014298096924516732 0 0.011582658433409729 0.01433300896974519 0 0.011329817973150032 0.014132112985383229 0 0.011463562526522321 0.014298096924516732 0 0.011560024480005142 0.014459638402670548 0 0.011582658433409729 0.01433300896974519 0 0.01137425912718488 0.01397090661416359 0 0.011365069789671549 0.014161946425073289 0 0.010826412865999075 0.01381930067249278 0 0.011077324715341792 0.013933431934793601 0 0.010922987780431903 0.014038570704760368 0 0.011217703056375056 0.013723190979056703 0 0.011077324715341792 0.013933431934793601 0 0.011329817973150032 0.014132112985383229 0 0.011217703056375056 0.013723190979056703 0 0.010826412865999075 0.01381930067249278 0 0.011077324715341792 0.013933431934793601 0 0.011077324715341792 0.013933431934793601 0 0.010922987780431903 0.014038570704760368 0 0.011329817973150032 0.014132112985383229 0 0.011279523784087434 0.014316515254141401 0 0.010922987780431903 0.014038570704760368 0 0.011329817973150032 0.014132112985383229 0 0.011279523784087434 0.014316515254141401 0 0.011447507958325789 0.014264047565395515 0 0.011329817973150032 0.014132112985383229 0 0.011447507958325789 0.014264047565395515 0 0.011463562526522321 0.014298096924516732 0 0.011329817973150032 0.014132112985383229 0 0.010630387238994699 0.013898905461393636 0 0.010576029723643679 0.013972504746005922 0 0.010658861911872305 0.013818367907387894 0 0.010651948138328607 0.013911854634397515 0 0.010630387238994699 0.013898905461393636 0 0.010576029723643679 0.013972504746005922 0 0.010922987780431903 0.014038570704760368 0 0.010651948138328607 0.013911854634397515 0 0.010576029723643679 0.013972504746005922 0 0.010922987780431903 0.014038570704760368 0 0.010651948138328607 0.013911854634397515 0 0.01073064415264623 0.013873417962877513 0 0.01073064415264623 0.013873417962877513 0 0.010778079060030404 0.013873201843147734 0 0.010633469730009268 0.013898387325929233 0 0.010826412865999075 0.01381930067249278 0 0.010922987780431903 0.014038570704760368 0 0.01073064415264623 0.013873417962877513 0 0.010826412865999075 0.01381930067249278 0 0.01073064415264623 0.013873417962877513 0 0.010778079060030404 0.013873201843147734 0 0.010774061060499059 0.013883573754040372 0 0.01080434541675236 0.013915581073825817 0 0.010651948138328607 0.013911854634397515 0 0.01073064415264623 0.013873417962877513 0 0.010633469730009268 0.013898387325929233 0 0.010651948138328607 0.013911854634397515 0 0.010630387238994699 0.013898905461393636 0 0.010633469730009268 0.013898387325929233 0 0.010974233079670739 0.013939334531592459 0 0.01094753211123649 0.013983486577554589 0 0.010883396566188547 0.013967106916372979 0 0.010778079060030404 0.013873201843147734 0 0.010974233079670739 0.013939334531592459 0 0.010883396566188547 0.013967106916372979 0 0.01094753211123649 0.013983486577554589 0 0.010883396566188547 0.013967106916372979 0 0.010890121340819601 0.01408408644856265 0 0.01094753211123649 0.013983486577554589 0 0.010890121340819601 0.01408408644856265 0 0.010972151759627796 0.014041759150871549 0 0.010691794110397803 0.013989843875117817 0 0.010778079060030404 0.013873201843147734 0 0.010815877316854603 0.013979481690436958 0 0.010691794110397803 0.013989843875117817 0 0.010826412865999075 0.01381930067249278 0 0.010778079060030404 0.013873201843147734 0 0.010778079060030404 0.013873201843147734 0 0.010883396566188547 0.013967106916372979 0 0.010815877316854603 0.013979481690436958 0 0.010890121340819601 0.01408408644856265 0 0.010815877316854603 0.013979481690436958 0 0.010781043241481022 0.014078034596318571 0 0.010883396566188547 0.013967106916372979 0 0.010890121340819601 0.01408408644856265 0 0.010815877316854603 0.013979481690436958 0 0.010691794110397803 0.013989843875117817 0 0.010815877316854603 0.013979481690436958 0 0.010781043241481022 0.014078034596318571 0 0.010691794110397803 0.013989843875117817 0 0.010781043241481022 0.014078034596318571 0 0.010728101664047337 0.014178689080174552 0 0.010599685493580058 0.014203342986021052 0 0.010728101664047337 0.014178689080174552 0 0.010769985053768154 0.01429876312610507 0 0.010728101664047337 0.014178689080174552 0 0.010806529583169133 0.014195396737324955 0 0.010769985053768154 0.01429876312610507 0 0.010781043241481022 0.014078034596318571 0 0.010728101664047337 0.014178689080174552 0 0.010806529583169133 0.014195396737324955 0 0.010890121340819601 0.01408408644856265 0 0.010781043241481022 0.014078034596318571 0 0.010806529583169133 0.014195396737324955 0 0.010890121340819601 0.01408408644856265 0 0.010806529583169133 0.014195396737324955 0 0.010905493929650956 0.014283081008019999 0 0.010890121340819601 0.01408408644856265 0 0.010905493929650956 0.014283081008019999 0 0.010986893902479188 0.014172350022033552 0 0.010890121340819601 0.01408408644856265 0 0.010986893902479188 0.014172350022033552 0 0.010972151759627796 0.014041759150871549 0 0.010905493929650956 0.014283081008019999 0 0.010864186480657959 0.014442170120675672 0 0.010769985053768154 0.01429876312610507 0 0.010905493929650956 0.014283081008019999 0 0.010864186480657959 0.014442170120675672 0 0.01101156538003332 0.014450337172214601 0 0.010747062945794434 0.015083057732180612 0 0.010575999474733224 0.015089240560245737 0 0.010673053446324861 0.015171207575010852 0 0.010747062945794434 0.015083057732180612 0 0.010742359511624682 0.01477446931281509 0 0.010575999474733224 0.015089240560245737 0 0.010813305445209982 0.014719867608038378 0 0.010741975118758417 0.014523995461059643 0 0.010806529583169133 0.014195396737324955 0 0.010905493929650956 0.014283081008019999 0 0.010769985053768154 0.01429876312610507 0 0.010830475523388682 0.015145889020736448 0 0.010879229500484047 0.015209597171499504 0 0.010742359511624682 0.01477446931281509 0 0.010470636093083704 0.014664755047722682 0 0.010575999474733224 0.015089240560245737 0 0.011216449617357153 0.01549181926593703 0 0.011317957090299596 0.015490207040707893 0 0.011304282022600703 0.0153633199373011 0 0.011216449617357153 0.01549181926593703 0 0.011304282022600703 0.0153633199373011 0 0.011182128056761213 0.015378645553669943 0 0.010879229500484047 0.015209597171499504 0 0.010901492345022509 0.015195431153608064 0 0.011182128056761213 0.015378645553669943 0 0.01128629177386932 0.015296068948026287 0 0.01108408422231077 0.015282920480791296 0 0.010575999474733224 0.015089240560245737 0 0.010727350039176482 0.015160672593102031 0 0.010673053446324861 0.015171207575010852 0 0.01137768894584203 0.015327989741516104 0 0.011304282022600703 0.0153633199373011 0 0.01128629177386932 0.015296068948026287 0 0.011304282022600703 0.0153633199373011 0 0.011182128056761213 0.015378645553669943 0 0.01128629177386932 0.015296068948026287 0 0.011306139176720076 0.015430569874283146 0 0.01128629177386932 0.015296068948026287 0 0.011264540322847839 0.01506377631323353 0 0.01128629177386932 0.015296068948026287 0 0.011150170569482313 0.015161163608156097 0 0.011264540322847839 0.01506377631323353 0 0.01128629177386932 0.015296068948026287 0 0.01108408422231077 0.015282920480791296 0 0.011150170569482313 0.015161163608156097 0 0.01108408422231077 0.015282920480791296 0 0.011150170569482313 0.015161163608156097 0 0.010886873156991267 0.014926905146552063 0 0.010901492345022509 0.015195431153608064 0 0.010882715239776066 0.014932101330712119 0 0.010657660476877733 0.015094209540716604 0 0.010598115623268879 0.015208661480000593 0 0.010673053446324861 0.015171207575010852 0 0.010727350039176482 0.015160672593102031 0 0.010657660476877733 0.015094209540716604 0 0.010886873156991267 0.014926905146552063 0 0.010727350039176482 0.015160672593102031 0 0.010657660476877733 0.015094209540716604 0 0.010673053446324861 0.015171207575010852 0 0.010657660476877733 0.015094209540716604 0 0.010419578530577362 0.015099246779741662 0 0.010469918166222204 0.014894725203561873 0 0.010419578530577362 0.015099246779741662 0 0.010598115623268879 0.015208661480000593 0 0.010388428993529892 0.015301028090392604 0 0.010657660476877733 0.015094209540716604 0 0.010419578530577362 0.015099246779741662 0 0.010598115623268879 0.015208661480000593 0 0.010747062945794434 0.015083057732180612 0 0.010598115623268879 0.015208661480000593 0 0.010641804096919194 0.015198217210545741 0 0.010813305445209982 0.014719867608038378 0 0.010553758197432131 0.015181682780435022 0 0.010747062945794434 0.015083057732180612 0 0.010598115623268879 0.015208661480000593 0 0.010673053446324861 0.015171207575010852 0 0.010864186480657959 0.014442170120675672 0 0.01101156538003332 0.014450337172214601 0 0.010960458574109024 0.014597753726562036 0 0.01056025028343483 0.015204115335661478 0 0.010553758197432131 0.015181682780435022 0 0.010807095527566344 0.014622885305140979 0 0.010489581754116354 0.014639296948159346 0 0.010662179119583321 0.014851209318234594 0 0.010489581754116354 0.014639296948159346 0 0.010201821648883752 0.014634488348063577 0 0.010265357933371024 0.014194872084297875 0 0.010025339860274094 0.01532163226979635 0 0.0091672454708801015 0.015045729427166893 0 0.010807095527566344 0.014622885305140979 0 0.010489581754116354 0.014639296948159346 0 0.010265357933371024 0.014194872084297875 0 0.010489581754116354 0.014639296948159346 0 0.010469918166222204 0.014894725203561873 0 0.010662179119583321 0.014851209318234594 0 0.010489581754116354 0.014639296948159346 0 0.010469918166222204 0.014894725203561873 0 0.010201821648883752 0.014634488348063577 0 0.010469918166222204 0.014894725203561873 0 0.010201821648883752 0.014634488348063577 0 0.010206547951568704 0.014913801531401229 0 0.010419578530577362 0.015099246779741662 0 0.010469918166222204 0.014894725203561873 0 0.010206547951568704 0.014913801531401229 0 0.010657660476877733 0.015094209540716604 0 0.010469918166222204 0.014894725203561873 0 0.010662179119583321 0.014851209318234594 0 0.010657660476877733 0.015094209540716604 0 0.010662179119583321 0.014851209318234594 0 0.010886873156991267 0.014926905146552063 0 0.010807095527566344 0.014622885305140979 0 0.010662179119583321 0.014851209318234594 0 0.010886873156991267 0.014926905146552063 0 0.011150170569482313 0.015161163608156097 0 0.010886873156991267 0.014926905146552063 0 0.011264540322847839 0.01506377631323353 0 0.010025339860274094 0.01532163226979635 0 0.010815651610652972 0.015484260006571335 0 0.010807095527566344 0.014622885305140979 0 0.010886873156991267 0.014926905146552063 0 0.011264540322847839 0.01506377631323353 0 0.0097992577113195853 0.015643675194394639 0 0.01053774347512682 0.015595151574756647 0 0.0096152218516772966 0.015635193168110847 0 0.0098630012436014894 0.015506182518662325 0 0.010234181601142591 0.015491542926769537 0 0.010440468800287895 0.01597110170329314 0 0.0099738484485633917 0.015670270013967397 0 0.010827716088558675 0.015699092570364066 0 0.0092915759725486664 0.016052995989080096 0 0.010440468800287895 0.01597110170329314 0 0.0099738484485633917 0.015670270013967397 0 0.0096152218516772966 0.015635193168110847 0 0.0098630012436014894 0.015506182518662325 0 0.0092725757453361955 0.015339625141865872 0 0.0098182707231315725 0.015518968545498233 0 0.0096372696390626868 0.015455007461733403 0 0.0097992577113195853 0.015643675194394639 0 0.0089197740547508689 0.015475524695632454 0 0.0098630012436014894 0.015506182518662325 0 0.0098363861827539863 0.015558039656377393 0 0.0098518595354129736 0.01559326578718323 0 0.0096152218516772966 0.015635193168110847 0 0.0092725757453361955 0.015339625141865872 0 0.0088838988743814087 0.015488533940267973 0 0.0098630012436014894 0.015506182518662325 0 0.0098363861827539863 0.015558039656377393 0 0.0097794081876478919 0.015578229824031608 0 0.0098630012436014894 0.015506182518662325 0 0.0097794081876478919 0.015578229824031608 0 0.0098328758352690636 0.015504179703295812 0 0.0097794081876478919 0.015578229824031608 0 0.0097773862360879833 0.015604308066003764 0 0.0097272437817520277 0.015635273262538597 0 0.0098363861827539863 0.015558039656377393 0 0.0097794081876478919 0.015578229824031608 0 0.0097773862360879833 0.015604308066003764 0 0.0098363861827539863 0.015558039656377393 0 0.0097773862360879833 0.015604308066003764 0 0.0098016239445896242 0.015615011725814035 0 0.0098016239445896242 0.015615011725814035 0 0.0097335897621314334 0.015652593513334107 0 0.0097844213875018394 0.015694666733132003 0 0.0097773862360879833 0.015604308066003764 0 0.0098016239445896242 0.015615011725814035 0 0.0097335897621314334 0.015652593513334107 0 0.0097335897621314334 0.015652593513334107 0 0.0097272437817520277 0.015635273262538597 0 0.0096801987386851487 0.015679719344710744 0 0.0097773862360879833 0.015604308066003764 0 0.0097335897621314334 0.015652593513334107 0 0.0097272437817520277 0.015635273262538597 0 0.0098363861827539863 0.015558039656377393 0 0.0098518595354129736 0.01559326578718323 0 0.0098319281084182798 0.015596888616554016 0 0.0098518595354129736 0.01559326578718323 0 0.0098319281084182798 0.015596888616554016 0 0.0098365114430710807 0.015630993829731401 0 0.0098016239445896242 0.015615011725814035 0 0.0098319281084182798 0.015596888616554016 0 0.0098365114430710807 0.015630993829731401 0 0.0098363861827539863 0.015558039656377393 0 0.0098016239445896242 0.015615011725814035 0 0.0098319281084182798 0.015596888616554016 0 0.0098016239445896242 0.015615011725814035 0 0.0098365114430710807 0.015630993829731401 0 0.0097844213875018394 0.015694666733132003 0 0.0098365114430710807 0.015630993829731401 0 0.0098779252022306498 0.015653984522197763 0 0.0098525115314925683 0.015679470365328584 0 0.0098518595354129736 0.01559326578718323 0 0.0098365114430710807 0.015630993829731401 0 0.0098779252022306498 0.015653984522197763 0 0.0096372696390626868 0.015455007461733403 0 0.0088173322477220744 0.015611964515772143 0 0.0098518595354129736 0.01559326578718323 0 0.0098779252022306498 0.015653984522197763 0 0.0099611212115047146 0.015671094768249266 0 0.0092725757453361955 0.015339625141865872 0 0.0088838988743814087 0.015488533940267973 0 0.008418081557447896 0.015099318584478612 0 0.0092915759725486664 0.016052995989080096 0 0.0089791897318425417 0.015456485896319604 0 0.0080998270595154988 0.015920609884712503 0 0.0092915759725486664 0.016052995989080096 0 0.0099738484485633917 0.015670270013967397 0 0.0089791897318425417 0.015456485896319604 0 0.0089791897318425417 0.015456485896319604 0 0.0082541316976049803 0.015515827849437232 0 0.0080998270595154988 0.015920609884712503 0 0.0082541316976049803 0.015515827849437232 0 0.0079619811215827941 0.015484042217193532 0 0.0080998270595154988 0.015920609884712503 0 0.0082541316976049803 0.015515827849437232 0 0.00797345134335916 0.015220581953844034 0 0.0079619811215827941 0.015484042217193532 0 0.0089197740547508689 0.015475524695632454 0 0.0080554600486221015 0.01519976458100873 0 0.0089791897318425417 0.015456485896319604 0 0.0082541316976049803 0.015515827849437232 0 0.00797345134335916 0.015220581953844034 0 0.0088838988743814087 0.015488533940267973 0 0.008418081557447896 0.015099318584478612 0 0.00797345134335916 0.015220581953844034 0 0.0082637754631141435 0.015786350191021443 0 0.008396567557270548 0.015872091078550213 0 0.0083787561930579145 0.015700008487532464 0 0.007969911577321645 0.015001248624576191 0 0.008418081557447896 0.015099318584478612 0 0.00797345134335916 0.015220581953844034 0 0.0077353850239541659 0.015717538233549277 0 0.0088173322477220744 0.015611964515772143 0 0.008396567557270548 0.015872091078550213 0 0.0083787561930579145 0.015700008487532464 0 0.0085134614561113344 0.015708764781213549 0 0.0098779252022306498 0.015653984522197763 0 0.0099611212115047146 0.015671094768249266 0 0.0098942655104260948 0.015695950409457766 0 0.0098779252022306498 0.015653984522197763 0 0.0098942655104260948 0.015695950409457766 0 0.0098525115314925683 0.015679470365328584 0 0.0098942655104260948 0.015695950409457766 0 0.0098599842447773707 0.015752388006012159 0 0.0098525115314925683 0.015679470365328584 0 0.0099611212115047146 0.015671094768249266 0 0.0098942655104260948 0.015695950409457766 0 0.0099185814406481318 0.015745212060596224 0 0.0088173322477220744 0.015611964515772143 0 0.0092240369083818174 0.015686449088149191 0 0.0098942655104260948 0.015695950409457766 0 0.0099185814406481318 0.015745212060596224 0 0.0098599842447773707 0.015752388006012159 0 0.0085134614561113344 0.015708764781213549 0 0.0086316062537102455 0.015543965311812848 0 0.0084284846768275645 0.01557577884540761 0 0.0092240369083818174 0.015686449088149191 0 0.0089761396078818449 0.015694461282732698 0 0.0099185814406481318 0.015745212060596224 0 0.0098689969397688215 0.015817904344923389 0 0.0098599842447773707 0.015752388006012159 0 0.0077353850239541659 0.015717538233549277 0 0.0078325572751851841 0.015719488288754194 0 0.0082637754631141435 0.015786350191021443 0 0.0083787561930579145 0.015700008487532464 0 0.0082915453055617486 0.015556376773863189 0 0.0083787561930579145 0.015700008487532464 0 0.0085134614561113344 0.015708764781213549 0 0.0084284846768275645 0.01557577884540761 0 0.0083787561930579145 0.015700008487532464 0 0.0084284846768275645 0.01557577884540761 0 0.0082915453055617486 0.015556376773863189 0 0.0073753464983584748 0.015808314194228568 0 0.0074281251617199489 0.015394680034587636 0 0.0071716665797027877 0.015572128120143554 0 0.0084284846768275645 0.01557577884540761 0 0.0082915453055617486 0.015556376773863189 0 0.0083183576159836757 0.015323100961628188 0 0.0078325572751851841 0.015719488288754194 0 0.0077764024324797516 0.015411592597123245 0 0.0086316062537102455 0.015543965311812848 0 0.0084284846768275645 0.01557577884540761 0 0.0083183576159836757 0.015323100961628188 0 0.0089761396078818449 0.015694461282732698 0 0.0077764024324797516 0.015411592597123245 0 0.0083969156483019707 0.016056627436690125 0 0.007677199769072553 0.015543574400263199 0 0.0082057321119093224 0.015426831007082812 0 0.0082057321119093224 0.015426831007082812 0 0.0077401716774643334 0.014999996948709637 0 0.0084437285669433076 0.014999996936286772 0 0.0077764024324797516 0.015411592597123245 0 0.0077401127285240505 0.015000282645948767 0 0.0076689933590009893 0.015546194675695848 0 0.0077401493327904662 0.014999997266517641 0 0.0072891793281524703 0.015273589802734891 0 0.007677199769072553 0.015543574400263199 0 0.0082057321119093224 0.015426831007082812 0 0.0077401716774643334 0.014999996948709637 0 0.0093505291243695249 0.015309702264970646 0 0.0091480566177871165 0.014999852554340436 0 0.009204165116836591 0.015353176880781501 0 0.0091473526436521343 0.015000035708422904 0 0.0089527822166076826 0.015456794571333393 0 0.0082057321119093224 0.015426831007082812 0 0.0084437285669433076 0.014999996936286772 0 0.0087686790468292086 0.015529988471569058 0 0.0091472972141801081 0.014999997969206017 0 0.0084437285669433076 0.014999996936286772 0 0.0087686790468292086 0.015529988471569058 0 0.0091153305750236637 0.015582741687337198 0 0.009204165116836591 0.015353176880781501 0 0.0092702089623087174 0.015546457701097438 0 0.0089761396078818449 0.015694461282732698 0 0.0089527822166076826 0.015456794571333393 0 0.0083969156483019707 0.016056627436690125 0 0.0082057321119093224 0.015426831007082812 0 0.0087686790468292086 0.015529988471569058 0 0.009204165116836591 0.015353176880781501 0 0.0094376192485398705 0.015541014782440802 0 0.0092702089623087174 0.015546457701097438 0 0.0093505291243695249 0.015309702264970646 0 0.009204165116836591 0.015353176880781501 0 0.0094376192485398705 0.015541014782440802 0 0.0093505291243695249 0.015309702264970646 0 0.0094376192485398705 0.015541014782440802 0 0.0096807739862799676 0.015449678903824132 0 0.0094376192485398705 0.015541014782440802 0 0.0092702089623087174 0.015546457701097438 0 0.0093273576280134708 0.015697260524819661 0 0.0094376192485398705 0.015541014782440802 0 0.009554677227443395 0.015679945745705352 0 0.0093273576280134708 0.015697260524819661 0 0.0094376192485398705 0.015541014782440802 0 0.009554677227443395 0.015679945745705352 0 0.0096546773046094405 0.015665351682260239 0 0.0091153305750236637 0.015582741687337198 0 0.0092702089623087174 0.015546457701097438 0 0.0093273576280134708 0.015697260524819661 0 0.0089761396078818449 0.015694461282732698 0 0.0096201983576877145 0.015768838042012043 0 0.0098689969397688215 0.015817904344923389 0 0.0097972759910794176 0.015776131510443332 0 0.0098599842447773707 0.015752388006012159 0 0.0097972759910794176 0.015776131510443332 0 0.0098599842447773707 0.015752388006012159 0 0.0097844213875018394 0.015694666733132003 0 0.0098365114430710807 0.015630993829731401 0 0.0097844213875018394 0.015694666733132003 0 0.0098525115314925683 0.015679470365328584 0 0.0098599842447773707 0.015752388006012159 0 0.0097844213875018394 0.015694666733132003 0 0.0098525115314925683 0.015679470365328584 0 0.009554677227443395 0.015679945745705352 0 0.0096465979799406718 0.015726887717673169 0 0.0096377327458663491 0.015710770854605524 0 0.009554677227443395 0.015679945745705352 0 0.0093273576280134708 0.015697260524819661 0 0.0096465979799406718 0.015726887717673169 0 0.0097972759910794176 0.015776131510443332 0 0.0097844213875018394 0.015694666733132003 0 0.0096465979799406718 0.015726887717673169 0 0.0096201983576877145 0.015768838042012043 0 0.0095955788338906098 0.015713534116403676 0 0.0097335897621314334 0.015652593513334107 0 0.0097844213875018394 0.015694666733132003 0 0.0096465979799406718 0.015726887717673169 0 0.0096465979799406718 0.015726887717673169 0 0.0096801987386851487 0.015679719344710744 0 0.0096377327458663491 0.015710770854605524 0 0.0097335897621314334 0.015652593513334107 0 0.0096465979799406718 0.015726887717673169 0 0.0096801987386851487 0.015679719344710744 0 0.010104917922623103 0.015352763291117549 0 0.0096621333531009632 0.015918578191676368 0 0.0097515837913563479 0.015515748363388274 0 0.010104917922623103 0.015352763291117549 0 0.0096501428764322623 0.015710407831399865 0 0.0096377327458663491 0.015710770854605524 0 0.0096546773046094405 0.015665351682260239 0 0.0096801987386851487 0.015679719344710744 0 0.0096501428764322623 0.015710407831399865 0 0.0096377327458663491 0.015710770854605524 0 0.0096940781339593732 0.016414799642511059 0 0.0099803421386548668 0.016113701103837783 0 0.0097031870328664616 0.015920908123863754 0 0.009554677227443395 0.015679945745705352 0 0.0096377327458663491 0.015710770854605524 0 0.0096546773046094405 0.015665351682260239 0 0.010104917922623103 0.015352763291117549 0 0.010864745031095607 0.015154718223679071 0 0.0096940781339593732 0.016414799642511059 0 0.0099803421386548668 0.016113701103837783 0 0.010319622512017453 0.016257555268232794 0 0.010697814785197456 0.014198088742045294 0 0.011170661961077128 0.014168640856353278 0 0.011372357724070246 0.01405592119162867 0 0.0099803421386548668 0.016113701103837783 0 0.010319622512017453 0.016257555268232794 0 0.010144615370401162 0.015851156169809231 0 0.010319622512017453 0.016257555268232794 0 0.010144615370401162 0.015851156169809231 0 0.010605941067301141 0.01579510427912581 0 0.0099803421386548668 0.016113701103837783 0 0.010144615370401162 0.015851156169809231 0 0.0097031870328664616 0.015920908123863754 0 0.010144615370401162 0.015851156169809231 0 0.0097031870328664616 0.015920908123863754 0 0.0096807739862799676 0.015449678903824132 0 0.0096621333531009632 0.015918578191676368 0 0.0096848150534219277 0.015432320400082272 0 0.0094376192485398705 0.015541014782440802 0 0.0096546773046094405 0.015665351682260239 0 0.0096807739862799676 0.015449678903824132 0 0.010144615370401162 0.015851156169809231 0 0.0096807739862799676 0.015449678903824132 0 0.01043883274838534 0.015434485215331771 0 0.0096807739862799676 0.015449678903824132 0 0.010010750957658588 0.015000124385891539 0 0.01043883274838534 0.015434485215331771 0 0.0093505291243695249 0.015309702264970646 0 0.0091480566177871165 0.014999852554340436 0 0.010010750957658588 0.015000124385891539 0 0.0093505291243695249 0.015309702264970646 0 0.0096807739862799676 0.015449678903824132 0 0.010010750957658588 0.015000124385891539 0 0.010874655212060179 0.014998847850740817 0 0.011176280709069598 0.015354097553399931 0 0.011686490390506354 0.014744434119863722 0 0.010874694381047273 0.014999952913033647 0 0.011673358096312097 0.014969431332172827 0 0.010010750957658588 0.015000124385891539 0 0.010874655212060179 0.014998847850740817 0 0.01043883274838534 0.015434485215331771 0 0.01043883274838534 0.015434485215331771 0 0.011176280709069598 0.015354097553399931 0 0.010605941067301141 0.01579510427912581 0 0.010874655212060179 0.014998847850740817 0 0.01043883274838534 0.015434485215331771 0 0.011176280709069598 0.015354097553399931 0 0.011176280709069598 0.015354097553399931 0 0.010605941067301141 0.01579510427912581 0 0.011036248511369088 0.016060175936019383 0 0.011176280709069598 0.015354097553399931 0 0.011036248511369088 0.016060175936019383 0 0.011934958544778934 0.015694857759491226 0 0.010144615370401162 0.015851156169809231 0 0.01043883274838534 0.015434485215331771 0 0.010605941067301141 0.01579510427912581 0 0.010319622512017453 0.016257555268232794 0 0.010605941067301141 0.01579510427912581 0 0.011036248511369088 0.016060175936019383 0 0.010864745031095607 0.015154718223679071 0 0.011549501673690885 0.015046758640908297 0 0.011170661961077128 0.014168640856353278 0 0.011372357724070246 0.01405592119162867 0 0.011865066496233008 0.014397857325948308 0 0.011372357724070246 0.01405592119162867 0 0.012091985932929804 0.014020817845707542 0 0.011865066496233008 0.014397857325948308 0 0.012091985932929804 0.014020817845707542 0 0.011865066496233008 0.014397857325948308 0 0.012417754002530621 0.014369391769774392 0 0.011865066496233008 0.014397857325948308 0 0.012302572856401845 0.014657600698244854 0 0.012417754002530621 0.014369391769774392 0 0.011939938852979601 0.014821790795093963 0 0.012131694175343597 0.014935526039187793 0 0.012302572856401845 0.014657600698244854 0 0.011939938852979601 0.014821790795093963 0 0.011865066496233008 0.014397857325948308 0 0.012302572856401845 0.014657600698244854 0 0.011939938852979601 0.014821790795093963 0 0.011608346011004213 0.014724752729542372 0 0.011865066496233008 0.014397857325948308 0 0.011170661961077128 0.014168640856353278 0 0.011608346011004213 0.014724752729542372 0 0.011865066496233008 0.014397857325948308 0 0.01118018164649566 0.014183818025090267 0 0.011419349473231095 0.014681238644909757 0 0.011170661961077128 0.014168640856353278 0 0.011249168623279402 0.014674856966542266 0 0.010946129040156393 0.01451885550410229 0 0.010697814785197456 0.014198088742045294 0 0.011170661961077128 0.014168640856353278 0 0.010946129040156393 0.01451885550410229 0 0.010104917922623103 0.015352763291117549 0 0.010239303372488776 0.015056991576830539 0 0.0097794081876478919 0.015578229824031608 0 0.009642286074016404 0.01568223289682787 0 0.0098328758352690636 0.015504179703295812 0 0.010697814785197456 0.014198088742045294 0 0.010946129040156393 0.01451885550410229 0 0.010613969077631645 0.014732897075098539 0 0.0097272437817520277 0.015635273262538597 0 0.0096801987386851487 0.015679719344710744 0 0.009642286074016404 0.01568223289682787 0 0.0097794081876478919 0.015578229824031608 0 0.0097272437817520277 0.015635273262538597 0 0.009642286074016404 0.01568223289682787 0 0.010946129040156393 0.01451885550410229 0 0.010613969077631645 0.014732897075098539 0 0.010915588601657039 0.014784800844060661 0 0.010613969077631645 0.014732897075098539 0 0.010915588601657039 0.014784800844060661 0 0.010736391395817613 0.015041523265486436 0 0.011249168623279402 0.014674856966542266 0 0.010946129040156393 0.01451885550410229 0 0.010915588601657039 0.014784800844060661 0 0.011249168623279402 0.014674856966542266 0 0.010915588601657039 0.014784800844060661 0 0.010978772278967647 0.015002982965761658 0 0.010978772278967647 0.015002982965761658 0 0.011058241995291705 0.015271143325910126 0 0.011449235837012546 0.015185891723371758 0 0.010915588601657039 0.014784800844060661 0 0.010978772278967647 0.015002982965761658 0 0.010736391395817613 0.015041523265486436 0 0.010978772278967647 0.015002982965761658 0 0.010721210187128497 0.015286689574938941 0 0.011058241995291705 0.015271143325910126 0 0.010978772278967647 0.015002982965761658 0 0.010736391395817613 0.015041523265486436 0 0.010721210187128497 0.015286689574938941 0 0.0098328758352690636 0.015504179703295812 0 0.010234181601142591 0.015491542926769537 0 0.010327279431806811 0.015482826870222509 0 0.0098630012436014894 0.015506182518662325 0 0.0098328758352690636 0.015504179703295812 0 0.010234181601142591 0.015491542926769537 0 0.010613969077631645 0.014732897075098539 0 0.010736391395817613 0.015041523265486436 0 0.010327279431806811 0.015482826870222509 0 0.010239303372488776 0.015056991576830539 0 0.010301822695721401 0.015540789498401708 0 0.010736391395817613 0.015041523265486436 0 0.010327279431806811 0.015482826870222509 0 0.010721210187128497 0.015286689574938941 0 0.011112126153574381 0.01557912929115637 0 0.010234181601142591 0.015491542926769537 0 0.010327279431806811 0.015482826870222509 0 0.011306139176720076 0.015430569874283146 0 0.010440468800287895 0.01597110170329314 0 0.010827716088558675 0.015699092570364066 0 0.011365545354370465 0.015384197176522807 0 0.011306139176720076 0.015430569874283146 0 0.010827716088558675 0.015699092570364066 0 0.011214276745154473 0.015495388470566609 0 0.01053774347512682 0.015595151574756647 0 0.010327279431806811 0.015482826870222509 0 0.010721210187128497 0.015286689574938941 0 0.010862319594113313 0.015417923776977245 0 0.011112126153574381 0.01557912929115637 0 0.010327279431806811 0.015482826870222509 0 0.010862319594113313 0.015417923776977245 0 0.011058241995291705 0.015271143325910126 0 0.011115811104056744 0.015436798477756681 0 0.011249433847188513 0.01536948446876461 0 0.011058241995291705 0.015271143325910126 0 0.010862319594113313 0.015417923776977245 0 0.011115811104056744 0.015436798477756681 0 0.010721210187128497 0.015286689574938941 0 0.011058241995291705 0.015271143325910126 0 0.010862319594113313 0.015417923776977245 0 0.011112126153574381 0.01557912929115637 0 0.010862319594113313 0.015417923776977245 0 0.011115811104056744 0.015436798477756681 0 0.011398805653737619 0.015423889066871905 0 0.011277562566470037 0.015478093832330533 0 0.011249433847188513 0.01536948446876461 0 0.011058241995291705 0.015271143325910126 0 0.011249433847188513 0.01536948446876461 0 0.011449235837012546 0.015185891723371758 0 0.011398805653737619 0.015423889066871905 0 0.011249433847188513 0.01536948446876461 0 0.011449235837012546 0.015185891723371758 0 0.011277562566470037 0.015478093832330533 0 0.011115811104056744 0.015436798477756681 0 0.011249433847188513 0.01536948446876461 0 0.011645397066994342 0.015426284666218619 0 0.011601362872860899 0.015129232720658999 0 0.011767507880256515 0.015044814630597965 0 0.012131694175343597 0.014935526039187793 0 0.012009623059126852 0.015200431051747273 0 0.011622083093044173 0.015432088516038743 0 0.011398805653737619 0.015423889066871905 0 0.011449235837012546 0.015185891723371758 0 0.011622083093044173 0.015432088516038743 0 0.011767507880256515 0.015044814630597965 0 0.012009623059126852 0.015200431051747273 0 0.011939938852979601 0.014821790795093963 0 0.011767507880256515 0.015044814630597965 0 0.012131694175343597 0.014935526039187793 0 0.011419349473231095 0.014681238644909757 0 0.011601362872860899 0.015129232720658999 0 0.011249168623279402 0.014674856966542266 0 0.010978772278967647 0.015002982965761658 0 0.011449235837012546 0.015185891723371758 0 0.011939938852979601 0.014821790795093963 0 0.011608346011004213 0.014724752729542372 0 0.011767507880256515 0.015044814630597965 0 0.01247712993318135 0.014795035842078095 0 0.012453219379772985 0.015053110775699362 0 0.012837516150560042 0.014775794579498734 0 0.012453219379772985 0.015053110775699362 0 0.012839769438860608 0.015029850120008105 0 0.012837516150560042 0.014775794579498734 0 0.01247712993318135 0.014795035842078095 0 0.012131694175343597 0.014935526039187793 0 0.012453219379772985 0.015053110775699362 0 0.012131694175343597 0.014935526039187793 0 0.012009623059126852 0.015200431051747273 0 0.012453219379772985 0.015053110775699362 0 0.012009623059126852 0.015200431051747273 0 0.012295972901708091 0.015265525391909569 0 0.012453219379772985 0.015053110775699362 0 0.011993698331832892 0.015403258370195891 0 0.012009623059126852 0.015200431051747273 0 0.012295972901708091 0.015265525391909569 0 0.012295972901708091 0.015265525391909569 0 0.012453219379772985 0.015053110775699362 0 0.012656687804213787 0.015253560274317429 0 0.012453219379772985 0.015053110775699362 0 0.012656687804213787 0.015253560274317429 0 0.012839769438860608 0.015029850120008105 0 0.012656687804213787 0.015253560274317429 0 0.013042208200487317 0.015250411366879549 0 0.012839769438860608 0.015029850120008105 0 0.013042208200487317 0.015250411366879549 0 0.012839769438860608 0.015029850120008105 0 0.013173826026216926 0.0149178141736256 0 0.013326812492047086 0.015602198715345326 0 0.013426550576629229 0.015138564763967372 0 0.013825388378808602 0.015190174210647138 0 0.013326812492047086 0.015602198715345326 0 0.013042208200487317 0.015250411366879549 0 0.013426550576629229 0.015138564763967372 0 0.013042208200487317 0.015250411366879549 0 0.013426550576629229 0.015138564763967372 0 0.013173826026216926 0.0149178141736256 0 0.013545252259818872 0.014774973895344462 0 0.013260383076970229 0.014608601895538776 0 0.013693296979191021 0.014341164339982459 0 0.013426550576629229 0.015138564763967372 0 0.013545252259818872 0.014774973895344462 0 0.013173826026216926 0.0149178141736256 0 0.013545252259818872 0.014774973895344462 0 0.013173826026216926 0.0149178141736256 0 0.013260383076970229 0.014608601895538776 0 0.013173826026216926 0.0149178141736256 0 0.012837516150560042 0.014775794579498734 0 0.013260383076970229 0.014608601895538776 0 0.012839769438860608 0.015029850120008105 0 0.013173826026216926 0.0149178141736256 0 0.012837516150560042 0.014775794579498734 0 0.013029780045092856 0.014545585451154815 0 0.013260383076970229 0.014608601895538776 0 0.013356253700148266 0.014376223838119888 0 0.012837516150560042 0.014775794579498734 0 0.013029780045092856 0.014545585451154815 0 0.013260383076970229 0.014608601895538776 0 0.013260383076970229 0.014608601895538776 0 0.013356253700148266 0.014376223838119888 0 0.013693296979191021 0.014341164339982459 0 0.013356253700148266 0.014376223838119888 0 0.013297509292181169 0.014354353174062208 0 0.013820910401573213 0.014151125868696827 0 0.013356253700148266 0.014376223838119888 0 0.013820910401573213 0.014151125868696827 0 0.013693296979191021 0.014341164339982459 0 0.013356253700148266 0.014376223838119888 0 0.013038158714373414 0.014408164788390668 0 0.013297509292181169 0.014354353174062208 0 0.013029780045092856 0.014545585451154815 0 0.013038158714373414 0.014408164788390668 0 0.01270483808939293 0.014551946629638027 0 0.013029780045092856 0.014545585451154815 0 0.013356253700148266 0.014376223838119888 0 0.013038158714373414 0.014408164788390668 0 0.013038158714373414 0.014408164788390668 0 0.01270483808939293 0.014551946629638027 0 0.012782164117755094 0.014374082241726861 0 0.01270483808939293 0.014551946629638027 0 0.012417754002530621 0.014369391769774392 0 0.012782164117755094 0.014374082241726861 0 0.012837516150560042 0.014775794579498734 0 0.013029780045092856 0.014545585451154815 0 0.01270483808939293 0.014551946629638027 0 0.01247712993318135 0.014795035842078095 0 0.012837516150560042 0.014775794579498734 0 0.01270483808939293 0.014551946629638027 0 0.01247712993318135 0.014795035842078095 0 0.01270483808939293 0.014551946629638027 0 0.012302572856401845 0.014657600698244854 0 0.01247712993318135 0.014795035842078095 0 0.012131694175343597 0.014935526039187793 0 0.012302572856401845 0.014657600698244854 0 0.01270483808939293 0.014551946629638027 0 0.012302572856401845 0.014657600698244854 0 0.012417754002530621 0.014369391769774392 0 0.012091985932929804 0.014020817845707542 0 0.012417754002530621 0.014369391769774392 0 0.012735225051457003 0.01415962730523917 0 0.012417754002530621 0.014369391769774392 0 0.012782164117755094 0.014374082241726861 0 0.012735225051457003 0.01415962730523917 0 0.010874367187869478 0.015000316884803614 0 0.011600626912911836 0.015177637505091475 0 0.013179342706847633 0.014998481307788306 0 0.012782164117755094 0.014374082241726861 0 0.012735225051457003 0.01415962730523917 0 0.013025450222474463 0.014394391075946878 0 0.013038158714373414 0.014408164788390668 0 0.012782164117755094 0.014374082241726861 0 0.013025450222474463 0.014394391075946878 0 0.012735225051457003 0.01415962730523917 0 0.012993618667838309 0.014770515587068749 0 0.013025450222474463 0.014394391075946878 0 0.011934958544778934 0.015694857759491226 0 0.01202526817301912 0.015041566402984643 0 0.012993618667838309 0.014770515587068749 0 0.012297310699321651 0.01493012425456468 0 0.012878026552982482 0.014798697506926846 0 0.011549501673690885 0.015046758640908297 0 0.012297310699321651 0.01493012425456468 0 0.011176280709069598 0.015354097553399931 0 0.011934958544778934 0.015694857759491226 0 0.01202526817301912 0.015041566402984643 0 0.011176280709069598 0.015354097553399931 0 0.01202526817301912 0.015041566402984643 0 0.011686490390506354 0.014744434119863722 0 0.01202526817301912 0.015041566402984643 0 0.012696461164481436 0.014646663820726713 0 0.012993618667838309 0.014770515587068749 0 0.01202526817301912 0.015041566402984643 0 0.012696461164481436 0.014646663820726713 0 0.011686490390506354 0.014744434119863722 0 0.012526359113439498 0.014917759635668854 0 0.011673358096312097 0.014969431332172827 0 0.012379544691969677 0.015213125453338331 0 0.013182115718744567 0.01479637130198053 0 0.013179342706847633 0.014998481307788306 0 0.012379544691969677 0.015213125453338331 0 0.011600626912911836 0.015177637505091475 0 0.013179342706847633 0.014998481307788306 0 0.012696461164481436 0.014646663820726713 0 0.013182115718744567 0.01479637130198053 0 0.012993618667838309 0.014770515587068749 0 0.012526359113439498 0.014917759635668854 0 0.013081097564290035 0.014840867584430076 0 0.013182115718744567 0.01479637130198053 0 0.013194386876711576 0.014520574073337017 0 0.013541604678917954 0.014416890234464191 0 0.013182115718744567 0.01479637130198053 0 0.013541604678917954 0.014416890234464191 0 0.01365866133054857 0.014612074429660851 0 0.013182115718744567 0.01479637130198053 0 0.013194386876711576 0.014520574073337017 0 0.012993618667838309 0.014770515587068749 0 0.013194386876711576 0.014520574073337017 0 0.012993618667838309 0.014770515587068749 0 0.013025450222474463 0.014394391075946878 0 0.013038158714373414 0.014408164788390668 0 0.013025450222474463 0.014394391075946878 0 0.013297509292181169 0.014354353174062208 0 0.013194386876711576 0.014520574073337017 0 0.013025450222474463 0.014394391075946878 0 0.013297509292181169 0.014354353174062208 0 0.013541604678917954 0.014416890234464191 0 0.013297509292181169 0.014354353174062208 0 0.013820910401573213 0.014151125868696827 0 0.013194386876711576 0.014520574073337017 0 0.013541604678917954 0.014416890234464191 0 0.013297509292181169 0.014354353174062208 0 0.013541604678917954 0.014416890234464191 0 0.014002444525163568 0.014259153943466728 0 0.013820910401573213 0.014151125868696827 0 0.014002444525163568 0.014259153943466728 0 0.014313798009305425 0.014485648962369466 0 0.014558369421317923 0.013729169804882011 0 0.014002444525163568 0.014259153943466728 0 0.014558369421317923 0.013729169804882011 0 0.013820910401573213 0.014151125868696827 0 0.014002444525163568 0.014259153943466728 0 0.01365866133054857 0.014612074429660851 0 0.014313798009305425 0.014485648962369466 0 0.013541604678917954 0.014416890234464191 0 0.014002444525163568 0.014259153943466728 0 0.01365866133054857 0.014612074429660851 0 0.01365866133054857 0.014612074429660851 0 0.014313798009305425 0.014485648962369466 0 0.013179342706847633 0.014998481307788306 0 0.013182115718744567 0.01479637130198053 0 0.01365866133054857 0.014612074429660851 0 0.013179342706847633 0.014998481307788306 0 0.014313798009305425 0.014485648962369466 0 0.014998899896793384 0.01499900276974829 0 0.01499908333568519 0.013184061868667336 0 0.014313798009305425 0.014485648962369466 0 0.013179342706847633 0.014998481307788306 0 0.014998899896793384 0.01499900276974829 0 0.014313798009305425 0.014485648962369466 0 0.014558369421317923 0.013729169804882011 0 0.01499908333568519 0.013184061868667336 0 0.01499908333568519 0.013184061868667336 0 0.015117330648491559 0.013155641906642406 0 0.01499955728224526 0.011854311996641867 0 0.015120845589314589 0.013228976602446372 0 0.015220822630030701 0.013339478728734746 0 0.014558369421317923 0.013729169804882011 0 0.01499908333568519 0.013184061868667336 0 0.015117330648491559 0.013155641906642406 0 0.014558369421317923 0.013729169804882011 0 0.015117330648491559 0.013155641906642406 0 0.014255298527453913 0.013945297488091354 0 0.014558369421317923 0.013729169804882011 0 0.013820910401573213 0.014151125868696827 0 0.014255298527453913 0.013945297488091354 0 0.013820910401573213 0.014151125868696827 0 0.013693296979191021 0.014341164339982459 0 0.014255298527453913 0.013945297488091354 0 0.013693296979191021 0.014341164339982459 0 0.014255298527453913 0.013945297488091354 0 0.01392830913913197 0.014580313094098173 0 0.015117330648491559 0.013155641906642406 0 0.014255298527453913 0.013945297488091354 0 0.01442881752695563 0.014607638707302818 0 0.014255298527453913 0.013945297488091354 0 0.01442881752695563 0.014607638707302818 0 0.01392830913913197 0.014580313094098173 0 0.01442881752695563 0.014607638707302818 0 0.01392830913913197 0.014580313094098173 0 0.013825388378808602 0.015190174210647138 0 0.013545252259818872 0.014774973895344462 0 0.013693296979191021 0.014341164339982459 0 0.01392830913913197 0.014580313094098173 0 0.013545252259818872 0.014774973895344462 0 0.01392830913913197 0.014580313094098173 0 0.013825388378808602 0.015190174210647138 0 0.013426550576629229 0.015138564763967372 0 0.013545252259818872 0.014774973895344462 0 0.013825388378808602 0.015190174210647138 0 0.016437899737944097 0.011106845656219458 0 0.016478877912227363 0.01147773263430503 0 0.016234444594207444 0.011317771320198386 0 0.015220822630030701 0.013339478728734746 0 0.015105498130223445 0.013368239810120225 0 0.016080974566975458 0.012111496551620783 0 0.016478877912227363 0.01147773263430503 0 0.016234444594207444 0.011317771320198386 0 0.015575033051503109 0.011143788160447034 0 0.016234444594207444 0.011317771320198386 0 0.015821958544089756 0.011614563568730772 0 0.016080974566975458 0.012111496551620783 0 0.016234444594207444 0.011317771320198386 0 0.015821958544089756 0.011614563568730772 0 0.015000133360486769 0.01088279969560074 0 0.015575033051503109 0.011143788160447034 0 0.01499955728224526 0.011854311996641867 0 0.015575033051503109 0.011143788160447034 0 0.015821958544089756 0.011614563568730772 0 0.015441120049659092 0.01194900603901114 0 0.015575033051503109 0.011143788160447034 0 0.01499955728224526 0.011854311996641867 0 0.015441120049659092 0.01194900603901114 0 0.015117330648491559 0.013155641906642406 0 0.01499955728224526 0.011854311996641867 0 0.015441120049659092 0.01194900603901114 0 0.015117330648491559 0.013155641906642406 0 0.016080974566975458 0.012111496551620783 0 0.015441120049659092 0.01194900603901114 0 0.016080974566975458 0.012111496551620783 0 0.015821958544089756 0.011614563568730772 0 0.015441120049659092 0.01194900603901114 0 -0.0011859677295115263 0.012020197573313242 0 -0.0014629924654935551 0.012111646616414787 0 -0.001292343680383469 0.012099716551952518 0 -0.0011859677295115263 0.012020197573313242 0 -0.001292343680383469 0.012099716551952518 0 -0.0011458114049958132 0.012096377099607286 0 -1.5898188731415529e-05 0.01272878620800973 0 0.0012337177348244294 0.012886893254857347 0 0.0026680027617712429 0.012733604053633009 0 0.0026420616302302172 0.012784663627591196 0 0.0025994834141908145 0.012774991864843623 0 -1.5898188731415529e-05 0.01272878620800973 0 0.0022613745322906018 0.012914579389983629 0 0.0009815764429282536 0.012923862097373314 0 0.0016122306166690343 0.012941910325929619 0 0.0011419311813612885 0.013231567334090965 0 0.0022613745322906018 0.012914579389983629 0 0.0012337177348244294 0.012886893254857347 0 0.0017620884738437966 0.01354967066810535 0 0.0019190155377627094 0.013586003056785574 0 0.001891135181966063 0.013450836139388526 0 0.0019190155377627094 0.013586003056785574 0 0.001891135181966063 0.013450836139388526 0 0.0020581647371106858 0.013358805668804511 0 0.0017620884738437966 0.01354967066810535 0 0.001891135181966063 0.013450836139388526 0 0.0018530013946294417 0.013301104430174437 0 0.001891135181966063 0.013450836139388526 0 0.0020581647371106858 0.013358805668804511 0 0.0018530013946294417 0.013301104430174437 0 -0.0011859677295115263 0.012020197573313242 0 -0.0014629924654935551 0.012111646616414787 0 -0.0016752024862808838 0.012037549068243369 0 -0.0020942202503986046 0.012354770428059674 0 -0.0021408178433609481 0.012335453920069678 0 -0.002163864644561701 0.012344313292061624 0 -1.5898188731415529e-05 0.01272878620800973 0 -0.0022680433044640971 0.012129031557044933 0 -0.0020942202503986046 0.012354770428059674 0 -0.0021408178433609481 0.012335453920069678 0 -0.0021590834165073022 0.012323301042736478 0 -0.0021408178433609481 0.012335453920069678 0 -0.002163864644561701 0.012344313292061624 0 -0.0021652711633664565 0.012326394320404131 0 0.0023682461386220319 0.012893163747870175 0 0.0025880175113276184 0.012882411735176685 0 0.0025619276147961726 0.01295049122861127 0 -0.00035856202745640297 0.012005911352279732 0 0.0012337177348244294 0.012886893254857347 0 -0.0014629924654935551 0.012111646616414787 0 -0.0013819386525325906 0.012162831689834678 0 -0.001292343680383469 0.012099716551952518 0 -0.0013819386525325906 0.012162831689834678 0 -0.0015534061836256778 0.012323913274896313 0 -0.0011458114049958132 0.012096377099607286 0 -0.0014629924654935551 0.012111646616414787 0 -0.0013819386525325906 0.012162831689834678 0 -0.0015004271887443983 0.012212326327716854 0 -0.0014629924654935551 0.012111646616414787 0 -0.0016043188424829911 0.012160733296791576 0 -0.0016752024862808838 0.012037549068243369 0 -0.0014629924654935551 0.012111646616414787 0 -0.0015004271887443983 0.012212326327716854 0 -0.0016043188424829911 0.012160733296791576 0 -0.0015004271887443983 0.012212326327716854 0 -0.0016043188424829911 0.012160733296791576 0 -0.0015664363658202188 0.01223699267896452 0 -0.0016043188424829911 0.012160733296791576 0 -0.0015664363658202188 0.01223699267896452 0 -0.0016243844551224872 0.012242107977506314 0 -0.0013819386525325906 0.012162831689834678 0 -0.0015004271887443983 0.012212326327716854 0 -0.0015534061836256778 0.012323913274896313 0 -0.0015664363658202188 0.01223699267896452 0 -0.0016243844551224872 0.012242107977506314 0 -0.0015534061836256778 0.012323913274896313 0 -0.00078515570531505782 0.011875734083815448 0 -0.00035856202745640297 0.012005911352279732 0 -0.0015004271887443983 0.012212326327716854 0 -0.0015664363658202188 0.01223699267896452 0 -0.0015534061836256778 0.012323913274896313 0 0.0023682461386220319 0.012893163747870175 0 0.0025880175113276184 0.012882411735176685 0 0.0025997754405022093 0.012772372281198591 0 -0.0013819386525325906 0.012162831689834678 0 -0.001292343680383469 0.012099716551952518 0 -0.0011458114049958132 0.012096377099607286 0 0.0025880175113276184 0.012882411735176685 0 0.0025997754405022093 0.012772372281198591 0 0.0026237349441610804 0.0128136933478093 0 0.0026790077241081096 0.012813188830214683 0 0.0026420616302302172 0.012784663627591196 0 0.0026237349441610804 0.0128136933478093 0 0.0026680027617712429 0.012733604053633009 0 0.0026790077241081096 0.012813188830214683 0 0.0026420616302302172 0.012784663627591196 0 0.0012337177348244294 0.012886893254857347 0 0.0015265802226598656 0.013030080291998035 0 0.0026420616302302172 0.012784663627591196 0 0.0025994834141908145 0.012774991864843623 0 0.0026237349441610804 0.0128136933478093 0 0.0026790077241081096 0.012813188830214683 0 0.0026237349441610804 0.0128136933478093 0 0.0026811478853222439 0.012882113489839484 0 0.0025880175113276184 0.012882411735176685 0 0.0026237349441610804 0.0128136933478093 0 0.0026811478853222439 0.012882113489839484 0 0.0025880175113276184 0.012882411735176685 0 0.0026811478853222439 0.012882113489839484 0 0.0026796583859783562 0.012970019403978485 0 0.0026811478853222439 0.012882113489839484 0 0.0027614634679880607 0.012904618159782926 0 0.002781699646609348 0.012846375174895871 0 0.0026680027617712429 0.012733604053633009 0 0.002781699646609348 0.012846375174895871 0 0.0030212794642598484 0.012876116305830644 0 0.0026811478853222439 0.012882113489839484 0 0.0027614634679880607 0.012904618159782926 0 0.0026796583859783562 0.012970019403978485 0 0.0027614634679880607 0.012904618159782926 0 0.0028682306818697046 0.012894928308355008 0 0.0028509465447189774 0.012984355333105936 0 0.0027614634679880607 0.012904618159782926 0 0.002781699646609348 0.012846375174895871 0 0.0028682306818697046 0.012894928308355008 0 0.0026680027617712429 0.012733604053633009 0 0.0026790077241081096 0.012813188830214683 0 0.002781699646609348 0.012846375174895871 0 0.0026790077241081096 0.012813188830214683 0 0.0026811478853222439 0.012882113489839484 0 0.002781699646609348 0.012846375174895871 0 0.002781699646609348 0.012846375174895871 0 0.0028682306818697046 0.012894928308355008 0 0.0030212794642598484 0.012876116305830644 0 0.0029462805703231159 0.012908252684788719 0 0.0030212794642598484 0.012876116305830644 0 0.0030349696928207979 0.012911501292193399 0 0.0029462805703231159 0.012908252684788719 0 0.0028682306818697046 0.012894928308355008 0 0.0028509465447189774 0.012984355333105936 0 0.0029462805703231159 0.012908252684788719 0 0.0028682306818697046 0.012894928308355008 0 0.0030212794642598484 0.012876116305830644 0 0.0030212794642598484 0.012876116305830644 0 0.0030097793740401979 0.01287204866679568 0 0.0030987038676736026 0.012915831923508524 0 0.0029701681702409078 0.012887356496288001 0 0.0030212794642598484 0.012876116305830644 0 0.0030097793740401979 0.01287204866679568 0 0.0022613745322906018 0.012914579389983629 0 0.0032484756601361977 0.012839999082375037 0 0.0022613745322906018 0.012914579389983629 0 0.0027719618960227285 0.013109760994993084 0 0.0019190155377627094 0.013586003056785574 0 0.0020581647371106858 0.013358805668804511 0 0.0024870947779003856 0.013282497884226687 0 0.0020581647371106858 0.013358805668804511 0 0.0021599697608192087 0.01318283873594037 0 0.0018530013946294417 0.013301104430174437 0 0.0020581647371106858 0.013358805668804511 0 0.0021599697608192087 0.01318283873594037 0 0.0024870947779003856 0.013282497884226687 0 0.0021599697608192087 0.01318283873594037 0 0.0024870947779003856 0.013282497884226687 0 0.0021376826222043975 0.012851982523617082 0 0.0021599697608192087 0.01318283873594037 0 0.0021376826222043975 0.012851982523617082 0 0.0018530013946294417 0.013301104430174437 0 0.0024870947779003856 0.013282497884226687 0 0.0027268853874208745 0.012626031479017743 0 0.0030794871872767281 0.012848016526591306 0 0.0024870947779003856 0.013282497884226687 0 0.0027268853874208745 0.012626031479017743 0 0.0021376826222043975 0.012851982523617082 0 0.002231417946668094 0.012844948972346212 0 0.001949740538420266 0.013004990442578896 0 0.0018517774178293668 0.013151356134468425 0 0.0017271239575601875 0.013148638370135942 0 0.0017227216983673156 0.013069843055145788 0 0.0017271239575601875 0.013148638370135942 0 0.0016734666775289823 0.013108242548226387 0 0.0017227216983673156 0.013069843055145788 0 0.0017271239575601875 0.013148638370135942 0 0.0016734666775289823 0.013108242548226387 0 0.0016631780959387565 0.013122268386009732 0 0.0016734666775289823 0.013108242548226387 0 0.0016084245519670075 0.013085302013899319 0 0.0016398540569145636 0.01306835627702174 0 0.0016734666775289823 0.013108242548226387 0 0.0016631780959387565 0.013122268386009732 0 0.0016084245519670075 0.013085302013899319 0 0.0017620884738437966 0.01354967066810535 0 0.0016631780959387565 0.013122268386009732 0 0.0018530013946294417 0.013301104430174437 0 0.0017620884738437966 0.01354967066810535 0 0.0016631780959387565 0.013122268386009732 0 0.0015668604713362086 0.013104326684136317 0 0.001949740538420266 0.013004990442578896 0 0.0016852298110698446 0.013105250154203675 0 0.0021376826222043975 0.012851982523617082 0 0.0016631780959387565 0.013122268386009732 0 0.0018530013946294417 0.013301104430174437 0 -0.0021408178433609481 0.012335453920069678 0 -0.0021612529162362178 0.012324438115918421 0 -0.0021590834165073022 0.012323301042736478 0 -1.5898188731415529e-05 0.01272878620800973 0 -0.00030802751400732954 0.012768190611352346 0 -0.0021408178433609481 0.012335453920069678 0 -0.0021612529162362178 0.012324438115918421 0 -0.0021652711633664565 0.012326394320404131 0 -0.0021612529162362178 0.012324438115918421 0 -0.0021590834165073022 0.012323301042736478 0 -0.0021676064265117915 0.012336019169828826 0 0.0015668604713362086 0.013104326684136317 0 0.0016084245519670075 0.013085302013899319 0 0.001538074988306179 0.013056998461128235 0 -0.0021590834165073022 0.012323301042736478 0 -0.0021676064265117915 0.012336019169828826 0 -0.0021762173090048888 0.012393657013196521 0 -0.00030802751400732954 0.012768190611352346 0 -0.00032441071223391883 0.012700868611838294 0 0.0016631780959387565 0.013122268386009732 0 0.0015668604713362086 0.013104326684136317 0 0.0016084245519670075 0.013085302013899319 0 -0.0021684982435628058 0.012346836961524424 0 -0.0021676064265117915 0.012336019169828826 0 -0.0021762173090048888 0.012393657013196521 0 -0.0021684982435628058 0.012346836961524424 0 -0.0021289520176326487 0.012366212735622474 0 -0.0021450767382403049 0.012416075361147865 0 -0.0021684982435628058 0.012346836961524424 0 -0.0021877799065315316 0.012298711018476511 0 -0.0021289520176326487 0.012366212735622474 0 -0.002187785853510176 0.012304694624550675 0 -0.0021892086817196428 0.012336284061920911 0 -0.0021877799065315316 0.012298711018476511 0 -0.0021728139008383661 0.012319005718057979 0 -0.002179650555683177 0.012315563924347895 0 -0.0021684982435628058 0.012346836961524424 0 -0.0021676064265117915 0.012336019169828826 0 -0.0021728139008383661 0.012319005718057979 0 -0.0021684982435628058 0.012346836961524424 0 -0.0021877799065315316 0.012298711018476511 0 -0.0021728139008383661 0.012319005718057979 0 -0.0021728139008383661 0.012319005718057979 0 -0.0021652711633664565 0.012326394320404131 0 -0.002179650555683177 0.012315563924347895 0 -0.0021612529162362178 0.012324438115918421 0 -0.0021728139008383661 0.012319005718057979 0 -0.0021652711633664565 0.012326394320404131 0 -0.0021612529162362178 0.012324438115918421 0 -0.0021676064265117915 0.012336019169828826 0 -0.0021728139008383661 0.012319005718057979 0 -0.0022343461550474925 0.01229851225479562 0 -0.0022147646384019096 0.012330120728142878 0 -0.0022170110874608247 0.012247859046222932 0 -0.0022343461550474925 0.01229851225479562 0 -0.0022498518939632222 0.012298798091753931 0 -0.0022232875698344804 0.012271368952256126 0 -0.0021877799065315316 0.012298711018476511 0 -0.0022498518939632222 0.012298798091753931 0 -0.0022232875698344804 0.012271368952256126 0 -0.0022343461550474925 0.01229851225479562 0 -0.0022232875698344804 0.012271368952256126 0 -0.0022170110874608247 0.012247859046222932 0 -0.0022232875698344804 0.012271368952256126 0 -0.0022026326054790006 0.012206981362965582 0 -0.0022170110874608247 0.012247859046222932 0 -0.0022232875698344804 0.012271368952256126 0 -0.0022026326054790006 0.012206981362965582 0 -0.002207624207897134 0.012297880510910552 0 -0.0022192792878062513 0.012202824938666382 0 -0.0020120848024166946 0.012205560124753318 0 -0.0022026326054790006 0.012206981362965582 0 -0.0021006934871683077 0.012217484135755531 0 -0.0019955632386527765 0.012096379494438293 0 -0.0021006934871683077 0.012217484135755531 0 -0.0019955632386527765 0.012096379494438293 0 -0.0020071418966930558 0.01221901266545089 0 -0.0021006934871683077 0.012217484135755531 0 -0.0020071418966930558 0.01221901266545089 0 -0.0020548896783051814 0.012281753035140418 0 -0.0021006934871683077 0.012217484135755531 0 -0.0021553168034568323 0.012265383840630884 0 -0.0020548896783051814 0.012281753035140418 0 -0.0022026326054790006 0.012206981362965582 0 -0.0021006934871683077 0.012217484135755531 0 -0.0021553168034568323 0.012265383840630884 0 -0.0022026326054790006 0.012206981362965582 0 -0.0021553168034568323 0.012265383840630884 0 -0.0022111547885331952 0.012227186676083501 0 -0.002163864644561701 0.012344313292061624 0 -0.002179650555683177 0.012315563924347895 0 -0.002207624207897134 0.012297880510910552 0 -0.0022680433044640971 0.012129031557044933 0 -0.0020120848024166946 0.012205560124753318 0 -0.0016752024862808838 0.012037549068243369 0 -0.0019955632386527765 0.012096379494438293 0 -0.0017637714569116855 0.012185957770233636 0 -0.002163864644561701 0.012344313292061624 0 -0.0021652711633664565 0.012326394320404131 0 -0.002179650555683177 0.012315563924347895 0 -0.0021877799065315316 0.012298711018476511 0 -0.002179650555683177 0.012315563924347895 0 -0.002207624207897134 0.012297880510910552 0 -0.0021877799065315316 0.012298711018476511 0 -0.0022232875698344804 0.012271368952256126 0 -0.002207624207897134 0.012297880510910552 0 -0.0019955632386527765 0.012096379494438293 0 -0.0018835508950564928 0.012223667168230241 0 -0.0017637714569116855 0.012185957770233636 0 -0.0019955632386527765 0.012096379494438293 0 -0.0020071418966930558 0.01221901266545089 0 -0.0018835508950564928 0.012223667168230241 0 -0.0020071418966930558 0.01221901266545089 0 -0.0019639162294383138 0.012290961293769697 0 -0.0020548896783051814 0.012281753035140418 0 -0.0020071418966930558 0.01221901266545089 0 -0.0018835508950564928 0.012223667168230241 0 -0.0019639162294383138 0.012290961293769697 0 -0.0018835508950564928 0.012223667168230241 0 -0.0017637714569116855 0.012185957770233636 0 -0.0018591712751864209 0.012387978282906116 0 -0.0016243844551224872 0.012242107977506314 0 -0.0017637714569116855 0.012185957770233636 0 -0.0018591712751864209 0.012387978282906116 0 -0.0016043188424829911 0.012160733296791576 0 -0.0016752024862808838 0.012037549068243369 0 -0.0017637714569116855 0.012185957770233636 0 -0.0016043188424829911 0.012160733296791576 0 -0.0016243844551224872 0.012242107977506314 0 -0.0017637714569116855 0.012185957770233636 0 -0.00057044750728763038 0.010130927623828823 0 -0.0016941257612155937 0.010936498100750041 0 -0.00072460564738136826 0.011247525373999787 0 -0.00035856202745640297 0.012005911352279732 0 -0.0018476088959697439 0.011619508805099115 0 -0.0016243844551224872 0.012242107977506314 0 -0.0015822794461286386 0.0122830849034895 0 -0.0018591712751864209 0.012387978282906116 0 -0.0018835508950564928 0.012223667168230241 0 -0.0019639162294383138 0.012290961293769697 0 -0.0018591712751864209 0.012387978282906116 0 -0.0020039824443937849 0.012352462164474632 0 -0.0018591712751864209 0.012387978282906116 0 -0.0020531033972285627 0.012444735581982492 0 -0.0019639162294383138 0.012290961293769697 0 -0.0020039824443937849 0.012352462164474632 0 -0.0020548896783051814 0.012281753035140418 0 -0.0019639162294383138 0.012290961293769697 0 -0.0020039824443937849 0.012352462164474632 0 -0.0018591712751864209 0.012387978282906116 0 -0.0016941257612155937 0.010936498100750041 0 -0.0018398370570661799 0.011421995677723966 0 -0.0015260050967213739 0.011605090259720235 0 -0.0018476088959697439 0.011619508805099115 0 -0.0021207878331911114 0.011784391527882796 0 -0.0016941257612155937 0.010936498100750041 0 -0.0018398370570661799 0.011421995677723966 0 -0.0022618750622290457 0.011491632807065631 0 -0.0018398370570661799 0.011421995677723966 0 -0.0019964173366146696 0.01157387597324093 0 -0.0022618750622290457 0.011491632807065631 0 -0.0019964173366146696 0.01157387597324093 0 -0.0017597520537605132 0.011648665170669242 0 -0.0019573227277758071 0.011689541735261618 0 -0.0019964173366146696 0.01157387597324093 0 -0.0020923286563570213 0.011669733464155308 0 -0.0019573227277758071 0.011689541735261618 0 -0.0018398370570661799 0.011421995677723966 0 -0.0019964173366146696 0.01157387597324093 0 -0.0017597520537605132 0.011648665170669242 0 -0.0018398370570661799 0.011421995677723966 0 -0.0017597520537605132 0.011648665170669242 0 -0.0015260050967213739 0.011605090259720235 0 -0.0016941257612155937 0.010936498100750041 0 -0.0015260050967213739 0.011605090259720235 0 -0.00072460564738136826 0.011247525373999787 0 -0.0015033127757252687 0.011647454131404427 0 -0.00074053688361686747 0.01217103930233321 0 -0.0017597520537605132 0.011648665170669242 0 -0.0015260050967213739 0.011605090259720235 0 -0.0015836207680143834 0.011758889124157401 0 -0.0021923798161934249 0.012326592255908131 0 -0.0021553168034568323 0.012265383840630884 0 -0.0022111547885331952 0.012227186676083501 0 -0.0021923798161934249 0.012326592255908131 0 -0.0021553168034568323 0.012265383840630884 0 -0.0020959727822193225 0.012334085197028673 0 -0.0021923798161934249 0.012326592255908131 0 -0.0020959727822193225 0.012334085197028673 0 -0.0020531033972285627 0.012444735581982492 0 -0.0021553168034568323 0.012265383840630884 0 -0.0020959727822193225 0.012334085197028673 0 -0.0020548896783051814 0.012281753035140418 0 -0.0020039824443937849 0.012352462164474632 0 -0.0020959727822193225 0.012334085197028673 0 -0.0020548896783051814 0.012281753035140418 0 -0.0020039824443937849 0.012352462164474632 0 -0.0020959727822193225 0.012334085197028673 0 -0.0020531033972285627 0.012444735581982492 0 -0.0023542907579485158 0.01174677361024469 0 -0.0022152624936407723 0.011650224387411508 0 -0.0022353727641509953 0.01166596283591283 0 -0.0022474021483063597 0.012071298485004506 0 -0.0021207878331911114 0.011784391527882796 0 -0.0021098370568398261 0.011665680387438511 0 -0.0021207878331911114 0.011784391527882796 0 -0.0019964173366146696 0.01157387597324093 0 -0.002108187882743277 0.011552544522711733 0 -0.0020923286563570213 0.011669733464155308 0 -0.002108187882743277 0.011552544522711733 0 -0.0020923286563570213 0.011669733464155308 0 -0.0022353727641509953 0.01166596283591283 0 -0.0021207878331911114 0.011784391527882796 0 -0.0021568531354607258 0.01172345102509092 0 -0.0020923286563570213 0.011669733464155308 0 -0.0022353727641509953 0.01166596283591283 0 -0.0021998814864837291 0.011733681899500385 0 -0.0022353727641509953 0.01166596283591283 0 -0.0023224643729400523 0.011725150902415887 0 -0.0021998814864837291 0.011733681899500385 0 -0.0023542907579485158 0.01174677361024469 0 -0.0022353727641509953 0.01166596283591283 0 -0.0023224643729400523 0.011725150902415887 0 -0.0023542907579485158 0.01174677361024469 0 -0.0023224643729400523 0.011725150902415887 0 -0.0023655241334978932 0.011758967185270988 0 -0.0023224643729400523 0.011725150902415887 0 -0.0023655241334978932 0.011758967185270988 0 -0.0023856488627641429 0.011761395335507161 0 -0.0023224643729400523 0.011725150902415887 0 -0.0023696609489178263 0.011782347145853312 0 -0.0023856488627641429 0.011761395335507161 0 -0.0023224643729400523 0.011725150902415887 0 -0.0023696609489178263 0.011782347145853312 0 -0.0021998814864837291 0.011733681899500385 0 -0.0021469821447126351 0.011827436614182564 0 -0.0021998814864837291 0.011733681899500385 0 -0.0020300012781012257 0.011769426618648748 0 -0.0023696609489178263 0.011782347145853312 0 -0.0021469821447126351 0.011827436614182564 0 -0.0021998814864837291 0.011733681899500385 0 -0.0020923286563570213 0.011669733464155308 0 -0.0020300012781012257 0.011769426618648748 0 -0.0019573227277758071 0.011689541735261618 0 -0.0020923286563570213 0.011669733464155308 0 -0.0021998814864837291 0.011733681899500385 0 -0.0020300012781012257 0.011769426618648748 0 -0.0020300012781012257 0.011769426618648748 0 -0.0020180562944267927 0.011860052787854566 0 -0.001893990080650164 0.011834477716319399 0 -0.0021469821447126351 0.011827436614182564 0 -0.0020300012781012257 0.011769426618648748 0 -0.0020180562944267927 0.011860052787854566 0 -0.0023696609489178263 0.011782347145853312 0 -0.002171446690585859 0.012151041058413083 0 -0.002085262445853428 0.011967832558275228 0 -0.0020180562944267927 0.011860052787854566 0 -0.002085262445853428 0.011967832558275228 0 -0.0019127692763385488 0.011926444207916 0 -0.0019276161330337468 0.01201754282060442 0 -0.002085262445853428 0.011967832558275228 0 -0.0019127692763385488 0.011926444207916 0 -0.0019276161330337468 0.01201754282060442 0 -0.0020674619342572914 0.012026277186463907 0 -0.002085262445853428 0.011967832558275228 0 -0.0023901496170184171 0.011820001200456952 0 -0.002245496129844776 0.011931726141019481 0 -0.0023696609489178263 0.011782347145853312 0 -0.0021469821447126351 0.011827436614182564 0 -0.002085262445853428 0.011967832558275228 0 -0.0021469821447126351 0.011827436614182564 0 -0.0020180562944267927 0.011860052787854566 0 -0.002085262445853428 0.011967832558275228 0 -0.0023668998732426995 0.011812588601734562 0 -0.0023901496170184171 0.011820001200456952 0 -0.0023696609489178263 0.011782347145853312 0 -0.0025355208294719762 0.011651243441239629 0 -0.0024202502826005195 0.011702503420602471 0 -0.0024668718300558537 0.011595324811939338 0 -0.0025355208294719762 0.011651243441239629 0 -0.0024202502826005195 0.011702503420602471 0 -0.0023696609489178263 0.011782347145853312 0 -0.0024202502826005195 0.011702503420602471 0 -0.0023856488627641429 0.011761395335507161 0 -0.0015836207680143834 0.011758889124157401 0 -0.0015589201475801361 0.011891455740681182 0 -0.0014170735198292892 0.011745583140222312 0 -0.0015260050967213739 0.011605090259720235 0 -0.0015836207680143834 0.011758889124157401 0 -0.0014170735198292892 0.011745583140222312 0 -0.0015836207680143834 0.011758889124157401 0 -0.0017495660832158016 0.011872340749746689 0 -0.0015589201475801361 0.011891455740681182 0 -0.0017597520537605132 0.011648665170669242 0 -0.001827513084896516 0.011761086069728477 0 -0.0019573227277758071 0.011689541735261618 0 -0.0017597520537605132 0.011648665170669242 0 -0.0015836207680143834 0.011758889124157401 0 -0.001827513084896516 0.011761086069728477 0 -0.0020300012781012257 0.011769426618648748 0 -0.001827513084896516 0.011761086069728477 0 -0.0019573227277758071 0.011689541735261618 0 -0.0020300012781012257 0.011769426618648748 0 -0.001827513084896516 0.011761086069728477 0 -0.001893990080650164 0.011834477716319399 0 -0.001827513084896516 0.011761086069728477 0 -0.001893990080650164 0.011834477716319399 0 -0.0017495660832158016 0.011872340749746689 0 -0.0015836207680143834 0.011758889124157401 0 -0.001827513084896516 0.011761086069728477 0 -0.0017495660832158016 0.011872340749746689 0 -0.0020180562944267927 0.011860052787854566 0 -0.001893990080650164 0.011834477716319399 0 -0.0019127692763385488 0.011926444207916 0 -0.0017495660832158016 0.011872340749746689 0 -0.0019127692763385488 0.011926444207916 0 -0.001804316897377592 0.011988040709138528 0 -0.001893990080650164 0.011834477716319399 0 -0.0017495660832158016 0.011872340749746689 0 -0.0019127692763385488 0.011926444207916 0 -0.0019276161330337468 0.01201754282060442 0 -0.0019127692763385488 0.011926444207916 0 -0.001804316897377592 0.011988040709138528 0 -0.0017495660832158016 0.011872340749746689 0 -0.001804316897377592 0.011988040709138528 0 -0.0016719332839624929 0.011991965517739053 0 -0.0017495660832158016 0.011872340749746689 0 -0.0016719332839624929 0.011991965517739053 0 -0.0015589201475801361 0.011891455740681182 0 -0.0015325248831122534 0.012031124182372998 0 -0.0016719332839624929 0.011991965517739053 0 -0.0015589201475801361 0.011891455740681182 0 -0.0015325248831122534 0.012031124182372998 0 -0.0015589201475801361 0.011891455740681182 0 -0.0014348119002703138 0.01191974048721617 0 -0.0015589201475801361 0.011891455740681182 0 -0.0014348119002703138 0.01191974048721617 0 -0.0014170735198292892 0.011745583140222312 0 -0.0014688818861113889 0.012036112083711222 0 -0.0014348119002703138 0.01191974048721617 0 -0.0012974406034422408 0.011957953040886597 0 -0.0014348119002703138 0.01191974048721617 0 -0.0011810004391116474 0.011838989378634309 0 -0.0012974406034422408 0.011957953040886597 0 -0.0014348119002703138 0.01191974048721617 0 -0.0011810004391116474 0.011838989378634309 0 -0.0014170735198292892 0.011745583140222312 0 -0.0011886959166642788 0.012060787732128818 0 -0.0011810004391116474 0.011838989378634309 0 -0.0012974406034422408 0.011957953040886597 0 0.0013440796761349503 0.013514175213998985 0 -0.00015895432076103565 0.012600770506250946 0 0.0017233961960629344 0.012342286447717784 0 -0.00015393107646434893 0.012669488571612333 0 -0.00074053688361686747 0.01217103930233321 0 -0.0015260050967213739 0.011605090259720235 0 -0.00015895432076103565 0.012600770506250946 0 -0.00072460564738136826 0.011247525373999787 0 -0.00015895432076103565 0.012600770506250946 0 -0.00072460564738136826 0.011247525373999787 0 0.00053687091467229445 0.011149646178574486 0 -0.00015895432076103565 0.012600770506250946 0 0.00053687091467229445 0.011149646178574486 0 0.0017233961960629344 0.012342286447717784 0 0.0017171475653269068 0.012101273272608211 0 0.0021779239968484966 0.012767382136266311 0 0.0025750142183471958 0.013056620171777398 0 0.0026796583859783562 0.012970019403978485 0 0.0027219535141323127 0.013063539731065379 0 0.0025750142183471958 0.013056620171777398 0 0.0026796583859783562 0.012970019403978485 0 0.0025619276147961726 0.01295049122861127 0 0.0025880175113276184 0.012882411735176685 0 0.0026796583859783562 0.012970019403978485 0 0.0025619276147961726 0.01295049122861127 0 0.0023682461386220319 0.012893163747870175 0 0.0025750142183471958 0.013056620171777398 0 0.0025619276147961726 0.01295049122861127 0 -0.00057044750728763038 0.010130927623828823 0 -0.00072460564738136826 0.011247525373999787 0 0.00053687091467229445 0.011149646178574486 0 -0.00035856202745640297 0.012005911352279732 0 0.0017171475653269068 0.012101273272608211 0 0.0029462805703231159 0.012908252684788719 0 0.0028509465447189774 0.012984355333105936 0 0.0030349696928207979 0.012911501292193399 0 0.0028509465447189774 0.012984355333105936 0 0.0029403942314639294 0.013078728352003381 0 0.0030349696928207979 0.012911501292193399 0 0.0026796583859783562 0.012970019403978485 0 0.0028509465447189774 0.012984355333105936 0 0.0027219535141323127 0.013063539731065379 0 0.0027614634679880607 0.012904618159782926 0 0.0026796583859783562 0.012970019403978485 0 0.0028509465447189774 0.012984355333105936 0 0.0028509465447189774 0.012984355333105936 0 0.0027219535141323127 0.013063539731065379 0 0.0028341428206468144 0.013142129784621712 0 0.0025750142183471958 0.013056620171777398 0 0.0027219535141323127 0.013063539731065379 0 0.0026881770310952977 0.013157259134799371 0 0.0027219535141323127 0.013063539731065379 0 0.0028341428206468144 0.013142129784621712 0 0.0026881770310952977 0.013157259134799371 0 0.0030389711202770575 0.012929817527077588 0 0.0031071875217812831 0.013139524633116349 0 0.0028509465447189774 0.012984355333105936 0 0.0029403942314639294 0.013078728352003381 0 0.0028341428206468144 0.013142129784621712 0 0.0029403942314639294 0.013078728352003381 0 0.0028341428206468144 0.013142129784621712 0 0.0028910363661725481 0.013245774658949843 0 0.0028910363661725481 0.013245774658949843 0 0.0026881770310952977 0.013157259134799371 0 0.00275869377380059 0.013541253953404086 0 0.0028341428206468144 0.013142129784621712 0 0.0028910363661725481 0.013245774658949843 0 0.0026881770310952977 0.013157259134799371 0 0.0013440796761349503 0.013514175213998985 0 0.0017233961960629344 0.012342286447717784 0 0.00275869377380059 0.013541253953404086 0 0.0021779239968484966 0.012767382136266311 0 0.0027536022988309881 0.01348243716098153 0 0.0022986576196217571 0.012495027066278841 0 -0.00015393107646434893 0.012669488571612333 0 0.0026669331026277564 0.014093660950091066 0 0.0013440796761349503 0.013514175213998985 0 0.00275869377380059 0.013541253953404086 0 -0.00087532953210286318 0.011987160455858889 0 -0.0011886959166642788 0.012060787732128818 0 -0.0011810004391116474 0.011838989378634309 0 0.0022986576196217571 0.012495027066278841 0 0.0031071875217812831 0.013139524633116349 0 0.0026669331026277564 0.014093660950091066 0 0.0028910363661725481 0.013245774658949843 0 0.00275869377380059 0.013541253953404086 0 0.0034935978411601148 0.012418464299721862 0 0.0032327907437599878 0.012779242577391622 0 0.0032184286939224314 0.012571226180251884 0 0.0029728939687630298 0.012628284437091544 0 0.0030894227747106317 0.012719997121275991 0 0.0030369610157355981 0.012713621161064108 0 0.0032184286939224314 0.012571226180251884 0 0.0029728939687630298 0.012628284437091544 0 0.0030894227747106317 0.012719997121275991 0 0.0032327907437599878 0.012779242577391622 0 0.0032184286939224314 0.012571226180251884 0 0.0030894227747106317 0.012719997121275991 0 0.0032327907437599878 0.012779242577391622 0 0.0030894227747106317 0.012719997121275991 0 0.003080248433236548 0.012791130085377972 0 0.0030894227747106317 0.012719997121275991 0 0.003080248433236548 0.012791130085377972 0 0.0030369610157355981 0.012713621161064108 0 0.003080248433236548 0.012791130085377972 0 0.0030369610157355981 0.012713621161064108 0 0.0030177328368674789 0.012783432878165859 0 0.0030369610157355981 0.012713621161064108 0 0.0031571906649146835 0.012756716520487309 0 0.0030177328368674789 0.012783432878165859 0 0.0031004874345683434 0.012797960297645851 0 0.0030369610157355981 0.012713621161064108 0 0.0031571906649146835 0.012756716520487309 0 0.0027515027249893831 0.012587331105147991 0 0.0029033406997971962 0.012610261471046625 0 0.0031004874345683434 0.012797960297645851 0 0.0029728939687630298 0.012628284437091544 0 0.0030369610157355981 0.012713621161064108 0 0.0031004874345683434 0.012797960297645851 0 0.0031571906649146835 0.012756716520487309 0 0.0031897535086663001 0.012796747359861469 0 0.0031571906649146835 0.012756716520487309 0 0.0032087156440819384 0.012786981837258854 0 0.003205055820802554 0.012802174267307901 0 0.0032343733514393893 0.012825327630955029 0 0.0032087156440819384 0.012786981837258854 0 0.0032342479664478445 0.012787911478285617 0 0.0031571906649146835 0.012756716520487309 0 0.0031897535086663001 0.012796747359861469 0 0.0032087156440819384 0.012786981837258854 0 0.0032087156440819384 0.012786981837258854 0 0.003205055820802554 0.012802174267307901 0 0.0032342479664478445 0.012787911478285617 0 0.003205055820802554 0.012802174267307901 0 0.0032342479664478445 0.012787911478285617 0 0.0032019638421691083 0.012855684316819268 0 0.0031571906649146835 0.012756716520487309 0 0.003205055820802554 0.012802174267307901 0 0.0032839288727461199 0.012870467440110946 0 0.0031568793562223993 0.012770938912840779 0 0.0031548578464324637 0.012833346062253064 0 0.003205055820802554 0.012802174267307901 0 0.0032473122644077852 0.012918226641346417 0 0.0032839288727461199 0.012870467440110946 0 0.003205055820802554 0.012802174267307901 0 0.0032473122644077852 0.012918226641346417 0 0.0032019638421691083 0.012855684316819268 0 0.0032473122644077852 0.012918226641346417 0 0.0032398703692496362 0.012966474754112511 0 0.0032638342606586572 0.012981501373296456 0 0.0032473122644077852 0.012918226641346417 0 0.0032019638421691083 0.012855684316819268 0 0.0032398703692496362 0.012966474754112511 0 0.0032473122644077852 0.012918226641346417 0 0.0032724183740420664 0.012961464224850398 0 0.0032839288727461199 0.012870467440110946 0 0.0032473122644077852 0.012918226641346417 0 0.0032724183740420664 0.012961464224850398 0 0.0032638342606586572 0.012981501373296456 0 0.0032724183740420664 0.012961464224850398 0 0.0032839288727461199 0.012870467440110946 0 0.0032966240559378231 0.013007066651036387 0 0.0030653180657044233 0.012856090410302641 0 0.0030177328368674789 0.012783432878165859 0 0.0030493203270313862 0.012909737812783782 0 0.0031548578464324637 0.012833346062253064 0 0.0031651245311715599 0.012948756646270756 0 0.0030653180657044233 0.012856090410302641 0 0.0030349696928207979 0.012911501292193399 0 0.0030493203270313862 0.012909737812783782 0 0.0030389711202770575 0.012929817527077588 0 0.0030362614521575958 0.012917886024330095 0 0.0031277507312641849 0.012847281714328357 0 0.0030653180657044233 0.012856090410302641 0 0.0030349696928207979 0.012911501292193399 0 0.0031277507312641849 0.012847281714328357 0 0.003080248433236548 0.012791130085377972 0 0.0030653180657044233 0.012856090410302641 0 0.0031277507312641849 0.012847281714328357 0 0.0032327907437599878 0.012779242577391622 0 0.003080248433236548 0.012791130085377972 0 0.003080248433236548 0.012791130085377972 0 0.0030653180657044233 0.012856090410302641 0 0.0030177328368674789 0.012783432878165859 0 0.01080434541675236 0.013915581073825817 0 0.010883972459193009 0.013922103145882745 0 0.010974233079670739 0.013939334531592459 0 0.010990060389930299 0.013938769491064174 0 0.010974421862057521 0.013926189844856886 0 0.010633469730009268 0.013898387325929233 0 0.010689185053776966 0.013882046200611014 0 0.010786483742228303 0.013929768201797943 0 0.010974233079670739 0.013939334531592459 0 0.01094753211123649 0.013983486577554589 0 0.010990060389930299 0.013938769491064174 0 0.010630387238994699 0.013898905461393636 0 0.010633469730009268 0.013898387325929233 0 0.010689185053776966 0.013882046200611014 0 0.010658861911872305 0.013818367907387894 0 0.010689185053776966 0.013882046200611014 0 0.010778164426958855 0.013838541668751854 0 0.010630387238994699 0.013898905461393636 0 0.010658861911872305 0.013818367907387894 0 0.010689185053776966 0.013882046200611014 0 0.010899144984710242 0.013711767623235643 0 0.010778164426958855 0.013838541668751854 0 0.010880512408578272 0.013833445592285569 0 0.010778164426958855 0.013838541668751854 0 0.010786483742228303 0.013929768201797943 0 0.010880512408578272 0.013833445592285569 0 0.010689185053776966 0.013882046200611014 0 0.010778164426958855 0.013838541668751854 0 0.010786483742228303 0.013929768201797943 0 0.010990060389930299 0.013938769491064174 0 0.010974421862057521 0.013926189844856886 0 0.010970767238192349 0.013919887585053215 0 0.010786483742228303 0.013929768201797943 0 0.010880512408578272 0.013833445592285569 0 0.010964884089968626 0.0138827114674428 0 0.010974421862057521 0.013926189844856886 0 0.010964884089968626 0.0138827114674428 0 0.010948803606584576 0.013912771113913116 0 0.010883972459193009 0.013922103145882745 0 0.010960874751575058 0.013890651021309566 0 0.010899144984710242 0.013711767623235643 0 0.010880512408578272 0.013833445592285569 0 0.010965648182198551 0.013780872095437295 0 0.010880512408578272 0.013833445592285569 0 0.010965648182198551 0.013780872095437295 0 0.010964884089968626 0.0138827114674428 0 0.010965648182198551 0.013780872095437295 0 0.011058276558277774 0.013794769380361159 0 0.010964884089968626 0.0138827114674428 0 0.011005994837142728 0.013661481618595752 0 0.010965648182198551 0.013780872095437295 0 0.011058276558277774 0.013794769380361159 0 0.0071967596176480721 0.013418543536598734 0 0.0070598860724642295 0.013369899961591039 0 0.011058276558277774 0.013794769380361159 0 0.010964884089968626 0.0138827114674428 0 0.01092983893768916 0.013918689854311881 0 0.010964884089968626 0.0138827114674428 0 0.01092983893768916 0.013918689854311881 0 0.010948803606584576 0.013912771113913116 0 0.01092983893768916 0.013918689854311881 0 0.010923035551808815 0.013886213282484898 0 0.010855849214002096 0.013870144013819238 0 0.0070598860724642295 0.013369899961591039 0 0.0070773777249971779 0.013333721108789793 0 0.01092983893768916 0.013918689854311881 0 0.010923035551808815 0.013886213282484898 0 0.010948803606584576 0.013912771113913116 0 0.010948803606584576 0.013912771113913116 0 0.010970767238192349 0.013919887585053215 0 0.010971342108811918 0.013894270155299223 0 0.010990060389930299 0.013938769491064174 0 0.010970767238192349 0.013919887585053215 0 0.010971342108811918 0.013894270155299223 0 0.010974421862057521 0.013926189844856886 0 0.010948803606584576 0.013912771113913116 0 0.010970767238192349 0.013919887585053215 0 0.010923035551808815 0.013886213282484898 0 0.010971342108811918 0.013894270155299223 0 0.010940051915332363 0.013846375495767659 0 0.010923035551808815 0.013886213282484898 0 0.010948803606584576 0.013912771113913116 0 0.010971342108811918 0.013894270155299223 0 0.011118338616034002 0.014135429618506388 0 0.010986893902479188 0.014172350022033552 0 0.010972151759627796 0.014041759150871549 0 0.011118338616034002 0.014135429618506388 0 0.010986893902479188 0.014172350022033552 0 0.011047929313864854 0.014288882961167747 0 0.010990060389930299 0.013938769491064174 0 0.011118338616034002 0.014135429618506388 0 0.010972151759627796 0.014041759150871549 0 0.010995921431728443 0.013936778924900714 0 0.011041418599924741 0.014036115313080258 0 0.01094753211123649 0.013983486577554589 0 0.010990060389930299 0.013938769491064174 0 0.010972151759627796 0.014041759150871549 0 0.010905493929650956 0.014283081008019999 0 0.01101156538003332 0.014450337172214601 0 0.011047929313864854 0.014288882961167747 0 0.01101156538003332 0.014450337172214601 0 0.011047929313864854 0.014288882961167747 0 0.011194524789577463 0.014336528312457412 0 0.010905493929650956 0.014283081008019999 0 0.010986893902479188 0.014172350022033552 0 0.011047929313864854 0.014288882961167747 0 0.011118338616034002 0.014135429618506388 0 0.011047929313864854 0.014288882961167747 0 0.011194524789577463 0.014336528312457412 0 0.011041418599924741 0.014036115313080258 0 0.01110785326775213 0.013981129482100924 0 0.011194524789577463 0.014336528312457412 0 0.011265567957457964 0.01452428430799358 0 0.011113526799002694 0.014561029852216136 0 0.01101156538003332 0.014450337172214601 0 0.011194524789577463 0.014336528312457412 0 0.011113526799002694 0.014561029852216136 0 0.010940051915332363 0.013846375495767659 0 0.010883205477323448 0.013834403815145337 0 0.010894964318671449 0.013782275115644047 0 0.01110785326775213 0.013981129482100924 0 0.010498107757319788 0.014838537447753045 0 0.010923035551808815 0.013886213282484898 0 0.010940051915332363 0.013846375495767659 0 0.010883205477323448 0.013834403815145337 0 0.0070773777249971779 0.013333721108789793 0 0.0068346295010328732 0.013779690283089292 0 0.010923035551808815 0.013886213282484898 0 0.010883205477323448 0.013834403815145337 0 0.010855849214002096 0.013870144013819238 0 0.010883205477323448 0.013834403815145337 0 0.010810972731765145 0.013794607921663694 0 0.010894964318671449 0.013782275115644047 0 0.010883205477323448 0.013834403815145337 0 0.010855849214002096 0.013870144013819238 0 0.010810972731765145 0.013794607921663694 0 0.0068346295010328732 0.013779690283089292 0 0.010498107757319788 0.014838537447753045 0 0.0087245902346438069 0.015851761491141578 0 0.008711308893555 0.015229009757745479 0 0.0091390555145558789 0.015475168108512375 0 0.0087245902346438069 0.015851761491141578 0 0.0091390555145558789 0.015475168108512375 0 0.0092589869827761143 0.015739896921411412 0 0.0068346295010328732 0.013779690283089292 0 0.0057611038213559642 0.014489765361249563 0 0.008711308893555 0.015229009757745479 0 0.0091401596683211572 0.0152179731535059 0 0.0091764367896604877 0.014931368909415627 0 0.008711308893555 0.015229009757745479 0 0.0091401596683211572 0.0152179731535059 0 0.0091390555145558789 0.015475168108512375 0 0.0091401596683211572 0.0152179731535059 0 0.0095465047817337809 0.015236901355711934 0 0.0091764367896604877 0.014931368909415627 0 0.0091401596683211572 0.0152179731535059 0 0.0091390555145558789 0.015475168108512375 0 0.0095465047817337809 0.015236901355711934 0 0.0094598409709379782 0.015524824590781323 0 0.0091390555145558789 0.015475168108512375 0 0.0095465047817337809 0.015236901355711934 0 0.0094598409709379782 0.015524824590781323 0 0.0091390555145558789 0.015475168108512375 0 0.0092856603945655324 0.015779869080596604 0 0.0095207258527679958 0.015448589812874239 0 0.010498107757319788 0.014838537447753045 0 0.010498107757319788 0.014838537447753045 0 0.010412875349175711 0.015127146989614274 0 0.0094598409709379782 0.015524824590781323 0 0.0097825849422077359 0.015664392686390295 0 0.0095465047817337809 0.015236901355711934 0 0.0094598409709379782 0.015524824590781323 0 0.0092856603945655324 0.015779869080596604 0 0.0097825849422077359 0.015664392686390295 0 0.0097825849422077359 0.015664392686390295 0 0.0095465047817337809 0.015236901355711934 0 0.010009185367175487 0.015172433617456196 0 0.0097825849422077359 0.015664392686390295 0 0.010009185367175487 0.015172433617456196 0 0.010270043228778003 0.015551021826490418 0 0.010419578530577362 0.015099246779741662 0 0.010106205563614098 0.015093041703094664 0 0.010206547951568704 0.014913801531401229 0 0.010419578530577362 0.015099246779741662 0 0.010106205563614098 0.015093041703094664 0 0.010388428993529892 0.015301028090392604 0 0.010050810637664876 0.015129688867384718 0 0.010553758197432131 0.015181682780435022 0 0.01101156538003332 0.014450337172214601 0 0.011113526799002694 0.014561029852216136 0 0.010960458574109024 0.014597753726562036 0 0.010412875349175711 0.015127146989614274 0 0.010553758197432131 0.015181682780435022 0 0.0032833776533112533 0.012989108290915109 0 0.0030987038676736026 0.012915831923508524 0 0.0032966240559378231 0.013007066651036387 0 0.0031066565137406474 0.012908108896204388 0 0.0031651245311715599 0.012948756646270756 0 0.0032833776533112533 0.012989108290915109 0 0.0032937153454698056 0.012975130263894255 0 0.0030987038676736026 0.012915831923508524 0 0.0030212794642598484 0.012876116305830644 0 0.0030987038676736026 0.012915831923508524 0 0.0030493203270313862 0.012909737812783782 0 0.0030212794642598484 0.012876116305830644 0 0.0030349696928207979 0.012911501292193399 0 0.0030493203270313862 0.012909737812783782 0 0.0032833776533112533 0.012989108290915109 0 0.0032966240559378231 0.013007066651036387 0 0.0032827257986463888 0.012988469275265131 0 0.0032724183740420664 0.012961464224850398 0 0.0032966240559378231 0.013007066651036387 0 0.0032827257986463888 0.012988469275265131 0 0.0032724183740420664 0.012961464224850398 0 0.0032827257986463888 0.012988469275265131 0 0.0032638342606586572 0.012981501373296456 0 0.0032398703692496362 0.012966474754112511 0 0.0032774953917792129 0.013012840431721736 0 0.0032638342606586572 0.012981501373296456 0 0.0032774953917792129 0.013012840431721736 0 0.0032638342606586572 0.012981501373296456 0 0.0032727198669527018 0.013001656852098687 0 0.0068346295010328732 0.013779690283089292 0 0.0023297976480864627 0.013358202953772635 0 0.0032827257986463888 0.012988469275265131 0 0.0032638342606586572 0.012981501373296456 0 0.0032727198669527018 0.013001656852098687 0 0.0032833776533112533 0.012989108290915109 0 0.0032827257986463888 0.012988469275265131 0 0.0032992704483609391 0.013007775935556831 0 0.0032827257986463888 0.012988469275265131 0 0.0032727198669527018 0.013001656852098687 0 0.0032992704483609391 0.013007775935556831 0 0.0032727198669527018 0.013001656852098687 0 0.0032992704483609391 0.013007775935556831 0 0.0032961014712653146 0.013076373292941203 0 0.0032937153454698056 0.012975130263894255 0 0.0032992704483609391 0.013007775935556831 0 0.0033250755484369164 0.013084463847079226 0 0.0032833776533112533 0.012989108290915109 0 0.0032937153454698056 0.012975130263894255 0 0.0032992704483609391 0.013007775935556831 0 0.0033250755484369164 0.013084463847079226 0 0.0032961014712653146 0.013076373292941203 0 0.0033209795859299091 0.01321287080582184 0 0.0032992704483609391 0.013007775935556831 0 0.0033250755484369164 0.013084463847079226 0 0.0032961014712653146 0.013076373292941203 0 0.0030972210148779173 0.012979291529996335 0 0.0030146498309022722 0.013465714190806475 0 0.00323075199916684 0.013113894458577467 0 0.0030972210148779173 0.012979291529996335 0 0.0032727198669527018 0.013001656852098687 0 0.00323075199916684 0.013113894458577467 0 0.0032727198669527018 0.013001656852098687 0 0.0032961014712653146 0.013076373292941203 0 0.00323075199916684 0.013113894458577467 0 0.0032961014712653146 0.013076373292941203 0 0.00323075199916684 0.013113894458577467 0 0.0033209795859299091 0.01321287080582184 0 0.0030146498309022722 0.013465714190806475 0 0.0033209795859299091 0.01321287080582184 0 0.0034551298803950632 0.01367460414388459 0 0.0030146498309022722 0.013465714190806475 0 0.00323075199916684 0.013113894458577467 0 0.0033209795859299091 0.01321287080582184 0 0.0033209795859299091 0.01321287080582184 0 0.0034551298803950632 0.01367460414388459 0 0.0036602457084047744 0.013613814977524053 0 0.0033250755484369164 0.013084463847079226 0 0.0033209795859299091 0.01321287080582184 0 0.0033570065218289213 0.013207075081585929 0 0.0033209795859299091 0.01321287080582184 0 0.0036602457084047744 0.013613814977524053 0 0.0039466224591644967 0.01355416128314332 0 0.0033936857727808103 0.013226830332968264 0 0.0034827590888078471 0.013465729443950167 0 0.0033109834680469094 0.013005340564950741 0 0.0034827590888078471 0.013465729443950167 0 0.0036602457084047744 0.013613814977524053 0 0.0039466224591644967 0.01355416128314332 0 0.0038344310883193415 0.013774915399378288 0 0.0033280109078787949 0.013236679364443229 0 0.003401953087374818 0.013137315634482293 0 0.0034045337751505778 0.013289176281406426 0 0.0033006683244168971 0.012883622620781557 0 0.0030185986343680476 0.013505010440693127 0 0.0034827590888078471 0.013465729443950167 0 0.0033880573409313013 0.014003725734471626 0 0.0031429942802668367 0.012709566567564584 0 0.0032227217032674608 0.01283377205161095 0 0.0032037489598776359 0.012528538054809607 0 0.003401953087374818 0.013137315634482293 0 0.0034351384298653333 0.013279502795456512 0 0.0034045337751505778 0.013289176281406426 0 0.0033250755484369164 0.013084463847079226 0 0.0033280109078787949 0.013236679364443229 0 0.003401953087374818 0.013137315634482293 0 0.0031429942802668367 0.012709566567564584 0 0.0032227217032674608 0.01283377205161095 0 0.0030794871872767281 0.012848016526591306 0 0.0030987038676736026 0.012915831923508524 0 0.0032227217032674608 0.01283377205161095 0 0.0030794871872767281 0.012848016526591306 0 0.0033085271523611592 0.01301994228599696 0 0.0033006683244168971 0.012883622620781557 0 0.0032937153454698056 0.012975130263894255 0 0.0033250755484369164 0.013084463847079226 0 0.003401953087374818 0.013137315634482293 0 0.0032937153454698056 0.012975130263894255 0 0.0030987038676736026 0.012915831923508524 0 0.0032227217032674608 0.01283377205161095 0 0.0027719618960227285 0.013109760994993084 0 0.0030537556784398412 0.012857174438761042 0 0.0030097793740401979 0.01287204866679568 0 0.0030987038676736026 0.012915831923508524 0 0.0030794871872767281 0.012848016526591306 0 0.0027268853874208745 0.012626031479017743 0 0.0031429942802668367 0.012709566567564584 0 0.0030794871872767281 0.012848016526591306 0 0.0027268853874208745 0.012626031479017743 0 0.0031429942802668367 0.012709566567564584 0 0.0032037489598776359 0.012528538054809607 0 0.002231417946668094 0.012844948972346212 0 0.0030185986343680476 0.013505010440693127 0 0.0031497528679031994 0.014887388666934944 0 0.002484675794310979 0.015028343856402105 0 0.0018517774178293668 0.013151356134468425 0 0.0019896355647162647 0.013105821430758037 0 0.0019977414260287716 0.013133324392276017 0 0.0018517774178293668 0.013151356134468425 0 0.0019896355647162647 0.013105821430758037 0 0.0018498393093590232 0.013028656393384509 0 0.0034815483526648592 0.017106993232470918 0 0.0034462936975445213 0.016848680763068787 0 0.0032579621720962904 0.017006635577276313 0 0.0031497528679031994 0.014887388666934944 0 0.0038682800433610868 0.016208220084974311 0 0.0039865619685448854 0.014958497844866621 0 0.0040138882746929274 0.014809208466532726 0 0.0040778198311400863 0.015076158905743221 0 0.0039865619685448854 0.014958497844866621 0 0.0038933328924796811 0.015034544280131661 0 0.0040778198311400863 0.015076158905743221 0 0.0039865619685448854 0.014958497844866621 0 0.0039448492635044087 0.014877440521760307 0 0.0038933328924796811 0.015034544280131661 0 0.0039448492635044087 0.014877440521760307 0 0.0038704871206644634 0.014803438600520127 0 0.0038933328924796811 0.015034544280131661 0 0.0039448492635044087 0.014877440521760307 0 0.0039649907830881861 0.014820258729792889 0 0.003937402589940203 0.014819356836448191 0 0.0039448492635044087 0.014877440521760307 0 0.003937402589940203 0.014819356836448191 0 0.0038704871206644634 0.014803438600520127 0 0.0039865619685448854 0.014958497844866621 0 0.0039448492635044087 0.014877440521760307 0 0.0040138882746929274 0.014809208466532726 0 0.0039448492635044087 0.014877440521760307 0 0.0040138882746929274 0.014809208466532726 0 0.0039649907830881861 0.014820258729792889 0 0.0031497528679031994 0.014887388666934944 0 0.0033880573409313013 0.014003725734471626 0 0.0040138882746929274 0.014809208466532726 0 0.0039649907830881861 0.014820258729792889 0 0.0039638026197166883 0.014774384352639346 0 0.0029716415331107913 0.014172273952051255 0 0.0029828227997655095 0.014217314613604627 0 0.0030249089941746495 0.014204138579391221 0 0.0030185986343680476 0.013505010440693127 0 0.0033880573409313013 0.014003725734471626 0 0.0031497528679031994 0.014887388666934944 0 0.0030185986343680476 0.013505010440693127 0 0.003937402589940203 0.014819356836448191 0 0.0039638026197166883 0.014774384352639346 0 0.0038704871206644634 0.014803438600520127 0 0.0033880573409313013 0.014003725734471626 0 0.0037098677753491407 0.014156628694600727 0 0.0035196186949405153 0.013838583745037528 0 0.0035973477664320115 0.013890929404238594 0 0.003523968307729677 0.013914064182109269 0 0.0039649907830881861 0.014820258729792889 0 0.003937402589940203 0.014819356836448191 0 0.0039638026197166883 0.014774384352639346 0 0.003950458499051469 0.013875197443529804 0 0.0038831425975089421 0.013896025770023747 0 0.0039653857658064071 0.014586631827478498 0 0.0034827590888078471 0.013465729443950167 0 0.0037098677753491407 0.014156628694600727 0 0.0039466224591644967 0.01355416128314332 0 0.0039579471990124713 0.013873644000435106 0 0.0038344310883193415 0.013774915399378288 0 0.0037098677753491407 0.014156628694600727 0 0.0037563024824554449 0.014131044809121918 0 0.0038831425975089421 0.013896025770023747 0 0.0038344310883193415 0.013774915399378288 0 0.0037052371664618197 0.013801302830530699 0 0.0039579471990124713 0.013873644000435106 0 0.0038831425975089421 0.013896025770023747 0 0.0038344310883193415 0.013774915399378288 0 0.0038831425975089421 0.013896025770023747 0 0.0037052371664618197 0.013801302830530699 0 0.0036260464370067012 0.013943512904448698 0 0.0034551298803950632 0.01367460414388459 0 0.0036602457084047744 0.013613814977524053 0 0.0037052371664618197 0.013801302830530699 0 0.0034551298803950632 0.01367460414388459 0 0.0037052371664618197 0.013801302830530699 0 0.0036260464370067012 0.013943512904448698 0 0.0036602457084047744 0.013613814977524053 0 0.0038344310883193415 0.013774915399378288 0 0.0037052371664618197 0.013801302830530699 0 0.0038831425975089421 0.013896025770023747 0 0.0036260464370067012 0.013943512904448698 0 0.0035620933525844687 0.014228937484710633 0 0.0030146498309022722 0.013465714190806475 0 0.0033419206084675072 0.01392342763291147 0 0.0030585596531679843 0.01430844789743599 0 0.0030146498309022722 0.013465714190806475 0 0.0034551298803950632 0.01367460414388459 0 0.0033419206084675072 0.01392342763291147 0 0.0033419206084675072 0.01392342763291147 0 0.0035620933525844687 0.014228937484710633 0 0.0030585596531679843 0.01430844789743599 0 0.0034551298803950632 0.01367460414388459 0 0.0036260464370067012 0.013943512904448698 0 0.0033419206084675072 0.01392342763291147 0 0.0036260464370067012 0.013943512904448698 0 0.0033419206084675072 0.01392342763291147 0 0.0035620933525844687 0.014228937484710633 0 0.0035620933525844687 0.014228937484710633 0 0.003519854701426055 0.01476252037693823 0 0.0030585596531679843 0.01430844789743599 0 0.0038831425975089421 0.013896025770023747 0 0.0039653857658064071 0.014586631827478498 0 0.0035620933525844687 0.014228937484710633 0 0.0039653857658064071 0.014586631827478498 0 0.0035620933525844687 0.014228937484710633 0 0.003519854701426055 0.01476252037693823 0 0.0037098677753491407 0.014156628694600727 0 0.0039449739357186623 0.014853161580218628 0 0.0039653857658064071 0.014586631827478498 0 0.003519854701426055 0.01476252037693823 0 0.0039111639218979213 0.015236580780519697 0 0.003519854701426055 0.01476252037693823 0 0.0030585596531679843 0.01430844789743599 0 0.003186904343736655 0.015011298539305114 0 0.003519854701426055 0.01476252037693823 0 0.0035506158324423872 0.015294963780597614 0 0.003186904343736655 0.015011298539305114 0 0.0035506158324423872 0.015294963780597614 0 0.003186904343736655 0.015011298539305114 0 0.0033039063777199618 0.015541065750835359 0 0.003519854701426055 0.01476252037693823 0 0.0035506158324423872 0.015294963780597614 0 0.0039111639218979213 0.015236580780519697 0 0.0035506158324423872 0.015294963780597614 0 0.0039111639218979213 0.015236580780519697 0 0.0037759964505262641 0.015480860887086207 0 0.0039111639218979213 0.015236580780519697 0 0.0041383922539021227 0.015390246788480505 0 0.0040778198311400863 0.015076158905743221 0 0.0034404781923026654 0.016446797336206586 0 0.0034462936975445213 0.016848680763068787 0 0.003164175675460729 0.016715319360744982 0 0.0037617095496538413 0.015856880020902065 0 0.0038682800433610868 0.016208220084974311 0 0.0038933328924796811 0.015034544280131661 0 0.0039111639218979213 0.015236580780519697 0 0.0040778198311400863 0.015076158905743221 0 0.0039449739357186623 0.014853161580218628 0 0.0039146602636552716 0.01518497099046104 0 0.010201821648883752 0.014634488348063577 0 0.0097639532489029734 0.014800821072408012 0 0.0097532381003885976 0.014343275749856194 0 0.010201821648883752 0.014634488348063577 0 0.0097532381003885976 0.014343275749856194 0 0.010265357933371024 0.014194872084297875 0 0.010106205563614098 0.015093041703094664 0 0.010206547951568704 0.014913801531401229 0 0.0097639532489029734 0.014800821072408012 0 0.010201821648883752 0.014634488348063577 0 0.010206547951568704 0.014913801531401229 0 0.0097639532489029734 0.014800821072408012 0 0.010050810637664876 0.015129688867384718 0 0.0097992409498340229 0.014820434322431747 0 0.0095465047817337809 0.015236901355711934 0 0.010009185367175487 0.015172433617456196 0 0.0097639532489029734 0.014800821072408012 0 0.0095465047817337809 0.015236901355711934 0 0.0097639532489029734 0.014800821072408012 0 0.0091764367896604877 0.014931368909415627 0 0.0097639532489029734 0.014800821072408012 0 0.0097532381003885976 0.014343275749856194 0 0.0092691887050457347 0.014501169206444033 0 0.0097532381003885976 0.014343275749856194 0 0.0092691887050457347 0.014501169206444033 0 0.0093215151981305509 0.014090344093634176 0 0.0092691887050457347 0.014501169206444033 0 0.0091764367896604877 0.014931368909415627 0 0.0086876856301309063 0.01458580403466977 0 0.0097639532489029734 0.014800821072408012 0 0.0092691887050457347 0.014501169206444033 0 0.0091764367896604877 0.014931368909415627 0 0.0057611038213559642 0.014489765361249563 0 0.0058894497896163607 0.01442833932101923 0 0.008711308893555 0.015229009757745479 0 0.0091764367896604877 0.014931368909415627 0 0.0086876856301309063 0.01458580403466977 0 0.0092691887050457347 0.014501169206444033 0 0.0086876856301309063 0.01458580403466977 0 0.0090049277463785261 0.014174506959589949 0 0.0090049277463785261 0.014174506959589949 0 0.0086581667109274611 0.013940234718038487 0 0.0090906021325720156 0.013757615896417327 0 0.0086876856301309063 0.01458580403466977 0 0.0090049277463785261 0.014174506959589949 0 0.0086581667109274611 0.013940234718038487 0 0.0058894497896163607 0.01442833932101923 0 0.0059121497860617168 0.014384959096735272 0 0.0059121497860617168 0.014384959096735272 0 0.0060259041412320524 0.014819848205829813 0 0.0086581667109274611 0.013940234718038487 0 0.0088095072019433174 0.013610036609406627 0 0.008623458176910806 0.013308022462646688 0 0.0086581667109274611 0.013940234718038487 0 0.0088095072019433174 0.013610036609406627 0 0.0090906021325720156 0.013757615896417327 0 0.00903496557030504 0.013760681582481234 0 0.0076339720964613321 0.014377188422195122 0 0.0088095072019433174 0.013610036609406627 0 0.0090906021325720156 0.013757615896417327 0 0.0088676147543908304 0.013435582132280757 0 0.0082841405265820598 0.014722920865322151 0 0.0076339720964613321 0.014377188422195122 0 0.0090933668574710268 0.013744222763964279 0 0.0095775830058616902 0.013777732693026902 0 0.0088640194612219971 0.013391049414107186 0 0.0070193564409226075 0.015676167344401096 0 0.0066296675567511345 0.01539091773488393 0 0.0062887599677861694 0.015430810214592913 0 0.0090933668574710268 0.013744222763964279 0 0.0093215151981305509 0.014090344093634176 0 0.0095775830058616902 0.013777732693026902 0 0.0090049277463785261 0.014174506959589949 0 0.0090906021325720156 0.013757615896417327 0 0.0093215151981305509 0.014090344093634176 0 0.0092691887050457347 0.014501169206444033 0 0.0090049277463785261 0.014174506959589949 0 0.0093215151981305509 0.014090344093634176 0 0.00903496557030504 0.013760681582481234 0 0.0092867873345752177 0.014056322466756031 0 0.0097532381003885976 0.014343275749856194 0 0.0093215151981305509 0.014090344093634176 0 0.0095775830058616902 0.013777732693026902 0 0.0070193564409226075 0.015676167344401096 0 0.0071941543539146766 0.01533262954581216 0 0.0067923638772768406 0.015284693167240722 0 0.0070193564409226075 0.015676167344401096 0 0.0075848624256558755 0.0155238118496243 0 0.0071941543539146766 0.01533262954581216 0 0.0070193564409226075 0.015676167344401096 0 0.0075848624256558755 0.0155238118496243 0 0.0080998270595154988 0.015920609884712503 0 0.0075848624256558755 0.0155238118496243 0 0.0079619811215827941 0.015484042217193532 0 0.0080998270595154988 0.015920609884712503 0 0.0075848624256558755 0.0155238118496243 0 0.0076226816252962888 0.015182847444366229 0 0.0071941543539146766 0.01533262954581216 0 0.0075848624256558755 0.0155238118496243 0 0.00797345134335916 0.015220581953844034 0 0.0079619811215827941 0.015484042217193532 0 0.0075848624256558755 0.0155238118496243 0 0.00797345134335916 0.015220581953844034 0 0.0076226816252962888 0.015182847444366229 0 0.0097532381003885976 0.014343275749856194 0 0.0095775830058616902 0.013777732693026902 0 0.010265357933371024 0.014194872084297875 0 0.0082841405265820598 0.014722920865322151 0 0.0091672454708801015 0.015045729427166893 0 0.0073232445592478273 0.016220747076395647 0 0.0073753464983584748 0.015808314194228568 0 0.006928627919980568 0.015967364043150439 0 0.0073753464983584748 0.015808314194228568 0 0.006928627919980568 0.015967364043150439 0 0.0071716665797027877 0.015572128120143554 0 0.007969911577321645 0.015001248624576191 0 0.0076226816252962888 0.015182847444366229 0 0.0072214331549424419 0.014933073022374951 0 0.0076226816252962888 0.015182847444366229 0 0.0071941543539146766 0.01533262954581216 0 0.0072214331549424419 0.014933073022374951 0 0.0077353850239541659 0.015717538233549277 0 0.0070766318513864352 0.015454745022653095 0 0.007969911577321645 0.015001248624576191 0 0.00797345134335916 0.015220581953844034 0 0.0076226816252962888 0.015182847444366229 0 0.0071941543539146766 0.01533262954581216 0 0.0072214331549424419 0.014933073022374951 0 0.0067923638772768406 0.015284693167240722 0 0.0072214331549424419 0.014933073022374951 0 0.006714816880463415 0.015122981582481257 0 0.0067923638772768406 0.015284693167240722 0 0.006928627919980568 0.015967364043150439 0 0.0065081860458547506 0.015698957694893913 0 0.00686637443314758 0.015493128365905023 0 0.0070766318513864352 0.015454745022653095 0 0.0065640213061691783 0.01538264808336544 0 0.0072214331549424419 0.014933073022374951 0 0.0065692023171925341 0.015023683204601476 0 0.006714816880463415 0.015122981582481257 0 0.0065692023171925341 0.015023683204601476 0 0.0064312494718613443 0.015241045265824578 0 0.0061959827986016198 0.015261565752684482 0 0.0065692023171925341 0.015023683204601476 0 0.0064312494718613443 0.015241045265824578 0 0.006714816880463415 0.015122981582481257 0 0.0064312494718613443 0.015241045265824578 0 0.006714816880463415 0.015122981582481257 0 0.0067923638772768406 0.015284693167240722 0 0.0070193564409226075 0.015676167344401096 0 0.0067923638772768406 0.015284693167240722 0 0.0066296675567511345 0.01539091773488393 0 0.0064312494718613443 0.015241045265824578 0 0.0067923638772768406 0.015284693167240722 0 0.0066296675567511345 0.01539091773488393 0 0.0064312494718613443 0.015241045265824578 0 0.0066296675567511345 0.01539091773488393 0 0.0062887599677861694 0.015430810214592913 0 0.0064312494718613443 0.015241045265824578 0 0.0062887599677861694 0.015430810214592913 0 0.0062701024893331136 0.015280708303442105 0 0.0066259809317255319 0.014857524109054278 0 0.0067238947146827039 0.014921146975492496 0 0.0067211010700176247 0.01504241411453551 0 0.0076339720964613321 0.014377188422195122 0 0.0061100388264990037 0.015653315331021045 0 0.0062887599677861694 0.015430810214592913 0 0.0061621035954865832 0.015276814358458086 0 0.0062701024893331136 0.015280708303442105 0 0.0076339720964613321 0.014377188422195122 0 0.0060259041412320524 0.014819848205829813 0 0.0088095072019433174 0.013610036609406627 0 0.0088676147543908304 0.013435582132280757 0 0.008623458176910806 0.013308022462646688 0 0.0060259041412320524 0.014819848205829813 0 0.0061100388264990037 0.015653315331021045 0 0.0061621035954865832 0.015276814358458086 0 0.0061959827986016198 0.015261565752684482 0 0.0059378337544881074 0.015410710247368002 0 0.0061100388264990037 0.015653315331021045 0 0.0059774841688435797 0.015427844381306488 0 0.0061621035954865832 0.015276814358458086 0 0.0062701024893331136 0.015280708303442105 0 0.0061959827986016198 0.015261565752684482 0 0.0064312494718613443 0.015241045265824578 0 0.0062701024893331136 0.015280708303442105 0 0.0061959827986016198 0.015261565752684482 0 0.0061959827986016198 0.015261565752684482 0 0.0059378337544881074 0.015410710247368002 0 0.0060829178237574192 0.01533172049306997 0 0.0059378337544881074 0.015410710247368002 0 0.0060829178237574192 0.01533172049306997 0 0.0058768044574965686 0.015250186867526905 0 0.0058768044574965686 0.015250186867526905 0 0.00602956603257676 0.014999873596511875 0 0.0055704511312456182 0.01516031148460892 0 0.0058768044574965686 0.015250186867526905 0 0.00602956603257676 0.014999873596511875 0 0.0061550289891740629 0.015211694956883848 0 0.0060829178237574192 0.01533172049306997 0 0.0058768044574965686 0.015250186867526905 0 0.0061550289891740629 0.015211694956883848 0 0.00602956603257676 0.014999873596511875 0 0.0061550289891740629 0.015211694956883848 0 0.0064964044646221644 0.015275419501960716 0 0.00602956603257676 0.014999873596511875 0 0.0064964044646221644 0.015275419501960716 0 0.0069075721893802179 0.014999896310653238 0 0.0060829178237574192 0.01533172049306997 0 0.0061550289891740629 0.015211694956883848 0 0.0064964044646221644 0.015275419501960716 0 0.0065081860458547506 0.015698957694893913 0 0.0060829178237574192 0.01533172049306997 0 0.0064964044646221644 0.015275419501960716 0 0.0065640213061691783 0.01538264808336544 0 0.0061736865132514035 0.015320397255373538 0 0.0065692023171925341 0.015023683204601476 0 0.0061959827986016198 0.015261565752684482 0 0.0060829178237574192 0.01533172049306997 0 0.0065081860458547506 0.015698957694893913 0 0.0064964044646221644 0.015275419501960716 0 0.00686637443314758 0.015493128365905023 0 0.0064964044646221644 0.015275419501960716 0 0.00686637443314758 0.015493128365905023 0 0.0068160777626301407 0.015243380071751652 0 0.0064964044646221644 0.015275419501960716 0 0.0069075721893802179 0.014999896310653238 0 0.0068160777626301407 0.015243380071751652 0 0.0069075721893802179 0.014999896310653238 0 0.0068160777626301407 0.015243380071751652 0 0.0071420218529297218 0.015189117798196441 0 0.00686637443314758 0.015493128365905023 0 0.0068160777626301407 0.015243380071751652 0 0.0071420218529297218 0.015189117798196441 0 0.0077401493327904662 0.014999997266517641 0 0.0069079503348413712 0.014999998882334399 0 0.0072891793281524703 0.015273589802734891 0 0.0069080517566412454 0.015000081374822017 0 0.0072024348237032729 0.015212100083208195 0 0.0077764024324797516 0.015411592597123245 0 0.0072024348237032729 0.015212100083208195 0 0.006928627919980568 0.015967364043150439 0 0.00686637443314758 0.015493128365905023 0 0.0071716665797027877 0.015572128120143554 0 0.0074281251617199489 0.015394680034587636 0 0.0071420218529297218 0.015189117798196441 0 0.0071716665797027877 0.015572128120143554 0 0.00686637443314758 0.015493128365905023 0 0.0071420218529297218 0.015189117798196441 0 0.0071716665797027877 0.015572128120143554 0 0.0040045467678317152 0.015581754757757716 0 0.0037789153653765674 0.015693443757579705 0 0.0041288491639638195 0.01566483941660993 0 0.0040889933446553077 0.016019173444901558 0 0.00422227559981855 0.015671455145342045 0 0.0040045467678317152 0.015581754757757716 0 0.0041288491639638195 0.01566483941660993 0 0.004005399844936983 0.015724679537408231 0 0.0041383922539021227 0.015390246788480505 0 0.0040045467678317152 0.015581754757757716 0 0.004005399844936983 0.015724679537408231 0 0.0037617095496538413 0.015856880020902065 0 0.0037113772055654692 0.015801250957417197 0 0.0039111639218979213 0.015236580780519697 0 0.0040045467678317152 0.015581754757757716 0 0.0037759964505262641 0.015480860887086207 0 0.0039111639218979213 0.015236580780519697 0 0.0041383922539021227 0.015390246788480505 0 0.0040045467678317152 0.015581754757757716 0 0.0037759964505262641 0.015480860887086207 0 0.0036046404048022903 0.015508872039444814 0 0.0037789153653765674 0.015693443757579705 0 0.0040045467678317152 0.015581754757757716 0 0.0037759964505262641 0.015480860887086207 0 0.0037789153653765674 0.015693443757579705 0 0.0035506158324423872 0.015294963780597614 0 0.0037759964505262641 0.015480860887086207 0 0.0036046404048022903 0.015508872039444814 0 0.0033039063777199618 0.015541065750835359 0 0.0036046404048022903 0.015508872039444814 0 0.0037789153653765674 0.015693443757579705 0 0.0035506158324423872 0.015294963780597614 0 0.0033039063777199618 0.015541065750835359 0 0.0036046404048022903 0.015508872039444814 0 0.0059497902333902385 0.016083908459833502 0 0.0059378337544881074 0.015410710247368002 0 0.0055854236692459078 0.015510325532453397 0 0.0060259041412320524 0.014819848205829813 0 0.0040889933446553077 0.016019173444901558 0 0.0056767256149054682 0.016508352668576476 0 0.0053705745504084483 0.016102101158028737 0 0.0049554399893706061 0.01613997081984982 0 0.0056767256149054682 0.016508352668576476 0 0.0056674521363628792 0.016208377810159505 0 0.0053705745504084483 0.016102101158028737 0 0.0053705745504084483 0.016102101158028737 0 0.0051579613707027653 0.015916754495375676 0 0.0053974667878671665 0.015748032038655747 0 0.0056674521363628792 0.016208377810159505 0 0.0053705745504084483 0.016102101158028737 0 0.0053974667878671665 0.015748032038655747 0 0.0061100388264990037 0.015653315331021045 0 0.0054876143497157772 0.015673919413773541 0 0.0053705745504084483 0.016102101158028737 0 0.0049554399893706061 0.01613997081984982 0 0.0051579613707027653 0.015916754495375676 0 0.0049554399893706061 0.01613997081984982 0 0.0051579613707027653 0.015916754495375676 0 0.0049006048026466595 0.015671833088178492 0 0.0051579613707027653 0.015916754495375676 0 0.0049006048026466595 0.015671833088178492 0 0.0053974667878671665 0.015748032038655747 0 0.0049006048026466595 0.015671833088178492 0 0.0053974667878671665 0.015748032038655747 0 0.0051382786870005533 0.01527021293976704 0 0.0049006048026466595 0.015671833088178492 0 0.0051382786870005533 0.01527021293976704 0 0.0045873835929096714 0.015312385268904159 0 0.0049554399893706061 0.01613997081984982 0 0.0049006048026466595 0.015671833088178492 0 0.0041288491639638195 0.01566483941660993 0 0.0054876143497157772 0.015673919413773541 0 0.0051763830280499249 0.015260163707554061 0 0.0055854236692459078 0.015510325532453397 0 0.0055886989641086354 0.01531188116311105 0 0.0051382786870005533 0.01527021293976704 0 0.0059378337544881074 0.015410710247368002 0 0.0058768044574965686 0.015250186867526905 0 0.0055886989641086354 0.01531188116311105 0 0.0059378337544881074 0.015410710247368002 0 0.0055854236692459078 0.015510325532453397 0 0.0055886989641086354 0.01531188116311105 0 0.00602956603257676 0.014999873596511875 0 0.0055704511312456182 0.01516031148460892 0 0.0051508503002235242 0.014999825180091382 0 0.0058768044574965686 0.015250186867526905 0 0.0055886989641086354 0.01531188116311105 0 0.0055704511312456182 0.01516031148460892 0 0.0055886989641086354 0.01531188116311105 0 0.0055704511312456182 0.01516031148460892 0 0.0051382786870005533 0.01527021293976704 0 0.0055704511312456182 0.01516031148460892 0 0.0051382786870005533 0.01527021293976704 0 0.0051508503002235242 0.014999825180091382 0 0.0051382786870005533 0.01527021293976704 0 0.0051508503002235242 0.014999825180091382 0 0.0045873835929096714 0.015312385268904159 0 0.0051508503002235242 0.014999825180091382 0 0.0045873835929096714 0.015312385268904159 0 0.0042719498897702598 0.014999991583156375 0 0.0045873835929096714 0.015312385268904159 0 0.0042719498897702598 0.014999991583156375 0 0.0039713443490112469 0.015359306880914782 0 0.0049006048026466595 0.015671833088178492 0 0.0045873835929096714 0.015312385268904159 0 0.0041288491639638195 0.01566483941660993 0 0.0045873835929096714 0.015312385268904159 0 0.0041288491639638195 0.01566483941660993 0 0.0039713443490112469 0.015359306880914782 0 0.0041288491639638195 0.01566483941660993 0 0.0039713443490112469 0.015359306880914782 0 0.004005399844936983 0.015724679537408231 0 0.0042719498897702598 0.014999991583156375 0 0.0039713443490112469 0.015359306880914782 0 0.003393425095670585 0.014999961321452066 0 0.0035300756880118325 0.01529616782259775 0 0.003393425095670585 0.014999961321452066 0 0.0029879853572726727 0.015372175757998492 0 0.0039713443490112469 0.015359306880914782 0 0.0035300756880118325 0.01529616782259775 0 0.003393425095670585 0.014999961321452066 0 0.003393425095670585 0.014999961321452066 0 0.0029879853572726727 0.015372175757998492 0 0.0025146791461168349 0.014999937603959589 0 0.0035300756880118325 0.01529616782259775 0 0.0029879853572726727 0.015372175757998492 0 0.0031736756072191525 0.015683077252689623 0 0.0029879853572726727 0.015372175757998492 0 0.0031736756072191525 0.015683077252689623 0 0.0027675230246795202 0.015734641769362644 0 0.0035392930334747943 0.015291500273112614 0 0.0037113772055654692 0.015801250957417197 0 0.0035300756880118325 0.01529616782259775 0 0.0031736756072191525 0.015683077252689623 0 0.0034301563221516233 0.015926244387533657 0 0.0039713443490112469 0.015359306880914782 0 0.0035300756880118325 0.01529616782259775 0 0.004005399844936983 0.015724679537408231 0 0.0021095834336516913 0.015332002137567623 0 0.0025146791461168349 0.014999937603959589 0 0.0016365737067776203 0.014999968224680497 0 0.0029879853572726727 0.015372175757998492 0 0.0025146791461168349 0.014999937603959589 0 0.002514427111311428 0.01543023045661349 0 0.0021095834336516913 0.015332002137567623 0 0.0025146791461168349 0.014999937603959589 0 0.002514427111311428 0.01543023045661349 0 0.0029879853572726727 0.015372175757998492 0 0.0027675230246795202 0.015734641769362644 0 0.002514427111311428 0.01543023045661349 0 0.0027675230246795202 0.015734641769362644 0 0.002514427111311428 0.01543023045661349 0 0.0022011872929455882 0.015678207035898697 0 0.0021095834336516913 0.015332002137567623 0 0.0022011872929455882 0.015678207035898697 0 0.0016947255535437644 0.015474864303772314 0 0.0021095834336516913 0.015332002137567623 0 0.002514427111311428 0.01543023045661349 0 0.0022011872929455882 0.015678207035898697 0 0.0022011872929455882 0.015678207035898697 0 0.0025159124325059672 0.016208757966631973 0 0.0016973745544290725 0.01595677271948736 0 0.0025159124325059672 0.016208757966631973 0 0.0019160634293687413 0.016483426425647745 0 0.0016973745544290725 0.01595677271948736 0 0.0027675230246795202 0.015734641769362644 0 0.0022011872929455882 0.015678207035898697 0 0.0025159124325059672 0.016208757966631973 0 0.0031736756072191525 0.015683077252689623 0 0.0034301563221516233 0.015926244387533657 0 0.0031052166306248224 0.016023631544907053 0 0.0027675230246795202 0.015734641769362644 0 0.0025159124325059672 0.016208757966631973 0 0.0031052166306248224 0.016023631544907053 0 0.0031736756072191525 0.015683077252689623 0 0.0027675230246795202 0.015734641769362644 0 0.0031052166306248224 0.016023631544907053 0 0.0025159124325059672 0.016208757966631973 0 0.0029980095992529084 0.016337250305735913 0 0.0028381251468609166 0.016617121732426843 0 0.0025159124325059672 0.016208757966631973 0 0.0031052166306248224 0.016023631544907053 0 0.0029980095992529084 0.016337250305735913 0 0.0034404781923026654 0.016446797336206586 0 0.0034301563221516233 0.015926244387533657 0 0.0031052166306248224 0.016023631544907053 0 0.0034404781923026654 0.016446797336206586 0 0.0031052166306248224 0.016023631544907053 0 0.0029980095992529084 0.016337250305735913 0 0.0034404781923026654 0.016446797336206586 0 0.0029980095992529084 0.016337250305735913 0 0.003164175675460729 0.016715319360744982 0 0.0034462936975445213 0.016848680763068787 0 0.003164175675460729 0.016715319360744982 0 0.0032579621720962904 0.017006635577276313 0 0.003164175675460729 0.016715319360744982 0 0.0029193657037848999 0.016888918100324675 0 0.0032579621720962904 0.017006635577276313 0 0.003164175675460729 0.016715319360744982 0 0.0029193657037848999 0.016888918100324675 0 0.0028381251468609166 0.016617121732426843 0 0.0029980095992529084 0.016337250305735913 0 0.003164175675460729 0.016715319360744982 0 0.0028381251468609166 0.016617121732426843 0 0.0025159124325059672 0.016208757966631973 0 0.0028381251468609166 0.016617121732426843 0 0.0024542544053043152 0.016726382012895506 0 0.0020469466209182322 0.014832573182778343 0 0.0016694462908075998 0.014654405192017593 0 0.0025159124325059672 0.016208757966631973 0 0.0024542544053043152 0.016726382012895506 0 0.0019160634293687413 0.016483426425647745 0 0.0015585299955907406 0.012976650124896424 0 0.0016300877116783646 0.012935566106514656 0 0.0015278263018708891 0.012890081115644552 0 0.0015585299955907406 0.012976650124896424 0 0.0016300877116783646 0.012935566106514656 0 0.0016342517223685851 0.013009981261276404 0 0.0023298070122264795 0.014931825588758626 0 0.0020469466209182322 0.014832573182778343 0 0.0017321591585432851 0.012977519558492887 0 0.0016300877116783646 0.012935566106514656 0 0.0016342517223685851 0.013009981261276404 0 0.0029193657037848999 0.016888918100324675 0 0.0028381251468609166 0.016617121732426843 0 0.0024542544053043152 0.016726382012895506 0 0.0015585299955907406 0.012976650124896424 0 0.0016342517223685851 0.013009981261276404 0 0.001538074988306179 0.013056998461128235 0 0.0016084245519670075 0.013085302013899319 0 0.0016398540569145636 0.01306835627702174 0 0.001538074988306179 0.013056998461128235 0 0.0016342517223685851 0.013009981261276404 0 0.0016398540569145636 0.01306835627702174 0 0.001538074988306179 0.013056998461128235 0 0.0016342517223685851 0.013009981261276404 0 0.0016398540569145636 0.01306835627702174 0 0.0017227216983673156 0.013069843055145788 0 0.0016734666775289823 0.013108242548226387 0 0.0016398540569145636 0.01306835627702174 0 0.0017227216983673156 0.013069843055145788 0 0.0018517774178293668 0.013151356134468425 0 0.0017227216983673156 0.013069843055145788 0 0.0018498393093590232 0.013028656393384509 0 0.0023298070122264795 0.014931825588758626 0 0.002484675794310979 0.015028343856402105 0 0.0017321591585432851 0.012977519558492887 0 0.0017227216983673156 0.013069843055145788 0 0.0018498393093590232 0.013028656393384509 0 0.0017321591585432851 0.012977519558492887 0 0.0016342517223685851 0.013009981261276404 0 0.0017227216983673156 0.013069843055145788 0 -0.0021261963307154107 0.012434783309149034 0 -0.0021450767382403049 0.012416075361147865 0 -0.0021417837067452062 0.012459267766578675 0 -0.0021867052846129055 0.012409383279541865 0 -0.0021750575897483766 0.012459551775922128 0 -0.0022489169586016821 0.012389432436643014 0 -0.0021729742684791506 0.012467643491753382 0 -0.0021993610216726931 0.012417002627113257 0 -0.0022343461550474925 0.01229851225479562 0 -0.0022489169586016821 0.012389432436643014 0 -0.0022147646384019096 0.012330120728142878 0 -0.0022489169586016821 0.012389432436643014 0 -0.0021993610216726931 0.012417002627113257 0 -0.0022147646384019096 0.012330120728142878 0 -0.0021892086817196428 0.012336284061920911 0 -0.0021867052846129055 0.012409383279541865 0 -0.0021289520176326487 0.012366212735622474 0 -0.0021261963307154107 0.012434783309149034 0 -0.0021450767382403049 0.012416075361147865 0 -0.0022343461550474925 0.01229851225479562 0 -0.0022498518939632222 0.012298798091753931 0 -0.0022489169586016821 0.012389432436643014 0 -0.0021684982435628058 0.012346836961524424 0 -0.0021450767382403049 0.012416075361147865 0 -0.0021762173090048888 0.012393657013196521 0 -0.00032441071223391883 0.012700868611838294 0 -0.00031743037083506752 0.012782359605196005 0 0.0015585299955907406 0.012976650124896424 0 0.001538074988306179 0.013056998461128235 0 0.0014630710030879928 0.012979152615344582 0 -0.0021450767382403049 0.012416075361147865 0 -0.0021489434406280535 0.012458006464007413 0 -0.0021417837067452062 0.012459267766578675 0 -0.0021450767382403049 0.012416075361147865 0 -0.0021762173090048888 0.012393657013196521 0 -0.0021489434406280535 0.012458006464007413 0 -0.0021489434406280535 0.012458006464007413 0 -0.0021410858551235302 0.012472650523710434 0 -0.0021417837067452062 0.012459267766578675 0 0.0015585299955907406 0.012976650124896424 0 0.0014630710030879928 0.012979152615344582 0 0.0015278263018708891 0.012890081115644552 0 -0.00031743037083506752 0.012782359605196005 0 -0.00047989886516306172 0.012397024181702663 0 0.0014630710030879928 0.012979152615344582 0 0.0015278263018708891 0.012890081115644552 0 0.0013812225476603959 0.012890307278608463 0 -0.0021410858551235302 0.012472650523710434 0 -0.0021417837067452062 0.012459267766578675 0 -0.0021501312509013674 0.012466196038127772 0 -0.0021410858551235302 0.012472650523710434 0 -0.0021501312509013674 0.012466196038127772 0 -0.0021419314549969018 0.012476098576578854 0 -0.0021417837067452062 0.012459267766578675 0 -0.0021729742684791506 0.012467643491753382 0 -0.0021501312509013674 0.012466196038127772 0 -0.0021261963307154107 0.012434783309149034 0 -0.0021417837067452062 0.012459267766578675 0 -0.0021729742684791506 0.012467643491753382 0 -0.0021602903683909983 0.012467705074783104 0 -0.0021501312509013674 0.012466196038127772 0 -0.0021419314549969018 0.012476098576578854 0 -0.0021729742684791506 0.012467643491753382 0 -0.0021602903683909983 0.012467705074783104 0 -0.0021501312509013674 0.012466196038127772 0 -0.0021602903683909983 0.012467705074783104 0 -0.0021419314549969018 0.012476098576578854 0 -0.0021525561544480788 0.012471930725206293 0 -0.0021352225084499774 0.01248574093944912 0 -0.0021360755155180235 0.012483901767503615 0 -0.0021525561544480788 0.012471930725206293 0 -0.0021419314549969018 0.012476098576578854 0 -0.0021360755155180235 0.012483901767503615 0 -0.0021525561544480788 0.012471930725206293 0 -0.00047989886516306172 0.012397024181702663 0 -8.6215800085377156e-05 0.013860943942985518 0 0.0013812225476603959 0.012890307278608463 0 0.0012805303185574855 0.012794844448163775 0 0.0014147245481168573 0.0128410208738462 0 -0.0021410858551235302 0.012472650523710434 0 -0.0021419314549969018 0.012476098576578854 0 -0.0021317416501788243 0.012489867574171374 0 0.0011783184611662693 0.01592431315364665 0 0.00080265274988711014 0.015822809057129173 0 0.0013613986602942787 0.016178582411883309 0 -8.6215800085377156e-05 0.013860943942985518 0 0.0016318928933365838 0.014631980825746188 0 0.0011783184611662693 0.01592431315364665 0 0.0010808237447001883 0.015751802910658193 0 0.00088758776420253275 0.015799241622850659 0 0.0010808237447001883 0.015751802910658193 0 0.00088758776420253275 0.015799241622850659 0 0.00089428979237477998 0.01566665163291971 0 0.0011783184611662693 0.01592431315364665 0 0.00088758776420253275 0.015799241622850659 0 0.00080265274988711014 0.015822809057129173 0 0.00010516754526970774 0.014060293874019657 0 -8.6215800085377156e-05 0.013860943942985518 0 0.00088758776420253275 0.015799241622850659 0 0.00080838790307148319 0.015821003832797595 0 0.00089428979237477998 0.01566665163291971 0 -0.0021419314549969018 0.012476098576578854 0 -0.0021317416501788243 0.012489867574171374 0 -0.0021360755155180235 0.012483901767503615 0 -0.00092331865823861001 0.01456550664404559 0 -0.00084404659466009665 0.014336239092781039 0 -0.0011820691413165951 0.014501256115341645 0 -8.6215800085377156e-05 0.013860943942985518 0 -0.00029903813020696604 0.013862865683999432 0 -0.001497221280753762 0.013513250752884537 0 -0.00011033654082084868 0.014969568615468852 0 -0.00050237299243424238 0.014064163468861106 0 -0.00050348520168692987 0.014065582941727155 0 -0.00050228011486603836 0.014069436966798686 0 -0.00050502195543773124 0.014063168565230988 0 -0.00050348520168692987 0.014065582941727155 0 -0.00050522457540517595 0.014060961042775565 0 -0.00050348520168692987 0.014065582941727155 0 -0.00050522457540517595 0.014060961042775565 0 -0.00050228011486603836 0.014069436966798686 0 -8.6215800085377156e-05 0.013860943942985518 0 -0.001497221280753762 0.013513250752884537 0 -8.6215800085377156e-05 0.013860943942985518 0 -0.00011033654082084868 0.014969568615468852 0 -0.0021317416501788243 0.012489867574171374 0 -0.0021352225084499774 0.01248574093944912 0 -0.0021360755155180235 0.012483901767503615 0 0.0016694462908075998 0.014654405192017593 0 0.0016318928933365838 0.014631980825746188 0 0.0019160634293687413 0.016483426425647745 0 0.0013613986602942787 0.016178582411883309 0 0.0016973745544290725 0.01595677271948736 0 0.0015278263018708891 0.012890081115644552 0 0.0013812225476603959 0.012890307278608463 0 0.0014147245481168573 0.0128410208738462 0 0.0011783184611662693 0.01592431315364665 0 0.0013613986602942787 0.016178582411883309 0 0.0016973745544290725 0.01595677271948736 0 0.0011783184611662693 0.01592431315364665 0 0.0016973745544290725 0.01595677271948736 0 0.0013561021957018576 0.015680818039103844 0 0.0011783184611662693 0.01592431315364665 0 0.0010808237447001883 0.015751802910658193 0 0.0013561021957018576 0.015680818039103844 0 0.0022011872929455882 0.015678207035898697 0 0.0016973745544290725 0.01595677271948736 0 0.0016947255535437644 0.015474864303772314 0 0.0016973745544290725 0.01595677271948736 0 0.0016947255535437644 0.015474864303772314 0 0.0013561021957018576 0.015680818039103844 0 0.0016947255535437644 0.015474864303772314 0 0.0013561021957018576 0.015680818039103844 0 0.0012538044542887636 0.015239415363432504 0 0.0013561021957018576 0.015680818039103844 0 0.0012538044542887636 0.015239415363432504 0 0.0010799660449384548 0.015562990802581245 0 0.0011846739283084505 0.015277727257423828 0 0.00163602185680769 0.015000075243674058 0 0.0010313116459877026 0.01531331726041286 0 0.0016361563103302493 0.014999999744936694 0 0.0007562665188025812 0.014999994407774931 0 0.0021095834336516913 0.015332002137567623 0 0.0016947255535437644 0.015474864303772314 0 0.0016365737067776203 0.014999968224680497 0 0.0016947255535437644 0.015474864303772314 0 0.0012538044542887636 0.015239415363432504 0 0.0016365737067776203 0.014999968224680497 0 -0.00092331865823861001 0.01456550664404559 0 -0.00082026415997739149 0.014382823212221452 0 -0.00084404659466009665 0.014336239092781039 0 0.00031243168403208217 0.015375632687611605 0 -6.4392647786205932e-05 0.015334045424173411 0 0.00080838790307148319 0.015821003832797595 0 0.00071371086723376559 0.015600481840712804 0 0.00089428979237477998 0.01566665163291971 0 0.00078478070798445275 0.015470580989611592 0 0.00071371086723376559 0.015600481840712804 0 0.00089428979237477998 0.01566665163291971 0 -0.00011033654082084868 0.014969568615468852 0 -6.4392647786205932e-05 0.015334045424173411 0 9.0880366434593752e-05 0.015275975532171587 0 6.0175262503231099e-05 0.015332314276359321 0 4.3485092805747375e-05 0.015300003529799463 0 0.00031243168403208217 0.015375632687611605 0 -0.00011033654082084868 0.014969568615468852 0 0.00078478070798445275 0.015470580989611592 0 0.00089428979237477998 0.01566665163291971 0 0.0010799660449384548 0.015562990802581245 0 0.0012538044542887636 0.015239415363432504 0 0.00078478070798445275 0.015470580989611592 0 0.0010799660449384548 0.015562990802581245 0 0.0011846739283084505 0.015277727257423828 0 0.00031243168403208217 0.015375632687611605 0 0.0010808237447001883 0.015751802910658193 0 0.00089428979237477998 0.01566665163291971 0 0.0010799660449384548 0.015562990802581245 0 0.0010808237447001883 0.015751802910658193 0 0.0013561021957018576 0.015680818039103844 0 0.0010799660449384548 0.015562990802581245 0 0.00031243168403208217 0.015375632687611605 0 0.00075615522824398285 0.015000368542123279 0 0.0010313116459877026 0.01531331726041286 0 0.00043349267785506581 0.015621942496005311 0 0.0007562665188025812 0.014999994407774931 0 0.00017156734388431042 0.01559766843290733 0 -7.6467563900290691e-05 0.014999923107952427 0 -0.00027095102535033242 0.015543822029154409 0 -6.4392647786205932e-05 0.015334045424173411 0 -7.5821900078354383e-05 0.015000660809677041 0 0.00042552435791976602 0.015625174563935709 0 0.00075624119162706182 0.014999995926414768 0 -7.6207939269078907e-05 0.014999996073565421 0 0.00042552435791976602 0.015625174563935709 0 0.00028703996449556545 0.015696866344138111 0 -7.6207939269078907e-05 0.014999996073565421 0 -7.6467563900290691e-05 0.014999923107952427 0 -0.00027095102535033242 0.015543822029154409 0 -0.00058546584913976216 0.015346738439928728 0 -6.4392647786205932e-05 0.015334045424173411 0 -0.00084744959435962533 0.015148543672823776 0 0.00017156734388431042 0.01559766843290733 0 -0.00027095102535033242 0.015543822029154409 0 -0.00045808197016979551 0.0159105995933219 0 -0.00027095102535033242 0.015543822029154409 0 -0.00066599737340640854 0.015646521385578854 0 -0.00058546584913976216 0.015346738439928728 0 -0.00027095102535033242 0.015543822029154409 0 -0.00066599737340640854 0.015646521385578854 0 -0.00045808197016979551 0.0159105995933219 0 -0.00066599737340640854 0.015646521385578854 0 -0.00058546584913976216 0.015346738439928728 0 -0.0011117051958900647 0.015472758679246896 0 -0.00066599737340640854 0.015646521385578854 0 -0.0011117051958900647 0.015472758679246896 0 -0.00094008117271434364 0.015821684729508227 0 -0.00085908223219820527 0.014999935104396615 0 -0.00058546584913976216 0.015346738439928728 0 -0.0011117051958900647 0.015472758679246896 0 -7.6467563900290691e-05 0.014999923107952427 0 -0.00085908223219820527 0.014999935104396615 0 -0.00058546584913976216 0.015346738439928728 0 -0.00085908223219820527 0.014999935104396615 0 -0.0016420163888706974 0.014999882958141791 0 -0.0011117051958900647 0.015472758679246896 0 -0.0016420163888706974 0.014999882958141791 0 -0.0016747699740244433 0.015578162543893964 0 -0.0011117051958900647 0.015472758679246896 0 -0.0016420163888706974 0.014999882958141791 0 -0.0016747699740244433 0.015578162543893964 0 -0.0021441249606789295 0.015456894787807766 0 -0.0016747699740244433 0.015578162543893964 0 -0.0021441249606789295 0.015456894787807766 0 -0.0020293520633874614 0.0157901651257349 0 -0.0016747699740244433 0.015578162543893964 0 -0.0011117051958900647 0.015472758679246896 0 -0.0013427726359875355 0.015815589621642579 0 -0.0011117051958900647 0.015472758679246896 0 -0.0013427726359875355 0.015815589621642579 0 -0.00094008117271434364 0.015821684729508227 0 -0.0013427726359875355 0.015815589621642579 0 -0.0012355573555149616 0.01597020621810058 0 -0.00094008117271434364 0.015821684729508227 0 -0.0013427726359875355 0.015815589621642579 0 -0.0014719958829558517 0.016062957838647935 0 -0.0017619702949691733 0.015969439309662672 0 -0.0013427726359875355 0.015815589621642579 0 -0.0014719958829558517 0.016062957838647935 0 -0.0012355573555149616 0.01597020621810058 0 -0.0014719958829558517 0.016062957838647935 0 -0.0012355573555149616 0.01597020621810058 0 -0.0011847921498806984 0.016180122293049548 0 -0.0012355573555149616 0.01597020621810058 0 -0.0011847921498806984 0.016180122293049548 0 -0.00094008117271434364 0.015821684729508227 0 -0.0016747699740244433 0.015578162543893964 0 -0.0013427726359875355 0.015815589621642579 0 -0.0017619702949691733 0.015969439309662672 0 -0.0016747699740244433 0.015578162543893964 0 -0.0017619702949691733 0.015969439309662672 0 -0.0020293520633874614 0.0157901651257349 0 -0.0017619702949691733 0.015969439309662672 0 -0.0020293520633874614 0.0157901651257349 0 -0.0021660377830335009 0.016107927679614328 0 -0.0019332818822139521 0.014681173407528572 0 -0.0018033782354251507 0.013662324434312383 0 -0.0014719958829558517 0.016062957838647935 0 -0.0017619702949691733 0.015969439309662672 0 -0.0019165220660555191 0.016372569177725713 0 -0.0017619702949691733 0.015969439309662672 0 -0.0019165220660555191 0.016372569177725713 0 -0.0021660377830335009 0.016107927679614328 0 -0.0020958110532785365 0.012673653494740221 0 -0.0020849205904348821 0.012637890802420108 0 -0.0021248226221133059 0.012744178119308626 0 -0.0020958110532785365 0.012673653494740221 0 -0.0021037979795095999 0.012688443569662672 0 -0.0020956067203432853 0.012683296788273402 0 -0.0020958110532785365 0.012673653494740221 0 -0.0020898072611490138 0.012659580641647404 0 -0.0020940416806638023 0.012682382771955396 0 -0.0020958110532785365 0.012673653494740221 0 -0.0020940416806638023 0.012682382771955396 0 -0.0020956067203432853 0.012683296788273402 0 -0.0020958110532785365 0.012673653494740221 0 -0.0020898072611490138 0.012659580641647404 0 -0.0020849205904348821 0.012637890802420108 0 -0.0020898072611490138 0.012659580641647404 0 -0.0021035740296863163 0.012683469268627704 0 -0.0020940416806638023 0.012682382771955396 0 -0.0020898072611490138 0.012659580641647404 0 -0.0021035740296863163 0.012683469268627704 0 -0.0020849205904348821 0.012637890802420108 0 -0.0018500010947944308 0.014829845354127891 0 -0.0015210197259111042 0.014667946856755177 0 -0.0015416733953221998 0.014744025346707023 0 -0.0019332818822139521 0.014681173407528572 0 -0.001372577708800197 0.015538803414989887 0 -0.0014719958829558517 0.016062957838647935 0 -0.0019165220660555191 0.016372569177725713 0 -0.0011847921498806984 0.016180122293049548 0 -0.0020958110532785365 0.012673653494740221 0 -0.0021248226221133059 0.012744178119308626 0 -0.0021037979795095999 0.012688443569662672 0 -0.0021248226221133059 0.012744178119308626 0 -0.0021037979795095999 0.012688443569662672 0 -0.0021244499295161178 0.012700997883041531 0 -0.0021037979795095999 0.012688443569662672 0 -0.0021244499295161178 0.012700997883041531 0 -0.0021142078003198194 0.012686032336143236 0 -0.0021244499295161178 0.012700997883041531 0 -0.0021511580585031743 0.012711633591471304 0 -0.0021383818544666428 0.012682379319320033 0 -0.0021248226221133059 0.012744178119308626 0 -0.0021511580585031743 0.012711633591471304 0 -0.0021867885324734016 0.01273236046290664 0 -0.0021248226221133059 0.012744178119308626 0 -0.0021244499295161178 0.012700997883041531 0 -0.0021511580585031743 0.012711633591471304 0 -0.0015210197259111042 0.014667946856755177 0 -0.0015416733953221998 0.014744025346707023 0 -0.0012318824346575939 0.014655628536464356 0 -0.0018033782354251507 0.013662324434312383 0 -0.0017692808339098323 0.013747705048876476 0 -0.0021248226221133059 0.012744178119308626 0 -0.0021867885324734016 0.01273236046290664 0 -0.0022295667301133713 0.012786761663551666 0 -0.0021511580585031743 0.012711633591471304 0 -0.0021867885324734016 0.01273236046290664 0 -0.0021869416036362868 0.012684351603160577 0 -0.0021867885324734016 0.01273236046290664 0 -0.0022286888776508465 0.012711500649724962 0 -0.0022295667301133713 0.012786761663551666 0 -0.0021867885324734016 0.01273236046290664 0 -0.0022286888776508465 0.012711500649724962 0 -0.0021869416036362868 0.012684351603160577 0 -0.001497221280753762 0.013513250752884537 0 -0.0022290255011060806 0.012503218529573418 0 -0.0023274394711807231 0.012824730384871561 0 -0.0022891611568205831 0.012725853895528537 0 -0.0022295667301133713 0.012786761663551666 0 -0.0022286888776508465 0.012711500649724962 0 -0.0022891611568205831 0.012725853895528537 0 -0.0022295667301133713 0.012786761663551666 0 -0.00092331865823861001 0.01456550664404559 0 -0.0011820691413165951 0.014501256115341645 0 -0.0012318824346575939 0.014655628536464356 0 -0.001497221280753762 0.013513250752884537 0 -0.0017692808339098323 0.013747705048876476 0 -0.0015210197259111042 0.014667946856755177 0 -0.0011820691413165951 0.014501256115341645 0 -0.0012318824346575939 0.014655628536464356 0 -0.001372577708800197 0.015538803414989887 0 -0.00084744959435962533 0.015148543672823776 0 -0.0011847921498806984 0.016180122293049548 0 -0.00045808197016979551 0.0159105995933219 0 -0.00094008117271434364 0.015821684729508227 0 -0.00066599737340640854 0.015646521385578854 0 -0.00045808197016979551 0.0159105995933219 0 -0.00094008117271434364 0.015821684729508227 0 -0.0034506810731802415 0.015324212041732449 0 -0.0037450902142502893 0.015559893661423106 0 -0.00399029694040703 0.014999955989597951 0 -0.0034506810731802415 0.015324212041732449 0 -0.003332594508090073 0.015602842805397605 0 -0.0037450902142502893 0.015559893661423106 0 -0.0034506810731802415 0.015324212041732449 0 -0.0032076550884337293 0.014999842545088727 0 -0.00399029694040703 0.014999955989597951 0 -0.0032076550884337293 0.014999842545088727 0 -0.0029996742103576501 0.015384281281406171 0 -0.0024248537379841367 0.014999879769550615 0 -0.0034506810731802415 0.015324212041732449 0 -0.0032076550884337293 0.014999842545088727 0 -0.0029996742103576501 0.015384281281406171 0 -0.0034506810731802415 0.015324212041732449 0 -0.0029996742103576501 0.015384281281406171 0 -0.003332594508090073 0.015602842805397605 0 -0.0029996742103576501 0.015384281281406171 0 -0.0029214585862042744 0.015722284583652869 0 -0.003332594508090073 0.015602842805397605 0 -0.0029996742103576501 0.015384281281406171 0 -0.00260413804327349 0.015491197033848556 0 -0.0029214585862042744 0.015722284583652869 0 -0.0029996742103576501 0.015384281281406171 0 -0.00260413804327349 0.015491197033848556 0 -0.0024248537379841367 0.014999879769550615 0 -0.0016420163888706974 0.014999882958141791 0 -0.0024248537379841367 0.014999879769550615 0 -0.0021441249606789295 0.015456894787807766 0 -0.00260413804327349 0.015491197033848556 0 -0.0024248537379841367 0.014999879769550615 0 -0.0021441249606789295 0.015456894787807766 0 -0.00260413804327349 0.015491197033848556 0 -0.0021441249606789295 0.015456894787807766 0 -0.0024373780598306804 0.015770004579533328 0 -0.0021441249606789295 0.015456894787807766 0 -0.0020293520633874614 0.0157901651257349 0 -0.0024373780598306804 0.015770004579533328 0 -0.0024373780598306804 0.015770004579533328 0 -0.0021660377830335009 0.016107927679614328 0 -0.0026664007276972759 0.016002670837636495 0 -0.0020293520633874614 0.0157901651257349 0 -0.0024373780598306804 0.015770004579533328 0 -0.0021660377830335009 0.016107927679614328 0 -0.0022053771248648395 0.016092767008855893 0 -0.0026889802166051974 0.016249607721814517 0 -0.0021660377830335009 0.016107927679614328 0 -0.0022804743370723841 0.016343945298935438 0 -0.0025291022065624573 0.016409213691559819 0 -0.0021660377830335009 0.016107927679614328 0 -0.0026664007276972759 0.016002670837636495 0 -0.0029198889251762709 0.016165655558412862 0 -0.0019165220660555191 0.016372569177725713 0 -0.0021660377830335009 0.016107927679614328 0 -0.0022804743370723841 0.016343945298935438 0 -0.0026664007276972759 0.016002670837636495 0 -0.0029269716639086529 0.016029788726779886 0 -0.0029198889251762709 0.016165655558412862 0 -0.0029269716639086529 0.016029788726779886 0 -0.0030830244866017998 0.016020977225322319 0 -0.0029198889251762709 0.016165655558412862 0 -0.0029269716639086529 0.016029788726779886 0 -0.0030281024744849049 0.01592526156561147 0 -0.0030830244866017998 0.016020977225322319 0 -0.0026664007276972759 0.016002670837636495 0 -0.0029269716639086529 0.016029788726779886 0 -0.0030281024744849049 0.01592526156561147 0 -0.0026664007276972759 0.016002670837636495 0 -0.0030281024744849049 0.01592526156561147 0 -0.0029214585862042744 0.015722284583652869 0 -0.00260413804327349 0.015491197033848556 0 -0.0024373780598306804 0.015770004579533328 0 -0.0029214585862042744 0.015722284583652869 0 -0.0024373780598306804 0.015770004579533328 0 -0.0026664007276972759 0.016002670837636495 0 -0.0029214585862042744 0.015722284583652869 0 -0.0029214585862042744 0.015722284583652869 0 -0.003332594508090073 0.015602842805397605 0 -0.0032710500842918783 0.015784288867876615 0 -0.003332594508090073 0.015602842805397605 0 -0.0032710500842918783 0.015784288867876615 0 -0.0035670067731354217 0.015698703568868138 0 -0.0030281024744849049 0.01592526156561147 0 -0.0029214585862042744 0.015722284583652869 0 -0.0032710500842918783 0.015784288867876615 0 -0.0030281024744849049 0.01592526156561147 0 -0.0032710500842918783 0.015784288867876615 0 -0.0032728704976205556 0.015921843725374855 0 -0.0030830244866017998 0.016020977225322319 0 -0.0032728704976205556 0.015921843725374855 0 -0.0032810026139086209 0.016029027896084826 0 -0.0030281024744849049 0.01592526156561147 0 -0.0030830244866017998 0.016020977225322319 0 -0.0032728704976205556 0.015921843725374855 0 -0.0032728704976205556 0.015921843725374855 0 -0.0034596392482860606 0.015922918393645402 0 -0.0032810026139086209 0.016029027896084826 0 -0.0032728704976205556 0.015921843725374855 0 -0.0034923943127571498 0.015825591781458703 0 -0.0034596392482860606 0.015922918393645402 0 -0.0032710500842918783 0.015784288867876615 0 -0.0032728704976205556 0.015921843725374855 0 -0.0034923943127571498 0.015825591781458703 0 -0.0032710500842918783 0.015784288867876615 0 -0.0034923943127571498 0.015825591781458703 0 -0.0035670067731354217 0.015698703568868138 0 -0.0034923943127571498 0.015825591781458703 0 -0.0036852126513006629 0.015762003405373808 0 -0.0035670067731354217 0.015698703568868138 0 -0.0034923943127571498 0.015825591781458703 0 -0.0035968792859916981 0.015847246104662708 0 -0.0034596392482860606 0.015922918393645402 0 -0.0034923943127571498 0.015825591781458703 0 -0.0035968792859916981 0.015847246104662708 0 -0.0036852126513006629 0.015762003405373808 0 -0.0035968792859916981 0.015847246104662708 0 -0.0036852126513006629 0.015762003405373808 0 -0.0037234517140358196 0.015826701812534909 0 -0.0036852126513006629 0.015762003405373808 0 -0.0037234517140358196 0.015826701812534909 0 -0.0038362434058933745 0.015741088278427205 0 -0.0036852126513006629 0.015762003405373808 0 -0.0035670067731354217 0.015698703568868138 0 -0.0038257301740748577 0.015642984704821897 0 -0.003332594508090073 0.015602842805397605 0 -0.0035670067731354217 0.015698703568868138 0 -0.0037450902142502893 0.015559893661423106 0 -0.0035670067731354217 0.015698703568868138 0 -0.0037450902142502893 0.015559893661423106 0 -0.0038257301740748577 0.015642984704821897 0 -0.0027166216839546427 0.016533231727945425 0 -0.0027399967292883274 0.016506072327767452 0 -0.0029252424535772012 0.016552703487943719 0 -0.0030310308804087742 0.013722939252668985 0 -0.0032439242832818 0.014270950830989271 0 -0.0038105297692309849 0.01438513128048843 0 -0.0037438306968024869 0.01593905739362176 0 -0.003487768060128836 0.016070300214236086 0 -0.00389919005739194 0.015936703091683792 0 -0.0028140203179973337 0.015113652004207823 0 -0.0036049417791082384 0.015431866539723896 0 -0.0031076863390855267 0.016386543197861505 0 -0.0036049417791082384 0.015431866539723896 0 -0.0037438306968024869 0.01593905739362176 0 -0.00389919005739194 0.015936703091683792 0 -0.0038882872662605399 0.015881845435029598 0 -0.0037438306968024869 0.01593905739362176 0 -0.0036078719801808951 0.015964490456637448 0 -0.003487768060128836 0.016070300214236086 0 -0.0037438306968024869 0.01593905739362176 0 -0.0037333493553805531 0.015886628126119448 0 -0.0036078719801808951 0.015964490456637448 0 -0.0037438306968024869 0.01593905739362176 0 -0.0037333493553805531 0.015886628126119448 0 -0.0038558203905118896 0.015853838727335451 0 -0.0037333493553805531 0.015886628126119448 0 -0.0037234517140358196 0.015826701812534909 0 -0.0038535269601069422 0.015803078729468158 0 -0.0037333493553805531 0.015886628126119448 0 -0.0037234517140358196 0.015826701812534909 0 -0.0035963650082178134 0.015912483075511952 0 -0.0035968792859916981 0.015847246104662708 0 -0.0037234517140358196 0.015826701812534909 0 -0.0035963650082178134 0.015912483075511952 0 -0.0035968792859916981 0.015847246104662708 0 -0.0035963650082178134 0.015912483075511952 0 -0.0034596392482860606 0.015922918393645402 0 -0.0035963650082178134 0.015912483075511952 0 -0.0034855041487793751 0.015985351432467911 0 -0.0034596392482860606 0.015922918393645402 0 -0.0035963650082178134 0.015912483075511952 0 -0.0036078719801808951 0.015964490456637448 0 -0.0034855041487793751 0.015985351432467911 0 -0.0036078719801808951 0.015964490456637448 0 -0.0034855041487793751 0.015985351432467911 0 -0.003487768060128836 0.016070300214236086 0 -0.0037333493553805531 0.015886628126119448 0 -0.0035963650082178134 0.015912483075511952 0 -0.0036078719801808951 0.015964490456637448 0 -0.0027166216839546427 0.016533231727945425 0 -0.0027399967292883274 0.016506072327767452 0 -0.0025291022065624573 0.016409213691559819 0 -0.0031076863390855267 0.016386543197861505 0 -0.0026889802166051974 0.016249607721814517 0 -0.0032810026139086209 0.016029027896084826 0 -0.003487768060128836 0.016070300214236086 0 -0.0029198889251762709 0.016165655558412862 0 -0.0034855041487793751 0.015985351432467911 0 -0.0032810026139086209 0.016029027896084826 0 -0.003487768060128836 0.016070300214236086 0 -0.0034855041487793751 0.015985351432467911 0 -0.0034596392482860606 0.015922918393645402 0 -0.0032810026139086209 0.016029027896084826 0 -0.0030310308804087742 0.013722939252668985 0 -0.0024781740402201428 0.013834231567991299 0 -0.0032439242832818 0.014270950830989271 0 -0.0021564545159442373 0.012555942690883998 0 -0.0022357976020243239 0.012641979706508169 0 -0.0022383168365639316 0.012466582403362845 0 -0.0023572088993190255 0.013201490638874767 0 -0.0022025555096847563 0.012908317861133049 0 -0.0030310308804087742 0.013722939252668985 0 -0.0024781740402201428 0.013834231567991299 0 -0.0023515546250943453 0.01305228807517707 0 -0.0028140203179973337 0.015113652004207823 0 -0.0023987575267105489 0.014749088377633677 0 -0.0024781740402201428 0.013834231567991299 0 -0.0023515546250943453 0.01305228807517707 0 -0.0021935425065783025 0.012854741543814595 0 -0.0027166216839546427 0.016533231727945425 0 -0.0025291022065624573 0.016409213691559819 0 -0.0024587754159071328 0.016489142046859424 0 -0.0030830244866017998 0.016020977225322319 0 -0.0032810026139086209 0.016029027896084826 0 -0.0029198889251762709 0.016165655558412862 0 -0.0022804743370723841 0.016343945298935438 0 -0.0025291022065624573 0.016409213691559819 0 -0.0024587754159071328 0.016489142046859424 0 -0.0019332818822139521 0.014681173407528572 0 -0.0023987575267105489 0.014749088377633677 0 -0.0019165220660555191 0.016372569177725713 0 -0.0022804743370723841 0.016343945298935438 0 -0.0024587754159071328 0.016489142046859424 0 -0.0020849205904348821 0.012637890802420108 0 -0.0023515546250943453 0.01305228807517707 0 -0.0021935425065783025 0.012854741543814595 0 -0.0021935425065783025 0.012854741543814595 0 -0.0022357976020243239 0.012641979706508169 0 -0.0021598835053986323 0.012777004468890024 0 -0.0020849205904348821 0.012637890802420108 0 -0.0021935425065783025 0.012854741543814595 0 -0.0021598835053986323 0.012777004468890024 0 -0.0022357976020243239 0.012641979706508169 0 -0.0021598835053986323 0.012777004468890024 0 -0.0023604326659152374 0.012530113195870189 0 -0.0021564545159442373 0.012555942690883998 0 -0.0021935425065783025 0.012854741543814595 0 -0.0022357976020243239 0.012641979706508169 0 -0.0022357976020243239 0.012641979706508169 0 -0.0022383168365639316 0.012466582403362845 0 -0.0023604326659152374 0.012530113195870189 0 -0.0022383168365639316 0.012466582403362845 0 -0.0022959634916710969 0.012350317079000118 0 -0.0023604326659152374 0.012530113195870189 0 -0.0022383168365639316 0.012466582403362845 0 -0.0022959634916710969 0.012350317079000118 0 -0.0022402009104267565 0.012345734174507307 0 -0.0022959634916710969 0.012350317079000118 0 -0.0022402009104267565 0.012345734174507307 0 -0.0022654118246639987 0.012263688929360084 0 -0.0022402009104267565 0.012345734174507307 0 -0.002222545794028215 0.012327863669698026 0 -0.0022378362095283786 0.012269114921060644 0 -0.0022402009104267565 0.012345734174507307 0 -0.0022052750110068122 0.012410363381378017 0 -0.002222545794028215 0.012327863669698026 0 -0.0022383168365639316 0.012466582403362845 0 -0.0022402009104267565 0.012345734174507307 0 -0.0022052750110068122 0.012410363381378017 0 -0.0021564545159442373 0.012555942690883998 0 -0.0022383168365639316 0.012466582403362845 0 -0.0022052750110068122 0.012410363381378017 0 -0.0021564545159442373 0.012555942690883998 0 -0.0022052750110068122 0.012410363381378017 0 -0.0021912622806832985 0.012375250187268053 0 -0.0023572088993190255 0.013201490638874767 0 -0.002599434313195943 0.013633536033046033 0 -0.0024781740402201428 0.013834231567991299 0 -0.0031517726580752516 0.014810988819964215 0 -0.0032439242832818 0.014270950830989271 0 -0.0021912622806832985 0.012375250187268053 0 -0.002222545794028215 0.012327863669698026 0 -0.0022520408928896726 0.012259342494426026 0 -0.0022052750110068122 0.012410363381378017 0 -0.0021912622806832985 0.012375250187268053 0 -0.002222545794028215 0.012327863669698026 0 -0.002222545794028215 0.012327863669698026 0 -0.0022378362095283786 0.012269114921060644 0 -0.0022520408928896726 0.012259342494426026 0 -0.0021912622806832985 0.012375250187268053 0 -0.0022520408928896726 0.012259342494426026 0 -0.0021865991738128777 0.012281944929640833 0 -0.0031517726580752516 0.014810988819964215 0 -0.0035779360361998893 0.014769476663529289 0 -0.0037875356677064269 0.015433861340378951 0 -0.002599434313195943 0.013633536033046033 0 -0.0035403214677727194 0.013476903922577802 0 -0.0035779360361998893 0.014769476663529289 0 -0.0037875356677064269 0.015433861340378951 0 -0.0038615530323428942 0.014760993136054147 0 -0.0035779360361998893 0.014769476663529289 0 -0.0032439242832818 0.014270950830989271 0 -0.0038105297692309849 0.01438513128048843 0 -0.0031517726580752516 0.014810988819964215 0 -0.0035779360361998893 0.014769476663529289 0 -0.0032439242832818 0.014270950830989271 0 -0.0035779360361998893 0.014769476663529289 0 -0.0038105297692309849 0.01438513128048843 0 -0.0038615530323428942 0.014760993136054147 0 -0.0021867845276938992 0.012490561797628143 0 -0.0022157253996223903 0.012561605208806217 0 -0.0021875413218825947 0.012491180898066537 0 -0.0022522454512129897 0.012626592614849635 0 -0.0021617242043936711 0.012620346588186542 0 -0.0021729742684791506 0.012467643491753382 0 -0.0021802066902409673 0.012466202934528482 0 -0.0021993610216726931 0.012417002627113257 0 -0.0021729742684791506 0.012467643491753382 0 -0.0021802066902409673 0.012466202934528482 0 -0.0021730032909184722 0.012465745261514104 0 -0.0021875413218825947 0.012491180898066537 0 -0.0021802066902409673 0.012466202934528482 0 -0.0021730032909184722 0.012465745261514104 0 -0.0022286888776508465 0.012711500649724962 0 -0.0022891611568205831 0.012725853895528537 0 -0.0022522454512129897 0.012626592614849635 0 -0.0021729742684791506 0.012467643491753382 0 -0.0021602903683909983 0.012467705074783104 0 -0.0021730032909184722 0.012465745261514104 0 -0.0021602903683909983 0.012467705074783104 0 -0.0021525561544480788 0.012471930725206293 0 -0.0021730032909184722 0.012465745261514104 0 -0.0022290255011060806 0.012503218529573418 0 -0.0022157253996223903 0.012561605208806217 0 -0.0022286888776508465 0.012711500649724962 0 -0.0022522454512129897 0.012626592614849635 0 -0.0021869416036362868 0.012684351603160577 0 -0.0022522454512129897 0.012626592614849635 0 -0.0021617242043936711 0.012620346588186542 0 -0.0021869416036362868 0.012684351603160577 0 -0.0021511580585031743 0.012711633591471304 0 -0.0021869416036362868 0.012684351603160577 0 -0.0021383818544666428 0.012682379319320033 0 -0.0021617242043936711 0.012620346588186542 0 -0.0021869416036362868 0.012684351603160577 0 -0.0021383818544666428 0.012682379319320033 0 -0.0021244499295161178 0.012700997883041531 0 -0.0021383818544666428 0.012682379319320033 0 -0.0021142078003198194 0.012686032336143236 0 -0.0021037979795095999 0.012688443569662672 0 -0.0021142078003198194 0.012686032336143236 0 -0.0021031220744212697 0.012687145182717892 0 -0.0021142078003198194 0.012686032336143236 0 -0.0021153842841915862 0.012664361090177928 0 -0.0021031220744212697 0.012687145182717892 0 -0.0021383818544666428 0.012682379319320033 0 -0.0021142078003198194 0.012686032336143236 0 -0.0021153842841915862 0.012664361090177928 0 -0.0021617242043936711 0.012620346588186542 0 -0.0021383818544666428 0.012682379319320033 0 -0.0021153842841915862 0.012664361090177928 0 -0.0021035740296863163 0.012683469268627704 0 -0.0020849205904348821 0.012637890802420108 0 -0.0021598835053986323 0.012777004468890024 0 -0.0021598835053986323 0.012777004468890024 0 -0.0021106714635522107 0.012705751188474461 0 -0.0020997016266351282 0.012701294980881822 0 -0.0021035740296863163 0.012683469268627704 0 -0.0021598835053986323 0.012777004468890024 0 -0.0021106714635522107 0.012705751188474461 0 -0.0021106714635522107 0.012705751188474461 0 -0.0020997016266351282 0.012701294980881822 0 -0.0020940416806638023 0.012682382771955396 0 -0.0021035740296863163 0.012683469268627704 0 -0.0021106714635522107 0.012705751188474461 0 -0.0020940416806638023 0.012682382771955396 0 -0.0021153842841915862 0.012664361090177928 0 -0.0020997016266351282 0.012701294980881822 0 -0.0021031220744212697 0.012687145182717892 0 -0.0020997016266351282 0.012701294980881822 0 -0.0020940416806638023 0.012682382771955396 0 -0.0020956067203432853 0.012683296788273402 0 -0.0020997016266351282 0.012701294980881822 0 -0.0020956067203432853 0.012683296788273402 0 -0.0021031220744212697 0.012687145182717892 0 -0.0021037979795095999 0.012688443569662672 0 -0.0020956067203432853 0.012683296788273402 0 -0.0021031220744212697 0.012687145182717892 0 -0.0021153842841915862 0.012664361090177928 0 -0.0020997016266351282 0.012701294980881822 0 -0.002104438998239591 0.012662768899027904 0 -0.0021598835053986323 0.012777004468890024 0 -0.0020997016266351282 0.012701294980881822 0 -0.002104438998239591 0.012662768899027904 0 -0.0021644663668239791 0.012744979654298903 0 -0.0021917446165334521 0.012527254459349622 0 -0.002104438998239591 0.012662768899027904 0 -0.0021218497558152883 0.012565147975977015 0 -0.0020246505516202992 0.012530999045855385 0 -0.0021598835053986323 0.012777004468890024 0 -0.002104438998239591 0.012662768899027904 0 -0.0020246505516202992 0.012530999045855385 0 -0.0021153842841915862 0.012664361090177928 0 -0.002104438998239591 0.012662768899027904 0 -0.0021218497558152883 0.012565147975977015 0 -0.0021617242043936711 0.012620346588186542 0 -0.0021153842841915862 0.012664361090177928 0 -0.0021218497558152883 0.012565147975977015 0 -0.0021875413218825947 0.012491180898066537 0 -0.0021617242043936711 0.012620346588186542 0 -0.0021218497558152883 0.012565147975977015 0 -0.0021875413218825947 0.012491180898066537 0 -0.0021218497558152883 0.012565147975977015 0 -0.0021044923352284712 0.012444776158374736 0 -0.0021917446165334521 0.012527254459349622 0 -0.0022126151913973214 0.012347022941777338 0 -0.0021218497558152883 0.012565147975977015 0 -0.0021044923352284712 0.012444776158374736 0 -0.0020246505516202992 0.012530999045855385 0 -0.0021044923352284712 0.012444776158374736 0 -0.0020246505516202992 0.012530999045855385 0 -0.0020413648515377261 0.012365694385254387 0 -0.0022959634916710969 0.012350317079000118 0 -0.0023604326659152374 0.012530113195870189 0 -0.002377398844867715 0.012319723937965883 0 -0.0021044923352284712 0.012444776158374736 0 -0.0021702401378162839 0.012405585731635551 0 -0.0021220028110450788 0.012327712197702619 0 -0.0021044923352284712 0.012444776158374736 0 -0.0020413648515377261 0.012365694385254387 0 -0.0021220028110450788 0.012327712197702619 0 -0.0021738328379687444 0.012399723769495372 0 -0.0021292026653413655 0.012315366332857009 0 -0.0021702401378162839 0.012405585731635551 0 -0.0021957476430473611 0.012369197950426413 0 -0.002194489395803387 0.012294643996212922 0 -0.0021702401378162839 0.012405585731635551 0 -0.002194489395803387 0.012294643996212922 0 -0.0021491242191654489 0.012297854728410015 0 -0.0021875413218825947 0.012491180898066537 0 -0.0021044923352284712 0.012444776158374736 0 -0.0021702401378162839 0.012405585731635551 0 -0.0021875413218825947 0.012491180898066537 0 -0.0021702401378162839 0.012405585731635551 0 -0.0021993610216726931 0.012417002627113257 0 -0.0021875413218825947 0.012491180898066537 0 -0.0021802066902409673 0.012466202934528482 0 -0.0021993610216726931 0.012417002627113257 0 -0.0021957476430473611 0.012369197950426413 0 -0.0022147646384019096 0.012330120728142878 0 -0.002194489395803387 0.012294643996212922 0 -0.0021993610216726931 0.012417002627113257 0 -0.0021957476430473611 0.012369197950426413 0 -0.0022147646384019096 0.012330120728142878 0 -0.0021702401378162839 0.012405585731635551 0 -0.0021993610216726931 0.012417002627113257 0 -0.0021957476430473611 0.012369197950426413 0 -0.0022147646384019096 0.012330120728142878 0 -0.002194489395803387 0.012294643996212922 0 -0.0022170110874608247 0.012247859046222932 0 -0.002194489395803387 0.012294643996212922 0 -0.002206862425062993 0.012220902582131781 0 -0.0022170110874608247 0.012247859046222932 0 -0.002194489395803387 0.012294643996212922 0 -0.002206862425062993 0.012220902582131781 0 -0.0021788869971500102 0.012245138027546586 0 -0.0022026326054790006 0.012206981362965582 0 -0.0022170110874608247 0.012247859046222932 0 -0.0022307697269386387 0.01218562641703603 0 -0.002206862425062993 0.012220902582131781 0 -0.0022170110874608247 0.012247859046222932 0 -0.0022307697269386387 0.01218562641703603 0 -0.002206862425062993 0.012220902582131781 0 -0.0022307697269386387 0.01218562641703603 0 -0.0022126277646895977 0.012150905613552435 0 -0.0022307697269386387 0.01218562641703603 0 -0.002246648431141533 0.012103231023140351 0 -0.0022394862625032741 0.012220872102850118 0 -0.0022307697269386387 0.01218562641703603 0 -0.002246648431141533 0.012103231023140351 0 -0.0022126277646895977 0.012150905613552435 0 -0.0022397334913748256 0.01210667883848717 0 -0.002291357519963416 0.012071690995273091 0 -0.0022026326054790006 0.012206981362965582 0 -0.0022307697269386387 0.01218562641703603 0 -0.0022111547885331952 0.012227186676083501 0 -0.0022307697269386387 0.01218562641703603 0 -0.0022111547885331952 0.012227186676083501 0 -0.0022394862625032741 0.012220872102850118 0 -0.0021985264560975635 0.012086063198685867 0 -0.0021908473780661549 0.012116651521101585 0 -0.0022110964002602673 0.012094345631623878 0 -0.0021985264560975635 0.012086063198685867 0 -0.0022126277646895977 0.012150905613552435 0 -0.0021908473780661549 0.012116651521101585 0 -0.0021985264560975635 0.012086063198685867 0 -0.002246648431141533 0.012103231023140351 0 -0.0022126277646895977 0.012150905613552435 0 -0.0021985264560975635 0.012086063198685867 0 -0.002246648431141533 0.012103231023140351 0 -0.0022154196542592034 0.011986311791054614 0 -0.002206862425062993 0.012220902582131781 0 -0.0022126277646895977 0.012150905613552435 0 -0.0021897297465246525 0.012197997566046007 0 -0.0022126277646895977 0.012150905613552435 0 -0.0021844966916831931 0.012147001833290797 0 -0.0021897297465246525 0.012197997566046007 0 -0.0021844966916831931 0.012147001833290797 0 -0.0021871284111623789 0.012133214431356057 0 -0.0021849076415683434 0.012139099707981013 0 -0.0022126277646895977 0.012150905613552435 0 -0.0021844966916831931 0.012147001833290797 0 -0.0021908473780661549 0.012116651521101585 0 -0.0021800368378732059 0.012147872824454833 0 -0.0021772732780394907 0.0122070139793712 0 -0.0021844966916831931 0.012147001833290797 0 -0.0021908473780661549 0.012116651521101585 0 -0.0021871284111623789 0.012133214431356057 0 -0.0021908473780661549 0.012116651521101585 0 -0.0021871284111623789 0.012133214431356057 0 -0.0022110964002602673 0.012094345631623878 0 -0.002246636242746423 0.012143777352328277 0 -0.0021772732780394907 0.0122070139793712 0 -0.0023053099654720102 0.012141562738304102 0 -0.0023611387803943351 0.012192545396610483 0 -0.0023079444979719772 0.012185734772273842 0 -0.0023611387803943351 0.012192545396610483 0 -0.0023185922430619551 0.012252324434460839 0 -0.0023079444979719772 0.012185734772273842 0 -0.0021451455369854949 0.012217238048877952 0 -0.0021788869971500102 0.012245138027546586 0 -0.0021491242191654489 0.012297854728410015 0 -0.0021451455369854949 0.012217238048877952 0 -0.0021897297465246525 0.012197997566046007 0 -0.0021788869971500102 0.012245138027546586 0 -0.002206862425062993 0.012220902582131781 0 -0.0021897297465246525 0.012197997566046007 0 -0.0021788869971500102 0.012245138027546586 0 -0.0021844966916831931 0.012147001833290797 0 -0.0021451455369854949 0.012217238048877952 0 -0.0021897297465246525 0.012197997566046007 0 -0.002194489395803387 0.012294643996212922 0 -0.0021788869971500102 0.012245138027546586 0 -0.0021491242191654489 0.012297854728410015 0 -0.0021772732780394907 0.0122070139793712 0 -0.0021292026653413655 0.012315366332857009 0 -0.0022126151913973214 0.012347022941777338 0 -0.0021772732780394907 0.0122070139793712 0 -0.0020413648515377261 0.012365694385254387 0 -0.0020607743517754512 0.012234193873393405 0 -0.0021220028110450788 0.012327712197702619 0 -0.002377398844867715 0.012319723937965883 0 -0.0023611387803943351 0.012192545396610483 0 -0.0023185922430619551 0.012252324434460839 0 -0.0022959634916710969 0.012350317079000118 0 -0.002377398844867715 0.012319723937965883 0 -0.0023185922430619551 0.012252324434460839 0 -0.0022959634916710969 0.012350317079000118 0 -0.0023185922430619551 0.012252324434460839 0 -0.0022654118246639987 0.012263688929360084 0 -0.0023185922430619551 0.012252324434460839 0 -0.0022654118246639987 0.012263688929360084 0 -0.0022806736444563312 0.012207049753208009 0 -0.0022402009104267565 0.012345734174507307 0 -0.0022654118246639987 0.012263688929360084 0 -0.0022378362095283786 0.012269114921060644 0 -0.0022378362095283786 0.012269114921060644 0 -0.0022416274247212555 0.012218999267220565 0 -0.0022436270744699469 0.01221540008094988 0 -0.0022654118246639987 0.012263688929360084 0 -0.0022378362095283786 0.012269114921060644 0 -0.0022416274247212555 0.012218999267220565 0 -0.0022654118246639987 0.012263688929360084 0 -0.0022561626455742932 0.012217622235267948 0 -0.0022416274247212555 0.012218999267220565 0 -0.0022561626455742932 0.012217622235267948 0 -0.0022416274247212555 0.012218999267220565 0 -0.0022405646455423219 0.012182959259449054 0 -0.0022416274247212555 0.012218999267220565 0 -0.0022405646455423219 0.012182959259449054 0 -0.0022292301066082179 0.012191834423034478 0 -0.0022405646455423219 0.012182959259449054 0 -0.0022806736444563312 0.012207049753208009 0 -0.0022519965954472059 0.012150885252936257 0 -0.0023079444979719772 0.012185734772273842 0 -0.0022806736444563312 0.012207049753208009 0 -0.0022519965954472059 0.012150885252936257 0 -0.0023185922430619551 0.012252324434460839 0 -0.0023079444979719772 0.012185734772273842 0 -0.0022806736444563312 0.012207049753208009 0 -0.0022654118246639987 0.012263688929360084 0 -0.0022561626455742932 0.012217622235267948 0 -0.0022806736444563312 0.012207049753208009 0 -0.0022561626455742932 0.012217622235267948 0 -0.0022405646455423219 0.012182959259449054 0 -0.0022806736444563312 0.012207049753208009 0 -0.0023029773281750552 0.012180080556749856 0 -0.0022520408928896726 0.012259342494426026 0 -0.0021865991738128777 0.012281944929640833 0 -0.0024511543586333341 0.012158679100023677 0 -0.0028771791626360397 0.011963923543902308 0 -0.0021865991738128777 0.012281944929640833 0 -0.0024511543586333341 0.012158679100023677 0 -0.0023029773281750552 0.012180080556749856 0 -0.0021865991738128777 0.012281944929640833 0 -0.0023029773281750552 0.012180080556749856 0 -0.0022520408928896726 0.012259342494426026 0 -0.0022436270744699469 0.01221540008094988 0 -0.0022378362095283786 0.012269114921060644 0 -0.0022520408928896726 0.012259342494426026 0 -0.0022436270744699469 0.01221540008094988 0 -0.0022416274247212555 0.012218999267220565 0 -0.0022436270744699469 0.01221540008094988 0 -0.0022292301066082179 0.012191834423034478 0 -0.0022292301066082179 0.012191834423034478 0 -0.0022319120454850939 0.012200443187136032 0 -0.0022559811306369086 0.012195632970551739 0 -0.0023029773281750552 0.012180080556749856 0 -0.0022436270744699469 0.01221540008094988 0 -0.0022559811306369086 0.012195632970551739 0 -0.0022436270744699469 0.01221540008094988 0 -0.0022292301066082179 0.012191834423034478 0 -0.0022559811306369086 0.012195632970551739 0 -0.0024511543586333341 0.012158679100023677 0 -0.0022319120454850939 0.012200443187136032 0 -0.0022153372351245643 0.012197689720835965 0 -0.0024511543586333341 0.012158679100023677 0 -0.0028771791626360397 0.011963923543902308 0 -0.0033209109706712372 0.011817959591977725 0 -0.0024511543586333341 0.012158679100023677 0 -0.0022319120454850939 0.012200443187136032 0 -0.0022559811306369086 0.012195632970551739 0 -0.0033567747544840454 0.011277276978716794 0 -0.0035403214677727194 0.013476903922577802 0 -0.0025207457444081064 0.012110386874898104 0 -0.002772299025327849 0.011956616924554977 0 -0.0024511543586333341 0.012158679100023677 0 -0.0023029773281750552 0.012180080556749856 0 -0.0022559811306369086 0.012195632970551739 0 -0.0039101760119029791 0.011292874744006391 0 -0.0037785026982586536 0.011482653824355321 0 -0.0039162825075498703 0.011368974855116655 0 -0.0028771791626360397 0.011963923543902308 0 -0.0033209109706712372 0.011817959591977725 0 -0.0037785026982586536 0.011482653824355321 0 -0.0033567747544840454 0.011277276978716794 0 -0.003714034765193241 0.011696458384316244 0 -0.0022319120454850939 0.012200443187136032 0 -0.0022153372351245643 0.012197689720835965 0 -0.0022084412628043011 0.012147573601630324 0 -0.002219663614657683 0.012167875594537175 0 -0.0022130117903494599 0.012129073136042789 0 -0.0022216913872506175 0.012143357526769838 0 -0.0022292301066082179 0.012191834423034478 0 -0.002219663614657683 0.012167875594537175 0 -0.0022216913872506175 0.012143357526769838 0 -0.0022319120454850939 0.012200443187136032 0 -0.0022084412628043011 0.012147573601630324 0 -0.002219663614657683 0.012167875594537175 0 -0.0022292301066082179 0.012191834423034478 0 -0.0022319120454850939 0.012200443187136032 0 -0.002219663614657683 0.012167875594537175 0 -0.0022084412628043011 0.012147573601630324 0 -0.002219663614657683 0.012167875594537175 0 -0.0022130117903494599 0.012129073136042789 0 -0.0022130117903494599 0.012129073136042789 0 -0.002203157132960694 0.01209757867104622 0 -0.0021939272961314028 0.01208404899130208 0 -0.0022084412628043011 0.012147573601630324 0 -0.002203157132960694 0.01209757867104622 0 -0.0021252598700066444 0.01201425883087473 0 -0.002203157132960694 0.01209757867104622 0 -0.0021252598700066444 0.01201425883087473 0 -0.0022011609625492835 0.011903967728037736 0 -0.0022084412628043011 0.012147573601630324 0 -0.0022130117903494599 0.012129073136042789 0 -0.002203157132960694 0.01209757867104622 0 -0.002772299025327849 0.011956616924554977 0 -0.0029622095384075446 0.011726676640264794 0 -0.0033209109706712372 0.011817959591977725 0 -0.0039274623721841885 0.011448492727048143 0 -0.0037785026982586536 0.011482653824355321 0 -0.0022153372351245643 0.012197689720835965 0 -0.0022084412628043011 0.012147573601630324 0 -0.0021252598700066444 0.01201425883087473 0 -0.0022213607345054408 0.012118320809441278 0 -0.0022519965954472059 0.012150885252936257 0 -0.0022110964002602673 0.012094345631623878 0 -0.0023053099654720102 0.012141562738304102 0 -0.0022519965954472059 0.012150885252936257 0 -0.0022110964002602673 0.012094345631623878 0 -0.002246636242746423 0.012143777352328277 0 -0.0022210838367006866 0.012106125316380657 0 -0.0023053099654720102 0.012141562738304102 0 -0.0023079444979719772 0.012185734772273842 0 -0.0022519965954472059 0.012150885252936257 0 -0.0022130117903494599 0.012129073136042789 0 -0.0022216913872506175 0.012143357526769838 0 -0.0021939272961314028 0.01208404899130208 0 -0.0022405646455423219 0.012182959259449054 0 -0.0022519965954472059 0.012150885252936257 0 -0.0022216913872506175 0.012143357526769838 0 -0.0022213607345054408 0.012118320809441278 0 -0.0022216913872506175 0.012143357526769838 0 -0.0021939272961314028 0.01208404899130208 0 -0.0022405646455423219 0.012182959259449054 0 -0.0022292301066082179 0.012191834423034478 0 -0.0022216913872506175 0.012143357526769838 0 -0.0022213607345054408 0.012118320809441278 0 -0.0022519965954472059 0.012150885252936257 0 -0.0022216913872506175 0.012143357526769838 0 -0.002203157132960694 0.01209757867104622 0 -0.0021939272961314028 0.01208404899130208 0 -0.0021501226476201866 0.012023821652610315 0 -0.0021985264560975635 0.012086063198685867 0 -0.0022110964002602673 0.012094345631623878 0 -0.0021856440575372168 0.012053081805219494 0 -0.0022213607345054408 0.012118320809441278 0 -0.0021939272961314028 0.01208404899130208 0 -0.0022110964002602673 0.012094345631623878 0 -0.0021939272961314028 0.01208404899130208 0 -0.0022110964002602673 0.012094345631623878 0 -0.0021856440575372168 0.012053081805219494 0 -0.0021985264560975635 0.012086063198685867 0 -0.0021800750943632933 0.011996194309120032 0 -0.0021856440575372168 0.012053081805219494 0 -0.0021800750943632933 0.011996194309120032 0 -0.0021856440575372168 0.012053081805219494 0 -0.0021501226476201866 0.012023821652610315 0 -0.0021939272961314028 0.01208404899130208 0 -0.0021856440575372168 0.012053081805219494 0 -0.0021501226476201866 0.012023821652610315 0 -0.0023056708157712311 0.011868682724368093 0 -0.002338134349027078 0.011691082106692986 0 -0.0022904923212201745 0.011704685620182684 0 -0.0023056708157712311 0.011868682724368093 0 -0.0022461351853229187 0.011775247908873047 0 -0.0022904923212201745 0.011704685620182684 0 -0.0023056708157712311 0.011868682724368093 0 -0.0022461351853229187 0.011775247908873047 0 -0.0022207636818290031 0.011828351020090533 0 -0.0021800750943632933 0.011996194309120032 0 -0.0021364599192748922 0.011876492544932312 0 -0.0021949435079069881 0.011922487187278324 0 -0.0021800750943632933 0.011996194309120032 0 -0.0021501226476201866 0.012023821652610315 0 -0.0021364599192748922 0.011876492544932312 0 -0.0022273901877617949 0.011946326406256117 0 -0.002238747421460071 0.011785147675865724 0 -0.0039274623721841885 0.011448492727048143 0 -0.0039137172390457421 0.011468458418561069 0 -0.0039955555873735157 0.011474372028424272 0 -0.0039137172390457421 0.011468458418561069 0 -0.0039955555873735157 0.011474372028424272 0 -0.0039811048361279525 0.011467387920361324 0 -0.0039274623721841885 0.011448492727048143 0 -0.0037785026982586536 0.011482653824355321 0 -0.0039137172390457421 0.011468458418561069 0 -0.002203157132960694 0.01209757867104622 0 -0.0023056708157712311 0.011868682724368093 0 -0.0022011609625492835 0.011903967728037736 0 -0.0021983587887799 0.012082798361531201 0 -0.0022273901877617949 0.011946326406256117 0 -0.0021252598700066444 0.01201425883087473 0 -0.0022011609625492835 0.011903967728037736 0 -0.0021538695603043959 0.011773241769590529 0 -0.0029622095384075446 0.011726676640264794 0 -0.0035855279821392942 0.011645563967302432 0 -0.0039274623721841885 0.011448492727048143 0 -0.004015059886367996 0.011485236437707071 0 -0.0039955555873735157 0.011474372028424272 0 -0.0023056708157712311 0.011868682724368093 0 -0.0022011609625492835 0.011903967728037736 0 -0.0022207636818290031 0.011828351020090533 0 -0.0022461351853229187 0.011775247908873047 0 -0.0021538695603043959 0.011773241769590529 0 -0.0022602537739298645 0.011615450494403139 0 -0.0022461351853229187 0.011775247908873047 0 -0.0022207636818290031 0.011828351020090533 0 -0.0021538695603043959 0.011773241769590529 0 -0.0022011609625492835 0.011903967728037736 0 -0.0022207636818290031 0.011828351020090533 0 -0.0021538695603043959 0.011773241769590529 0 -0.0035855279821392942 0.011645563967302432 0 -0.0041932233940463852 0.011353706037654584 0 -0.0040788998417405631 0.011467330300885835 0 -0.0040868268568972684 0.011418394248285602 0 -0.0041904418027342519 0.011380497773603292 0 -0.0035855279821392942 0.011645563967302432 0 -0.003902339033936253 0.011403674160578236 0 -0.0040788998417405631 0.011467330300885835 0 -0.0039955555873735157 0.011474372028424272 0 -0.0040292718855687339 0.011457716069246138 0 -0.0039955555873735157 0.011474372028424272 0 -0.0040292718855687339 0.011457716069246138 0 -0.0039811048361279525 0.011467387920361324 0 -0.0040292718855687339 0.011457716069246138 0 -0.0040195656911194587 0.011436848738135249 0 -0.0040868268568972684 0.011418394248285602 0 -0.0040788998417405631 0.011467330300885835 0 -0.0040292718855687339 0.011457716069246138 0 -0.0040868268568972684 0.011418394248285602 0 -0.0040292718855687339 0.011457716069246138 0 -0.0039811048361279525 0.011467387920361324 0 -0.0040195656911194587 0.011436848738135249 0 -0.0040195656911194587 0.011436848738135249 0 -0.0041279744689356824 0.011321305999859086 0 -0.004037066743688633 0.011247053132175727 0 -0.0040195656911194587 0.011436848738135249 0 -0.0040868268568972684 0.011418394248285602 0 -0.0041279744689356824 0.011321305999859086 0 -0.0035855279821392942 0.011645563967302432 0 -0.0028969409856930022 0.011414975723812294 0 -0.0041689389636618323 0.011629629914291346 0 -0.0042230241296264551 0.011428280622319618 0 -0.0044006025309799943 0.011315181430119909 0 -0.0041279744689356824 0.011321305999859086 0 -0.0041904418027342519 0.011380497773603292 0 -0.0042921228434967236 0.011227684623340976 0 -0.0040868268568972684 0.011418394248285602 0 -0.0041279744689356824 0.011321305999859086 0 -0.0041904418027342519 0.011380497773603292 0 -0.0042230241296264551 0.011428280622319618 0 -0.0042921228434967236 0.011227684623340976 0 -0.0044006025309799943 0.011315181430119909 0 -0.0041932233940463852 0.011353706037654584 0 -0.0042655568101425696 0.011257989944881209 0 -0.0042921228434967236 0.011227684623340976 0 -0.0044006025309799943 0.011315181430119909 0 -0.004303957851464502 0.010992474190341946 0 -0.0028969409856930022 0.011414975723812294 0 -0.003791224134628444 0.011070231014168192 0 -0.0042921228434967236 0.011227684623340976 0 -0.0041700795427396884 0.011141889410652145 0 -0.004303957851464502 0.010992474190341946 0 -0.0041279744689356824 0.011321305999859086 0 -0.0042921228434967236 0.011227684623340976 0 -0.0041700795427396884 0.011141889410652145 0 -0.0041279744689356824 0.011321305999859086 0 -0.0041700795427396884 0.011141889410652145 0 -0.004037066743688633 0.011247053132175727 0 -0.0023017911988866971 0.011623346158946789 0 -0.002338134349027078 0.011691082106692986 0 -0.0023292471811050919 0.011579284601863601 0 -0.0023017911988866971 0.011623346158946789 0 -0.002338134349027078 0.011691082106692986 0 -0.0022904923212201745 0.011704685620182684 0 -0.0022461351853229187 0.011775247908873047 0 -0.0022904923212201745 0.011704685620182684 0 -0.0022602537739298645 0.011615450494403139 0 -0.0023017911988866971 0.011623346158946789 0 -0.0022904923212201745 0.011704685620182684 0 -0.0022440567460132021 0.011623681186033984 0 -0.0022947369566943447 0.011647022669701513 0 -0.0028969409856930022 0.011414975723812294 0 -0.0029490809526865982 0.010975738390711812 0 -0.0027539913213476381 0.011238365246646918 0 -0.0031112254978059805 0.011277558181054888 0 -0.0028969409856930022 0.011414975723812294 0 -0.002480491429784409 0.0114085337386683 0 -0.0023017911988866971 0.011623346158946789 0 -0.0022440567460132021 0.011623681186033984 0 -0.0022819584744207858 0.011546302301031531 0 -0.0023017911988866971 0.011623346158946789 0 -0.0023292471811050919 0.011579284601863601 0 -0.0022819584744207858 0.011546302301031531 0 -0.0021885098946897046 0.011711004065664546 0 -0.0022042737958232334 0.011841330900716924 0 -0.0022817885763534245 0.011807599833929015 0 -0.002238747421460071 0.011785147675865724 0 -0.0022602916953822177 0.011645878809548073 0 -0.0021364599192748922 0.011876492544932312 0 -0.0021885098946897046 0.011711004065664546 0 -0.0022042737958232334 0.011841330900716924 0 -0.0021885098946897046 0.011711004065664546 0 -0.0022817885763534245 0.011807599833929015 0 -0.0023298200691041103 0.011717055806980374 0 -0.0021885098946897046 0.011711004065664546 0 -0.0023161335435286975 0.011630344653070926 0 -0.0023298200691041103 0.011717055806980374 0 -0.0021885098946897046 0.011711004065664546 0 -0.0023161335435286975 0.011630344653070926 0 -0.002303080727165448 0.011525488033772782 0 -0.0023161335435286975 0.011630344653070926 0 -0.0023633933136709357 0.011650265045509171 0 -0.0023298200691041103 0.011717055806980374 0 -0.0023633933136709357 0.011650265045509171 0 -0.0023298200691041103 0.011717055806980374 0 -0.0023838162447887452 0.01171231029886205 0 -0.0024202502826005195 0.011702503420602471 0 -0.0023838162447887452 0.01171231029886205 0 -0.0024122852751477363 0.011629602319686606 0 -0.0023633933136709357 0.011650265045509171 0 -0.0023838162447887452 0.01171231029886205 0 -0.0024122852751477363 0.011629602319686606 0 -0.0024202502826005195 0.011702503420602471 0 -0.0023838162447887452 0.01171231029886205 0 -0.0023856488627641429 0.011761395335507161 0 -0.0023838162447887452 0.01171231029886205 0 -0.0023856488627641429 0.011761395335507161 0 -0.0023650107688611499 0.011778061065238495 0 -0.0023655241334978932 0.011758967185270988 0 -0.0023856488627641429 0.011761395335507161 0 -0.0023650107688611499 0.011778061065238495 0 -0.0022817885763534245 0.011807599833929015 0 -0.0023298200691041103 0.011717055806980374 0 -0.0023650107688611499 0.011778061065238495 0 -0.0023298200691041103 0.011717055806980374 0 -0.0023838162447887452 0.01171231029886205 0 -0.0023650107688611499 0.011778061065238495 0 -0.0022817885763534245 0.011807599833929015 0 -0.0023650107688611499 0.011778061065238495 0 -0.0023046752580187192 0.011885679272520775 0 -0.0023650107688611499 0.011778061065238495 0 -0.0023046752580187192 0.011885679272520775 0 -0.0023672763665650307 0.011811718064242492 0 -0.0023655241334978932 0.011758967185270988 0 -0.0023650107688611499 0.011778061065238495 0 -0.0023672763665650307 0.011811718064242492 0 -0.0023542907579485158 0.01174677361024469 0 -0.0023655241334978932 0.011758967185270988 0 -0.0023672763665650307 0.011811718064242492 0 -0.0021923798161934249 0.012326592255908131 0 -0.0022111547885331952 0.012227186676083501 0 -0.0022394862625032741 0.012220872102850118 0 -0.0022474021483063597 0.012071298485004506 0 -0.002291357519963416 0.012071690995273091 0 -0.0023542907579485158 0.01174677361024469 0 -0.0023672763665650307 0.011811718064242492 0 -0.0023685872951308144 0.011925034326960083 0 -0.0023046752580187192 0.011885679272520775 0 -0.0023672763665650307 0.011811718064242492 0 -0.0023685872951308144 0.011925034326960083 0 -0.002246648431141533 0.012103231023140351 0 -0.0023046752580187192 0.011885679272520775 0 -0.0023685872951308144 0.011925034326960083 0 -0.002246648431141533 0.012103231023140351 0 -0.0023046752580187192 0.011885679272520775 0 -0.0022154196542592034 0.011986311791054614 0 -0.0021800750943632933 0.011996194309120032 0 -0.0022154196542592034 0.011986311791054614 0 -0.0021949435079069881 0.011922487187278324 0 -0.0021985264560975635 0.012086063198685867 0 -0.0021800750943632933 0.011996194309120032 0 -0.0022154196542592034 0.011986311791054614 0 -0.0021364599192748922 0.011876492544932312 0 -0.0022042737958232334 0.011841330900716924 0 -0.0021949435079069881 0.011922487187278324 0 -0.0022154196542592034 0.011986311791054614 0 -0.0021949435079069881 0.011922487187278324 0 -0.0022402847854240274 0.011885582921202802 0 -0.0022042737958232334 0.011841330900716924 0 -0.0021949435079069881 0.011922487187278324 0 -0.0022402847854240274 0.011885582921202802 0 -0.0022042737958232334 0.011841330900716924 0 -0.0022817885763534245 0.011807599833929015 0 -0.0022402847854240274 0.011885582921202802 0 -0.0023046752580187192 0.011885679272520775 0 -0.0022154196542592034 0.011986311791054614 0 -0.0022402847854240274 0.011885582921202802 0 -0.0022817885763534245 0.011807599833929015 0 -0.0023046752580187192 0.011885679272520775 0 -0.0022402847854240274 0.011885582921202802 0 -0.0051788740550661296 0.016468064566000324 0 -0.0049192276161705243 0.01638731590394386 0 -0.0052047714748027036 0.016714177848973801 0 -0.0044418809787016358 0.011449681735918671 0 -0.0046165634135795523 0.011568580980468257 0 -0.0044356458798409043 0.011552257815005747 0 -0.0044418809787016358 0.011449681735918671 0 -0.0046626311037438195 0.01155314048445491 0 -0.0046165634135795523 0.011568580980468257 0 -0.004689916101998798 0.013928902597639337 0 -0.0049137101888365219 0.014109505160590011 0 -0.0044418809787016358 0.011449681735918671 0 -0.0044356458798409043 0.011552257815005747 0 -0.0043179057852138882 0.011486521566739299 0 -0.0044418809787016358 0.011449681735918671 0 -0.0043179057852138882 0.011486521566739299 0 -0.0042720979878819159 0.011388853110490387 0 -0.0049192276161705243 0.01638731590394386 0 -0.0046706338040643884 0.016112575735903124 0 -0.0050515218829905832 0.016029538315405868 0 -0.004689916101998798 0.013928902597639337 0 -0.0044748032463132765 0.013753293023742228 0 -0.0049192276161705243 0.01638731590394386 0 -0.005198654728326097 0.016265907384880093 0 -0.0050515218829905832 0.016029538315405868 0 -0.0051788740550661296 0.016468064566000324 0 -0.0049192276161705243 0.01638731590394386 0 -0.005198654728326097 0.016265907384880093 0 -0.005198654728326097 0.016265907384880093 0 -0.0053808782346400248 0.016406696917227279 0 -0.0055084134717996334 0.016134870354779843 0 -0.0051788740550661296 0.016468064566000324 0 -0.005198654728326097 0.016265907384880093 0 -0.0053808782346400248 0.016406696917227279 0 -0.0057017316368284075 0.016473890762094955 0 -0.0053808782346400248 0.016406696917227279 0 -0.0055084134717996334 0.016134870354779843 0 -0.0057017316368284075 0.016473890762094955 0 -0.0054637101131530773 0.016578768831817497 0 -0.0053808782346400248 0.016406696917227279 0 -0.0057017316368284075 0.016473890762094955 0 -0.0055788806974906993 0.016713133024656875 0 -0.0058334771026409575 0.016798288976939888 0 -0.0057017316368284075 0.016473890762094955 0 -0.0054637101131530773 0.016578768831817497 0 -0.0055788806974906993 0.016713133024656875 0 -0.0051788740550661296 0.016468064566000324 0 -0.0053808782346400248 0.016406696917227279 0 -0.0053038731067731083 0.016572896733587448 0 -0.0054637101131530773 0.016578768831817497 0 -0.0053038731067731083 0.016572896733587448 0 -0.0054090396253348742 0.016724683288584237 0 -0.0054637101131530773 0.016578768831817497 0 -0.0053808782346400248 0.016406696917227279 0 -0.0053038731067731083 0.016572896733587448 0 -0.0051788740550661296 0.016468064566000324 0 -0.0053038731067731083 0.016572896733587448 0 -0.0052047714748027036 0.016714177848973801 0 -0.0049137101888365219 0.014109505160590011 0 -0.0053550141996078918 0.014489601828650969 0 -0.0052047714748027036 0.016714177848973801 0 -0.0054090396253348742 0.016724683288584237 0 -0.0055181712862582511 0.017038537242988028 0 -0.0053038731067731083 0.016572896733587448 0 -0.0052047714748027036 0.016714177848973801 0 -0.0054090396253348742 0.016724683288584237 0 -0.0046626311037438195 0.01155314048445491 0 -0.004735803307823392 0.011634339027081643 0 -0.0048248729162015842 0.011667671676917585 0 -0.0055788806974906993 0.016713133024656875 0 -0.0055181712862582511 0.017038537242988028 0 -0.0058334771026409575 0.016798288976939888 0 -0.0054090396253348742 0.016724683288584237 0 -0.0055788806974906993 0.016713133024656875 0 -0.0055181712862582511 0.017038537242988028 0 -0.0054637101131530773 0.016578768831817497 0 -0.0054090396253348742 0.016724683288584237 0 -0.0055788806974906993 0.016713133024656875 0 -0.0053550141996078918 0.014489601828650969 0 -0.0062435578543861246 0.016903186086702507 0 -0.0065440476871030913 0.016492058192959787 0 -0.006722459411782465 0.016489657643720228 0 -0.0066567764937270173 0.016603874139262346 0 -0.0049254601034015759 0.01170566949569444 0 -0.004899098930009521 0.01172024864306479 0 -0.0049339879577147338 0.011735681248383588 0 -0.0053550141996078918 0.014489601828650969 0 -0.0057496481351296345 0.012917839132164901 0 -0.0053550141996078918 0.014489601828650969 0 -0.0060517215499829805 0.014505799325948442 0 -0.0046626311037438195 0.01155314048445491 0 -0.0049538356206672738 0.011689822916258537 0 -0.0048248729162015842 0.011667671676917585 0 -0.0047919870447030574 0.01167496916631959 0 -0.004735803307823392 0.011634339027081643 0 -0.0048338985684718439 0.01174338116522694 0 -0.0047919870447030574 0.01167496916631959 0 -0.004735803307823392 0.011634339027081643 0 -0.0048248729162015842 0.011667671676917585 0 -0.0048248729162015842 0.011667671676917585 0 -0.004899098930009521 0.01172024864306479 0 -0.0048424504412788961 0.01171300546778023 0 -0.0049538356206672738 0.011689822916258537 0 -0.0048248729162015842 0.011667671676917585 0 -0.004899098930009521 0.01172024864306479 0 -0.004899098930009521 0.01172024864306479 0 -0.0048424504412788961 0.01171300546778023 0 -0.0048815757004951549 0.011735893663066394 0 -0.0047919870447030574 0.01167496916631959 0 -0.0048424504412788961 0.01171300546778023 0 -0.0048338985684718439 0.01174338116522694 0 -0.0047919870447030574 0.01167496916631959 0 -0.0048248729162015842 0.011667671676917585 0 -0.0048424504412788961 0.01171300546778023 0 -0.0045001811552225083 0.011632968575920475 0 -0.0046165634135795523 0.011568580980468257 0 -0.0045415017324673523 0.01167847300057143 0 -0.004735803307823392 0.011634339027081643 0 -0.0046165634135795523 0.011568580980468257 0 -0.0048338985684718439 0.01174338116522694 0 -0.0046654490903668602 0.01119978192399354 0 -0.0044701592793107339 0.012551729702943387 0 -0.0045001811552225083 0.011632968575920475 0 -0.0044990738799156093 0.01166797832390247 0 -0.0045415017324673523 0.01167847300057143 0 -0.0046626311037438195 0.01155314048445491 0 -0.004735803307823392 0.011634339027081643 0 -0.0046165634135795523 0.011568580980468257 0 -0.0045001811552225083 0.011632968575920475 0 -0.0046165634135795523 0.011568580980468257 0 -0.0044356458798409043 0.011552257815005747 0 -0.0045001811552225083 0.011632968575920475 0 -0.0044356458798409043 0.011552257815005747 0 -0.0044121243966554601 0.011611061702635976 0 -0.0044356458798409043 0.011552257815005747 0 -0.0043406888859521047 0.011570163410075501 0 -0.0043179057852138882 0.011486521566739299 0 -0.0044356458798409043 0.011552257815005747 0 -0.0044121243966554601 0.011611061702635976 0 -0.0043406888859521047 0.011570163410075501 0 -0.0044121243966554601 0.011611061702635976 0 -0.0044369921786033793 0.011655950020316943 0 -0.0043507567184369513 0.011634348214205699 0 -0.0045001811552225083 0.011632968575920475 0 -0.0044121243966554601 0.011611061702635976 0 -0.0044369921786033793 0.011655950020316943 0 -0.0045001811552225083 0.011632968575920475 0 -0.0044369921786033793 0.011655950020316943 0 -0.0044990738799156093 0.01166797832390247 0 -0.0043507567184369513 0.011634348214205699 0 -0.0042885116027182348 0.011666469361401526 0 -0.0042550628043550283 0.011597523721891318 0 -0.0044369921786033793 0.011655950020316943 0 -0.0043507567184369513 0.011634348214205699 0 -0.0043846934029611951 0.011681601271680421 0 -0.0044121243966554601 0.011611061702635976 0 -0.0043507567184369513 0.011634348214205699 0 -0.0043406888859521047 0.011570163410075501 0 -0.0043507567184369513 0.011634348214205699 0 -0.0042550628043550283 0.011597523721891318 0 -0.0043406888859521047 0.011570163410075501 0 -0.0043507567184369513 0.011634348214205699 0 -0.0042885116027182348 0.011666469361401526 0 -0.0043846934029611951 0.011681601271680421 0 -0.0042885116027182348 0.011666469361401526 0 -0.0042550628043550283 0.011597523721891318 0 -0.0041489121846154577 0.011657587916946474 0 -0.0042550628043550283 0.011597523721891318 0 -0.0041419927848294147 0.011513266060300217 0 -0.0041489121846154577 0.011657587916946474 0 -0.0042550628043550283 0.011597523721891318 0 -0.0041419927848294147 0.011513266060300217 0 -0.0042480356486116503 0.01152013084113206 0 -0.0043406888859521047 0.011570163410075501 0 -0.0043179057852138882 0.011486521566739299 0 -0.0042480356486116503 0.01152013084113206 0 -0.0042550628043550283 0.011597523721891318 0 -0.0043406888859521047 0.011570163410075501 0 -0.0042480356486116503 0.01152013084113206 0 -0.004037066743688633 0.011247053132175727 0 -0.003846283343978317 0.011223591479292342 0 -0.0039625645358216588 0.011078707969139167 0 -0.004037066743688633 0.011247053132175727 0 -0.003846283343978317 0.011223591479292342 0 -0.0039770090011064518 0.011475839344516068 0 -0.0041419927848294147 0.011513266060300217 0 -0.0041489121846154577 0.011657587916946474 0 -0.0039770090011064518 0.011475839344516068 0 -0.004009283105827011 0.011311658189726752 0 -0.0039836603818245451 0.011516019317509483 0 -0.0040195656911194587 0.011436848738135249 0 -0.004037066743688633 0.011247053132175727 0 -0.0039770090011064518 0.011475839344516068 0 -0.0039770090011064518 0.011475839344516068 0 -0.0039727596487470849 0.011475930908597063 0 -0.0040440050187937424 0.011459450590982075 0 -0.0039811048361279525 0.011467387920361324 0 -0.0040195656911194587 0.011436848738135249 0 -0.0039727596487470849 0.011475930908597063 0 -0.0040195656911194587 0.011436848738135249 0 -0.0039770090011064518 0.011475839344516068 0 -0.0039727596487470849 0.011475930908597063 0 -0.0041419927848294147 0.011513266060300217 0 -0.0039770090011064518 0.011475839344516068 0 -0.0040440050187937424 0.011459450590982075 0 -0.0040440050187937424 0.011459450590982075 0 -0.00396048429282182 0.011453423683629034 0 -0.0040938079750281568 0.011412006249706964 0 -0.0039727596487470849 0.011475930908597063 0 -0.0040440050187937424 0.011459450590982075 0 -0.00396048429282182 0.011453423683629034 0 -0.0039137172390457421 0.011468458418561069 0 -0.0039727596487470849 0.011475930908597063 0 -0.00396048429282182 0.011453423683629034 0 -0.0037785026982586536 0.011482653824355321 0 -0.0039137172390457421 0.011468458418561069 0 -0.00396048429282182 0.011453423683629034 0 -0.0039137172390457421 0.011468458418561069 0 -0.0039811048361279525 0.011467387920361324 0 -0.0039727596487470849 0.011475930908597063 0 -0.0043179057852138882 0.011486521566739299 0 -0.0042480356486116503 0.01152013084113206 0 -0.0041834029852205181 0.011462185947793323 0 -0.0041419927848294147 0.011513266060300217 0 -0.0040440050187937424 0.011459450590982075 0 -0.0041834029852205181 0.011462185947793323 0 -0.0041419927848294147 0.011513266060300217 0 -0.0042480356486116503 0.01152013084113206 0 -0.0041834029852205181 0.011462185947793323 0 -0.0041834029852205181 0.011462185947793323 0 -0.0042720979878819159 0.011388853110490387 0 -0.0040938079750281568 0.011412006249706964 0 -0.0040440050187937424 0.011459450590982075 0 -0.0041834029852205181 0.011462185947793323 0 -0.0040938079750281568 0.011412006249706964 0 -0.0043179057852138882 0.011486521566739299 0 -0.0041834029852205181 0.011462185947793323 0 -0.0042720979878819159 0.011388853110490387 0 -0.0044748032463132765 0.013753293023742228 0 -0.0042823218618426671 0.013612855506038267 0 -0.0042720979878819159 0.011388853110490387 0 -0.0041233216253048922 0.01133698599868649 0 -0.0040938079750281568 0.011412006249706964 0 -0.0046706338040643884 0.016112575735903124 0 -0.004454664829053631 0.015886260281950417 0 -0.0047526110651885433 0.015816344575555405 0 -0.0037785026982586536 0.011482653824355321 0 -0.0039201963024882184 0.011418574739947198 0 -0.0039162825075498703 0.011368974855116655 0 -0.0037785026982586536 0.011482653824355321 0 -0.0039201963024882184 0.011418574739947198 0 -0.00396048429282182 0.011453423683629034 0 -0.0039201963024882184 0.011418574739947198 0 -0.00396048429282182 0.011453423683629034 0 -0.0039920162185324223 0.01137902128325833 0 -0.0039201963024882184 0.011418574739947198 0 -0.0039920162185324223 0.01137902128325833 0 -0.0039162825075498703 0.011368974855116655 0 -0.00396048429282182 0.011453423683629034 0 -0.0040938079750281568 0.011412006249706964 0 -0.0039920162185324223 0.01137902128325833 0 -0.0041233216253048922 0.01133698599868649 0 -0.0040938079750281568 0.011412006249706964 0 -0.0039920162185324223 0.01137902128325833 0 -0.0041233216253048922 0.01133698599868649 0 -0.003971626226890795 0.011318686493235138 0 -0.0039894620009786764 0.011284475395639345 0 -0.0041233216253048922 0.01133698599868649 0 -0.0039920162185324223 0.01137902128325833 0 -0.003971626226890795 0.011318686493235138 0 -0.0042823218618426671 0.013612855506038267 0 -0.0041641110189408618 0.013489011735187635 0 -0.0039920162185324223 0.01137902128325833 0 -0.003971626226890795 0.011318686493235138 0 -0.0039162825075498703 0.011368974855116655 0 -0.0039101760119029791 0.011292874744006391 0 -0.003971626226890795 0.011318686493235138 0 -0.0039162825075498703 0.011368974855116655 0 -0.0039101760119029791 0.011292874744006391 0 -0.0039474524358000364 0.011288422226976883 0 -0.0039343777926582708 0.011281730723755209 0 -0.0039101760119029791 0.011292874744006391 0 -0.003971626226890795 0.011318686493235138 0 -0.0039474524358000364 0.011288422226976883 0 -0.003971626226890795 0.011318686493235138 0 -0.0039474524358000364 0.011288422226976883 0 -0.0039894620009786764 0.011284475395639345 0 -0.0042377119664937122 0.015702443619839985 0 -0.0043685865915854584 0.015488176323849434 0 -0.0041587943188010771 0.015332625649266853 0 -0.0041641110189408618 0.013489011735187635 0 -0.0035403214677727194 0.013476903922577802 0 -0.0042377119664937122 0.015702443619839985 0 -0.0038464374862946576 0.015428610551736239 0 -0.0041587943188010771 0.015332625649266853 0 -0.0039474524358000364 0.011288422226976883 0 -0.0039894620009786764 0.011284475395639345 0 -0.0039343777926582708 0.011281730723755209 0 -0.0045457453726195475 0.015599732459963902 0 -0.0047976364292761876 0.015556147572379546 0 -0.0047526110651885433 0.015816344575555405 0 -0.004454664829053631 0.015886260281950417 0 -0.0045457453726195475 0.015599732459963902 0 -0.0047526110651885433 0.015816344575555405 0 -0.004454664829053631 0.015886260281950417 0 -0.0042377119664937122 0.015702443619839985 0 -0.0045457453726195475 0.015599732459963902 0 -0.0043685865915854584 0.015488176323849434 0 -0.0045457453726195475 0.015599732459963902 0 -0.0045050354823519649 0.015459654599834883 0 -0.0042377119664937122 0.015702443619839985 0 -0.0043685865915854584 0.015488176323849434 0 -0.0045457453726195475 0.015599732459963902 0 -0.0045457453726195475 0.015599732459963902 0 -0.0047976364292761876 0.015556147572379546 0 -0.0046195387301626728 0.015472280268697302 0 -0.0047976364292761876 0.015556147572379546 0 -0.0050294233069247208 0.015473925428508572 0 -0.0050448755350448408 0.015695410729788722 0 -0.0047976364292761876 0.015556147572379546 0 -0.0050448755350448408 0.015695410729788722 0 -0.0047526110651885433 0.015816344575555405 0 -0.0050448755350448408 0.015695410729788722 0 -0.0050515218829905832 0.016029538315405868 0 -0.0053608721336056032 0.015861717683450134 0 -0.0050448755350448408 0.015695410729788722 0 -0.0047526110651885433 0.015816344575555405 0 -0.0050515218829905832 0.016029538315405868 0 -0.0046706338040643884 0.016112575735903124 0 -0.0047526110651885433 0.015816344575555405 0 -0.0050515218829905832 0.016029538315405868 0 -0.0055084134717996334 0.016134870354779843 0 -0.0053608721336056032 0.015861717683450134 0 -0.0058364715167572682 0.015875612683165858 0 -0.0050515218829905832 0.016029538315405868 0 -0.0055084134717996334 0.016134870354779843 0 -0.0053608721336056032 0.015861717683450134 0 -0.005198654728326097 0.016265907384880093 0 -0.0050515218829905832 0.016029538315405868 0 -0.0055084134717996334 0.016134870354779843 0 -0.0053608721336056032 0.015861717683450134 0 -0.0056629764688948979 0.0156842323449773 0 -0.0058364715167572682 0.015875612683165858 0 -0.0056629764688948979 0.0156842323449773 0 -0.005356491690442786 0.01552783716984542 0 -0.0058305191578837436 0.015497033051477271 0 -0.0053608721336056032 0.015861717683450134 0 -0.0056629764688948979 0.0156842323449773 0 -0.005356491690442786 0.01552783716984542 0 -0.0050448755350448408 0.015695410729788722 0 -0.0053608721336056032 0.015861717683450134 0 -0.005356491690442786 0.01552783716984542 0 -0.0050294233069247208 0.015473925428508572 0 -0.0050448755350448408 0.015695410729788722 0 -0.005356491690442786 0.01552783716984542 0 -0.005356491690442786 0.01552783716984542 0 -0.0056125434453016829 0.015252866445501577 0 -0.0058305191578837436 0.015497033051477271 0 -0.0055571569586838144 0.015306329185494735 0 -0.0051753390701475954 0.015294996668233946 0 -0.005356491690442786 0.01552783716984542 0 -0.0056125434453016829 0.015252866445501577 0 -0.0051397460455786716 0.015310422617661166 0 -0.0055142487085758562 0.015348368137532237 0 -0.0053692691965232658 0.015139189576161352 0 -0.0056461617346893816 0.015010728957244701 0 -0.0055142487085758562 0.015348368137532237 0 -0.0053692691965232658 0.015139189576161352 0 -0.0051397460455786716 0.015310422617661166 0 -0.0053692691965232658 0.015139189576161352 0 -0.0051397460455786716 0.015310422617661166 0 -0.0051828441443090428 0.015114948314798616 0 -0.0051397460455786716 0.015310422617661166 0 -0.0049484938141160012 0.015212660596294921 0 -0.0051828441443090428 0.015114948314798616 0 -0.0050294233069247208 0.015473925428508572 0 -0.005356491690442786 0.01552783716984542 0 -0.0051397460455786716 0.015310422617661166 0 -0.0047976364292761876 0.015556147572379546 0 -0.0048036666398172589 0.01534453461398801 0 -0.0046195387301626728 0.015472280268697302 0 -0.0050294233069247208 0.015473925428508572 0 -0.0051397460455786716 0.015310422617661166 0 -0.0048036666398172589 0.01534453461398801 0 -0.0047976364292761876 0.015556147572379546 0 -0.0050294233069247208 0.015473925428508572 0 -0.0048036666398172589 0.01534453461398801 0 -0.0048036666398172589 0.01534453461398801 0 -0.0046195387301626728 0.015472280268697302 0 -0.0046161422263676635 0.015418234725174383 0 -0.0048036666398172589 0.01534453461398801 0 -0.0046371883572729183 0.015322603566442191 0 -0.0046161422263676635 0.015418234725174383 0 -0.0051397460455786716 0.015310422617661166 0 -0.0048036666398172589 0.01534453461398801 0 -0.0049484938141160012 0.015212660596294921 0 -0.0048036666398172589 0.01534453461398801 0 -0.0049484938141160012 0.015212660596294921 0 -0.0047760084864889472 0.015256376245787845 0 -0.0049484938141160012 0.015212660596294921 0 -0.0048667507031633084 0.015153790539043631 0 -0.0047760084864889472 0.015256376245787845 0 -0.0048667507031633084 0.015153790539043631 0 -0.0047760084864889472 0.015256376245787845 0 -0.0046737352668685898 0.015202480285049941 0 -0.0049484938141160012 0.015212660596294921 0 -0.0048667507031633084 0.015153790539043631 0 -0.0050695965646253196 0.015021996068235968 0 -0.0048036666398172589 0.01534453461398801 0 -0.0047760084864889472 0.015256376245787845 0 -0.0046371883572729183 0.015322603566442191 0 -0.0047760084864889472 0.015256376245787845 0 -0.0046371883572729183 0.015322603566442191 0 -0.0046737352668685898 0.015202480285049941 0 -0.0046371883572729183 0.015322603566442191 0 -0.004609342672595388 0.015286336830374073 0 -0.0046737352668685898 0.015202480285049941 0 -0.0046371883572729183 0.015322603566442191 0 -0.0045692621297042171 0.015340746625400194 0 -0.0045504122268109687 0.015384868198600909 0 -0.0046371883572729183 0.015322603566442191 0 -0.0045692621297042171 0.015340746625400194 0 -0.004609342672595388 0.015286336830374073 0 -0.0044895259988774706 0.015012747429180946 0 -0.0050849026690412717 0.015422366748251953 0 -0.0046737352668685898 0.015202480285049941 0 -0.0045698689508994585 0.015330684172938211 0 -0.0044743676076051423 0.015437022848142594 0 -0.0046737352668685898 0.015202480285049941 0 -0.0048279622882205454 0.015060432465336091 0 -0.0045933816771264492 0.014558468501280952 0 -0.004609342672595388 0.015286336830374073 0 -0.0046737352668685898 0.015202480285049941 0 -0.0045698689508994585 0.015330684172938211 0 -0.0045692621297042171 0.015340746625400194 0 -0.004609342672595388 0.015286336830374073 0 -0.0045642874281879688 0.015339254778202869 0 -0.004609342672595388 0.015286336830374073 0 -0.0045698689508994585 0.015330684172938211 0 -0.0045642874281879688 0.015339254778202869 0 -0.0045698689508994585 0.015330684172938211 0 -0.0045642874281879688 0.015339254778202869 0 -0.004533677831153226 0.015373604442048704 0 -0.0048514377035479292 0.015030441628788416 0 -0.0052600238902736265 0.014708702252678131 0 -0.0048667507031633084 0.015153790539043631 0 -0.0048279622882205454 0.015060432465336091 0 -0.0050695965646253196 0.015021996068235968 0 -0.0048667507031633084 0.015153790539043631 0 -0.0046737352668685898 0.015202480285049941 0 -0.0048279622882205454 0.015060432465336091 0 -0.0050695965646253196 0.015021996068235968 0 -0.0053864730920177321 0.014929421278455434 0 -0.005235084724356737 0.014650056221616333 0 -0.0048279622882205454 0.015060432465336091 0 -0.0050695965646253196 0.015021996068235968 0 -0.005235084724356737 0.014650056221616333 0 -0.0053864730920177321 0.014929421278455434 0 -0.0055206964729006295 0.01467309339530638 0 -0.005235084724356737 0.014650056221616333 0 -0.0053864730920177321 0.014929421278455434 0 -0.0055206964729006295 0.01467309339530638 0 -0.0056161116605379646 0.014810263843526284 0 -0.0053692691965232658 0.015139189576161352 0 -0.0053864730920177321 0.014929421278455434 0 -0.0056461617346893816 0.015010728957244701 0 -0.0053692691965232658 0.015139189576161352 0 -0.0053864730920177321 0.014929421278455434 0 -0.0051828441443090428 0.015114948314798616 0 -0.0050695965646253196 0.015021996068235968 0 -0.0053864730920177321 0.014929421278455434 0 -0.0051828441443090428 0.015114948314798616 0 -0.0049484938141160012 0.015212660596294921 0 -0.0050695965646253196 0.015021996068235968 0 -0.0051828441443090428 0.015114948314798616 0 -0.00389919005739194 0.015936703091683792 0 -0.0041046563669744993 0.015802864141885527 0 -0.0042417902881574385 0.015753977050453057 0 -0.0038693948641932794 0.014539280732137033 0 -0.0041040901811537243 0.014838135468786292 0 -0.0042870108268967108 0.014961500124391689 0 -0.0036049417791082384 0.015431866539723896 0 -0.0042711753309691613 0.0153358355329411 0 -0.0038105297692309849 0.01438513128048843 0 -0.0041040901811537243 0.014838135468786292 0 -0.0038615530323428942 0.014760993136054147 0 -0.0036049417791082384 0.015431866539723896 0 -0.0039278506862261923 0.01476555509883745 0 -0.0041040901811537243 0.014838135468786292 0 -0.0038615530323428942 0.014760993136054147 0 -0.0040316628617225684 0.015083366174386393 0 -0.0038464374862946576 0.015428610551736239 0 -0.0038615530323428942 0.014760993136054147 0 -0.0040316628617225684 0.015083366174386393 0 -0.0035403214677727194 0.013476903922577802 0 -0.0038698353631567419 0.015581383359325187 0 -0.0038464374862946576 0.015428610551736239 0 -0.0040316628617225684 0.015083366174386393 0 -0.0041587943188010771 0.015332625649266853 0 -0.0041040901811537243 0.014838135468786292 0 -0.0040316628617225684 0.015083366174386393 0 -0.0041878597686786645 0.015108280223322319 0 -0.0040316628617225684 0.015083366174386393 0 -0.0041878597686786645 0.015108280223322319 0 -0.0041587943188010771 0.015332625649266853 0 -0.004335775204716179 0.015293939469417097 0 -0.0042870108268967108 0.014961500124391689 0 -0.0045050354823519649 0.015459654599834883 0 -0.0041878597686786645 0.015108280223322319 0 -0.004335775204716179 0.015293939469417097 0 -0.0042870108268967108 0.014961500124391689 0 -0.0041878597686786645 0.015108280223322319 0 -0.0041587943188010771 0.015332625649266853 0 -0.004335775204716179 0.015293939469417097 0 -0.0043685865915854584 0.015488176323849434 0 -0.0041587943188010771 0.015332625649266853 0 -0.004335775204716179 0.015293939469417097 0 -0.0042417902881574385 0.015753977050453057 0 -0.0042199455146505228 0.0157344767930334 0 -0.004376842065411079 0.015612894508981063 0 -0.0041040901811537243 0.014838135468786292 0 -0.0041878597686786645 0.015108280223322319 0 -0.0042870108268967108 0.014961500124391689 0 -0.0042199455146505228 0.0157344767930334 0 -0.0042686965517783615 0.015676005192739224 0 -0.0041578163194971171 0.015744342831589681 0 -0.0041046563669744993 0.015802864141885527 0 -0.0042417902881574385 0.015753977050453057 0 -0.0042199455146505228 0.0157344767930334 0 -0.0041046563669744993 0.015802864141885527 0 -0.0042199455146505228 0.0157344767930334 0 -0.0041578163194971171 0.015744342831589681 0 -0.0042199455146505228 0.0157344767930334 0 -0.004376842065411079 0.015612894508981063 0 -0.0042686965517783615 0.015676005192739224 0 -0.0042417902881574385 0.015753977050453057 0 -0.004376842065411079 0.015612894508981063 0 -0.0045050354823519649 0.015459654599834883 0 -0.0043713282054416028 0.015594035238501955 0 -0.004376842065411079 0.015612894508981063 0 -0.0042686965517783615 0.015676005192739224 0 -0.0043713282054416028 0.015594035238501955 0 -0.004376842065411079 0.015612894508981063 0 -0.0044878303027218285 0.015509451826538314 0 -0.0043713282054416028 0.015594035238501955 0 -0.0044878303027218285 0.015509451826538314 0 -0.0044577258658300076 0.015501739781100744 0 -0.004376842065411079 0.015612894508981063 0 -0.0045050354823519649 0.015459654599834883 0 -0.0044878303027218285 0.015509451826538314 0 -0.0043685865915854584 0.015488176323849434 0 -0.004335775204716179 0.015293939469417097 0 -0.0045050354823519649 0.015459654599834883 0 -0.0042711753309691613 0.0153358355329411 0 -0.004439964086456037 0.015435287347800763 0 -0.0045050354823519649 0.015459654599834883 0 -0.0046195387301626728 0.015472280268697302 0 -0.0044878303027218285 0.015509451826538314 0 -0.0045457453726195475 0.015599732459963902 0 -0.0045050354823519649 0.015459654599834883 0 -0.0046195387301626728 0.015472280268697302 0 -0.0046195387301626728 0.015472280268697302 0 -0.0044878303027218285 0.015509451826538314 0 -0.0046161422263676635 0.015418234725174383 0 -0.0044878303027218285 0.015509451826538314 0 -0.0046161422263676635 0.015418234725174383 0 -0.0045495698751061645 0.015416052198188195 0 -0.0046371883572729183 0.015322603566442191 0 -0.0046161422263676635 0.015418234725174383 0 -0.0045495698751061645 0.015416052198188195 0 -0.0045495698751061645 0.015416052198188195 0 -0.0044577258658300076 0.015501739781100744 0 -0.0044884454784316968 0.015446506129756976 0 -0.0044878303027218285 0.015509451826538314 0 -0.0045495698751061645 0.015416052198188195 0 -0.0044577258658300076 0.015501739781100744 0 -0.0044884454784316968 0.015446506129756976 0 -0.0044462488226367086 0.015465223066711735 0 -0.0044105296420276852 0.015514999878076868 0 -0.0044577258658300076 0.015501739781100744 0 -0.0044884454784316968 0.015446506129756976 0 -0.0044105296420276852 0.015514999878076868 0 -0.0046371883572729183 0.015322603566442191 0 -0.0045495698751061645 0.015416052198188195 0 -0.0045504122268109687 0.015384868198600909 0 -0.0044884454784316968 0.015446506129756976 0 -0.0045504122268109687 0.015384868198600909 0 -0.0045121040643825126 0.015404278835225022 0 -0.0045495698751061645 0.015416052198188195 0 -0.0044884454784316968 0.015446506129756976 0 -0.0045504122268109687 0.015384868198600909 0 -0.0045692621297042171 0.015340746625400194 0 -0.0045504122268109687 0.015384868198600909 0 -0.0045121040643825126 0.015404278835225022 0 -0.0045121040643825126 0.015404278835225022 0 -0.0045262681465806061 0.015381451497649879 0 -0.0044799481768080726 0.015423700333646539 0 -0.0045692621297042171 0.015340746625400194 0 -0.0045121040643825126 0.015404278835225022 0 -0.0045262681465806061 0.015381451497649879 0 -0.0045692621297042171 0.015340746625400194 0 -0.0045642874281879688 0.015339254778202869 0 -0.0045262681465806061 0.015381451497649879 0 -0.0045642874281879688 0.015339254778202869 0 -0.0045262681465806061 0.015381451497649879 0 -0.0045137263240743047 0.015391215064203751 0 -0.0045262681465806061 0.015381451497649879 0 -0.0045137263240743047 0.015391215064203751 0 -0.0044799481768080726 0.015423700333646539 0 -0.0045642874281879688 0.015339254778202869 0 -0.0045137263240743047 0.015391215064203751 0 -0.004533677831153226 0.015373604442048704 0 -0.0045137263240743047 0.015391215064203751 0 -0.0044532840692819171 0.015437104564537398 0 -0.0044799481768080726 0.015423700333646539 0 -0.0044532840692819171 0.015437104564537398 0 -0.0044799481768080726 0.015423700333646539 0 -0.0044095928305701027 0.015477967131618363 0 -0.0044799481768080726 0.015423700333646539 0 -0.0044462488226367086 0.015465223066711735 0 -0.0044095928305701027 0.015477967131618363 0 -0.0045121040643825126 0.015404278835225022 0 -0.0044799481768080726 0.015423700333646539 0 -0.0044462488226367086 0.015465223066711735 0 -0.0044884454784316968 0.015446506129756976 0 -0.0045121040643825126 0.015404278835225022 0 -0.0044462488226367086 0.015465223066711735 0 -0.0044462488226367086 0.015465223066711735 0 -0.0043672309837989413 0.015527278094019839 0 -0.0044095928305701027 0.015477967131618363 0 -0.0044462488226367086 0.015465223066711735 0 -0.0043672309837989413 0.015527278094019839 0 -0.0044105296420276852 0.015514999878076868 0 -0.0043672309837989413 0.015527278094019839 0 -0.0044095928305701027 0.015477967131618363 0 -0.0043252258355414705 0.015532165030118119 0 -0.0044532840692819171 0.015437104564537398 0 -0.0044095928305701027 0.015477967131618363 0 -0.0043742847504277772 0.015482961970651467 0 -0.0044095928305701027 0.015477967131618363 0 -0.0043252258355414705 0.015532165030118119 0 -0.0043742847504277772 0.015482961970651467 0 -0.0043252258355414705 0.015532165030118119 0 -0.0042748036214293088 0.015531722903356247 0 -0.0043742847504277772 0.015482961970651467 0 -0.0043252258355414705 0.015532165030118119 0 -0.0042805645282419777 0.015583474895553511 0 -0.0042170135394973942 0.015589640021138411 0 -0.0043252258355414705 0.015532165030118119 0 -0.0042170135394973942 0.015589640021138411 0 -0.0042748036214293088 0.015531722903356247 0 -0.0043672309837989413 0.015527278094019839 0 -0.0043252258355414705 0.015532165030118119 0 -0.0042805645282419777 0.015583474895553511 0 -0.0043672309837989413 0.015527278094019839 0 -0.0042805645282419777 0.015583474895553511 0 -0.0043271413988707538 0.015579528563220578 0 -0.0042805645282419777 0.015583474895553511 0 -0.0043271413988707538 0.015579528563220578 0 -0.0042371020624462933 0.015634237358367976 0 -0.0043271413988707538 0.015579528563220578 0 -0.004288876392015163 0.015632018056328342 0 -0.0042371020624462933 0.015634237358367976 0 -0.0043271413988707538 0.015579528563220578 0 -0.004288876392015163 0.015632018056328342 0 -0.0043681108744103728 0.015572457689702147 0 -0.0043271413988707538 0.015579528563220578 0 -0.0044105296420276852 0.015514999878076868 0 -0.0043681108744103728 0.015572457689702147 0 -0.0043672309837989413 0.015527278094019839 0 -0.0043271413988707538 0.015579528563220578 0 -0.0044105296420276852 0.015514999878076868 0 -0.0043713282054416028 0.015594035238501955 0 -0.0044577258658300076 0.015501739781100744 0 -0.0043681108744103728 0.015572457689702147 0 -0.0044577258658300076 0.015501739781100744 0 -0.0044105296420276852 0.015514999878076868 0 -0.0043681108744103728 0.015572457689702147 0 -0.0043713282054416028 0.015594035238501955 0 -0.004288876392015163 0.015632018056328342 0 -0.0042686965517783615 0.015676005192739224 0 -0.0043713282054416028 0.015594035238501955 0 -0.004288876392015163 0.015632018056328342 0 -0.0043681108744103728 0.015572457689702147 0 -0.004288876392015163 0.015632018056328342 0 -0.0042686965517783615 0.015676005192739224 0 -0.004203497433332406 0.0156876461164808 0 -0.0042686965517783615 0.015676005192739224 0 -0.0041578163194971171 0.015744342831589681 0 -0.004203497433332406 0.0156876461164808 0 -0.0041578163194971171 0.015744342831589681 0 -0.0041210138868514471 0.015737529057674903 0 -0.0040194732876725897 0.015820437702149984 0 -0.0041578163194971171 0.015744342831589681 0 -0.0041210138868514471 0.015737529057674903 0 -0.004203497433332406 0.0156876461164808 0 -0.0041210138868514471 0.015737529057674903 0 -0.004203497433332406 0.0156876461164808 0 -0.0041415644990963557 0.015693540965873862 0 -0.0041210138868514471 0.015737529057674903 0 -0.0041415644990963557 0.015693540965873862 0 -0.0040402146687775441 0.015763842954469198 0 -0.004288876392015163 0.015632018056328342 0 -0.004203497433332406 0.0156876461164808 0 -0.0042371020624462933 0.015634237358367976 0 -0.004203497433332406 0.0156876461164808 0 -0.0042371020624462933 0.015634237358367976 0 -0.0041415644990963557 0.015693540965873862 0 -0.0042805645282419777 0.015583474895553511 0 -0.0042371020624462933 0.015634237358367976 0 -0.0041791208944705911 0.015641905264317392 0 -0.0042371020624462933 0.015634237358367976 0 -0.0041791208944705911 0.015641905264317392 0 -0.0041415644990963557 0.015693540965873862 0 -0.0041791208944705911 0.015641905264317392 0 -0.0042170135394973942 0.015589640021138411 0 -0.0040976059536930671 0.015650349817734811 0 -0.0042170135394973942 0.015589640021138411 0 -0.0040976059536930671 0.015650349817734811 0 -0.0041376866038590025 0.015582562381900922 0 -0.0042805645282419777 0.015583474895553511 0 -0.0041791208944705911 0.015641905264317392 0 -0.0042170135394973942 0.015589640021138411 0 -0.0040976059536930671 0.015650349817734811 0 -0.004068276484063613 0.015706921519131587 0 -0.0039680487009918618 0.015725134158889435 0 -0.0041791208944705911 0.015641905264317392 0 -0.0040976059536930671 0.015650349817734811 0 -0.004068276484063613 0.015706921519131587 0 -0.0041791208944705911 0.015641905264317392 0 -0.004068276484063613 0.015706921519131587 0 -0.0041415644990963557 0.015693540965873862 0 -0.004068276484063613 0.015706921519131587 0 -0.0041415644990963557 0.015693540965873862 0 -0.0040402146687775441 0.015763842954469198 0 -0.004068276484063613 0.015706921519131587 0 -0.0039597223195057957 0.01577913514601887 0 -0.0040402146687775441 0.015763842954469198 0 -0.0039597223195057957 0.01577913514601887 0 -0.0039680487009918618 0.015725134158889435 0 -0.0038535269601069422 0.015803078729468158 0 -0.004068276484063613 0.015706921519131587 0 -0.0039597223195057957 0.01577913514601887 0 -0.0039680487009918618 0.015725134158889435 0 -0.0040976059536930671 0.015650349817734811 0 -0.0039680487009918618 0.015725134158889435 0 -0.0039770054161951604 0.015661125014706501 0 -0.0037234517140358196 0.015826701812534909 0 -0.0038535269601069422 0.015803078729468158 0 -0.0038362434058933745 0.015741088278427205 0 -0.0039680487009918618 0.015725134158889435 0 -0.0038535269601069422 0.015803078729468158 0 -0.0038362434058933745 0.015741088278427205 0 -0.0037333493553805531 0.015886628126119448 0 -0.0038535269601069422 0.015803078729468158 0 -0.0038558203905118896 0.015853838727335451 0 -0.0039597223195057957 0.01577913514601887 0 -0.0038535269601069422 0.015803078729468158 0 -0.0038558203905118896 0.015853838727335451 0 -0.0039597223195057957 0.01577913514601887 0 -0.0038558203905118896 0.015853838727335451 0 -0.0039474136297856953 0.015827253985059447 0 -0.0037438306968024869 0.01593905739362176 0 -0.0038558203905118896 0.015853838727335451 0 -0.0038882872662605399 0.015881845435029598 0 -0.0038882872662605399 0.015881845435029598 0 -0.0039474136297856953 0.015827253985059447 0 -0.0040194732876725897 0.015820437702149984 0 -0.0038558203905118896 0.015853838727335451 0 -0.0038882872662605399 0.015881845435029598 0 -0.0039474136297856953 0.015827253985059447 0 -0.0039597223195057957 0.01577913514601887 0 -0.0039474136297856953 0.015827253985059447 0 -0.0040402146687775441 0.015763842954469198 0 -0.0041210138868514471 0.015737529057674903 0 -0.0040402146687775441 0.015763842954469198 0 -0.0040194732876725897 0.015820437702149984 0 -0.0039474136297856953 0.015827253985059447 0 -0.0040402146687775441 0.015763842954469198 0 -0.0040194732876725897 0.015820437702149984 0 -0.0041046563669744993 0.015802864141885527 0 -0.0041578163194971171 0.015744342831589681 0 -0.0040194732876725897 0.015820437702149984 0 -0.00389919005739194 0.015936703091683792 0 -0.0041046563669744993 0.015802864141885527 0 -0.0040194732876725897 0.015820437702149984 0 -0.00389919005739194 0.015936703091683792 0 -0.0038882872662605399 0.015881845435029598 0 -0.0040194732876725897 0.015820437702149984 0 -0.0037450902142502893 0.015559893661423106 0 -0.0040048321316081235 0.015498697807884603 0 -0.0040830075293687889 0.015272011914941989 0 -0.0037450902142502893 0.015559893661423106 0 -0.0038257301740748577 0.015642984704821897 0 -0.0040048321316081235 0.015498697807884603 0 -0.0038257301740748577 0.015642984704821897 0 -0.0039931446868282892 0.015590790596340441 0 -0.0040048321316081235 0.015498697807884603 0 -0.0036852126513006629 0.015762003405373808 0 -0.0038257301740748577 0.015642984704821897 0 -0.0038362434058933745 0.015741088278427205 0 -0.0038257301740748577 0.015642984704821897 0 -0.0038362434058933745 0.015741088278427205 0 -0.0039770054161951604 0.015661125014706501 0 -0.0039680487009918618 0.015725134158889435 0 -0.0038362434058933745 0.015741088278427205 0 -0.0039770054161951604 0.015661125014706501 0 -0.0038257301740748577 0.015642984704821897 0 -0.0039770054161951604 0.015661125014706501 0 -0.0039931446868282892 0.015590790596340441 0 -0.0039931446868282892 0.015590790596340441 0 -0.0041376866038590025 0.015582562381900922 0 -0.0041502067665198554 0.015504599971287499 0 -0.0039770054161951604 0.015661125014706501 0 -0.0039931446868282892 0.015590790596340441 0 -0.0041376866038590025 0.015582562381900922 0 -0.0040976059536930671 0.015650349817734811 0 -0.0039770054161951604 0.015661125014706501 0 -0.0041376866038590025 0.015582562381900922 0 -0.0042170135394973942 0.015589640021138411 0 -0.0041376866038590025 0.015582562381900922 0 -0.0042748036214293088 0.015531722903356247 0 -0.0041376866038590025 0.015582562381900922 0 -0.0042294271724445942 0.015517412631596282 0 -0.0042748036214293088 0.015531722903356247 0 -0.0041376866038590025 0.015582562381900922 0 -0.0042294271724445942 0.015517412631596282 0 -0.0041502067665198554 0.015504599971287499 0 -0.0042294271724445942 0.015517412631596282 0 -0.0041502067665198554 0.015504599971287499 0 -0.0042884396068446646 0.015455499460692523 0 -0.0041502067665198554 0.015504599971287499 0 -0.0040048321316081235 0.015498697807884603 0 -0.0042389315750834128 0.015387780436862925 0 -0.0040048321316081235 0.015498697807884603 0 -0.0042389315750834128 0.015387780436862925 0 -0.0040830075293687889 0.015272011914941989 0 -0.0039931446868282892 0.015590790596340441 0 -0.0041502067665198554 0.015504599971287499 0 -0.0040048321316081235 0.015498697807884603 0 -0.0042389315750834128 0.015387780436862925 0 -0.0043745199593949562 0.015314213188341697 0 -0.0042616987764754607 0.015290628869624059 0 -0.0042389315750834128 0.015387780436862925 0 -0.0043813193571470383 0.01539650587523031 0 -0.0043745199593949562 0.015314213188341697 0 -0.0043813193571470383 0.01539650587523031 0 -0.0042884396068446646 0.015455499460692523 0 -0.0043683796431032412 0.015438147913788057 0 -0.0043813193571470383 0.01539650587523031 0 -0.0043683796431032412 0.015438147913788057 0 -0.004421866415848694 0.015423879609688437 0 -0.0041502067665198554 0.015504599971287499 0 -0.0042389315750834128 0.015387780436862925 0 -0.0042884396068446646 0.015455499460692523 0 -0.0042389315750834128 0.015387780436862925 0 -0.0043813193571470383 0.01539650587523031 0 -0.0042884396068446646 0.015455499460692523 0 -0.0042294271724445942 0.015517412631596282 0 -0.0042884396068446646 0.015455499460692523 0 -0.0043285640941806459 0.015479027813025877 0 -0.0042748036214293088 0.015531722903356247 0 -0.0043742847504277772 0.015482961970651467 0 -0.0043285640941806459 0.015479027813025877 0 -0.0042294271724445942 0.015517412631596282 0 -0.0042748036214293088 0.015531722903356247 0 -0.0043285640941806459 0.015479027813025877 0 -0.0043742847504277772 0.015482961970651467 0 -0.0043285640941806459 0.015479027813025877 0 -0.0044245646427213689 0.015440883011978759 0 -0.0043285640941806459 0.015479027813025877 0 -0.0043683796431032412 0.015438147913788057 0 -0.0044245646427213689 0.015440883011978759 0 -0.0042884396068446646 0.015455499460692523 0 -0.0043285640941806459 0.015479027813025877 0 -0.0043683796431032412 0.015438147913788057 0 -0.004421866415848694 0.015423879609688437 0 -0.004469190343581118 0.015415084727530079 0 -0.0044538461902542924 0.015401556830343239 0 -0.004421866415848694 0.015423879609688437 0 -0.0044245646427213689 0.015440883011978759 0 -0.004469190343581118 0.015415084727530079 0 -0.0043683796431032412 0.015438147913788057 0 -0.004421866415848694 0.015423879609688437 0 -0.0044245646427213689 0.015440883011978759 0 -0.0044245646427213689 0.015440883011978759 0 -0.0044958634122457802 0.015406869711270017 0 -0.004469190343581118 0.015415084727530079 0 -0.0044532840692819171 0.015437104564537398 0 -0.0044245646427213689 0.015440883011978759 0 -0.0044958634122457802 0.015406869711270017 0 -0.0044532840692819171 0.015437104564537398 0 -0.0043742847504277772 0.015482961970651467 0 -0.0044245646427213689 0.015440883011978759 0 -0.0045137263240743047 0.015391215064203751 0 -0.004533677831153226 0.015373604442048704 0 -0.0044958634122457802 0.015406869711270017 0 -0.004533677831153226 0.015373604442048704 0 -0.0044958634122457802 0.015406869711270017 0 -0.0045158120068156385 0.015396080704510279 0 -0.0045137263240743047 0.015391215064203751 0 -0.0044532840692819171 0.015437104564537398 0 -0.0044958634122457802 0.015406869711270017 0 -0.0044958634122457802 0.015406869711270017 0 -0.0045158120068156385 0.015396080704510279 0 -0.0045019581618948451 0.015408079327468158 0 -0.0045158120068156385 0.015396080704510279 0 -0.0045019581618948451 0.015408079327468158 0 -0.0045179948023726518 0.015405190823907908 0 -0.0044958634122457802 0.015406869711270017 0 -0.0045019581618948451 0.015408079327468158 0 -0.004469190343581118 0.015415084727530079 0 -0.004469190343581118 0.015415084727530079 0 -0.0044922766597043379 0.01540474782790382 0 -0.0044538461902542924 0.015401556830343239 0 -0.0045019581618948451 0.015408079327468158 0 -0.0044922766597043379 0.01540474782790382 0 -0.0045073375335840608 0.01541073740585573 0 -0.0045019581618948451 0.015408079327468158 0 -0.004469190343581118 0.015415084727530079 0 -0.0044922766597043379 0.01540474782790382 0 -0.0044922766597043379 0.01540474782790382 0 -0.0044538461902542924 0.015401556830343239 0 -0.0044805538562114073 0.015349854103505667 0 -0.0043813193571470383 0.01539650587523031 0 -0.004421866415848694 0.015423879609688437 0 -0.0044538461902542924 0.015401556830343239 0 -0.0043813193571470383 0.01539650587523031 0 -0.0044538461902542924 0.015401556830343239 0 -0.0044805538562114073 0.015349854103505667 0 -0.0043813193571470383 0.01539650587523031 0 -0.0044805538562114073 0.015349854103505667 0 -0.0043745199593949562 0.015314213188341697 0 -0.004452126849397448 0.01523766032470601 0 -0.0045190919564779101 0.015129020875348349 0 -0.0043362441784243312 0.015182884187755241 0 -0.004452126849397448 0.01523766032470601 0 -0.0045190919564779101 0.015129020875348349 0 -0.0045356955777082833 0.015296595654466621 0 -0.0044805538562114073 0.015349854103505667 0 -0.004452126849397448 0.01523766032470601 0 -0.0045356955777082833 0.015296595654466621 0 -0.0044805538562114073 0.015349854103505667 0 -0.004452126849397448 0.01523766032470601 0 -0.0043745199593949562 0.015314213188341697 0 -0.004452126849397448 0.01523766032470601 0 -0.0043362441784243312 0.015182884187755241 0 -0.0043745199593949562 0.015314213188341697 0 -0.0055996453230659337 0.015269002563223879 0 -0.0052183416222424742 0.015189298371543054 0 -0.0049621800997005682 0.015458056939970887 0 -0.0055560162101946503 0.015000001318221193 0 -0.0052183416222424742 0.015189298371543054 0 -0.0047731428931468605 0.014999914497942019 0 -0.0052645337767954006 0.015151378561294386 0 -0.0046112556059977692 0.015326622418412018 0 -0.0055996453230659337 0.015269002563223879 0 -0.0055560162101946503 0.015000001318221193 0 -0.0052183416222424742 0.015189298371543054 0 -0.0052645337767954006 0.015151378561294386 0 -0.005555848788053523 0.015000203214560498 0 -0.0052183416222424742 0.015189298371543054 0 -0.0047731428931468605 0.014999914497942019 0 -0.0049621800997005682 0.015458056939970887 0 -0.0047731428931468605 0.014999914497942019 0 -0.0049621800997005682 0.015458056939970887 0 -0.0045316940782026494 0.015276658333288404 0 -0.0043362441784243312 0.015182884187755241 0 -0.0042616987764754607 0.015290628869624059 0 -0.0040830075293687889 0.015272011914941989 0 -0.0043362441784243312 0.015182884187755241 0 -0.0043745199593949562 0.015314213188341697 0 -0.0042616987764754607 0.015290628869624059 0 -0.0037450902142502893 0.015559893661423106 0 -0.0043206099152206055 0.015547265179285999 0 -0.00399029694040703 0.014999955989597951 0 -0.0049621800997005682 0.015458056939970887 0 -0.0043206099152206055 0.015547265179285999 0 -0.0045316940782026494 0.015276658333288404 0 -0.0046112556059977692 0.015326622418412018 0 -0.0042174823884590946 0.015410889393998083 0 -0.0042389315750834128 0.015387780436862925 0 -0.0042616987764754607 0.015290628869624059 0 -0.0040830075293687889 0.015272011914941989 0 -0.0043206099152206055 0.015547265179285999 0 -0.0045316940782026494 0.015276658333288404 0 -0.00399029694040703 0.014999955989597951 0 -0.0047731428931468605 0.014999914497942019 0 -0.0045316940782026494 0.015276658333288404 0 -0.00399029694040703 0.014999955989597951 0 -0.0037992874651598804 0.015543644228352178 0 -0.0042174823884590946 0.015410889393998083 0 -0.006561969964577483 0.016185977350567406 0 -0.0073045053247390961 0.01596490981034732 0 -0.0068498529904167703 0.015738244684597631 0 -0.0058454239398247048 0.01531512238875332 0 -0.006428000128077975 0.015139405497643914 0 -0.0053471001363008209 0.014496689026133176 0 -0.0050904885508399255 0.014433184653521988 0 -0.0055238691011716282 0.014330007321945042 0 -0.0053471001363008209 0.014496689026133176 0 -0.0055238691011716282 0.014330007321945042 0 -0.0056667663830869946 0.014470563584725444 0 -0.0052600238902736265 0.014708702252678131 0 -0.0056374520258851172 0.014447585358039482 0 -0.0053471001363008209 0.014496689026133176 0 -0.005291973611576079 0.014748307529046161 0 -0.0056667663830869946 0.014470563584725444 0 -0.0055206964729006295 0.01467309339530638 0 -0.005235084724356737 0.014650056221616333 0 -0.0056063020506651124 0.014423437133805317 0 -0.0053471001363008209 0.014496689026133176 0 -0.0050904885508399255 0.014433184653521988 0 -0.005291973611576079 0.014748307529046161 0 -0.0050904885508399255 0.014433184653521988 0 -0.005291973611576079 0.014748307529046161 0 -0.0049330833091713235 0.014707268939715992 0 -0.0048279622882205454 0.015060432465336091 0 -0.005291973611576079 0.014748307529046161 0 -0.0049330833091713235 0.014707268939715992 0 -0.0048279622882205454 0.015060432465336091 0 -0.0049330833091713235 0.014707268939715992 0 -0.0045933816771264492 0.014558468501280952 0 -0.0050904885508399255 0.014433184653521988 0 -0.0049330833091713235 0.014707268939715992 0 -0.0045933816771264492 0.014558468501280952 0 -0.0045698689508994585 0.015330684172938211 0 -0.0045306139163631062 0.015382478674594356 0 -0.0044743676076051423 0.015437022848142594 0 -0.0045158120068156385 0.015396080704510279 0 -0.0045306139163631062 0.015382478674594356 0 -0.0045179948023726518 0.015405190823907908 0 -0.004533677831153226 0.015373604442048704 0 -0.0045158120068156385 0.015396080704510279 0 -0.0045306139163631062 0.015382478674594356 0 -0.0045698689508994585 0.015330684172938211 0 -0.004533677831153226 0.015373604442048704 0 -0.0045306139163631062 0.015382478674594356 0 -0.0045306139163631062 0.015382478674594356 0 -0.0044743676076051423 0.015437022848142594 0 -0.0045179948023726518 0.015405190823907908 0 -0.0044922766597043379 0.01540474782790382 0 -0.004529729386143779 0.015419436588979193 0 -0.0045091693144018079 0.015424039391464374 0 -0.0044743676076051423 0.015437022848142594 0 -0.0045091693144018079 0.015424039391464374 0 -0.0045179948023726518 0.015405190823907908 0 -0.0050849026690412717 0.015422366748251953 0 -0.004898964389218676 0.015462256051201896 0 -0.0044922766597043379 0.01540474782790382 0 -0.0045091693144018079 0.015424039391464374 0 -0.0045073375335840608 0.01541073740585573 0 -0.0045019581618948451 0.015408079327468158 0 -0.0045073375335840608 0.01541073740585573 0 -0.0045179948023726518 0.015405190823907908 0 -0.0045091693144018079 0.015424039391464374 0 -0.0045073375335840608 0.01541073740585573 0 -0.0045179948023726518 0.015405190823907908 0 -0.0050849026690412717 0.015422366748251953 0 -0.005138487707357608 0.015658418513201308 0 -0.0044805538562114073 0.015349854103505667 0 -0.004529729386143779 0.015419436588979193 0 -0.0045356955777082833 0.015296595654466621 0 -0.0058310329953883697 0.016402122431872633 0 -0.0061144271363745405 0.01594776131298118 0 -0.0057269241915751841 0.015837509732422764 0 -0.0044922766597043379 0.01540474782790382 0 -0.0044805538562114073 0.015349854103505667 0 -0.004529729386143779 0.015419436588979193 0 -0.006561969964577483 0.016185977350567406 0 -0.0058310329953883697 0.016402122431872633 0 -0.0061144271363745405 0.01594776131298118 0 -0.006561969964577483 0.016185977350567406 0 -0.0061144271363745405 0.01594776131298118 0 -0.0063832765692892974 0.015654373236861918 0 -0.0058454239398247048 0.01531512238875332 0 -0.0050849026690412717 0.015422366748251953 0 -0.0061144271363745405 0.01594776131298118 0 -0.0063832765692892974 0.015654373236861918 0 -0.0060109610267683111 0.015537516770318723 0 -0.0063832765692892974 0.015654373236861918 0 -0.0060109610267683111 0.015537516770318723 0 -0.0062675787334963637 0.015329712373163266 0 -0.0052645337767954006 0.015151378561294386 0 -0.005138487707357608 0.015658418513201308 0 -0.0056178036390121568 0.01526824597783827 0 -0.0057269241915751841 0.015837509732422764 0 -0.0060109610267683111 0.015537516770318723 0 -0.0061144271363745405 0.01594776131298118 0 -0.0057269241915751841 0.015837509732422764 0 -0.0060109610267683111 0.015537516770318723 0 -0.0055560581549054539 0.014999996767806863 0 -0.0059613712654986387 0.015140375552354405 0 -0.0062988741114082597 0.014999993717682422 0 -0.0056178036390121568 0.01526824597783827 0 -0.0060109610267683111 0.015537516770318723 0 -0.0059613712654986387 0.015140375552354405 0 -0.0060109610267683111 0.015537516770318723 0 -0.0059613712654986387 0.015140375552354405 0 -0.0062675787334963637 0.015329712373163266 0 -0.0052645337767954006 0.015151378561294386 0 -0.0059311327336377647 0.015093300104532579 0 -0.0056078769085878581 0.015273392697774453 0 -0.0055560581549054539 0.014999996767806863 0 -0.0059613712654986387 0.015140375552354405 0 -0.0063832765692892974 0.015654373236861918 0 -0.0062675787334963637 0.015329712373163266 0 -0.0066849887469824145 0.015314250611121211 0 -0.0059613712654986387 0.015140375552354405 0 -0.0062675787334963637 0.015329712373163266 0 -0.0062988741114082597 0.014999993717682422 0 -0.0062675787334963637 0.015329712373163266 0 -0.0062988741114082597 0.014999993717682422 0 -0.0066849887469824145 0.015314250611121211 0 -0.0062988741114082597 0.014999993717682422 0 -0.0066849887469824145 0.015314250611121211 0 -0.0070416835145713196 0.014999992249900489 0 -0.0066849887469824145 0.015314250611121211 0 -0.0068498529904167703 0.015738244684597631 0 -0.0073626690888821253 0.01543276052254491 0 -0.0063832765692892974 0.015654373236861918 0 -0.0066849887469824145 0.015314250611121211 0 -0.0068498529904167703 0.015738244684597631 0 -0.006561969964577483 0.016185977350567406 0 -0.0063832765692892974 0.015654373236861918 0 -0.0068498529904167703 0.015738244684597631 0 -0.0073045053247390961 0.01596490981034732 0 -0.0068498529904167703 0.015738244684597631 0 -0.0073626690888821253 0.01543276052254491 0 -0.0066849887469824145 0.015314250611121211 0 -0.0073626690888821253 0.01543276052254491 0 -0.0070416835145713196 0.014999992249900489 0 -0.0073626690888821253 0.01543276052254491 0 -0.0070416835145713196 0.014999992249900489 0 -0.0077845183952654608 0.014999994148003151 0 -0.0073626690888821253 0.01543276052254491 0 -0.0077845183952654608 0.014999994148003151 0 -0.008049736196689309 0.015735559848702639 0 -0.0077845183952654608 0.014999994148003151 0 -0.008049736196689309 0.015735559848702639 0 -0.0085272881862951781 0.014999988160806015 0 -0.005840259166677025 0.014239143531041601 0 -0.0059390763802649356 0.014263573596620355 0 -0.0061209425370065303 0.014153499733087233 0 -0.0068505670143483247 0.015025441156169741 0 -0.0078707572253260763 0.014618284962435335 0 -0.0073045053247390961 0.01596490981034732 0 -0.0073626690888821253 0.01543276052254491 0 -0.008049736196689309 0.015735559848702639 0 -0.006428000128077975 0.015139405497643914 0 -0.0068505670143483247 0.015025441156169741 0 -0.0055238691011716282 0.014330007321945042 0 -0.005840259166677025 0.014239143531041601 0 -0.0056667663830869946 0.014470563584725444 0 -0.0059207759023049934 0.014273353680926051 0 -0.0056374520258851172 0.014447585358039482 0 -0.0059390763802649356 0.014263573596620355 0 -0.0056063020506651124 0.014423437133805317 0 -0.0058565101234970308 0.01446289043402138 0 -0.005840259166677025 0.014239143531041601 0 -0.0059390763802649356 0.014263573596620355 0 -0.0056667663830869946 0.014470563584725444 0 -0.0059390763802649356 0.014263573596620355 0 -0.0058565101234970308 0.01446289043402138 0 -0.0060348833106284132 0.014425340431275814 0 -0.0058565101234970308 0.01446289043402138 0 -0.0057329803496888303 0.014624566079268386 0 -0.0059607251474975524 0.014604972728206865 0 -0.0057329803496888303 0.014624566079268386 0 -0.0059607251474975524 0.014604972728206865 0 -0.005831845822615726 0.014788203251340358 0 -0.0058565101234970308 0.01446289043402138 0 -0.0059607251474975524 0.014604972728206865 0 -0.0060348833106284132 0.014425340431275814 0 -0.0056063020506651124 0.014423437133805317 0 -0.0058565101234970308 0.01446289043402138 0 -0.0057329803496888303 0.014624566079268386 0 -0.0055206964729006295 0.01467309339530638 0 -0.0056063020506651124 0.014423437133805317 0 -0.0057329803496888303 0.014624566079268386 0 -0.0061405797233778005 0.014566595345855618 0 -0.0063300070795752608 0.014593279084089278 0 -0.0061210639391201934 0.014787403279669729 0 -0.0061405797233778005 0.014566595345855618 0 -0.0062270945579092412 0.014371898596553519 0 -0.0063300070795752608 0.014593279084089278 0 -0.0061405797233778005 0.014566595345855618 0 -0.0059607251474975524 0.014604972728206865 0 -0.0061210639391201934 0.014787403279669729 0 -0.0061405797233778005 0.014566595345855618 0 -0.0059607251474975524 0.014604972728206865 0 -0.0060348833106284132 0.014425340431275814 0 -0.0061405797233778005 0.014566595345855618 0 -0.0060348833106284132 0.014425340431275814 0 -0.0062270945579092412 0.014371898596553519 0 -0.0060348833106284132 0.014425340431275814 0 -0.0062270945579092412 0.014371898596553519 0 -0.0060805023609010666 0.014303248347932855 0 -0.0059390763802649356 0.014263573596620355 0 -0.0060348833106284132 0.014425340431275814 0 -0.0060805023609010666 0.014303248347932855 0 -0.0071242950393352374 0.014029660279444092 0 -0.0074601081309839529 0.014613016874288608 0 -0.0082758941668759321 0.014059449960510078 0 -0.0080605150366952691 0.013681112373510235 0 -0.0084425409613384343 0.0138587476669282 0 -0.0071242950393352374 0.014029660279444092 0 -0.0078707572253260763 0.014618284962435335 0 -0.0080605150366952691 0.013681112373510235 0 -0.0084776445719556195 0.013538151025170265 0 -0.0084425409613384343 0.0138587476669282 0 -0.0062270945579092412 0.014371898596553519 0 -0.0061209425370065303 0.014153499733087233 0 -0.0060805023609010666 0.014303248347932855 0 -0.0059390763802649356 0.014263573596620355 0 -0.0061209425370065303 0.014153499733087233 0 -0.0060805023609010666 0.014303248347932855 0 -0.0078707572253260763 0.014618284962435335 0 -0.0085280535339381323 0.015001206438300319 0 -0.0088075019927446596 0.015486613417198911 0 -0.0085273752772418495 0.014999987165996109 0 -0.009097180156264744 0.015026921056205901 0 -0.008049736196689309 0.015735559848702639 0 -0.0087829634041596705 0.015500285373075389 0 -0.0085272881862951781 0.014999988160806015 0 -0.009097180156264744 0.015026921056205901 0 -0.0091697728802346279 0.01499999298399759 0 -0.0095742657696527705 0.015077282098738785 0 -0.0078707572253260763 0.014618284962435335 0 -0.0090069174805782418 0.01436354972706823 0 -0.0085273752772418495 0.014999987165996109 0 -0.009097180156264744 0.015026921056205901 0 -0.0091697728802346279 0.01499999298399759 0 -0.0088075019927446596 0.015486613417198911 0 -0.009097180156264744 0.015026921056205901 0 -0.0093908677946725298 0.015289473532764773 0 -0.0091402705613441455 0.01503143192065438 0 -0.0095933593772527682 0.015068464535039083 0 -0.009097180156264744 0.015026921056205901 0 -0.0093908677946725298 0.015289473532764773 0 -0.0095169441280861019 0.015073881782959049 0 -0.0095742657696527705 0.015077282098738785 0 -0.009812286723253032 0.015000001114625626 0 -0.010049458154679116 0.015126175746693974 0 -0.0091697728802346279 0.01499999298399759 0 -0.0095742657696527705 0.015077282098738785 0 -0.009812286723253032 0.015000001114625626 0 -0.0095933593772527682 0.015068464535039083 0 -0.0096775360573340356 0.014699721124458014 0 -0.0084776445719556195 0.013538151025170265 0 -0.0089158831767843852 0.013385907717544719 0 -0.0087812660006325038 0.013826072997522164 0 -0.0093908677946725298 0.015289473532764773 0 -0.0095169441280861019 0.015073881782959049 0 -0.0099217063051634368 0.015107198038408978 0 -0.0090069174805782418 0.01436354972706823 0 -0.0096775360573340356 0.014699721124458014 0 -0.009812286723253032 0.015000001114625626 0 -0.010049458154679116 0.015126175746693974 0 -0.010454736662712119 0.014999996927030126 0 -0.0096775360573340356 0.014699721124458014 0 -0.010454691343831314 0.014999887656265962 0 -0.0089158831767843852 0.013385907717544719 0 -0.0087812660006325038 0.013826072997522164 0 -0.0091101440588990078 0.013849761085119525 0 -0.0087812660006325038 0.013826072997522164 0 -0.0091101440588990078 0.013849761085119525 0 -0.009045652116061639 0.014151988863219611 0 -0.0084776445719556195 0.013538151025170265 0 -0.0087812660006325038 0.013826072997522164 0 -0.0084425409613384343 0.0138587476669282 0 -0.010842318334766086 0.015206954059665444 0 -0.011187077310702924 0.014999996191186242 0 -0.010454728565275941 0.014999987832614307 0 -0.010091115200610653 0.014294760278470956 0 -0.011075037661966198 0.014118499671341092 0 -0.010842318334766086 0.015206954059665444 0 -0.011187077310702924 0.014999996191186242 0 -0.011635143329842688 0.015287144746934777 0 -0.0095034769823461995 0.013430735112262084 0 -0.010137157120981087 0.013490914999914005 0 -0.0098321062535244169 0.013792280939024949 0 -0.010047491831175046 0.015124360219237831 0 -0.010842318334766086 0.015206954059665444 0 -0.010454728565275941 0.014999987832614307 0 -0.0096775360573340356 0.014699721124458014 0 -0.010091115200610653 0.014294760278470956 0 -0.0089158831767843852 0.013385907717544719 0 -0.0095034769823461995 0.013430735112262084 0 -0.0091101440588990078 0.013849761085119525 0 -0.0094281644013551012 0.013786607827174288 0 -0.0091101440588990078 0.013849761085119525 0 -0.0094713709659997643 0.014107665110769737 0 -0.0095034769823461995 0.013430735112262084 0 -0.0094281644013551012 0.013786607827174288 0 -0.0091101440588990078 0.013849761085119525 0 -0.0095034769823461995 0.013430735112262084 0 -0.0094281644013551012 0.013786607827174288 0 -0.0098321062535244169 0.013792280939024949 0 -0.0094281644013551012 0.013786607827174288 0 -0.0094713709659997643 0.014107665110769737 0 -0.009791038646771711 0.013773946267747883 0 -0.0094585246575281182 0.013778967146359272 0 -0.009847076698703482 0.013078026502166874 0 -0.0089452532686486001 0.013293488457284309 0 -0.009847076698703482 0.013078026502166874 0 -0.0083262630385558499 0.012415674265007217 0 -0.0085010350679129067 0.01280575869885563 0 -0.0089271110452375201 0.012380607403069241 0 -0.009001835165155174 0.012482582797142205 0 -0.0092459644078452512 0.012223690494515818 0 -0.0093588708351610601 0.012428924172534148 0 -0.0089452532686486001 0.013293488457284309 0 -0.0090931843355234101 0.012346004205646188 0 -0.0091101440588990078 0.013849761085119525 0 -0.0094713709659997643 0.014107665110769737 0 -0.009045652116061639 0.014151988863219611 0 -0.0091450687030917195 0.01409843232318867 0 -0.0088734702787269075 0.014138726692393695 0 -0.0088899174631146983 0.014373315916250231 0 -0.0089452532686486001 0.013293488457284309 0 -0.0090104491406141039 0.014167294548227426 0 -0.0085010350679129067 0.01280575869885563 0 -0.0077700907993514864 0.012903778531946358 0 -0.0082777483789646389 0.013261639660954706 0 -0.0089452532686486001 0.013293488457284309 0 -0.008367053032965293 0.013605310295288251 0 -0.0083262630385558499 0.012415674265007217 0 -0.0085010350679129067 0.01280575869885563 0 -0.0077700907993514864 0.012903778531946358 0 -0.0085010350679129067 0.01280575869885563 0 -0.0086760839477147515 0.013105739451723067 0 -0.0089454394862845243 0.012796855311691084 0 -0.0085010350679129067 0.01280575869885563 0 -0.0086760839477147515 0.013105739451723067 0 -0.0082777483789646389 0.013261639660954706 0 -0.0087812660006325038 0.013826072997522164 0 -0.0084425409613384343 0.0138587476669282 0 -0.008615693351640934 0.014173773770299755 0 -0.0082758941668759321 0.014059449960510078 0 -0.0084425409613384343 0.0138587476669282 0 -0.008615693351640934 0.014173773770299755 0 -0.0082758941668759321 0.014059449960510078 0 -0.008615693351640934 0.014173773770299755 0 -0.0084801626810545854 0.01437830925716351 0 -0.0086326487356169369 0.014172985857932949 0 -0.0090104491406141039 0.014167294548227426 0 -0.0087812660006325038 0.013826072997522164 0 -0.008615693351640934 0.014173773770299755 0 -0.009045652116061639 0.014151988863219611 0 -0.008615693351640934 0.014173773770299755 0 -0.0088734702787269075 0.014138726692393695 0 -0.0086913406775691836 0.014356481397226306 0 -0.0088899174631146983 0.014373315916250231 0 -0.0086913406775691836 0.014356481397226306 0 -0.0086264851359473781 0.014641619808188254 0 -0.0088734702787269075 0.014138726692393695 0 -0.0088899174631146983 0.014373315916250231 0 -0.0086913406775691836 0.014356481397226306 0 -0.0086913406775691836 0.014356481397226306 0 -0.0084801626810545854 0.01437830925716351 0 -0.0086264851359473781 0.014641619808188254 0 -0.008615693351640934 0.014173773770299755 0 -0.0086913406775691836 0.014356481397226306 0 -0.0084801626810545854 0.01437830925716351 0 -0.0074601081309839529 0.014613016874288608 0 -0.0074400791473861732 0.014198495115931627 0 -0.008367053032965293 0.013605310295288251 0 -0.0074400791473861732 0.014198495115931627 0 -0.0077700907993514864 0.012903778531946358 0 -0.0071018335991524864 0.013497188715831873 0 -0.0078424923487649886 0.013639285828496288 0 -0.0071018335991524864 0.013497188715831873 0 -0.0078424923487649886 0.013639285828496288 0 -0.0074412346825213308 0.014285374396648868 0 -0.0074400791473861732 0.014198495115931627 0 -0.0072874286373297908 0.014001248274187901 0 -0.0078424923487649886 0.013639285828496288 0 -0.0079539027421405874 0.014114275968522393 0 -0.0074412346825213308 0.014285374396648868 0 -0.0070727755333591909 0.013691570683896086 0 -0.0069687506719811956 0.014375254915087132 0 -0.0065329922093038031 0.014294770382179217 0 -0.0074400791473861732 0.014198495115931627 0 -0.0062784451262623943 0.014689711361933465 0 -0.0070727755333591909 0.013691570683896086 0 -0.0069687506719811956 0.014375254915087132 0 -0.0074412346825213308 0.014285374396648868 0 -0.0086640894324676743 0.013504223711332983 0 -0.0086760839477147515 0.013105739451723067 0 -0.0082777483789646389 0.013261639660954706 0 -0.0077700907993514864 0.012903778531946358 0 -0.0082777483789646389 0.013261639660954706 0 -0.0078424923487649886 0.013639285828496288 0 -0.0082777483789646389 0.013261639660954706 0 -0.0078424923487649886 0.013639285828496288 0 -0.0084510326941305905 0.013895141060115138 0 -0.0078424923487649886 0.013639285828496288 0 -0.0079539027421405874 0.014114275968522393 0 -0.0084510326941305905 0.013895141060115138 0 -0.0086640894324676743 0.013504223711332983 0 -0.0082777483789646389 0.013261639660954706 0 -0.0084510326941305905 0.013895141060115138 0 -0.0086640894324676743 0.013504223711332983 0 -0.0084510326941305905 0.013895141060115138 0 -0.0087299661489568352 0.013824245900763548 0 -0.0084510326941305905 0.013895141060115138 0 -0.0086280960078720381 0.014061643448123948 0 -0.0081626300542996313 0.014195623421770207 0 -0.0085963548701913032 0.014081013560543153 0 -0.0082552532024485446 0.014329250860557006 0 -0.0086280960078720381 0.014061643448123948 0 -0.0085572154155240769 0.014289757234251159 0 -0.0087614316030047087 0.0142085704183213 0 -0.0084510326941305905 0.013895141060115138 0 -0.0087299661489568352 0.013824245900763548 0 -0.0086280960078720381 0.014061643448123948 0 -0.0079539027421405874 0.014114275968522393 0 -0.0084510326941305905 0.013895141060115138 0 -0.0079096692772886723 0.014699841626174222 0 -0.0084171769014979737 0.013953609928219516 0 -0.0080397551591857089 0.014424705750459751 0 -0.0086280960078720381 0.014061643448123948 0 -0.0081626300542996313 0.014195623421770207 0 -0.0082757059262297296 0.014369962702265473 0 -0.0079539027421405874 0.014114275968522393 0 -0.0079096692772886723 0.014699841626174222 0 -0.007583754153545604 0.014571539081323094 0 -0.0081626300542996313 0.014195623421770207 0 -0.0082757059262297296 0.014369962702265473 0 -0.0077861720760960609 0.014609494118824548 0 -0.0082552532024485446 0.014329250860557006 0 -0.0078788881770401296 0.014598847807041937 0 -0.0082489106975195299 0.014275937281391963 0 -0.0078381721127560606 0.014546650402897385 0 -0.0080849816185568409 0.014581155950119329 0 -0.0082489106975195299 0.014275937281391963 0 -0.0084397472959889461 0.014452257489703243 0 -0.0082640638232809316 0.014512081027895078 0 -0.0082489106975195299 0.014275937281391963 0 -0.0082640638232809316 0.014512081027895078 0 -0.0080849816185568409 0.014581155950119329 0 -0.0086280960078720381 0.014061643448123948 0 -0.0082489106975195299 0.014275937281391963 0 -0.0085572154155240769 0.014289757234251159 0 -0.0082489106975195299 0.014275937281391963 0 -0.0084397472959889461 0.014452257489703243 0 -0.0085572154155240769 0.014289757234251159 0 -0.0084397472959889461 0.014452257489703243 0 -0.0085572154155240769 0.014289757234251159 0 -0.0087283819335161883 0.014456769968371412 0 -0.0085572154155240769 0.014289757234251159 0 -0.0087614316030047087 0.0142085704183213 0 -0.0087283819335161883 0.014456769968371412 0 -0.0071461730262153307 0.01475696316573951 0 -0.0069687506719811956 0.014375254915087132 0 -0.0066594302515708935 0.014893647709171004 0 -0.0069687506719811956 0.014375254915087132 0 -0.0066594302515708935 0.014893647709171004 0 -0.0065329922093038031 0.014294770382179217 0 -0.0071461730262153307 0.01475696316573951 0 -0.0069687506719811956 0.014375254915087132 0 -0.0074412346825213308 0.014285374396648868 0 -0.0079539027421405874 0.014114275968522393 0 -0.0074412346825213308 0.014285374396648868 0 -0.007583754153545604 0.014571539081323094 0 -0.0079096692772886723 0.014699841626174222 0 -0.007583754153545604 0.014571539081323094 0 -0.0074351808549888388 0.014870802387624992 0 -0.0071461730262153307 0.01475696316573951 0 -0.0074412346825213308 0.014285374396648868 0 -0.007583754153545604 0.014571539081323094 0 -0.0071461730262153307 0.01475696316573951 0 -0.007583754153545604 0.014571539081323094 0 -0.0074351808549888388 0.014870802387624992 0 -0.0079096692772886723 0.014699841626174222 0 -0.0074351808549888388 0.014870802387624992 0 -0.0072981709590051562 0.015272812263634302 0 -0.0071461730262153307 0.01475696316573951 0 -0.0072034453307292922 0.015017383452843975 0 -0.0074351808549888388 0.014870802387624992 0 -0.0082757059262297296 0.014369962702265473 0 -0.0077861720760960609 0.014609494118824548 0 -0.0078509794208891162 0.014708122308890483 0 -0.0080397551591857089 0.014424705750459751 0 -0.0075112933939680132 0.014976852776262359 0 -0.0072034453307292922 0.015017383452843975 0 -0.0072981709590051562 0.015272812263634302 0 -0.0069435277938410247 0.015164304655643402 0 -0.0072034453307292922 0.015017383452843975 0 -0.0074351808549888388 0.014870802387624992 0 -0.0072981709590051562 0.015272812263634302 0 -0.0071461730262153307 0.01475696316573951 0 -0.0069435277938410247 0.015164304655643402 0 -0.0066594302515708935 0.014893647709171004 0 -0.0071461730262153307 0.01475696316573951 0 -0.0072034453307292922 0.015017383452843975 0 -0.0069435277938410247 0.015164304655643402 0 -0.0069435277938410247 0.015164304655643402 0 -0.0066337994745304888 0.015277589751986471 0 -0.0066594302515708935 0.014893647709171004 0 -0.0066337994745304888 0.015277589751986471 0 -0.0062968872409565665 0.015231256677714466 0 -0.0066594302515708935 0.014893647709171004 0 -0.0062968872409565665 0.015231256677714466 0 -0.0066594302515708935 0.014893647709171004 0 -0.0060967114041611823 0.015051617513132443 0 -0.0061545374126588982 0.01497649782758559 0 -0.0062784451262623943 0.014689711361933465 0 -0.0060856618559625465 0.014980196781756085 0 -0.0060967114041611823 0.015051617513132443 0 -0.0062299395699513382 0.014973249631973497 0 -0.0066594302515708935 0.014893647709171004 0 -0.0060967114041611823 0.015051617513132443 0 -0.0065329922093038031 0.014294770382179217 0 -0.0060856618559625465 0.014980196781756085 0 -0.0060967114041611823 0.015051617513132443 0 -0.0058522764763180675 0.015110882707798355 0 -0.0062968872409565665 0.015231256677714466 0 -0.0060967114041611823 0.015051617513132443 0 -0.005859928363923959 0.015358104008542203 0 -0.0055142487085758562 0.015348368137532237 0 -0.0058522764763180675 0.015110882707798355 0 -0.005859928363923959 0.015358104008542203 0 -0.0060967114041611823 0.015051617513132443 0 -0.0058522764763180675 0.015110882707798355 0 -0.005859928363923959 0.015358104008542203 0 -0.0055571569586838144 0.015306329185494735 0 -0.0059700863782775095 0.015349967224251086 0 -0.0055142487085758562 0.015348368137532237 0 -0.0058522764763180675 0.015110882707798355 0 -0.0056461617346893816 0.015010728957244701 0 -0.0060856618559625465 0.014980196781756085 0 -0.0058522764763180675 0.015110882707798355 0 -0.0059161915571940542 0.014939451563216312 0 -0.0058522764763180675 0.015110882707798355 0 -0.0059161915571940542 0.014939451563216312 0 -0.0056461617346893816 0.015010728957244701 0 -0.0059161915571940542 0.014939451563216312 0 -0.0056461617346893816 0.015010728957244701 0 -0.005831845822615726 0.014788203251340358 0 -0.0053864730920177321 0.014929421278455434 0 -0.0056461617346893816 0.015010728957244701 0 -0.0056161116605379646 0.014810263843526284 0 -0.0057329803496888303 0.014624566079268386 0 -0.0056161116605379646 0.014810263843526284 0 -0.005831845822615726 0.014788203251340358 0 -0.0056461617346893816 0.015010728957244701 0 -0.0056161116605379646 0.014810263843526284 0 -0.005831845822615726 0.014788203251340358 0 -0.0055206964729006295 0.01467309339530638 0 -0.0057329803496888303 0.014624566079268386 0 -0.0056161116605379646 0.014810263843526284 0 -0.0059161915571940542 0.014939451563216312 0 -0.005831845822615726 0.014788203251340358 0 -0.0061210639391201934 0.014787403279669729 0 -0.0059607251474975524 0.014604972728206865 0 -0.005831845822615726 0.014788203251340358 0 -0.0061210639391201934 0.014787403279669729 0 -0.0063300070795752608 0.014593279084089278 0 -0.0064292998046191147 0.014796709716798263 0 -0.0061210639391201934 0.014787403279669729 0 -0.0060856618559625465 0.014980196781756085 0 -0.0061210639391201934 0.014787403279669729 0 -0.0062299395699513382 0.014973249631973497 0 -0.0064292998046191147 0.014796709716798263 0 -0.0061210639391201934 0.014787403279669729 0 -0.0062299395699513382 0.014973249631973497 0 -0.0060856618559625465 0.014980196781756085 0 -0.0059161915571940542 0.014939451563216312 0 -0.0061210639391201934 0.014787403279669729 0 -0.015226751466302577 0.013397374113971865 0 -0.015246267729879026 0.013722555170013369 0 -0.015478337836571406 0.012955719067394175 0 -0.014999964626723776 0.013234439661363616 0 -0.015226751466302577 0.013397374113971865 0 -0.015238117929649377 0.0137258182603431 0 -0.014999964626723776 0.013234439661363616 0 -0.015226751466302577 0.013397374113971865 0 -0.015478337836571406 0.012955719067394175 0 -0.01424045562285943 0.013347441577075469 0 -0.013309910119611836 0.013039657052309231 0 -0.014893966338372566 0.013539886294586792 0 -0.01424045562285943 0.013347441577075469 0 -0.011573821841701836 0.012624792503363231 0 -0.011001449430235245 0.012955408066371831 0 -0.011358555294217159 0.013142025641406973 0 -0.011099875803869176 0.012569003614357078 0 -0.011418533186050097 0.01242284048667798 0 -0.011573821841701836 0.012624792503363231 0 -0.011099875803869176 0.012569003614357078 0 -0.011573821841701836 0.012624792503363231 0 -0.011001449430235245 0.012955408066371831 0 -0.011099875803869176 0.012569003614357078 0 -0.011235556267363566 0.012393942007442404 0 -0.011025551927298203 0.012348114610325915 0 -0.011099875803869176 0.012569003614357078 0 -0.011418533186050097 0.01242284048667798 0 -0.011235556267363566 0.012393942007442404 0 -0.0151893171146096 0.013779671519992457 0 -0.015105203449663299 0.014024999213666142 0 -0.015209698311123671 0.014237348243070736 0 -0.014999964626723776 0.013234439661363616 0 -0.015238117929649377 0.0137258182603431 0 -0.014999978717800981 0.013940819176028857 0 -0.011418533186050097 0.01242284048667798 0 -0.011573821841701836 0.012624792503363231 0 -0.011511990409009814 0.012255823376660906 0 -0.01424045562285943 0.013347441577075469 0 -0.014151970936036484 0.013830120814501448 0 -0.01424045562285943 0.013347441577075469 0 -0.014837076373252536 0.013858010540022593 0 -0.015238117929649377 0.0137258182603431 0 -0.014999978717800981 0.013940819176028857 0 -0.015105203449663299 0.014024999213666142 0 -0.015000006202114559 0.013940904496221863 0 -0.015261149992223591 0.01433272735390681 0 -0.014999982028750617 0.014356677114295599 0 -0.014999978717800981 0.013940819176028857 0 -0.015105203449663299 0.014024999213666142 0 -0.015209698311123671 0.014237348243070736 0 -0.015000445919360259 0.013941638056189715 0 -0.014151970936036484 0.013830120814501448 0 -0.011418533186050097 0.01242284048667798 0 -0.011511990409009814 0.012255823376660906 0 -0.01142802796757793 0.01226214011991832 0 -0.011484107208521886 0.012225588307462744 0 -0.011511990409009814 0.012255823376660906 0 -0.01142802796757793 0.01226214011991832 0 -0.014145117585362302 0.014520811067804512 0 -0.014151970936036484 0.013830120814501448 0 -0.015296901335756832 0.014385553680815445 0 -0.015261149992223591 0.01433272735390681 0 -0.014999982028750617 0.014356677114295599 0 -0.015237418585605093 0.014480943999150576 0 -0.014999905314500267 0.014357199851006849 0 -0.014996847703883287 0.01473698869604851 0 -0.014145117585362302 0.014520811067804512 0 -0.015000326007211054 0.014356901574069989 0 -0.015237418585605093 0.014480943999150576 0 -0.014996847703883287 0.01473698869604851 0 -0.014709497390762494 0.014999765132500556 0 -0.014145117585362302 0.014520811067804512 0 -0.014708521478622774 0.015000417898819294 0 -0.014681123268082623 0.015577412077339186 0 -0.014708197085682856 0.014999974995353054 0 -0.014263945484151021 0.015000007029071141 0 -0.014999905314500267 0.014357199851006849 0 -0.014996847703883287 0.01473698869604851 0 -0.014999421183544807 0.01499986499590511 0 -0.014996847703883287 0.01473698869604851 0 -0.014709497390762494 0.014999765132500556 0 -0.014999421183544807 0.01499986499590511 0 -0.014145117585362302 0.014520811067804512 0 -0.014264862522736999 0.01500152127516124 0 -0.014637124120034567 0.015559519000628156 0 -0.014263803256597896 0.014999982030162727 0 -0.013919609147988139 0.015504529384514763 0 -0.01142802796757793 0.01226214011991832 0 -0.011235556267363566 0.012393942007442404 0 -0.011025551927298203 0.012348114610325915 0 -0.011484107208521886 0.012225588307462744 0 -0.01142802796757793 0.01226214011991832 0 -0.01132253106603544 0.012359948328833314 0 -0.011390622930365416 0.012265504508936939 0 -0.011022155202309978 0.012288313587246281 0 -0.014145117585362302 0.014520811067804512 0 -0.01238532245369659 0.013848811324535696 0 -0.011418533186050097 0.01242284048667798 0 -0.01142802796757793 0.01226214011991832 0 -0.011235556267363566 0.012393942007442404 0 -0.01142802796757793 0.01226214011991832 0 -0.01132253106603544 0.012359948328833314 0 -0.011271024955719373 0.012431085375777832 0 -0.01142802796757793 0.01226214011991832 0 -0.011025551927298203 0.012348114610325915 0 -0.010784403430290209 0.012142132807687243 0 -0.011025551927298203 0.012348114610325915 0 -0.010784403430290209 0.012142132807687243 0 -0.010783681674592255 0.012474911990498494 0 -0.014263803256597896 0.014999982030162727 0 -0.013919609147988139 0.015504529384514763 0 -0.013482419939119349 0.014999984475898176 0 -0.013919609147988139 0.015504529384514763 0 -0.013158165118608501 0.015438615689611872 0 -0.013482419939119349 0.014999984475898176 0 -0.010784403430290209 0.012142132807687243 0 -0.010339648784823446 0.012344169269102966 0 -0.010130071073520016 0.012146845342548999 0 -0.01132253106603544 0.012359948328833314 0 -0.011271024955719373 0.012431085375777832 0 -0.011170016158824556 0.012467845952759066 0 -0.010784403430290209 0.012142132807687243 0 -0.010526885571050207 0.012480520000986317 0 -0.010339648784823446 0.012344169269102966 0 -0.011271024955719373 0.012431085375777832 0 -0.011170016158824556 0.012467845952759066 0 -0.011092376548889494 0.01254616048598977 0 -0.01238532245369659 0.013848811324535696 0 -0.012218417413518813 0.013964507264520717 0 -0.011022155202309978 0.012288313587246281 0 -0.010608070594904076 0.012355832535308264 0 -0.010526885571050207 0.012480520000986317 0 -0.010192461381435482 0.012640306089976933 0 -0.010339648784823446 0.012344169269102966 0 -0.010526885571050207 0.012480520000986317 0 -0.010600744733362899 0.012805926107531744 0 -0.010192461381435482 0.012640306089976933 0 -0.010526885571050207 0.012480520000986317 0 -0.010783681674592255 0.012474911990498494 0 -0.010600744733362899 0.012805926107531744 0 -0.010784403430290209 0.012142132807687243 0 -0.010526885571050207 0.012480520000986317 0 -0.010783681674592255 0.012474911990498494 0 -0.011099875803869176 0.012569003614357078 0 -0.010783681674592255 0.012474911990498494 0 -0.010600744733362899 0.012805926107531744 0 -0.011099875803869176 0.012569003614357078 0 -0.011025551927298203 0.012348114610325915 0 -0.010783681674592255 0.012474911990498494 0 -0.011099875803869176 0.012569003614357078 0 -0.011001449430235245 0.012955408066371831 0 -0.010600744733362899 0.012805926107531744 0 -0.0098328759975902496 0.012908091539067041 0 -0.010192461381435482 0.012640306089976933 0 -0.010196421466826013 0.013110023781113835 0 -0.010600744733362899 0.012805926107531744 0 -0.010192461381435482 0.012640306089976933 0 -0.010196421466826013 0.013110023781113835 0 -0.0098328759975902496 0.012908091539067041 0 -0.0098258141124217806 0.012586600400664316 0 -0.010192461381435482 0.012640306089976933 0 -0.0098328759975902496 0.012908091539067041 0 -0.0098258141124217806 0.012586600400664316 0 -0.009530037564596968 0.012710601865591109 0 -0.0098328759975902496 0.012908091539067041 0 -0.009530037564596968 0.012710601865591109 0 -0.0095265611628582939 0.013064875717959229 0 -0.010031674105690742 0.012319578392763904 0 -0.0096185730418525631 0.012363802184396637 0 -0.0098258141124217806 0.012586600400664316 0 -0.010075202752289113 0.012318204084627709 0 -0.0094963452640447147 0.012345318415646307 0 -0.0098258141124217806 0.012586600400664316 0 -0.0094963452640447147 0.012345318415646307 0 -0.009530037564596968 0.012710601865591109 0 -0.0098258141124217806 0.012586600400664316 0 -0.010192461381435482 0.012640306089976933 0 -0.010075202752289113 0.012318204084627709 0 -0.010192461381435482 0.012640306089976933 0 -0.010339648784823446 0.012344169269102966 0 -0.010075202752289113 0.012318204084627709 0 -0.011170016158824556 0.012467845952759066 0 -0.011092376548889494 0.01254616048598977 0 -0.010949060204100294 0.012489552532396073 0 -0.010339648784823446 0.012344169269102966 0 -0.010075202752289113 0.012318204084627709 0 -0.010130071073520016 0.012146845342548999 0 -0.013158165118608501 0.015438615689611872 0 -0.013482419939119349 0.014999984475898176 0 -0.012700889801065488 0.014999994141160058 0 -0.013158165118608501 0.015438615689611872 0 -0.012700889801065488 0.014999994141160058 0 -0.012396325298543035 0.015362937329072499 0 -0.012218417413518813 0.013964507264520717 0 -0.011674990756013597 0.0138966206292349 0 -0.012700889801065488 0.014999994141160058 0 -0.012396325298543035 0.015362937329072499 0 -0.011919417690807142 0.014999977420291794 0 -0.011092376548889494 0.01254616048598977 0 -0.010949060204100294 0.012489552532396073 0 -0.010823508216748547 0.012607030890130823 0 -0.010075202752289113 0.012318204084627709 0 -0.010130071073520016 0.012146845342548999 0 -0.0096757719114272146 0.012198421621253095 0 -0.010075202752289113 0.012318204084627709 0 -0.0096757719114272146 0.012198421621253095 0 -0.0097129669031045668 0.012374598969289949 0 -0.010608070594904076 0.012355832535308264 0 -0.010255527885802843 0.012321342363670759 0 -0.0096757719114272146 0.012198421621253095 0 -0.0093588708351610601 0.012428924172534148 0 -0.0097129669031045668 0.012374598969289949 0 -0.011674990756013597 0.0138966206292349 0 -0.011075037661966198 0.014118499671341092 0 -0.010949060204100294 0.012489552532396073 0 -0.010823508216748547 0.012607030890130823 0 -0.010655969127780381 0.012472801528712451 0 -0.012396325298543035 0.015362937329072499 0 -0.011919417690807142 0.014999977420291794 0 -0.011638118310122878 0.015280003984983042 0 -0.011918890295978797 0.015000034258105673 0 -0.011075037661966198 0.014118499671341092 0 -0.011187077310702924 0.014999996191186242 0 -0.011919404107961013 0.014999993677667744 0 -0.011635143329842688 0.015287144746934777 0 -0.010255527885802843 0.012321342363670759 0 -0.009847076698703482 0.013078026502166874 0 -0.0096757719114272146 0.012198421621253095 0 -0.0092459644078452512 0.012223690494515818 0 -0.0093588708351610601 0.012428924172534148 0 -0.010823508216748547 0.012607030890130823 0 -0.010655969127780381 0.012472801528712451 0 -0.010497345638376922 0.012634174669613396 0 -0.011075037661966198 0.014118499671341092 0 -0.009847076698703482 0.013078026502166874 0 -0.0089271110452375201 0.012380607403069241 0 -0.0092332271060324867 0.012614516176603715 0 -0.0089454394862845243 0.012796855311691084 0 -0.0085010350679129067 0.01280575869885563 0 -0.0089271110452375201 0.012380607403069241 0 -0.0089454394862845243 0.012796855311691084 0 -0.0090931843355234101 0.012346004205646188 0 -0.0096185730418525631 0.012363802184396637 0 -0.0089271110452375201 0.012380607403069241 0 -0.0094963452640447147 0.012345318415646307 0 -0.0092332271060324867 0.012614516176603715 0 -0.0094963452640447147 0.012345318415646307 0 -0.0092332271060324867 0.012614516176603715 0 -0.009530037564596968 0.012710601865591109 0 -0.0092332271060324867 0.012614516176603715 0 -0.0092600526356412145 0.012840359598082265 0 -0.009530037564596968 0.012710601865591109 0 -0.0092332271060324867 0.012614516176603715 0 -0.0092600526356412145 0.012840359598082265 0 -0.0089454394862845243 0.012796855311691084 0 -0.0092600526356412145 0.012840359598082265 0 -0.0095265611628582939 0.013064875717959229 0 -0.0090683347511158925 0.013192970838085712 0 -0.0092600526356412145 0.012840359598082265 0 -0.009530037564596968 0.012710601865591109 0 -0.0095265611628582939 0.013064875717959229 0 -0.0092600526356412145 0.012840359598082265 0 -0.0089454394862845243 0.012796855311691084 0 -0.0090683347511158925 0.013192970838085712 0 -0.0086760839477147515 0.013105739451723067 0 -0.0089454394862845243 0.012796855311691084 0 -0.0090683347511158925 0.013192970838085712 0 -0.0086640894324676743 0.013504223711332983 0 -0.0090683347511158925 0.013192970838085712 0 -0.0089909325505190384 0.013635158120854919 0 -0.0086640894324676743 0.013504223711332983 0 -0.0086760839477147515 0.013105739451723067 0 -0.0090683347511158925 0.013192970838085712 0 -0.0095265611628582939 0.013064875717959229 0 -0.0090683347511158925 0.013192970838085712 0 -0.0093878185049270958 0.013393976883320807 0 -0.0090683347511158925 0.013192970838085712 0 -0.0093878185049270958 0.013393976883320807 0 -0.0089909325505190384 0.013635158120854919 0 -0.0093878185049270958 0.013393976883320807 0 -0.0093037259665687752 0.013817649993010286 0 -0.0089909325505190384 0.013635158120854919 0 -0.0093878185049270958 0.013393976883320807 0 -0.0093037259665687752 0.013817649993010286 0 -0.0097901892632632891 0.013784158358259588 0 -0.0093037259665687752 0.013817649993010286 0 -0.0089909325505190384 0.013635158120854919 0 -0.0089198144593092415 0.013963007023539116 0 -0.0086640894324676743 0.013504223711332983 0 -0.0087299661489568352 0.013824245900763548 0 -0.0089909325505190384 0.013635158120854919 0 -0.0087299661489568352 0.013824245900763548 0 -0.0089909325505190384 0.013635158120854919 0 -0.0089198144593092415 0.013963007023539116 0 -0.0093037259665687752 0.013817649993010286 0 -0.0089198144593092415 0.013963007023539116 0 -0.0090715133645679815 0.014212577780275961 0 -0.0087299661489568352 0.013824245900763548 0 -0.0086280960078720381 0.014061643448123948 0 -0.0089198144593092415 0.013963007023539116 0 -0.0089198144593092415 0.013963007023539116 0 -0.0087614316030047087 0.0142085704183213 0 -0.0090715133645679815 0.014212577780275961 0 -0.0086280960078720381 0.014061643448123948 0 -0.0089198144593092415 0.013963007023539116 0 -0.0087614316030047087 0.0142085704183213 0 -0.0090715133645679815 0.014212577780275961 0 -0.0087283819335161883 0.014456769968371412 0 -0.0090735463377883407 0.014556673277322902 0 -0.0087614316030047087 0.0142085704183213 0 -0.0090715133645679815 0.014212577780275961 0 -0.0087283819335161883 0.014456769968371412 0 -0.0090715133645679815 0.014212577780275961 0 -0.0094223244017775654 0.01440651225078645 0 -0.0094627048297421315 0.014101634756099117 0 -0.0090715133645679815 0.014212577780275961 0 -0.0094223244017775654 0.01440651225078645 0 -0.0090735463377883407 0.014556673277322902 0 -0.0093037259665687752 0.013817649993010286 0 -0.0090715133645679815 0.014212577780275961 0 -0.0094627048297421315 0.014101634756099117 0 -0.0094627048297421315 0.014101634756099117 0 -0.0098291066722293232 0.01417349434027922 0 -0.0097901892632632891 0.013784158358259588 0 -0.0093037259665687752 0.013817649993010286 0 -0.0094627048297421315 0.014101634756099117 0 -0.0097901892632632891 0.013784158358259588 0 -0.0094223244017775654 0.01440651225078645 0 -0.0098291066722293232 0.01417349434027922 0 -0.0097993016489869005 0.014521024445977724 0 -0.0094223244017775654 0.01440651225078645 0 -0.0094627048297421315 0.014101634756099117 0 -0.0098291066722293232 0.01417349434027922 0 -0.010307543001955967 0.014098477770285374 0 -0.010182512288705597 0.014719322103669701 0 -0.0098291066722293232 0.01417349434027922 0 -0.010242335830252599 0.014164312211652017 0 -0.0097993016489869005 0.014521024445977724 0 -0.0098291066722293232 0.01417349434027922 0 -0.0097901892632632891 0.013784158358259588 0 -0.010242335830252599 0.014164312211652017 0 -0.0097901892632632891 0.013784158358259588 0 -0.010405194842033458 0.01351903580220536 0 -0.010242335830252599 0.014164312211652017 0 -0.0097901892632632891 0.013784158358259588 0 -0.0097943107715954218 0.013321025789762934 0 -0.010405194842033458 0.01351903580220536 0 -0.0093878185049270958 0.013393976883320807 0 -0.0097901892632632891 0.013784158358259588 0 -0.0097943107715954218 0.013321025789762934 0 -0.0095265611628582939 0.013064875717959229 0 -0.0093878185049270958 0.013393976883320807 0 -0.0097943107715954218 0.013321025789762934 0 -0.0098328759975902496 0.012908091539067041 0 -0.0095265611628582939 0.013064875717959229 0 -0.0097943107715954218 0.013321025789762934 0 -0.0097943107715954218 0.013321025789762934 0 -0.010196421466826013 0.013110023781113835 0 -0.010405194842033458 0.01351903580220536 0 -0.0098328759975902496 0.012908091539067041 0 -0.0097943107715954218 0.013321025789762934 0 -0.010196421466826013 0.013110023781113835 0 -0.011001449430235245 0.012955408066371831 0 -0.010521505709251706 0.013397037596585143 0 -0.011152464107652875 0.013642101410191818 0 -0.010592085642883369 0.012830996729194941 0 -0.010464114871479947 0.013446139990064478 0 -0.010600744733362899 0.012805926107531744 0 -0.010196421466826013 0.013110023781113835 0 -0.010405194842033458 0.01351903580220536 0 -0.011001449430235245 0.012955408066371831 0 -0.010600744733362899 0.012805926107531744 0 -0.010521505709251706 0.013397037596585143 0 -0.010521505709251706 0.013397037596585143 0 -0.010748783775123075 0.013802977754610302 0 -0.011152464107652875 0.013642101410191818 0 -0.010464114871479947 0.013446139990064478 0 -0.010307543001955967 0.014098477770285374 0 -0.010521505709251706 0.013397037596585143 0 -0.010373370024554355 0.014009211558064153 0 -0.010748783775123075 0.013802977754610302 0 -0.010373370024554355 0.014009211558064153 0 -0.010949048503326491 0.014183922266760433 0 -0.010552398270963048 0.014430432980472292 0 -0.010373370024554355 0.014009211558064153 0 -0.010949048503326491 0.014183922266760433 0 -0.010748783775123075 0.013802977754610302 0 -0.010949048503326491 0.014183922266760433 0 -0.010748783775123075 0.013802977754610302 0 -0.011152464107652875 0.013642101410191818 0 -0.013310190136386475 0.012896752705956525 0 -0.013402006118320825 0.012940688198371245 0 -0.015647708190868515 0.011654759694341021 0 -0.015397840334957268 0.011844754816949316 0 -0.015642002787601243 0.012210403718764791 0 -0.015647708190868515 0.011654759694341021 0 -0.015397840334957268 0.011844754816949316 0 -0.015499833513849134 0.011582509844826071 0 -0.015397840334957268 0.011844754816949316 0 -0.015499833513849134 0.011582509844826071 0 -0.015340577240465718 0.011610296749213243 0 -0.015000085539075968 0.011323844072615085 0 -0.015326885616729265 0.011400611080226868 0 -0.014999947238696642 0.011821253842276948 0 -0.015397840334957268 0.011844754816949316 0 -0.015340577240465718 0.011610296749213243 0 -0.014999943743875213 0.011821860110711367 0 -0.01532240716812799 0.011517113088902114 0 -0.015000068132250053 0.011821430546953206 0 -0.015397840334957268 0.011844754816949316 0 -0.014999943743875213 0.011821860110711367 0 -0.014999967200623692 0.012527800728820896 0 -0.015397840334957268 0.011844754816949316 0 -0.014999967200623692 0.012527800728820896 0 -0.015642002787601243 0.012210403718764791 0 -0.014999967200623692 0.012527800728820896 0 -0.015642002787601243 0.012210403718764791 0 -0.015478337836571406 0.012955719067394175 0 -0.011001449430235245 0.012955408066371831 0 -0.011152464107652875 0.013642101410191818 0 -0.011358555294217159 0.013142025641406973 0 -0.013402006118320825 0.012940688198371245 0 -0.013309910119611836 0.013039657052309231 0 -0.014999964626723776 0.013234439661363616 0 -0.014999967200623692 0.012527800728820896 0 -0.015478337836571406 0.012955719067394175 0 -0.015058006120871475 0.0099737210519468232 0 -0.014999771566649498 0.0098638526653129222 0 -0.015059148641737793 0.010104079916915041 0 -0.014999921415689602 0.0098627348688505364 0 -0.015368281654970686 0.0096598917111234972 0 -0.015000006067168826 0.009862603253382415 0 -0.01551857784648647 0.0093283146795255338 0 -0.014999985418122841 0.0093418231949420807 0 -0.015058006120871475 0.0099737210519468232 0 -0.014849865987225675 0.010097956720052221 0 -0.015059148641737793 0.010104079916915041 0 -0.015058006120871475 0.0099737210519468232 0 -0.015017956795038959 0.0099504464576155721 0 -0.014849865987225675 0.010097956720052221 0 -0.015735320910599152 0.0097782539504397692 0 -0.014999246868877414 0.010219031648987483 0 -0.015058006120871475 0.0099737210519468232 0 -0.015017956795038959 0.0099504464576155721 0 -0.015000175885517055 0.010217622743158117 0 -0.01565285986893716 0.010274687529824128 0 -0.015000039138050545 0.010218986486698532 0 -0.015365527729796958 0.010477392762491811 0 -0.015058006120871475 0.0099737210519468232 0 -0.014999771566649498 0.0098638526653129222 0 -0.015000175885517055 0.010217622743158117 0 -0.014999950083311451 0.010771086104974606 0 -0.015365527729796958 0.010477392762491811 0 -0.015475787008503342 0.010829821550802097 0 -0.015000039138050545 0.010218986486698532 0 -0.014999950083311451 0.010771086104974606 0 -0.015365527729796958 0.010477392762491811 0 -0.015000085539075968 0.011323844072615085 0 -0.015326885616729265 0.011400611080226868 0 -0.015402712209739135 0.011230331548054015 0 -0.015000207804181515 0.01132339235963265 0 -0.015321569947119544 0.011123228383497942 0 -0.015000013878819645 0.011323504760265564 0 -0.014999950083311451 0.010771086104974606 0 -0.015475787008503342 0.010829821550802097 0 -0.015326885616729265 0.011400611080226868 0 -0.015402712209739135 0.011230331548054015 0 -0.015478821086410717 0.011272189293667191 0 -0.015647708190868515 0.011654759694341021 0 -0.015499833513849134 0.011582509844826071 0 -0.01552006276131773 0.011453050050397675 0 -0.01532240716812799 0.011517113088902114 0 -0.015501309841266998 0.011362715908369963 0 -0.015499833513849134 0.011582509844826071 0 -0.015340577240465718 0.011610296749213243 0 -0.01552006276131773 0.011453050050397675 0 -0.015475787008503342 0.010829821550802097 0 -0.015570297272934075 0.01049380012683198 0 -0.015774482300621343 0.010439810342761841 0 -0.015402712209739135 0.011230331548054015 0 -0.015478821086410717 0.011272189293667191 0 -0.015535489086424745 0.011324725173313845 0 -0.015321569947119544 0.011123228383497942 0 -0.016119100965664213 0.010500032007428974 0 -0.015365527729796958 0.010477392762491811 0 -0.015475787008503342 0.010829821550802097 0 -0.015570297272934075 0.01049380012683198 0 -0.01565285986893716 0.010274687529824128 0 -0.015365527729796958 0.010477392762491811 0 -0.015570297272934075 0.01049380012683198 0 -0.01565285986893716 0.010274687529824128 0 -0.015570297272934075 0.01049380012683198 0 -0.015774482300621343 0.010439810342761841 0 -0.01552006276131773 0.011453050050397675 0 -0.01558282394541239 0.011387311207774821 0 -0.015552363962015392 0.011346166492360877 0 -0.015478821086410717 0.011272189293667191 0 -0.015535489086424745 0.011324725173313845 0 -0.015552363962015392 0.011346166492360877 0 -0.015501309841266998 0.011362715908369963 0 -0.015553433753718589 0.011335227672509591 0 -0.013310190136386475 0.012896752705956525 0 -0.013049183170734517 0.013250865788894719 0 -0.015647708190868515 0.011654759694341021 0 -0.01552006276131773 0.011453050050397675 0 -0.01558282394541239 0.011387311207774821 0 -0.010949048503326491 0.014183922266760433 0 -0.010697497348869911 0.014798478645837734 0 -0.010552398270963048 0.014430432980472292 0 -0.010373370024554355 0.014009211558064153 0 -0.010552398270963048 0.014430432980472292 0 -0.010174762539005781 0.014744031077525937 0 -0.010697497348869911 0.014798478645837734 0 -0.010552398270963048 0.014430432980472292 0 -0.010174762539005781 0.014744031077525937 0 -0.01558282394541239 0.011387311207774821 0 -0.015552363962015392 0.011346166492360877 0 -0.015536275332516851 0.011309500179696263 0 -0.013049183170734517 0.013250865788894719 0 -0.013482901416330592 0.012604544841544224 0 -0.010697497348869911 0.014798478645837734 0 -0.01033800526950813 0.015009948508591055 0 -0.010460883593346449 0.015367995051563494 0 -0.010697497348869911 0.014798478645837734 0 -0.01033800526950813 0.015009948508591055 0 -0.010174762539005781 0.014744031077525937 0 -0.01033800526950813 0.015009948508591055 0 -0.010460883593346449 0.015367995051563494 0 -0.010055573950029054 0.015116557374890722 0 -0.013482901416330592 0.012604544841544224 0 -0.012822725736288391 0.01297424459963363 0 -0.012822725736288391 0.01297424459963363 0 -0.011487526108389186 0.01419307829764368 0 -0.016119100965664213 0.010500032007428974 0 -0.013482901416330592 0.012604544841544224 0 -0.015735320910599152 0.0097782539504397692 0 -0.013482901416330592 0.012604544841544224 0 -0.01565285986893716 0.010274687529824128 0 -0.015774482300621343 0.010439810342761841 0 -0.015933768990480861 0.010302458528321465 0 -0.015535489086424745 0.011324725173313845 0 -0.015552363962015392 0.011346166492360877 0 -0.015536275332516851 0.011309500179696263 0 -0.015017956795038959 0.0099504464576155721 0 -0.014702224049138417 0.0099696217977884669 0 -0.014849865987225675 0.010097956720052221 0 -0.014684400283860397 0.0099827346648180566 0 -0.014849865987225675 0.010097956720052221 0 -0.014733108139896166 0.010177573263174299 0 -0.014684400283860397 0.0099827346648180566 0 -0.014548845355510763 0.010274436849585854 0 -0.014733108139896166 0.010177573263174299 0 -0.010782215195517031 0.015225856379600026 0 -0.010646072010905241 0.015334116783306392 0 -0.010391677127310157 0.016161165227466152 0 -0.012822725736288391 0.01297424459963363 0 -0.011916233341536572 0.012878181067965264 0 -0.014702224049138417 0.0099696217977884669 0 -0.014684400283860397 0.0099827346648180566 0 -0.014849865987225675 0.010097956720052221 0 -0.010646072010905241 0.015334116783306392 0 -0.010154659018431806 0.015723584490687104 0 -0.010391677127310157 0.016161165227466152 0 -0.010646072010905241 0.015334116783306392 0 -0.010154659018431806 0.015723584490687104 0 -0.0098230486545498336 0.015435145398077948 0 -0.0098230486545498336 0.015435145398077948 0 -0.0095567696128617471 0.015518234429262692 0 -0.0098047353144520687 0.015953507161173965 0 -0.010154659018431806 0.015723584490687104 0 -0.0098230486545498336 0.015435145398077948 0 -0.0098047353144520687 0.015953507161173965 0 -0.0095567696128617471 0.015518234429262692 0 -0.0093339009113309179 0.015773438372685366 0 -0.0098047353144520687 0.015953507161173965 0 -0.0095567696128617471 0.015518234429262692 0 -0.0096857393962654168 0.015171680335183051 0 -0.009401344157479256 0.015282487227290616 0 -0.0098230486545498336 0.015435145398077948 0 -0.0096857393962654168 0.015171680335183051 0 -0.010055573950029054 0.015116557374890722 0 -0.0098230486545498336 0.015435145398077948 0 -0.0095567696128617471 0.015518234429262692 0 -0.0096857393962654168 0.015171680335183051 0 -0.010838809965503257 0.015150619148104871 0 -0.010784382617620594 0.015203300762680214 0 -0.0098230486545498336 0.015435145398077948 0 -0.013482901416330592 0.012604544841544224 0 -0.0085854835649336186 0.016203517466139253 0 -0.010784382617620594 0.015203300762680214 0 -0.010646072010905241 0.015334116783306392 0 -0.0098230486545498336 0.015435145398077948 0 -0.010460883593346449 0.015367995051563494 0 -0.0098230486545498336 0.015435145398077948 0 -0.010055573950029054 0.015116557374890722 0 -0.01033800526950813 0.015009948508591055 0 -0.010055573950029054 0.015116557374890722 0 -0.010174762539005781 0.014744031077525937 0 -0.010055573950029054 0.015116557374890722 0 -0.010174762539005781 0.014744031077525937 0 -0.0098227315436102761 0.014883849878181315 0 -0.010174762539005781 0.014744031077525937 0 -0.0097993016489869005 0.014521024445977724 0 -0.0098227315436102761 0.014883849878181315 0 -0.010242335830252599 0.014164312211652017 0 -0.010174762539005781 0.014744031077525937 0 -0.0097993016489869005 0.014521024445977724 0 -0.0097993016489869005 0.014521024445977724 0 -0.0098227315436102761 0.014883849878181315 0 -0.0093805327549858954 0.014871191075697232 0 -0.0094223244017775654 0.01440651225078645 0 -0.0097993016489869005 0.014521024445977724 0 -0.0093805327549858954 0.014871191075697232 0 -0.0096857393962654168 0.015171680335183051 0 -0.0098227315436102761 0.014883849878181315 0 -0.0093805327549858954 0.014871191075697232 0 -0.0096857393962654168 0.015171680335183051 0 -0.010055573950029054 0.015116557374890722 0 -0.0098227315436102761 0.014883849878181315 0 -0.0096857393962654168 0.015171680335183051 0 -0.0093805327549858954 0.014871191075697232 0 -0.009401344157479256 0.015282487227290616 0 -0.009374261979323114 0.014861131432011889 0 -0.0092990061477905422 0.015381916001128605 0 -0.0093805327549858954 0.014871191075697232 0 -0.0090059856105521793 0.015119840406115028 0 -0.0092139599182886316 0.0153278872500712 0 -0.0094223244017775654 0.01440651225078645 0 -0.0093805327549858954 0.014871191075697232 0 -0.0090735463377883407 0.014556673277322902 0 -0.0093805327549858954 0.014871191075697232 0 -0.0090735463377883407 0.014556673277322902 0 -0.0087796266104655414 0.014856135966392509 0 -0.0087283819335161883 0.014456769968371412 0 -0.0090735463377883407 0.014556673277322902 0 -0.0087796266104655414 0.014856135966392509 0 -0.0087796266104655414 0.014856135966392509 0 -0.0090059856105521793 0.015119840406115028 0 -0.0087082356109949976 0.015243818555949595 0 -0.0093805327549858954 0.014871191075697232 0 -0.0087796266104655414 0.014856135966392509 0 -0.0090059856105521793 0.015119840406115028 0 -0.0087082356109949976 0.015243818555949595 0 -0.0089544673702065605 0.015438900091157949 0 -0.0086801467839538651 0.015527911261216188 0 -0.0090059856105521793 0.015119840406115028 0 -0.0087082356109949976 0.015243818555949595 0 -0.0089544673702065605 0.015438900091157949 0 -0.0090059856105521793 0.015119840406115028 0 -0.0089544673702065605 0.015438900091157949 0 -0.0092139599182886316 0.0153278872500712 0 -0.0089544673702065605 0.015438900091157949 0 -0.0092139599182886316 0.0153278872500712 0 -0.009106061465959131 0.015747550672639513 0 -0.0095567696128617471 0.015518234429262692 0 -0.009401344157479256 0.015282487227290616 0 -0.0093339009113309179 0.015773438372685366 0 -0.0089544673702065605 0.015438900091157949 0 -0.009106061465959131 0.015747550672639513 0 -0.0088887553915098713 0.015679322721364228 0 -0.0092990061477905422 0.015381916001128605 0 -0.009258107020315022 0.015320015347315372 0 -0.0089977951784661319 0.015719838298736199 0 -0.0088887553915098713 0.015679322721364228 0 -0.0088259404697608977 0.015835003610958527 0 -0.009258107020315022 0.015320015347315372 0 -0.0089875123329165134 0.015511864898100722 0 -0.0088887553915098713 0.015679322721364228 0 -0.0086608091897338556 0.015754061974127855 0 -0.0088259404697608977 0.015835003610958527 0 -0.0088887553915098713 0.015679322721364228 0 -0.0086608091897338556 0.015754061974127855 0 -0.0086801467839538651 0.015527911261216188 0 -0.0089544673702065605 0.015438900091157949 0 -0.0088887553915098713 0.015679322721364228 0 -0.0086801467839538651 0.015527911261216188 0 -0.0086297953694201308 0.015975984789022245 0 -0.0088259404697608977 0.015835003610958527 0 -0.0089285809458825357 0.016075813835697006 0 -0.0086608091897338556 0.015754061974127855 0 -0.0086297953694201308 0.015975984789022245 0 -0.0088259404697608977 0.015835003610958527 0 -0.009258107020315022 0.015320015347315372 0 -0.0089541314667589376 0.01553221963319624 0 -0.0091220306587263007 0.013971596150121796 0 -0.0089940945829975732 0.015173538759393073 0 -0.0096852107674318694 0.014836568959299202 0 -0.0089977951784661319 0.015719838298736199 0 -0.0088259404697608977 0.015835003610958527 0 -0.0089285809458825357 0.016075813835697006 0 -0.0089940945829975732 0.015173538759393073 0 -0.0096507080760459048 0.015542523745504942 0 -0.0096852107674318694 0.014836568959299202 0 -0.0086297953694201308 0.015975984789022245 0 -0.0089285809458825357 0.016075813835697006 0 -0.0085705330362679539 0.016233467867073036 0 -0.0085705330362679539 0.016233467867073036 0 -0.008919309980049403 0.016409049346911373 0 -0.008433507834039105 0.016610608920150319 0 -0.0089285809458825357 0.016075813835697006 0 -0.0085705330362679539 0.016233467867073036 0 -0.008919309980049403 0.016409049346911373 0 -0.0086405723055190623 0.0062305815729603829 0 -0.0091879953422101725 0.0060012781963988942 0 -0.0087323696976343585 0.0057749922749546533 0 -0.0085724455225327772 0.011517354138799504 0 -0.008869345786688871 0.011274178539178979 0 -0.008919309980049403 0.016409049346911373 0 -0.0090444150788254445 0.016440889299182238 0 -0.008433507834039105 0.016610608920150319 0 -0.0086405723055190623 0.0062305815729603829 0 -0.0082291792461642674 0.0057630950746277235 0 -0.0087323696976343585 0.0057749922749546533 0 -0.0089940945829975732 0.015173538759393073 0 -0.0090444150788254445 0.016440889299182238 0 -0.0096507080760459048 0.015542523745504942 0 -0.0089940945829975732 0.015173538759393073 0 -0.008919309980049403 0.016409049346911373 0 -0.0090444150788254445 0.016440889299182238 0 -0.0089541314667589376 0.01553221963319624 0 -0.0089159109098001978 0.016395305381973736 0 -0.0085724455225327772 0.011517354138799504 0 -0.010372681724630335 0.010074724439612714 0 -0.0090444150788254445 0.016440889299182238 0 -0.010458062085497832 0.016020968452127568 0 -0.0096507080760459048 0.015542523745504942 0 -0.0086405723055190623 0.0062305815729603829 0 -0.0080466506038537663 0.0064443736348434744 0 -0.0082291792461642674 0.0057630950746277235 0 -0.010372681724630335 0.010074724439612714 0 -0.011662035421655947 0.0062133481606445554 0 -0.015103880250323666 0.0079194358837323207 0 -0.011662035421655947 0.0062133481606445554 0 -0.01285232192828137 0.0082915259451471022 0 -0.012846816433908378 0.0083007660433724231 0 -0.0128450578306971 0.0082472689678382231 0 -0.010372681724630335 0.010074724439612714 0 -0.01445376184043584 0.0092023607315903123 0 -0.01285232192828137 0.0082915259451471022 0 -0.012846816433908378 0.0083007660433724231 0 -0.012880306580653067 0.0083105886176978363 0 -0.010372681724630335 0.010074724439612714 0 -0.011051227748441974 0.013626464486489666 0 -0.011867506979048242 0.011873685838167716 0 -0.01207981795315222 0.011165730291099867 0 -0.012834550837635747 0.010958606923994477 0 -0.012213342124891094 0.010718812596513683 0 -0.01207981795315222 0.011165730291099867 0 -0.012834550837635747 0.010958606923994477 0 -0.012213342124891094 0.010718812596513683 0 -0.01244182416336493 0.010119824421640201 0 -0.012834550837635747 0.010958606923994477 0 -0.010732416279918222 0.015036871466944804 0 -0.010624150961590237 0.01541831117113023 0 -0.010333942201267717 0.014818095513571675 0 -0.010624150961590237 0.01541831117113023 0 -0.010135359020439874 0.015275308578238729 0 -0.010333942201267717 0.014818095513571675 0 -0.011510054429384842 0.012819082323082062 0 -0.011051227748441974 0.013626464486489666 0 -0.010458062085497832 0.016020968452127568 0 -0.010624150961590237 0.01541831117113023 0 -0.010135359020439874 0.015275308578238729 0 -0.010458062085497832 0.016020968452127568 0 -0.010135359020439874 0.015275308578238729 0 -0.0096507080760459048 0.015542523745504942 0 -0.010135359020439874 0.015275308578238729 0 -0.0096507080760459048 0.015542523745504942 0 -0.0096852107674318694 0.014836568959299202 0 -0.010135359020439874 0.015275308578238729 0 -0.010333942201267717 0.014818095513571675 0 -0.0096852107674318694 0.014836568959299202 0 -0.0091220306587263007 0.013971596150121796 0 -0.0096852107674318694 0.014836568959299202 0 -0.010021714451387274 0.014251682893521375 0 -0.009258107020315022 0.015320015347315372 0 -0.0098002380693989911 0.015125059019556337 0 -0.010333942201267717 0.014818095513571675 0 -0.0096852107674318694 0.014836568959299202 0 -0.010021714451387274 0.014251682893521375 0 -0.0098002380693989911 0.015125059019556337 0 -0.011916233341536572 0.012878181067965264 0 -0.010333942201267717 0.014818095513571675 0 -0.010021714451387274 0.014251682893521375 0 -0.01092721129870528 0.014524571361273489 0 -0.010154659018431806 0.015723584490687104 0 -0.0098047353144520687 0.015953507161173965 0 -0.010391677127310157 0.016161165227466152 0 -0.011510054429384842 0.012819082323082062 0 -0.011916233341536572 0.012878181067965264 0 -0.010732416279918222 0.015036871466944804 0 -0.010333942201267717 0.014818095513571675 0 -0.01092721129870528 0.014524571361273489 0 -0.01244182416336493 0.010119824421640201 0 -0.013359375635424567 0.010395015894769826 0 -0.012834550837635747 0.010958606923994477 0 -0.014548845355510763 0.010274436849585854 0 -0.014728950829635894 0.010305349164026848 0 -0.014733108139896166 0.010177573263174299 0 -0.011916233341536572 0.012878181067965264 0 -0.014108081521879388 0.010435825201377277 0 -0.014728950829635894 0.010305349164026848 0 -0.014733108139896166 0.010177573263174299 0 -0.014853373850425348 0.010213861204735173 0 -0.014849865987225675 0.010097956720052221 0 -0.014853373850425348 0.010213861204735173 0 -0.015059148641737793 0.010104079916915041 0 -0.014849865987225675 0.010097956720052221 0 -0.014733108139896166 0.010177573263174299 0 -0.014853373850425348 0.010213861204735173 0 -0.014853373850425348 0.010213861204735173 0 -0.014896793101497179 0.010335590891681542 0 -0.015059148641737793 0.010104079916915041 0 -0.014728950829635894 0.010305349164026848 0 -0.014853373850425348 0.010213861204735173 0 -0.014896793101497179 0.010335590891681542 0 -0.014970445808663165 0.0089551428725593556 0 -0.014550757065904255 0.0093619624469576911 0 -0.015471397228559676 0.0091146759085091091 0 -0.013359375635424567 0.010395015894769826 0 -0.01428424544750701 0.010680007814145359 0 -0.013494220353121193 0.011443882025900244 0 -0.014108081521879388 0.010435825201377277 0 -0.01492904164506296 0.0098050033332630678 0 -0.01445376184043584 0.0092023607315903123 0 -0.015647264923008854 0.0087010794467610071 0 -0.01492904164506296 0.0098050033332630678 0 -0.01445376184043584 0.0092023607315903123 0 -0.013359375635424567 0.010395015894769826 0 -0.012834550837635747 0.010958606923994477 0 -0.013494220353121193 0.011443882025900244 0 -0.016441535036312176 0.0076964777408841884 0 -0.016102344556913149 0.0081724988897385956 0 -0.016027267547959988 0.0076318626234463715 0 -0.015103880250323666 0.0079194358837323207 0 -0.01445376184043584 0.0092023607315903123 0 -0.011867506979048242 0.011873685838167716 0 -0.012834550837635747 0.010958606923994477 0 -0.013494220353121193 0.011443882025900244 0 -0.016441535036312176 0.0076964777408841884 0 -0.016027267547959988 0.0076318626234463715 0 -0.016365210011166528 0.0070969134139808885 0 -0.016027267547959988 0.0076318626234463715 0 -0.015636628447297084 0.0076404745757579027 0 -0.015881909266934811 0.0071501771470788853 0 -0.016027267547959988 0.0076318626234463715 0 -0.015722111396911532 0.0080097281827658465 0 -0.015636628447297084 0.0076404745757579027 0 -0.016102344556913149 0.0081724988897385956 0 -0.015722111396911532 0.0080097281827658465 0 -0.01548727955640297 0.0084531651763128206 0 -0.016102344556913149 0.0081724988897385956 0 -0.016027267547959988 0.0076318626234463715 0 -0.015722111396911532 0.0080097281827658465 0 -0.015722111396911532 0.0080097281827658465 0 -0.015636628447297084 0.0076404745757579027 0 -0.015347529176693239 0.0081394064545143967 0 -0.015722111396911532 0.0080097281827658465 0 -0.015347529176693239 0.0081394064545143967 0 -0.01548727955640297 0.0084531651763128206 0 -0.015636628447297084 0.0076404745757579027 0 -0.015304781669376726 0.0076975180119573409 0 -0.015347529176693239 0.0081394064545143967 0 -0.015636628447297084 0.0076404745757579027 0 -0.015304781669376726 0.0076975180119573409 0 -0.015501130989968148 0.0072738989693069064 0 -0.015304781669376726 0.0076975180119573409 0 -0.014999956632947288 0.0080835043122956113 0 -0.014999925833939927 0.007345953845643436 0 -0.015304781669376726 0.0076975180119573409 0 -0.014999956632947288 0.0080835043122956113 0 -0.015347529176693239 0.0081394064545143967 0 -0.014999956632947288 0.0080835043122956113 0 -0.015347529176693239 0.0081394064545143967 0 -0.014999996069987072 0.0084607832322487492 0 -0.015000088605480345 0.008821030405455333 0 -0.015647264923008854 0.0087010794467610071 0 -0.01500000419638311 0.0088211099109743677 0 -0.015583556069442551 0.0086916510307621549 0 -0.015278577435846449 0.0090434789341103279 0 -0.014999999646584454 0.0084610551406685917 0 -0.014999999953685611 0.0088210551358613946 0 -0.015616219753163307 0.0086561838393366571 0 -0.015347529176693239 0.0081394064545143967 0 -0.014999996069987072 0.0084607832322487492 0 -0.01548727955640297 0.0084531651763128206 0 -0.014987695567460638 0.0084218328499916419 0 -0.015647264923008854 0.0087010794467610071 0 -0.01492904164506296 0.0098050033332630678 0 -0.015647264923008854 0.0087010794467610071 0 -0.015583556069442551 0.0086916510307621549 0 -0.01551857784648647 0.0093283146795255338 0 -0.015278577435846449 0.0090434789341103279 0 -0.01492904164506296 0.0098050033332630678 0 -0.015368281654970686 0.0096598917111234972 0 -0.016006191862044505 0.008838931377890295 0 -0.015583556069442551 0.0086916510307621549 0 -0.01551857784648647 0.0093283146795255338 0 -0.01551857784648647 0.0093283146795255338 0 -0.014999985418122841 0.0093418231949420807 0 -0.015278577435846449 0.0090434789341103279 0 -0.01500000419638311 0.0088211099109743677 0 -0.014999985418122841 0.0093418231949420807 0 -0.015278577435846449 0.0090434789341103279 0 -0.0066308842433808338 0.015487241060782968 0 -0.0063190644702866491 0.015722131751064201 0 -0.0069296260764887627 0.015180487214164227 0 -0.007048393455746621 0.015707739024103055 0 -0.0062847634503282006 0.015754723227930249 0 -0.0063738005159125451 0.015732409980091622 0 -0.0062847634503282006 0.015754723227930249 0 -0.0061304043932963164 0.015621188692852462 0 -0.0069296260764887627 0.015180487214164227 0 -0.007048393455746621 0.015707739024103055 0 -0.0073519706178432117 0.015374226691875045 0 -0.0069296260764887627 0.015180487214164227 0 -0.0072477394783303159 0.01502969011582379 0 -0.0073519706178432117 0.015374226691875045 0 -0.007048393455746621 0.015707739024103055 0 -0.0074068713447687749 0.015717007892734211 0 -0.0072243748103921193 0.01598669153080004 0 -0.007048393455746621 0.015707739024103055 0 -0.0067894837931818499 0.016082411732609669 0 -0.0072243748103921193 0.01598669153080004 0 -0.007048393455746621 0.015707739024103055 0 -0.0073519706178432117 0.015374226691875045 0 -0.0074068713447687749 0.015717007892734211 0 -0.007048393455746621 0.015707739024103055 0 -0.0062847634503282006 0.015754723227930249 0 -0.0067894837931818499 0.016082411732609669 0 -0.0062847634503282006 0.015754723227930249 0 -0.0067894837931818499 0.016082411732609669 0 -0.0060022079842189831 0.016135176109728852 0 -0.0062847634503282006 0.015754723227930249 0 -0.0058364715167572682 0.015875612683165858 0 -0.0060022079842189831 0.016135176109728852 0 -0.0055084134717996334 0.016134870354779843 0 -0.0058364715167572682 0.015875612683165858 0 -0.0060022079842189831 0.016135176109728852 0 -0.0056629764688948979 0.0156842323449773 0 -0.0058364715167572682 0.015875612683165858 0 -0.0061304043932963164 0.015621188692852462 0 -0.0062847634503282006 0.015754723227930249 0 -0.0058364715167572682 0.015875612683165858 0 -0.0061304043932963164 0.015621188692852462 0 -0.0056629764688948979 0.0156842323449773 0 -0.0061304043932963164 0.015621188692852462 0 -0.0058305191578837436 0.015497033051477271 0 -0.0056125434453016829 0.015252866445501577 0 -0.0058305191578837436 0.015497033051477271 0 -0.0060745487487696712 0.0153299658872113 0 -0.0061304043932963164 0.015621188692852462 0 -0.0058305191578837436 0.015497033051477271 0 -0.0060745487487696712 0.0153299658872113 0 -0.0061304043932963164 0.015621188692852462 0 -0.0060745487487696712 0.0153299658872113 0 -0.0062469698453531718 0.015543023018698001 0 -0.0060745487487696712 0.0153299658872113 0 -0.0062469698453531718 0.015543023018698001 0 -0.0064003872744379242 0.015470584843123485 0 -0.0062968872409565665 0.015231256677714466 0 -0.005859928363923959 0.015358104008542203 0 -0.0064003872744379242 0.015470584843123485 0 -0.0059700863782775095 0.015349967224251086 0 -0.0063715768425175257 0.015462722451846378 0 -0.0063738005159125451 0.015732409980091622 0 -0.0061304043932963164 0.015621188692852462 0 -0.0062469698453531718 0.015543023018698001 0 -0.0063738005159125451 0.015732409980091622 0 -0.0062469698453531718 0.015543023018698001 0 -0.0064003872744379242 0.015470584843123485 0 -0.0069296260764887627 0.015180487214164227 0 -0.0072477394783303159 0.01502969011582379 0 -0.0074476723165741469 0.014814844196269052 0 -0.0063738005159125451 0.015732409980091622 0 -0.0064003872744379242 0.015470584843123485 0 -0.0067828248184351797 0.015627569241899394 0 -0.0066308842433808338 0.015487241060782968 0 -0.0072406749775300681 0.015112769600875223 0 -0.0066337994745304888 0.015277589751986471 0 -0.0064003872744379242 0.015470584843123485 0 -0.0067828248184351797 0.015627569241899394 0 -0.0066337994745304888 0.015277589751986471 0 -0.0062968872409565665 0.015231256677714466 0 -0.0064003872744379242 0.015470584843123485 0 -0.0075112933939680132 0.014976852776262359 0 -0.0072406749775300681 0.015112769600875223 0 -0.0078788881770401296 0.014598847807041937 0 -0.0072406749775300681 0.015112769600875223 0 -0.0069435277938410247 0.015164304655643402 0 -0.0066337994745304888 0.015277589751986471 0 -0.0067828248184351797 0.015627569241899394 0 -0.0072981709590051562 0.015272812263634302 0 -0.0069435277938410247 0.015164304655643402 0 -0.0067828248184351797 0.015627569241899394 0 -0.0077861720760960609 0.014609494118824548 0 -0.0078509794208891162 0.014708122308890483 0 -0.0073842729531847029 0.015063265026224404 0 -0.0078381721127560606 0.014546650402897385 0 -0.0077406791754719454 0.014775541305782272 0 -0.0074384436056932441 0.014829493093518078 0 -0.0078381721127560606 0.014546650402897385 0 -0.0078888708125330834 0.01468601279519695 0 -0.0080849816185568409 0.014581155950119329 0 -0.0078888708125330834 0.01468601279519695 0 -0.0079943731570739675 0.014766090845749218 0 -0.0080849816185568409 0.014581155950119329 0 -0.0078888708125330834 0.01468601279519695 0 -0.0077406791754719454 0.014775541305782272 0 -0.0078754674947424403 0.014856795866817214 0 -0.0078888708125330834 0.01468601279519695 0 -0.0079943731570739675 0.014766090845749218 0 -0.0078754674947424403 0.014856795866817214 0 -0.0078381721127560606 0.014546650402897385 0 -0.0078888708125330834 0.01468601279519695 0 -0.0077406791754719454 0.014775541305782272 0 -0.0076947089688710769 0.014967683478280988 0 -0.0078754674947424403 0.014856795866817214 0 -0.0078733035840354952 0.015017293367763848 0 -0.0077406791754719454 0.014775541305782272 0 -0.0076947089688710769 0.014967683478280988 0 -0.0078754674947424403 0.014856795866817214 0 -0.0079943731570739675 0.014766090845749218 0 -0.0078754674947424403 0.014856795866817214 0 -0.008057938483999709 0.014926539628908681 0 -0.0078754674947424403 0.014856795866817214 0 -0.0078733035840354952 0.015017293367763848 0 -0.008057938483999709 0.014926539628908681 0 -0.0078733035840354952 0.015017293367763848 0 -0.0077655926474664416 0.015154441299397975 0 -0.0079900576000166822 0.015162986702173144 0 -0.0078733035840354952 0.015017293367763848 0 -0.008057938483999709 0.014926539628908681 0 -0.0079900576000166822 0.015162986702173144 0 -0.0076947089688710769 0.014967683478280988 0 -0.0078733035840354952 0.015017293367763848 0 -0.0077655926474664416 0.015154441299397975 0 -0.0076947089688710769 0.014967683478280988 0 -0.0077655926474664416 0.015154441299397975 0 -0.0075247705030685938 0.015109042269524586 0 -0.0072477394783303159 0.01502969011582379 0 -0.0075247705030685938 0.015109042269524586 0 -0.0073519706178432117 0.015374226691875045 0 -0.0072477394783303159 0.01502969011582379 0 -0.0075247705030685938 0.015109042269524586 0 -0.0074384436056932441 0.014829493093518078 0 -0.0073417607265766063 0.014945048813448132 0 -0.0072406749775300681 0.015112769600875223 0 -0.0077406791754719454 0.014775541305782272 0 -0.0076947089688710769 0.014967683478280988 0 -0.0074384436056932441 0.014829493093518078 0 -0.0076947089688710769 0.014967683478280988 0 -0.0075247705030685938 0.015109042269524586 0 -0.0074384436056932441 0.014829493093518078 0 -0.0087283819335161883 0.014456769968371412 0 -0.0087796266104655414 0.014856135966392509 0 -0.0085367285963919588 0.01468437397387143 0 -0.0087796266104655414 0.014856135966392509 0 -0.0085367285963919588 0.01468437397387143 0 -0.0085294956786963316 0.014870411632636523 0 -0.0084397472959889461 0.014452257489703243 0 -0.0087283819335161883 0.014456769968371412 0 -0.0085367285963919588 0.01468437397387143 0 -0.0084397472959889461 0.014452257489703243 0 -0.0085367285963919588 0.01468437397387143 0 -0.0083484045977211489 0.014640601123136879 0 -0.0085367285963919588 0.01468437397387143 0 -0.0083336153783539913 0.014862182978772204 0 -0.0085294956786963316 0.014870411632636523 0 -0.0085367285963919588 0.01468437397387143 0 -0.0083484045977211489 0.014640601123136879 0 -0.0083336153783539913 0.014862182978772204 0 -0.0083484045977211489 0.014640601123136879 0 -0.0081698768900132883 0.01473243931298634 0 -0.0083336153783539913 0.014862182978772204 0 -0.0083484045977211489 0.014640601123136879 0 -0.0081962144486942487 0.014610442210921776 0 -0.0081698768900132883 0.01473243931298634 0 -0.0084397472959889461 0.014452257489703243 0 -0.0083484045977211489 0.014640601123136879 0 -0.0082640638232809316 0.014512081027895078 0 -0.0083484045977211489 0.014640601123136879 0 -0.0082640638232809316 0.014512081027895078 0 -0.0081962144486942487 0.014610442210921776 0 -0.0081962144486942487 0.014610442210921776 0 -0.0080849816185568409 0.014581155950119329 0 -0.0081698768900132883 0.01473243931298634 0 -0.0082640638232809316 0.014512081027895078 0 -0.0081962144486942487 0.014610442210921776 0 -0.0080849816185568409 0.014581155950119329 0 -0.0079943731570739675 0.014766090845749218 0 -0.0080849816185568409 0.014581155950119329 0 -0.0081698768900132883 0.01473243931298634 0 -0.0079943731570739675 0.014766090845749218 0 -0.0081698768900132883 0.01473243931298634 0 -0.008057938483999709 0.014926539628908681 0 -0.008057938483999709 0.014926539628908681 0 -0.0081856682686626044 0.015077938964918826 0 -0.0079900576000166822 0.015162986702173144 0 -0.0081856682686626044 0.015077938964918826 0 -0.0083336153783539913 0.014862182978772204 0 -0.0084694622560197025 0.015079607173460602 0 -0.0081856682686626044 0.015077938964918826 0 -0.0084694622560197025 0.015079607173460602 0 -0.0083019130703104599 0.015221080769240374 0 -0.008057938483999709 0.014926539628908681 0 -0.0081856682686626044 0.015077938964918826 0 -0.0083336153783539913 0.014862182978772204 0 -0.0081698768900132883 0.01473243931298634 0 -0.008057938483999709 0.014926539628908681 0 -0.0083336153783539913 0.014862182978772204 0 -0.0087796266104655414 0.014856135966392509 0 -0.0087082356109949976 0.015243818555949595 0 -0.0084694622560197025 0.015079607173460602 0 -0.0083336153783539913 0.014862182978772204 0 -0.0084694622560197025 0.015079607173460602 0 -0.0085294956786963316 0.014870411632636523 0 -0.0087796266104655414 0.014856135966392509 0 -0.0084694622560197025 0.015079607173460602 0 -0.0085294956786963316 0.014870411632636523 0 -0.0087082356109949976 0.015243818555949595 0 -0.0086801467839538651 0.015527911261216188 0 -0.0084184755211041701 0.015384808237421615 0 -0.0087082356109949976 0.015243818555949595 0 -0.0084694622560197025 0.015079607173460602 0 -0.0084184755211041701 0.015384808237421615 0 -0.0084694622560197025 0.015079607173460602 0 -0.0084184755211041701 0.015384808237421615 0 -0.0083019130703104599 0.015221080769240374 0 -0.0084184755211041701 0.015384808237421615 0 -0.0081331904012086013 0.015339630410046462 0 -0.0081885938459947249 0.015597603136107975 0 -0.0084184755211041701 0.015384808237421615 0 -0.0083019130703104599 0.015221080769240374 0 -0.0081331904012086013 0.015339630410046462 0 -0.0081856682686626044 0.015077938964918826 0 -0.0083019130703104599 0.015221080769240374 0 -0.0081331904012086013 0.015339630410046462 0 -0.0081856682686626044 0.015077938964918826 0 -0.0081331904012086013 0.015339630410046462 0 -0.0079900576000166822 0.015162986702173144 0 -0.0081331904012086013 0.015339630410046462 0 -0.0079900576000166822 0.015162986702173144 0 -0.0078475333170917004 0.015331881084755894 0 -0.0081885938459947249 0.015597603136107975 0 -0.0079532915987305872 0.01553001210980016 0 -0.0079465912620560134 0.015766071997706733 0 -0.0081331904012086013 0.015339630410046462 0 -0.0081885938459947249 0.015597603136107975 0 -0.0079532915987305872 0.01553001210980016 0 -0.0081885938459947249 0.015597603136107975 0 -0.0079465912620560134 0.015766071997706733 0 -0.0082155711811370616 0.01582662265663292 0 -0.0081885938459947249 0.015597603136107975 0 -0.008450571948608954 0.015646960319482473 0 -0.0082155711811370616 0.01582662265663292 0 -0.0084184755211041701 0.015384808237421615 0 -0.0081885938459947249 0.015597603136107975 0 -0.008450571948608954 0.015646960319482473 0 -0.0086608091897338556 0.015754061974127855 0 -0.0086801467839538651 0.015527911261216188 0 -0.008450571948608954 0.015646960319482473 0 -0.0086608091897338556 0.015754061974127855 0 -0.008450571948608954 0.015646960319482473 0 -0.0084704809814738855 0.015824356358035772 0 -0.0086801467839538651 0.015527911261216188 0 -0.0084184755211041701 0.015384808237421615 0 -0.008450571948608954 0.015646960319482473 0 -0.0073519706178432117 0.015374226691875045 0 -0.0076248195453665112 0.015304259749178043 0 -0.0075919874480463575 0.01551525170313948 0 -0.0077655926474664416 0.015154441299397975 0 -0.0075247705030685938 0.015109042269524586 0 -0.0076248195453665112 0.015304259749178043 0 -0.0075247705030685938 0.015109042269524586 0 -0.0073519706178432117 0.015374226691875045 0 -0.0076248195453665112 0.015304259749178043 0 -0.0078475333170917004 0.015331881084755894 0 -0.0079532915987305872 0.01553001210980016 0 -0.0075919874480463575 0.01551525170313948 0 -0.0077655926474664416 0.015154441299397975 0 -0.0076248195453665112 0.015304259749178043 0 -0.0078475333170917004 0.015331881084755894 0 -0.0077655926474664416 0.015154441299397975 0 -0.0079900576000166822 0.015162986702173144 0 -0.0078475333170917004 0.015331881084755894 0 -0.0081331904012086013 0.015339630410046462 0 -0.0078475333170917004 0.015331881084755894 0 -0.0079532915987305872 0.01553001210980016 0 -0.0076248195453665112 0.015304259749178043 0 -0.0078475333170917004 0.015331881084755894 0 -0.0075919874480463575 0.01551525170313948 0 -0.0079465912620560134 0.015766071997706733 0 -0.0077475413566259277 0.015673035019316009 0 -0.0076061050490726159 0.015901434257186712 0 -0.0079532915987305872 0.01553001210980016 0 -0.0077475413566259277 0.015673035019316009 0 -0.0075919874480463575 0.01551525170313948 0 -0.0079532915987305872 0.01553001210980016 0 -0.0079465912620560134 0.015766071997706733 0 -0.0077475413566259277 0.015673035019316009 0 -0.0077475413566259277 0.015673035019316009 0 -0.0074068713447687749 0.015717007892734211 0 -0.0076061050490726159 0.015901434257186712 0 -0.0077475413566259277 0.015673035019316009 0 -0.0075919874480463575 0.01551525170313948 0 -0.0074068713447687749 0.015717007892734211 0 -0.0073519706178432117 0.015374226691875045 0 -0.0075919874480463575 0.01551525170313948 0 -0.0074068713447687749 0.015717007892734211 0 -0.0074068713447687749 0.015717007892734211 0 -0.0076061050490726159 0.015901434257186712 0 -0.0072243748103921193 0.01598669153080004 0 -0.0076061050490726159 0.015901434257186712 0 -0.0074896196675976181 0.016144477276405503 0 -0.0072243748103921193 0.01598669153080004 0 -0.0076061050490726159 0.015901434257186712 0 -0.0078845245914157102 0.016027300551843163 0 -0.0074896196675976181 0.016144477276405503 0 -0.0079465912620560134 0.015766071997706733 0 -0.0076061050490726159 0.015901434257186712 0 -0.0078845245914157102 0.016027300551843163 0 -0.0078845245914157102 0.016027300551843163 0 -0.0074896196675976181 0.016144477276405503 0 -0.0078537111754469896 0.016351268372398819 0 -0.0074896196675976181 0.016144477276405503 0 -0.0074574456451243585 0.016423671206718844 0 -0.0070237076435901626 0.016227746856664959 0 -0.0086297953694201308 0.015975984789022245 0 -0.0084704809814738855 0.015824356358035772 0 -0.0082461118085202668 0.016073509527261047 0 -0.0086608091897338556 0.015754061974127855 0 -0.0086297953694201308 0.015975984789022245 0 -0.0084704809814738855 0.015824356358035772 0 -0.008450571948608954 0.015646960319482473 0 -0.0084704809814738855 0.015824356358035772 0 -0.0082155711811370616 0.01582662265663292 0 -0.0084704809814738855 0.015824356358035772 0 -0.0082155711811370616 0.01582662265663292 0 -0.0082461118085202668 0.016073509527261047 0 -0.0078845245914157102 0.016027300551843163 0 -0.0082155711811370616 0.01582662265663292 0 -0.0082461118085202668 0.016073509527261047 0 -0.0079465912620560134 0.015766071997706733 0 -0.0078845245914157102 0.016027300551843163 0 -0.0082155711811370616 0.01582662265663292 0 -0.0078845245914157102 0.016027300551843163 0 -0.0082461118085202668 0.016073509527261047 0 -0.0078537111754469896 0.016351268372398819 0 -0.0086297953694201308 0.015975984789022245 0 -0.0085705330362679539 0.016233467867073036 0 -0.0082461118085202668 0.016073509527261047 0 -0.0085705330362679539 0.016233467867073036 0 -0.0082461118085202668 0.016073509527261047 0 -0.0081967447966976286 0.016400590528597478 0 -0.0085705330362679539 0.016233467867073036 0 -0.0081967447966976286 0.016400590528597478 0 -0.008433507834039105 0.016610608920150319 0 -0.0081967447966976286 0.016400590528597478 0 -0.0078537111754469896 0.016351268372398819 0 -0.007905093485435848 0.016716104739811444 0 -0.0082461118085202668 0.016073509527261047 0 -0.0081967447966976286 0.016400590528597478 0 -0.0078537111754469896 0.016351268372398819 0 -0.0081967447966976286 0.016400590528597478 0 -0.008433507834039105 0.016610608920150319 0 -0.007905093485435848 0.016716104739811444 0 -0.008869345786688871 0.011274178539178979 0 -0.0087720104722214358 0.01126867337260439 0 -0.0074896196675976181 0.016144477276405503 0 -0.0074574456451243585 0.016423671206718844 0 -0.0078537111754469896 0.016351268372398819 0 -0.0074574456451243585 0.016423671206718844 0 -0.0078537111754469896 0.016351268372398819 0 -0.007905093485435848 0.016716104739811444 0 -0.0074574456451243585 0.016423671206718844 0 -0.007905093485435848 0.016716104739811444 0 -0.0074135199725871162 0.01674748368281705 0 -0.0074574456451243585 0.016423671206718844 0 -0.0071112685765415103 0.016414587990579904 0 -0.0074135199725871162 0.01674748368281705 0 -0.0070406031891207298 0.016569399613247465 0 -0.0071112685765415103 0.016414587990579904 0 -0.0074135199725871162 0.01674748368281705 0 -0.0070406031891207298 0.016569399613247465 0 -0.0071112685765415103 0.016414587990579904 0 -0.0068806922914089776 0.016407262733797952 0 -0.0071112685765415103 0.016414587990579904 0 -0.0070237076435901626 0.016227746856664959 0 -0.0068806922914089776 0.016407262733797952 0 -0.0074574456451243585 0.016423671206718844 0 -0.0071112685765415103 0.016414587990579904 0 -0.0070237076435901626 0.016227746856664959 0 -0.0070237076435901626 0.016227746856664959 0 -0.0068089256520296702 0.016228047648668965 0 -0.0068806922914089776 0.016407262733797952 0 -0.0070237076435901626 0.016227746856664959 0 -0.0067894837931818499 0.016082411732609669 0 -0.0068089256520296702 0.016228047648668965 0 -0.0067690037715511233 0.016117859448684223 0 -0.0065455811134005138 0.016316161408347244 0 -0.0070237076435901626 0.016227746856664959 0 -0.0067894837931818499 0.016082411732609669 0 -0.0072243748103921193 0.01598669153080004 0 -0.0074896196675976181 0.016144477276405503 0 -0.0070237076435901626 0.016227746856664959 0 -0.0072243748103921193 0.01598669153080004 0 -0.0057017316368284075 0.016473890762094955 0 -0.0060022079842189831 0.016135176109728852 0 -0.0062226625705627406 0.016542756457566254 0 -0.0057017316368284075 0.016473890762094955 0 -0.0055084134717996334 0.016134870354779843 0 -0.0060022079842189831 0.016135176109728852 0 -0.0067894837931818499 0.016082411732609669 0 -0.0060022079842189831 0.016135176109728852 0 -0.0062226625705627406 0.016542756457566254 0 -0.0065455811134005138 0.016316161408347244 0 -0.0062435578543861246 0.016903186086702507 0 -0.0057017316368284075 0.016473890762094955 0 -0.0062226625705627406 0.016542756457566254 0 -0.0058334771026409575 0.016798288976939888 0 -0.0066908402362186349 0.016370703663329281 0 -0.0068806922914089776 0.016407262733797952 0 -0.006722459411782465 0.016489657643720228 0 -0.0068089256520296702 0.016228047648668965 0 -0.0066908402362186349 0.016370703663329281 0 -0.0068806922914089776 0.016407262733797952 0 -0.0068806922914089776 0.016407262733797952 0 -0.006722459411782465 0.016489657643720228 0 -0.0068378574833874335 0.016579407911622091 0 -0.0070406031891207298 0.016569399613247465 0 -0.0068806922914089776 0.016407262733797952 0 -0.0068378574833874335 0.016579407911622091 0 -0.006722459411782465 0.016489657643720228 0 -0.0066567764937270173 0.016603874139262346 0 -0.0068378574833874335 0.016579407911622091 0 -0.0065440476871030913 0.016492058192959787 0 -0.0066908402362186349 0.016370703663329281 0 -0.006722459411782465 0.016489657643720228 0 -0.0066567764937270173 0.016603874139262346 0 -0.0068378574833874335 0.016579407911622091 0 -0.0067776520880024407 0.016705333991168171 0 -0.0060517215499829805 0.014505799325948442 0 -0.0080229742503302726 0.0089918191585021262 0 -0.0068378574833874335 0.016579407911622091 0 -0.0067776520880024407 0.016705333991168171 0 -0.0070460037795767646 0.016716727061537196 0 -0.0080229742503302726 0.0089918191585021262 0 -0.0089947829301784132 0.011377798289643701 0 -0.011133366482914167 0.0053902698450886584 0 -0.010872749050670216 0.0050419219915807337 0 -0.010620285868810597 0.0055213566554342024 0 -0.0080229742503302726 0.0089918191585021262 0 -0.0099806681134521191 0.0034988754362549898 0 -0.0088706461691802092 0.0027874421644543987 0 -0.008748222720267481 0.0031370398545698215 0 -0.008514317726590637 0.0029436268718192131 0 -0.0049944212336054941 0.011726119577049459 0 -0.0050723705052305897 0.011748515673909108 0 -0.0049611687968440562 0.011768766662846132 0 -0.0080229742503302726 0.0089918191585021262 0 -0.0066324787935485539 0.007210627824081571 0 -0.008748222720267481 0.0031370398545698215 0 -0.0092316154662352747 0.0030029618693559893 0 -0.0091840637640608382 0.00343460646229201 0 -0.0088706461691802092 0.0027874421644543987 0 -0.008748222720267481 0.0031370398545698215 0 -0.0092316154662352747 0.0030029618693559893 0 -0.0091840637640608382 0.00343460646229201 0 -0.0087942273807438427 0.0037893630157963256 0 -0.0095425940921805182 0.0038696872715249684 0 -0.008748222720267481 0.0031370398545698215 0 -0.0087942273807438427 0.0037893630157963256 0 -0.0085657633149053992 0.0032539622115139786 0 -0.008748222720267481 0.0031370398545698215 0 -0.0091840637640608382 0.00343460646229201 0 -0.0087942273807438427 0.0037893630157963256 0 -0.010603604508505064 0.0046699414832528374 0 -0.010112056075214032 0.0048735583395044402 0 -0.010078773612351176 0.0045182646771826825 0 -0.010603604508505064 0.0046699414832528374 0 -0.010078773612351176 0.0045182646771826825 0 -0.010218126793787677 0.0041714312432330983 0 -0.01020426258775009 0.0041347244444337955 0 -0.010187853951662152 0.0041149503220344842 0 -0.0097377588345748528 0.0034260835438769451 0 -0.0095425940921805182 0.0038696872715249684 0 -0.010218126793787677 0.0041714312432330983 0 -0.0091840637640608382 0.00343460646229201 0 -0.0097377588345748528 0.0034260835438769451 0 -0.0095425940921805182 0.0038696872715249684 0 -0.010872749050670216 0.0050419219915807337 0 -0.010603604508505064 0.0046699414832528374 0 -0.010377571435109902 0.0051824148967106543 0 -0.0092316154662352747 0.0030029618693559893 0 -0.0091840637640608382 0.00343460646229201 0 -0.0097377588345748528 0.0034260835438769451 0 -0.0099806681134521191 0.0034988754362549898 0 -0.01020426258775009 0.0041347244444337955 0 -0.010603604508505064 0.0046699414832528374 0 -0.010377571435109902 0.0051824148967106543 0 -0.010112056075214032 0.0048735583395044402 0 -0.010872749050670216 0.0050419219915807337 0 -0.010377571435109902 0.0051824148967106543 0 -0.010620285868810597 0.0055213566554342024 0 -0.0070406031891207298 0.016569399613247465 0 -0.0068378574833874335 0.016579407911622091 0 -0.0070460037795767646 0.016716727061537196 0 -0.010377571435109902 0.0051824148967106543 0 -0.010620285868810597 0.0055213566554342024 0 -0.010114493535118663 0.0056541802534015584 0 -0.0089947829301784132 0.011377798289643701 0 -0.0087459759069907043 0.011166244226253079 0 -0.0070406031891207298 0.016569399613247465 0 -0.0070460037795767646 0.016716727061537196 0 -0.0074135199725871162 0.01674748368281705 0 -0.0096561912470957568 0.0058039987055351289 0 -0.010114493535118663 0.0056541802534015584 0 -0.0099715940413928495 0.0052778119538392076 0 -0.0087720104722214358 0.01126867337260439 0 -0.0087459759069907043 0.011166244226253079 0 -0.0096561912470957568 0.0058039987055351289 0 -0.0099715940413928495 0.0052778119538392076 0 -0.0096477857092854939 0.0052172869485306731 0 -0.0099715940413928495 0.0052778119538392076 0 -0.0096477857092854939 0.0052172869485306731 0 -0.0098801691940090947 0.004978465990978757 0 -0.010377571435109902 0.0051824148967106543 0 -0.0099715940413928495 0.0052778119538392076 0 -0.010112056075214032 0.0048735583395044402 0 -0.010377571435109902 0.0051824148967106543 0 -0.010114493535118663 0.0056541802534015584 0 -0.0099715940413928495 0.0052778119538392076 0 -0.0091879953422101725 0.0060012781963988942 0 -0.0093639775255497711 0.0054253467803784174 0 -0.0090169321831898869 0.005441746965521136 0 -0.0096561912470957568 0.0058039987055351289 0 -0.0096477857092854939 0.0052172869485306731 0 -0.0093639775255497711 0.0054253467803784174 0 -0.0091879953422101725 0.0060012781963988942 0 -0.0096561912470957568 0.0058039987055351289 0 -0.0093639775255497711 0.0054253467803784174 0 -0.0096477857092854939 0.0052172869485306731 0 -0.0093639775255497711 0.0054253467803784174 0 -0.0094566255389110527 0.0049909633943096988 0 -0.0093639775255497711 0.0054253467803784174 0 -0.0091975428424450403 0.0050646086041333917 0 -0.0094566255389110527 0.0049909633943096988 0 -0.0093639775255497711 0.0054253467803784174 0 -0.0091975428424450403 0.0050646086041333917 0 -0.0090169321831898869 0.005441746965521136 0 -0.0091975428424450403 0.0050646086041333917 0 -0.0093043329589368642 0.0048003399997563687 0 -0.0090725978785719964 0.0048133326838266264 0 -0.0091975428424450403 0.0050646086041333917 0 -0.0094566255389110527 0.0049909633943096988 0 -0.0093043329589368642 0.0048003399997563687 0 -0.0094566255389110527 0.0049909633943096988 0 -0.009554575036323695 0.0046085688124648224 0 -0.0096765540380836183 0.0048988763017073214 0 -0.0096477857092854939 0.0052172869485306731 0 -0.0094566255389110527 0.0049909633943096988 0 -0.0096765540380836183 0.0048988763017073214 0 -0.0094566255389110527 0.0049909633943096988 0 -0.009554575036323695 0.0046085688124648224 0 -0.0093043329589368642 0.0048003399997563687 0 -0.009554575036323695 0.0046085688124648224 0 -0.0093043329589368642 0.0048003399997563687 0 -0.0092586562351222139 0.004591068679377603 0 -0.0093043329589368642 0.0048003399997563687 0 -0.0092586562351222139 0.004591068679377603 0 -0.0090725978785719964 0.0048133326838266264 0 -0.0099715940413928495 0.0052778119538392076 0 -0.010112056075214032 0.0048735583395044402 0 -0.0098801691940090947 0.004978465990978757 0 -0.010112056075214032 0.0048735583395044402 0 -0.0098801691940090947 0.004978465990978757 0 -0.0098600440059789553 0.0046978531330989521 0 -0.0096477857092854939 0.0052172869485306731 0 -0.0098801691940090947 0.004978465990978757 0 -0.0096765540380836183 0.0048988763017073214 0 -0.0098801691940090947 0.004978465990978757 0 -0.0096765540380836183 0.0048988763017073214 0 -0.0098600440059789553 0.0046978531330989521 0 -0.009554575036323695 0.0046085688124648224 0 -0.0098600440059789553 0.0046978531330989521 0 -0.0098707367301002335 0.0044091985938485307 0 -0.009554575036323695 0.0046085688124648224 0 -0.0096765540380836183 0.0048988763017073214 0 -0.0098600440059789553 0.0046978531330989521 0 -0.0098600440059789553 0.0046978531330989521 0 -0.010078773612351176 0.0045182646771826825 0 -0.0098707367301002335 0.0044091985938485307 0 -0.010112056075214032 0.0048735583395044402 0 -0.0098600440059789553 0.0046978531330989521 0 -0.010078773612351176 0.0045182646771826825 0 -0.010074872322005967 0.0042816718154412006 0 -0.0098707367301002335 0.0044091985938485307 0 -0.0099405202518188102 0.0041039725721042346 0 -0.010074872322005967 0.0042816718154412006 0 -0.0099405202518188102 0.0041039725721042346 0 -0.01018729082598706 0.0042254224026402765 0 -0.010078773612351176 0.0045182646771826825 0 -0.010074872322005967 0.0042816718154412006 0 -0.010218126793787677 0.0041714312432330983 0 -0.010078773612351176 0.0045182646771826825 0 -0.010074872322005967 0.0042816718154412006 0 -0.0098707367301002335 0.0044091985938485307 0 -0.009554575036323695 0.0046085688124648224 0 -0.0098707367301002335 0.0044091985938485307 0 -0.0096751750355909445 0.0042760573237859102 0 -0.0098707367301002335 0.0044091985938485307 0 -0.0099405202518188102 0.0041039725721042346 0 -0.0096751750355909445 0.0042760573237859102 0 -0.0099405202518188102 0.0041039725721042346 0 -0.0096751750355909445 0.0042760573237859102 0 -0.0096654942837572071 0.0039700333771078506 0 -0.0099552980833129932 0.0041456305763111342 0 -0.01218532815310128 0.0042184479888794958 0 -0.010586398375193703 0.0044130816690570408 0 -0.010969158547640856 0.0045898118443072032 0 -0.010765717621006464 0.0047543644219981331 0 -0.0099552980833129932 0.0041456305763111342 0 -0.010304577423350227 0.0042797610493320419 0 -0.010586398375193703 0.0044130816690570408 0 -0.010765717621006464 0.0047543644219981331 0 -0.010217932981272819 0.004564064868127566 0 -0.010586398375193703 0.0044130816690570408 0 -0.01018729082598706 0.0042254224026402765 0 -0.010217932981272819 0.004564064868127566 0 -0.009554575036323695 0.0046085688124648224 0 -0.0092586562351222139 0.004591068679377603 0 -0.0093391700224347788 0.0042534424114021082 0 -0.01297621925254752 0.0050261729462550003 0 -0.012385521336643213 0.0051522176860405089 0 -0.0092586562351222139 0.004591068679377603 0 -0.0093391700224347788 0.0042534424114021082 0 -0.0090280006762586164 0.0045865446537048321 0 -0.009554575036323695 0.0046085688124648224 0 -0.0093391700224347788 0.0042534424114021082 0 -0.0096751750355909445 0.0042760573237859102 0 -0.0093391700224347788 0.0042534424114021082 0 -0.0096751750355909445 0.0042760573237859102 0 -0.0096654942837572071 0.0039700333771078506 0 -0.016329128526586651 0.0057209829214551451 0 -0.016192780722836978 0.0057723660140338393 0 -0.016336962028100855 0.0057718574018604425 0 -0.01297621925254752 0.0050261729462550003 0 -0.01218532815310128 0.0042184479888794958 0 -0.016329128526586651 0.0057209829214551451 0 -0.016336962028100855 0.0057718574018604425 0 -0.016413138131215203 0.0057813703038506669 0 -0.016192780722836978 0.0057723660140338393 0 -0.016336962028100855 0.0057718574018604425 0 -0.016397512323876234 0.0058078697851028571 0 -0.016336962028100855 0.0057718574018604425 0 -0.016397512323876234 0.0058078697851028571 0 -0.016413138131215203 0.0057813703038506669 0 -0.012131774786794664 0.00072729753357769821 0 -0.01395846340924245 0.001560635582602578 0 -0.01297249935427704 0.0018361432224204106 0 -0.012131774786794664 0.00072729753357769821 0 -0.01297249935427704 0.0018361432224204106 0 -0.011488837557503908 0.0012595194663799982 0 -0.012930119377239327 0.0016047916174016625 0 -0.011047016311212224 0.0023620154871132545 0 -0.01218532815310128 0.0042184479888794958 0 -0.015554975607618159 0.0035896842307993572 0 -0.01297249935427704 0.0018361432224204106 0 -0.011383916636145632 0.001252935037059676 0 -0.01189226514482191 0.0021764239618919648 0 -0.012474649829687911 0.0026644879913637976 0 -0.01297249935427704 0.0018361432224204106 0 -0.01189226514482191 0.0021764239618919648 0 -0.012474649829687911 0.0026644879913637976 0 -0.01189226514482191 0.0021764239618919648 0 -0.011503174658593115 0.0029263698973501892 0 -0.012474649829687911 0.0026644879913637976 0 -0.013529947054403274 0.0025262050110789257 0 -0.012882528187106501 0.0031271832522807522 0 -0.012474649829687911 0.0026644879913637976 0 -0.01297249935427704 0.0018361432224204106 0 -0.013529947054403274 0.0025262050110789257 0 -0.01395846340924245 0.001560635582602578 0 -0.013529947054403274 0.0025262050110789257 0 -0.014549303915658798 0.002721091266578829 0 -0.01395846340924245 0.001560635582602578 0 -0.01297249935427704 0.0018361432224204106 0 -0.013529947054403274 0.0025262050110789257 0 -0.0098344668857269814 0.0025148236297582727 0 -0.010260932135116529 0.0024547740312662277 0 -0.009651806795999654 0.002191270734169885 0 -0.0098344668857269814 0.0025148236297582727 0 -0.010260932135116529 0.0024547740312662277 0 -0.0098415375182479784 0.0028293620588774604 0 -0.011047016311212224 0.0023620154871132545 0 -0.0098592165865176249 0.0035426234129273828 0 -0.0098344668857269814 0.0025148236297582727 0 -0.0098415375182479784 0.0028293620588774604 0 -0.0095520695136823326 0.0025557656962623657 0 -0.01218532815310128 0.0042184479888794958 0 -0.011047016311212224 0.0023620154871132545 0 -0.011383916636145632 0.001252935037059676 0 -0.011034292056805199 0.0024839461025445227 0 -0.01189226514482191 0.0021764239618919648 0 -0.011034292056805199 0.0024839461025445227 0 -0.01189226514482191 0.0021764239618919648 0 -0.011503174658593115 0.0029263698973501892 0 -0.011034292056805199 0.0024839461025445227 0 -0.011503174658593115 0.0029263698973501892 0 -0.010588655187032028 0.003169947990966497 0 -0.011383916636145632 0.001252935037059676 0 -0.011034292056805199 0.0024839461025445227 0 -0.0098415375182479784 0.0028293620588774604 0 -0.011034292056805199 0.0024839461025445227 0 -0.0098415375182479784 0.0028293620588774604 0 -0.010588655187032028 0.003169947990966497 0 -0.011047016311212224 0.0023620154871132545 0 -0.0098409089502277669 0.0026138126194981564 0 -0.0098415375182479784 0.0028293620588774604 0 -0.0092283827040092054 0.0028035065333755966 0 -0.0092062187147396671 0.0032339694099848084 0 -0.0098415375182479784 0.0028293620588774604 0 -0.0092283827040092054 0.0028035065333755966 0 -0.0095520695136823326 0.0025557656962623657 0 -0.0095520695136823326 0.0025557656962623657 0 -0.0090484166914347915 0.0024629760166971545 0 -0.009651806795999654 0.002191270734169885 0 -0.0092283827040092054 0.0028035065333755966 0 -0.0095520695136823326 0.0025557656962623657 0 -0.0090484166914347915 0.0024629760166971545 0 -0.0098344668857269814 0.0025148236297582727 0 -0.0095520695136823326 0.0025557656962623657 0 -0.009651806795999654 0.002191270734169885 0 -0.0090484166914347915 0.0024629760166971545 0 -0.0086902687291017765 0.0029361379513425561 0 -0.0084603574520956543 0.0023788285421914414 0 -0.0092283827040092054 0.0028035065333755966 0 -0.0090484166914347915 0.0024629760166971545 0 -0.0086902687291017765 0.0029361379513425561 0 -0.0092283827040092054 0.0028035065333755966 0 -0.0086902687291017765 0.0029361379513425561 0 -0.0092062187147396671 0.0032339694099848084 0 -0.0086902687291017765 0.0029361379513425561 0 -0.0081317129320546896 0.003122635875148268 0 -0.0085019957180538109 0.0033928745356687638 0 -0.0086902687291017765 0.0029361379513425561 0 -0.0081317129320546896 0.003122635875148268 0 -0.0082627254505461475 0.0027258596565588353 0 -0.0081317129320546896 0.003122635875148268 0 -0.0082627254505461475 0.0027258596565588353 0 -0.0078235694169414716 0.0027990582568053432 0 -0.0082627254505461475 0.0027258596565588353 0 -0.0084603574520956543 0.0023788285421914414 0 -0.008065105104138437 0.0022737580802250734 0 -0.0082627254505461475 0.0027258596565588353 0 -0.008065105104138437 0.0022737580802250734 0 -0.0078235694169414716 0.0027990582568053432 0 -0.0080920589904199883 0.0021432220487080087 0 -0.007827403974722362 0.0024526211686097536 0 -0.0086902687291017765 0.0029361379513425561 0 -0.0082627254505461475 0.0027258596565588353 0 -0.0084603574520956543 0.0023788285421914414 0 -0.0084603574520956543 0.0023788285421914414 0 -0.0080524454681641811 0.0022385153217078695 0 -0.0087634817827922356 0.0020584760408276434 0 -0.0084603574520956543 0.0023788285421914414 0 -0.008065105104138437 0.0022737580802250734 0 -0.0080524454681641811 0.0022385153217078695 0 -0.008065105104138437 0.0022737580802250734 0 -0.0080524454681641811 0.0022385153217078695 0 -0.0081947664635522097 0.0023677437463824882 0 -0.0084810578441204751 0.0030387860833938208 0 -0.0091874996184648262 0.003181498276987283 0 -0.0087942273807438427 0.0037893630157963256 0 -0.0095425940921805182 0.0038696872715249684 0 -0.0095642304510255814 0.0043369194372457204 0 -0.0095425940921805182 0.0038696872715249684 0 -0.0099720650263715859 0.0042407251239767818 0 -0.0095642304510255814 0.0043369194372457204 0 -0.0095425940921805182 0.0038696872715249684 0 -0.010218126793787677 0.0041714312432330983 0 -0.0099720650263715859 0.0042407251239767818 0 -0.010074872322005967 0.0042816718154412006 0 -0.010218126793787677 0.0041714312432330983 0 -0.01018729082598706 0.0042254224026402765 0 -0.010218126793787677 0.0041714312432330983 0 -0.01018729082598706 0.0042254224026402765 0 -0.0099720650263715859 0.0042407251239767818 0 -0.0098592165865176249 0.0035426234129273828 0 -0.0091874996184648262 0.003181498276987283 0 -0.0099720650263715859 0.0042407251239767818 0 -0.010217932981272819 0.004564064868127566 0 -0.0095642304510255814 0.0043369194372457204 0 -0.01018729082598706 0.0042254224026402765 0 -0.0099720650263715859 0.0042407251239767818 0 -0.010217932981272819 0.004564064868127566 0 -0.0090484166914347915 0.0024629760166971545 0 -0.0084603574520956543 0.0023788285421914414 0 -0.0087634817827922356 0.0020584760408276434 0 -0.0090484166914347915 0.0024629760166971545 0 -0.009651806795999654 0.002191270734169885 0 -0.0087634817827922356 0.0020584760408276434 0 -0.014999944753292251 0.0058710369184153616 0 -0.015392712140541229 0.0062717908226002268 0 -0.015525649948909931 0.0054581616155365779 0 -0.015392712140541229 0.0062717908226002268 0 -0.015873506945044191 0.0061555539785760156 0 -0.015525649948909931 0.0054581616155365779 0 -0.015813017674533476 0.0062608870276212635 0 -0.015374511652519319 0.0056245259957419854 0 -0.015768071278428924 0.0063716615760588636 0 -0.015855545223225988 0.0059402210174097888 0 -0.015265331314917837 0.0058033262482179533 0 -0.015392712140541229 0.0062717908226002268 0 -0.015644139353575955 0.0067036611104634176 0 -0.015873506945044191 0.0061555539785760156 0 -0.015392712140541229 0.0062717908226002268 0 -0.014999970221951309 0.0066085674571833494 0 -0.015644139353575955 0.0067036611104634176 0 -0.014999944753292251 0.0058710369184153616 0 -0.015392712140541229 0.0062717908226002268 0 -0.014999970221951309 0.0066085674571833494 0 -0.014999970221951309 0.0066085674571833494 0 -0.015501130989968148 0.0072738989693069064 0 -0.015644139353575955 0.0067036611104634176 0 -0.014999970221951309 0.0066085674571833494 0 -0.014999925833939927 0.007345953845643436 0 -0.015501130989968148 0.0072738989693069064 0 -0.015304781669376726 0.0076975180119573409 0 -0.014999925833939927 0.007345953845643436 0 -0.015501130989968148 0.0072738989693069064 0 -0.015636628447297084 0.0076404745757579027 0 -0.015501130989968148 0.0072738989693069064 0 -0.015881909266934811 0.0071501771470788853 0 -0.015501130989968148 0.0072738989693069064 0 -0.015644139353575955 0.0067036611104634176 0 -0.015881909266934811 0.0071501771470788853 0 -0.015644139353575955 0.0067036611104634176 0 -0.015881909266934811 0.0071501771470788853 0 -0.01608889250172767 0.0067676140818327211 0 -0.016027267547959988 0.0076318626234463715 0 -0.015881909266934811 0.0071501771470788853 0 -0.016365210011166528 0.0070969134139808885 0 -0.015881909266934811 0.0071501771470788853 0 -0.01608889250172767 0.0067676140818327211 0 -0.016365210011166528 0.0070969134139808885 0 -0.01608889250172767 0.0067676140818327211 0 -0.016089414874315908 0.0062551418357896299 0 -0.016306268265249935 0.0064164434504615534 0 -0.015644139353575955 0.0067036611104634176 0 -0.01608889250172767 0.0067676140818327211 0 -0.015873506945044191 0.0061555539785760156 0 -0.01608889250172767 0.0067676140818327211 0 -0.015768071278428924 0.0063716615760588636 0 -0.016089414874315908 0.0062551418357896299 0 -0.016076711318056516 0.0067272049192363065 0 -0.015813017674533476 0.0062608870276212635 0 -0.015768071278428924 0.0063716615760588636 0 -0.016089414874315908 0.0062551418357896299 0 -0.015855545223225988 0.0059402210174097888 0 -0.016089414874315908 0.0062551418357896299 0 -0.016318375728129379 0.0061059103692940476 0 -0.016131186143957629 0.005969261870190235 0 -0.016089414874315908 0.0062551418357896299 0 -0.016131186143957629 0.005969261870190235 0 -0.015855545223225988 0.0059402210174097888 0 -0.016089414874315908 0.0062551418357896299 0 -0.016318375728129379 0.0061059103692940476 0 -0.016306268265249935 0.0064164434504615534 0 -0.016318375728129379 0.0061059103692940476 0 -0.016467293997813846 0.0063055631920914202 0 -0.016306268265249935 0.0064164434504615534 0 -0.016467293997813846 0.0063055631920914202 0 -0.016504742894426671 0.0060830026573574546 0 -0.016659615480697852 0.0062942528353760688 0 -0.016318375728129379 0.0061059103692940476 0 -0.016467293997813846 0.0063055631920914202 0 -0.016504742894426671 0.0060830026573574546 0 -0.016467293997813846 0.0063055631920914202 0 -0.016520496461526261 0.0066806252701987149 0 -0.016659615480697852 0.0062942528353760688 0 -0.016520496461526261 0.0066806252701987149 0 -0.016815557142864316 0.0067700644283251264 0 -0.016914052151669579 0.0063409750480115257 0 -0.01718887183051861 0.0065795642845830407 0 -0.014828868884970604 0.0060404013152595519 0 -0.01608889250172767 0.0067676140818327211 0 -0.016306268265249935 0.0064164434504615534 0 -0.016520496461526261 0.0066806252701987149 0 -0.016467293997813846 0.0063055631920914202 0 -0.016306268265249935 0.0064164434504615534 0 -0.016520496461526261 0.0066806252701987149 0 -0.016520496461526261 0.0066806252701987149 0 -0.016365210011166528 0.0070969134139808885 0 -0.016624747705886646 0.0069601352105530256 0 -0.01608889250172767 0.0067676140818327211 0 -0.016520496461526261 0.0066806252701987149 0 -0.016365210011166528 0.0070969134139808885 0 -0.016365210011166528 0.0070969134139808885 0 -0.016734152912242197 0.0072517593957703045 0 -0.016624747705886646 0.0069601352105530256 0 -0.016441535036312176 0.0076964777408841884 0 -0.016365210011166528 0.0070969134139808885 0 -0.016734152912242197 0.0072517593957703045 0 -0.011662035421655947 0.0062133481606445554 0 -0.012790856400980263 0.0058555372636874391 0 -0.011662035421655947 0.0062133481606445554 0 -0.0083530946509115019 0.0053413905300283664 0 -0.016734152912242197 0.0072517593957703045 0 -0.016624747705886646 0.0069601352105530256 0 -0.016815557142864316 0.0067700644283251264 0 -0.0089105895024804184 0.0051202393424992056 0 -0.0088697672995665857 0.0050634825532998905 0 -0.0088934097619071516 0.0050780471064057605 0 -0.016520496461526261 0.0066806252701987149 0 -0.016624747705886646 0.0069601352105530256 0 -0.016815557142864316 0.0067700644283251264 0 -0.0088697672995665857 0.0050634825532998905 0 -0.0088934097619071516 0.0050780471064057605 0 -0.0088977902663626672 0.005009568410643081 0 -0.0088934097619071516 0.0050780471064057605 0 -0.0089724446495866219 0.0050190689882355279 0 -0.0088977902663626672 0.005009568410643081 0 -0.0083530946509115019 0.0053413905300283664 0 -0.0090701458862912678 0.004957321490985901 0 -0.0085756907453738759 0.005389523879406991 0 -0.0087323696976343585 0.0057749922749546533 0 -0.0090169321831898869 0.005441746965521136 0 -0.0082291792461642674 0.0057630950746277235 0 -0.0085756907453738759 0.005389523879406991 0 -0.0087323696976343585 0.0057749922749546533 0 -0.0091879953422101725 0.0060012781963988942 0 -0.0087323696976343585 0.0057749922749546533 0 -0.0090169321831898869 0.005441746965521136 0 -0.0085756907453738759 0.005389523879406991 0 -0.0090169321831898869 0.005441746965521136 0 -0.0089724446495866219 0.0050190689882355279 0 -0.0091975428424450403 0.0050646086041333917 0 -0.0090169321831898869 0.005441746965521136 0 -0.0089724446495866219 0.0050190689882355279 0 -0.0089724446495866219 0.0050190689882355279 0 -0.0088406696078228725 0.0048773994476524673 0 -0.0090725978785719964 0.0048133326838266264 0 -0.0091975428424450403 0.0050646086041333917 0 -0.0089724446495866219 0.0050190689882355279 0 -0.0090725978785719964 0.0048133326838266264 0 -0.0088697672995665857 0.0050634825532998905 0 -0.0088406696078228725 0.0048773994476524673 0 -0.0088977902663626672 0.005009568410643081 0 -0.0089724446495866219 0.0050190689882355279 0 -0.0088406696078228725 0.0048773994476524673 0 -0.0088977902663626672 0.005009568410643081 0 -0.012790856400980263 0.0058555372636874391 0 -0.014828868884970604 0.0060404013152595519 0 -0.016504742894426671 0.0060830026573574546 0 -0.016659615480697852 0.0062942528353760688 0 -0.016620996545475778 0.0060257679112076931 0 -0.014828868884970604 0.0060404013152595519 0 -0.012385521336643213 0.0051522176860405089 0 -0.014828868884970604 0.0060404013152595519 0 -0.016601503172248216 0.0058013291688314393 0 -0.016432192948400773 0.0057033366237000237 0 -0.016413101093002074 0.0057053589153112198 0 -0.016450031550469271 0.0057208585112929287 0 -0.0088406696078228725 0.0048773994476524673 0 -0.0090280006762586164 0.0045865446537048321 0 -0.0090725978785719964 0.0048133326838266264 0 -0.0092586562351222139 0.004591068679377603 0 -0.0090280006762586164 0.0045865446537048321 0 -0.0090725978785719964 0.0048133326838266264 0 -0.016413101093002074 0.0057053589153112198 0 -0.016450031550469271 0.0057208585112929287 0 -0.016487819426361953 0.0057981343148356826 0 -0.016329128526586651 0.0057209829214551451 0 -0.016413101093002074 0.0057053589153112198 0 -0.016487819426361953 0.0057981343148356826 0 -0.016601503172248216 0.0058013291688314393 0 -0.01648704890918614 0.00586055934592039 0 -0.016620996545475778 0.0060257679112076931 0 -0.016499155086525871 0.0058893085004492135 0 -0.016487819426361953 0.0057981343148356826 0 -0.016504742894426671 0.0060830026573574546 0 -0.016620996545475778 0.0060257679112076931 0 -0.016499155086525871 0.0058893085004492135 0 -0.016487819426361953 0.0057981343148356826 0 -0.016451738726530846 0.0057685123145650163 0 -0.016446306070478089 0.0057779941287299805 0 -0.016499155086525871 0.0058893085004492135 0 -0.016487819426361953 0.0057981343148356826 0 -0.016446306070478089 0.0057779941287299805 0 -0.016487819426361953 0.0057981343148356826 0 -0.016413138131215203 0.0057813703038506669 0 -0.016451738726530846 0.0057685123145650163 0 -0.016329128526586651 0.0057209829214551451 0 -0.016487819426361953 0.0057981343148356826 0 -0.016413138131215203 0.0057813703038506669 0 -0.016397512323876234 0.0058078697851028571 0 -0.016451738726530846 0.0057685123145650163 0 -0.016453804775011172 0.0056961844055382757 0 -0.016397512323876234 0.0058078697851028571 0 -0.016413138131215203 0.0057813703038506669 0 -0.016451738726530846 0.0057685123145650163 0 -0.015554975607618159 0.0035896842307993572 0 -0.016127655344124824 0.0041259967823305066 0 -0.01395846340924245 0.001560635582602578 0 -0.014549303915658798 0.002721091266578829 0 -0.01590940354791329 0.0024464496662537239 0 -0.016451738726530846 0.0057685123145650163 0 -0.016453804775011172 0.0056961844055382757 0 -0.016446306070478089 0.0057779941287299805 0 -0.016453804775011172 0.0056961844055382757 0 -0.016446306070478089 0.0057779941287299805 0 -0.01637664781795195 0.0056871607394867246 0 -0.016446306070478089 0.0057779941287299805 0 -0.01637664781795195 0.0056871607394867246 0 -0.016320380045767531 0.0057739957092245746 0 -0.016453804775011172 0.0056961844055382757 0 -0.01637664781795195 0.0056871607394867246 0 -0.016347064631596516 0.0055749571732835968 0 -0.016454588793467402 0.0050506670069125096 0 -0.016686273032088982 0.004095997205454241 0 -0.016702807939037192 0.0042414723430829956 0 -0.016609646006988717 0.0037812764738261611 0 -0.016998460995106469 0.0034960278055596564 0 -0.01637664781795195 0.0056871607394867246 0 -0.016264312618798456 0.005676418992616619 0 -0.016347064631596516 0.0055749571732835968 0 -0.01637664781795195 0.0056871607394867246 0 -0.016264312618798456 0.005676418992616619 0 -0.016320380045767531 0.0057739957092245746 0 -0.016254214077264711 0.0058851446474174965 0 -0.016320380045767531 0.0057739957092245746 0 -0.016397634373665846 0.0058935196483908998 0 -0.016499155086525871 0.0058893085004492135 0 -0.016446306070478089 0.0057779941287299805 0 -0.016397634373665846 0.0058935196483908998 0 -0.016446306070478089 0.0057779941287299805 0 -0.016320380045767531 0.0057739957092245746 0 -0.016397634373665846 0.0058935196483908998 0 -0.016318375728129379 0.0061059103692940476 0 -0.016504742894426671 0.0060830026573574546 0 -0.016397634373665846 0.0058935196483908998 0 -0.016504742894426671 0.0060830026573574546 0 -0.016499155086525871 0.0058893085004492135 0 -0.016397634373665846 0.0058935196483908998 0 -0.016318375728129379 0.0061059103692940476 0 -0.016254214077264711 0.0058851446474174965 0 -0.016397634373665846 0.0058935196483908998 0 -0.016318375728129379 0.0061059103692940476 0 -0.016254214077264711 0.0058851446474174965 0 -0.016131186143957629 0.005969261870190235 0 -0.016131186143957629 0.005969261870190235 0 -0.015855545223225988 0.0059402210174097888 0 -0.016119745513519426 0.0057841462410085339 0 -0.01587759252502877 0.0059287628165922068 0 -0.016217583586292834 0.0054190036189501337 0 -0.016333062690677372 0.0050656977362310771 0 -0.015922483418574131 0.0045551143093247731 0 -0.015667321837613768 0.0052849095543773287 0 -0.015855545223225988 0.0059402210174097888 0 -0.016333062690677372 0.0050656977362310771 0 -0.015667321837613768 0.0052849095543773287 0 -0.016254214077264711 0.0058851446474174965 0 -0.016320380045767531 0.0057739957092245746 0 -0.016119745513519426 0.0057841462410085339 0 -0.016254214077264711 0.0058851446474174965 0 -0.016131186143957629 0.005969261870190235 0 -0.016119745513519426 0.0057841462410085339 0 -0.016702807939037192 0.0042414723430829956 0 -0.016333062690677372 0.0050656977362310771 0 -0.015922483418574131 0.0045551143093247731 0 -0.016454588793467402 0.0050506670069125096 0 -0.016217583586292834 0.0054190036189501337 0 -0.016264312618798456 0.005676418992616619 0 -0.016320380045767531 0.0057739957092245746 0 -0.016119745513519426 0.0057841462410085339 0 -0.016702807939037192 0.0042414723430829956 0 -0.016213141078205807 0.0040030406324127752 0 -0.015922483418574131 0.0045551143093247731 0 -0.016213141078205807 0.0040030406324127752 0 -0.016609646006988717 0.0037812764738261611 0 -0.016384604650528958 0.0035756687109949371 0 -0.016702807939037192 0.0042414723430829956 0 -0.016213141078205807 0.0040030406324127752 0 -0.016609646006988717 0.0037812764738261611 0 -0.015945617635726852 0.0038251714701636242 0 -0.015734106524801558 0.0040924012538091064 0 -0.015707801187775729 0.0036807469305399649 0 -0.016213141078205807 0.0040030406324127752 0 -0.015945617635726852 0.0038251714701636242 0 -0.016100409326745765 0.003536211030812194 0 -0.016213141078205807 0.0040030406324127752 0 -0.015945617635726852 0.0038251714701636242 0 -0.015734106524801558 0.0040924012538091064 0 -0.016213141078205807 0.0040030406324127752 0 -0.015734106524801558 0.0040924012538091064 0 -0.015922483418574131 0.0045551143093247731 0 -0.015734106524801558 0.0040924012538091064 0 -0.015922483418574131 0.0045551143093247731 0 -0.015359019598925184 0.0043891208487219753 0 -0.015922483418574131 0.0045551143093247731 0 -0.015359019598925184 0.0043891208487219753 0 -0.015369098177664881 0.0048822089131539534 0 -0.015359019598925184 0.0043891208487219753 0 -0.015077423523183031 0.0046991282801315815 0 -0.015369098177664881 0.0048822089131539534 0 -0.015077423523183031 0.0046991282801315815 0 -0.015080045969759134 0.004950797322773523 0 -0.015369098177664881 0.0048822089131539534 0 -0.01540479890891727 0.0039946506787917309 0 -0.014955250670394032 0.0042557271957388166 0 -0.015246261912241627 0.0035779785986741228 0 -0.015734106524801558 0.0040924012538091064 0 -0.015359019598925184 0.0043891208487219753 0 -0.01540479890891727 0.0039946506787917309 0 -0.015359019598925184 0.0043891208487219753 0 -0.01540479890891727 0.0039946506787917309 0 -0.014955250670394032 0.0042557271957388166 0 -0.015734106524801558 0.0040924012538091064 0 -0.01540479890891727 0.0039946506787917309 0 -0.015707801187775729 0.0036807469305399649 0 -0.015116914844193337 0.0042334284514912359 0 -0.015354368522841062 0.0035688088239446579 0 -0.014999974120900579 0.0037649824951883522 0 -0.015302267647445808 0.0041729831385771887 0 -0.014999999454282573 0.004605533253786512 0 -0.014999974120900579 0.0037649824951883522 0 -0.015302267647445808 0.0041729831385771887 0 -0.015459012866104412 0.0035626770020966876 0 -0.015116914844193337 0.0042334284514912359 0 -0.015025968095898786 0.0048356318408974263 0 -0.014955250670394032 0.0042557271957388166 0 -0.015077423523183031 0.0046991282801315815 0 -0.014691182883894136 0.004980950653700366 0 -0.015302267647445808 0.0041729831385771887 0 -0.014999999454282573 0.004605533253786512 0 -0.015117010072753376 0.0047740248093469826 0 -0.015359019598925184 0.0043891208487219753 0 -0.014955250670394032 0.0042557271957388166 0 -0.015077423523183031 0.0046991282801315815 0 -0.015113362256326597 0.0047847987323997492 0 -0.014999981670865057 0.0051335644828767926 0 -0.015525649948909931 0.0054581616155365779 0 -0.014999999201823943 0.0046055287575835638 0 -0.015116494970689523 0.004773616731924623 0 -0.014999999490159311 0.0051334735546751465 0 -0.014691182883894136 0.004980950653700366 0 -0.015172286299036728 0.0052439889238332761 0 -0.015265331314917837 0.0058033262482179533 0 -0.015025968095898786 0.0048356318408974263 0 -0.015374511652519319 0.0056245259957419854 0 -0.014999973641051984 0.004605728150242498 0 -0.015025968095898786 0.0048356318408974263 0 -0.015025968095898786 0.0048356318408974263 0 -0.015000032739018676 0.0051332922346878328 0 -0.015077423523183031 0.0046991282801315815 0 -0.014691182883894136 0.004980950653700366 0 -0.015080045969759134 0.004950797322773523 0 -0.014691182883894136 0.004980950653700366 0 -0.015080045969759134 0.004950797322773523 0 -0.015172286299036728 0.0052439889238332761 0 -0.015922483418574131 0.0045551143093247731 0 -0.015369098177664881 0.0048822089131539534 0 -0.015667321837613768 0.0052849095543773287 0 -0.015080045969759134 0.004950797322773523 0 -0.015369098177664881 0.0048822089131539534 0 -0.015172286299036728 0.0052439889238332761 0 -0.015369098177664881 0.0048822089131539534 0 -0.015667321837613768 0.0052849095543773287 0 -0.015172286299036728 0.0052439889238332761 0 -0.015667321837613768 0.0052849095543773287 0 -0.015172286299036728 0.0052439889238332761 0 -0.015265331314917837 0.0058033262482179533 0 -0.015855545223225988 0.0059402210174097888 0 -0.015667321837613768 0.0052849095543773287 0 -0.015265331314917837 0.0058033262482179533 0 -0.014999944753292251 0.0058710369184153616 0 -0.014999981670865057 0.0051335644828767926 0 -0.015525649948909931 0.0054581616155365779 0 -0.014999934008717452 0.0020840396369389376 0 -0.015464493673869631 0.0023817331776295014 0 -0.015444103087800627 0.001702641033862827 0 -0.015464493673869631 0.0023817331776295014 0 -0.015931364369130237 0.0020168539742868494 0 -0.015444103087800627 0.001702641033862827 0 -0.015464493673869631 0.0023817331776295014 0 -0.015835982662995969 0.0025544658492024533 0 -0.015931364369130237 0.0020168539742868494 0 -0.015464493673869631 0.0023817331776295014 0 -0.015563146698992938 0.0029821933350527717 0 -0.015835982662995969 0.0025544658492024533 0 -0.015464493673869631 0.0023817331776295014 0 -0.014999943289363212 0.0029245332576962719 0 -0.015563146698992938 0.0029821933350527717 0 -0.014999934008717452 0.0020840396369389376 0 -0.015464493673869631 0.0023817331776295014 0 -0.014999943289363212 0.0029245332576962719 0 -0.014999943289363212 0.0029245332576962719 0 -0.015459012866104412 0.0035626770020966876 0 -0.015563146698992938 0.0029821933350527717 0 -0.014999974120900579 0.0037649824951883522 0 -0.014999943289363212 0.0029245332576962719 0 -0.015459012866104412 0.0035626770020966876 0 -0.015246261912241627 0.0035779785986741228 0 -0.01584035325462874 0.0032547447027386728 0 -0.015707801187775729 0.0036807469305399649 0 -0.015354368522841062 0.0035688088239446579 0 -0.015537919333169278 0.0030439946175752405 0 -0.01540479890891727 0.0039946506787917309 0 -0.015246261912241627 0.0035779785986741228 0 -0.015707801187775729 0.0036807469305399649 0 -0.015246261912241627 0.0035779785986741228 0 -0.015563146698992938 0.0029821933350527717 0 -0.01584035325462874 0.0032547447027386728 0 -0.015563146698992938 0.0029821933350527717 0 -0.016011861066334159 0.002906088454224558 0 -0.01584035325462874 0.0032547447027386728 0 -0.016011861066334159 0.002906088454224558 0 -0.01584035325462874 0.0032547447027386728 0 -0.016207870451450147 0.0032385335579367576 0 -0.01584035325462874 0.0032547447027386728 0 -0.016100409326745765 0.003536211030812194 0 -0.015707801187775729 0.0036807469305399649 0 -0.01584035325462874 0.0032547447027386728 0 -0.016100409326745765 0.003536211030812194 0 -0.016207870451450147 0.0032385335579367576 0 -0.015945617635726852 0.0038251714701636242 0 -0.016100409326745765 0.003536211030812194 0 -0.015707801187775729 0.0036807469305399649 0 -0.016609646006988717 0.0037812764738261611 0 -0.016384604650528958 0.0035756687109949371 0 -0.016726057510612392 0.0035662504393455274 0 -0.016213141078205807 0.0040030406324127752 0 -0.016100409326745765 0.003536211030812194 0 -0.016384604650528958 0.0035756687109949371 0 -0.016384604650528958 0.0035756687109949371 0 -0.016490415960500295 0.0033158204378633113 0 -0.016207870451450147 0.0032385335579367576 0 -0.016100409326745765 0.003536211030812194 0 -0.016384604650528958 0.0035756687109949371 0 -0.016207870451450147 0.0032385335579367576 0 -0.016384604650528958 0.0035756687109949371 0 -0.016490415960500295 0.0033158204378633113 0 -0.016726057510612392 0.0035662504393455274 0 -0.016490415960500295 0.0033158204378633113 0 -0.016411710997312163 0.0029575623362125369 0 -0.016622737133719059 0.0031540458502745264 0 -0.016490415960500295 0.0033158204378633113 0 -0.016207870451450147 0.0032385335579367576 0 -0.016411710997312163 0.0029575623362125369 0 -0.016011861066334159 0.002906088454224558 0 -0.016207870451450147 0.0032385335579367576 0 -0.016411710997312163 0.0029575623362125369 0 -0.016199944592115597 0.0024976123781950462 0 -0.016430029636093847 0.0021439058010996703 0 -0.016576749629347444 0.0026606176421326132 0 -0.016411710997312163 0.0029575623362125369 0 -0.016199944592115597 0.0024976123781950462 0 -0.016576749629347444 0.0026606176421326132 0 -0.016011861066334159 0.002906088454224558 0 -0.016411710997312163 0.0029575623362125369 0 -0.016199944592115597 0.0024976123781950462 0 -0.016011861066334159 0.002906088454224558 0 -0.016199944592115597 0.0024976123781950462 0 -0.015835982662995969 0.0025544658492024533 0 -0.015563146698992938 0.0029821933350527717 0 -0.016011861066334159 0.002906088454224558 0 -0.015835982662995969 0.0025544658492024533 0 -0.016199944592115597 0.0024976123781950462 0 -0.015835982662995969 0.0025544658492024533 0 -0.015931364369130237 0.0020168539742868494 0 -0.016199944592115597 0.0024976123781950462 0 -0.015931364369130237 0.0020168539742868494 0 -0.016430029636093847 0.0021439058010996703 0 -0.016430029636093847 0.0021439058010996703 0 -0.016922207022728813 0.0025158643610787321 0 -0.016576749629347444 0.0026606176421326132 0 -0.016430029636093847 0.0021439058010996703 0 -0.016922207022728813 0.0025158643610787321 0 -0.016844923862192242 0.0019248468492501863 0 -0.016922207022728813 0.0025158643610787321 0 -0.017260138866975389 0.0024131007623248357 0 -0.016844923862192242 0.0019248468492501863 0 -0.014864836936880389 0.00044945555229571608 0 -0.014883380936614522 0.00045028167810645279 0 -0.014885527923332337 0.00045106379549282333 0 -0.014704632387052087 0.00036046152788389606 0 -0.013771816548338089 -0.00028724079838332974 0 -0.012763228936955471 -0.0009897789430021646 0 -0.01268734448918035 -0.00075350451475405958 0 -0.013022916623755099 -0.00069513421028518426 0 -0.014704632387052087 0.00036046152788389606 0 -0.016162810093680428 0.001425086501093195 0 -0.016922207022728813 0.0025158643610787321 0 -0.017118527101589048 0.0026271201050581824 0 -0.016821355604394992 0.0027902316159937432 0 -0.016922207022728813 0.0025158643610787321 0 -0.017118527101589048 0.0026271201050581824 0 -0.017260138866975389 0.0024131007623248357 0 -0.017118527101589048 0.0026271201050581824 0 -0.016987046087907184 0.002941389051568388 0 -0.017241611827285942 0.0028295154315548807 0 -0.017118527101589048 0.0026271201050581824 0 -0.016821355604394992 0.0027902316159937432 0 -0.016987046087907184 0.002941389051568388 0 -0.016922207022728813 0.0025158643610787321 0 -0.016821355604394992 0.0027902316159937432 0 -0.016576749629347444 0.0026606176421326132 0 -0.016821355604394992 0.0027902316159937432 0 -0.016576749629347444 0.0026606176421326132 0 -0.016758976579594752 0.0030033384738789247 0 -0.016411710997312163 0.0029575623362125369 0 -0.016576749629347444 0.0026606176421326132 0 -0.016758976579594752 0.0030033384738789247 0 -0.016411710997312163 0.0029575623362125369 0 -0.016758976579594752 0.0030033384738789247 0 -0.016622737133719059 0.0031540458502745264 0 -0.016821355604394992 0.0027902316159937432 0 -0.016758976579594752 0.0030033384738789247 0 -0.016987046087907184 0.002941389051568388 0 -0.016758976579594752 0.0030033384738789247 0 -0.01685093677206034 0.0032247006751782051 0 -0.016932220952362093 0.0031639941925519482 0 -0.01685093677206034 0.0032247006751782051 0 -0.016966700101402315 0.0032676458568776444 0 -0.016932220952362093 0.0031639941925519482 0 -0.016758976579594752 0.0030033384738789247 0 -0.01685093677206034 0.0032247006751782051 0 -0.016622737133719059 0.0031540458502745264 0 -0.01685093677206034 0.0032247006751782051 0 -0.016622737133719059 0.0031540458502745264 0 -0.016699012809689488 0.0033318822674418221 0 -0.016490415960500295 0.0033158204378633113 0 -0.016622737133719059 0.0031540458502745264 0 -0.016699012809689488 0.0033318822674418221 0 -0.016490415960500295 0.0033158204378633113 0 -0.016699012809689488 0.0033318822674418221 0 -0.016726057510612392 0.0035662504393455274 0 -0.016699012809689488 0.0033318822674418221 0 -0.016810143171825807 0.0033456513682395021 0 -0.016726057510612392 0.0035662504393455274 0 -0.016810143171825807 0.0033456513682395021 0 -0.016896205140539997 0.003444227359712314 0 -0.016726057510612392 0.0035662504393455274 0 -0.01685093677206034 0.0032247006751782051 0 -0.016699012809689488 0.0033318822674418221 0 -0.016810143171825807 0.0033456513682395021 0 -0.01685093677206034 0.0032247006751782051 0 -0.016810143171825807 0.0033456513682395021 0 -0.016930642455852178 0.003326782577922357 0 -0.01685093677206034 0.0032247006751782051 0 -0.016930642455852178 0.003326782577922357 0 -0.016966700101402315 0.0032676458568776444 0 -0.016930642455852178 0.003326782577922357 0 -0.017077086447362052 0.003328359696536996 0 -0.016966700101402315 0.0032676458568776444 0 -0.016930642455852178 0.003326782577922357 0 -0.016990086558894384 0.0034913256033396911 0 -0.017077086447362052 0.003328359696536996 0 -0.016686273032088982 0.004095997205454241 0 -0.016925886619832811 0.0036758928520337821 0 -0.016930642455852178 0.003326782577922357 0 -0.016896205140539997 0.003444227359712314 0 -0.016990086558894384 0.0034913256033396911 0 -0.016698172835474975 0.004011177687381115 0 -0.016686273032088982 0.004095997205454241 0 -0.016810143171825807 0.0033456513682395021 0 -0.016930642455852178 0.003326782577922357 0 -0.016896205140539997 0.003444227359712314 0 -0.016896205140539997 0.003444227359712314 0 -0.016998460995106469 0.0034960278055596564 0 -0.016726057510612392 0.0035662504393455274 0 -0.016609646006988717 0.0037812764738261611 0 -0.016998460995106469 0.0034960278055596564 0 -0.016726057510612392 0.0035662504393455274 0 -0.01590940354791329 0.0024464496662537239 0 -0.017267740688632578 0.0032181675123618496 0 -0.016773824850633775 0.0033657595693593586 0 -0.016127655344124824 0.0041259967823305066 0 -0.016686273032088982 0.004095997205454241 0 -0.017267740688632578 0.0032181675123618496 0 -0.017077086447362052 0.003328359696536996 0 -0.016773824850633775 0.0033657595693593586 0 -0.017077086447362052 0.003328359696536996 0 -0.016927843080799688 0.0033108103581990715 0 -0.016773824850633775 0.0033657595693593586 0 -0.017077086447362052 0.003328359696536996 0 -0.016927843080799688 0.0033108103581990715 0 -0.016966700101402315 0.0032676458568776444 0 -0.016927843080799688 0.0033108103581990715 0 -0.016773824850633775 0.0033657595693593586 0 -0.017025026247502174 0.003162132519870756 0 -0.016773824850633775 0.0033657595693593586 0 -0.017025026247502174 0.003162132519870756 0 -0.017320766005922545 0.0031513726497766413 0 -0.017025026247502174 0.003162132519870756 0 -0.016932220952362093 0.0031639941925519482 0 -0.016987046087907184 0.002941389051568388 0 -0.016927843080799688 0.0033108103581990715 0 -0.017025026247502174 0.003162132519870756 0 -0.016932220952362093 0.0031639941925519482 0 -0.016927843080799688 0.0033108103581990715 0 -0.016966700101402315 0.0032676458568776444 0 -0.016932220952362093 0.0031639941925519482 0 -0.016758976579594752 0.0030033384738789247 0 -0.016932220952362093 0.0031639941925519482 0 -0.016987046087907184 0.002941389051568388 0 -0.017025026247502174 0.003162132519870756 0 -0.016987046087907184 0.002941389051568388 0 -0.017241611827285942 0.0028295154315548807 0 -0.017320766005922545 0.0031513726497766413 0 -0.017601893301059122 0.0028866219429418668 0 -0.017241611827285942 0.0028295154315548807 0 -0.017025026247502174 0.003162132519870756 0 -0.017320766005922545 0.0031513726497766413 0 -0.017241611827285942 0.0028295154315548807 0 -0.01594879119080295 0.0041943199292408858 0 -0.015121403852957065 0.004611584669874041 0 -0.015065938850103331 0.0049123109588768308 0 -0.016565878634370861 0.0035296284198677681 0 -0.014045136592579026 0.0013876204643739165 0 -0.01594879119080295 0.0041943199292408858 0 -0.015763141589483207 0.0033405458500490167 0 -0.015310991008492283 0.0040959454154389143 0 -0.01594879119080295 0.0041943199292408858 0 -0.015310991008492283 0.0040959454154389143 0 -0.015121403852957065 0.004611584669874041 0 -0.016766720780262187 0.0034319022486105125 0 -0.016565878634370861 0.0035296284198677681 0 -0.014549303915658798 0.002721091266578829 0 -0.01590940354791329 0.0024464496662537239 0 -0.015763141589483207 0.0033405458500490167 0 -0.016773824850633775 0.0033657595693593586 0 -0.01594879119080295 0.0041943199292408858 0 -0.015763141589483207 0.0033405458500490167 0 -0.01590940354791329 0.0024464496662537239 0 -0.016773824850633775 0.0033657595693593586 0 -0.015763141589483207 0.0033405458500490167 0 -0.014549303915658798 0.002721091266578829 0 -0.015763141589483207 0.0033405458500490167 0 -0.014927283985748122 0.0036922487881316779 0 -0.015763141589483207 0.0033405458500490167 0 -0.014927283985748122 0.0036922487881316779 0 -0.015310991008492283 0.0040959454154389143 0 -0.014549303915658798 0.002721091266578829 0 -0.014927283985748122 0.0036922487881316779 0 -0.014027386298082858 0.0038062311486417458 0 -0.011646991128697885 -0.00055759419639754386 0 -0.011648923352598428 -0.00055451912426824268 0 -0.011633623181995316 -0.00058004132826629891 0 -0.013753522878401921 0.0030443422259723621 0 -0.014524596415412495 0.0043503613634152914 0 -0.014927283985748122 0.0036922487881316779 0 -0.014813317222053373 0.0046179962386082695 0 -0.014027386298082858 0.0038062311486417458 0 -0.014927283985748122 0.0036922487881316779 0 -0.015310991008492283 0.0040959454154389143 0 -0.014813317222053373 0.0046179962386082695 0 -0.015310991008492283 0.0040959454154389143 0 -0.015121403852957065 0.004611584669874041 0 -0.014813317222053373 0.0046179962386082695 0 -0.014394260439440514 0.0033136750873116495 0 -0.013753522878401921 0.0030443422259723621 0 -0.013753522878401921 0.0030443422259723621 0 -0.014045136592579026 0.0013876204643739165 0 -0.015121403852957065 0.004611584669874041 0 -0.014794011717389477 0.0046024182513020786 0 -0.015065938850103331 0.0049123109588768308 0 -0.01249579657654399 -0.0013148662734999942 0 -0.012608935967316253 -0.0011255523330318421 0 -0.012412264841687844 -0.0010170060161989931 0 -0.014045136592579026 0.0013876204643739165 0 -0.011559773210166794 -0.0011525891086176844 0 -0.01249579657654399 -0.0013148662734999942 0 -0.012412264841687844 -0.0010170060161989931 0 -0.012083838301148054 -0.0010309820087694012 0 -0.017118527101589048 0.0026271201050581824 0 -0.017241611827285942 0.0028295154315548807 0 -0.017260138866975389 0.0024131007623248357 0 -0.01249579657654399 -0.0013148662734999942 0 -0.012608935967316253 -0.0011255523330318421 0 -0.012825913736471 -0.00096123031077575917 0 -0.017601893301059122 0.0028866219429418668 0 -0.017241611827285942 0.0028295154315548807 0 -0.017260138866975389 0.0024131007623248357 0 -0.014045136592579026 0.0013876204643739165 0 -0.014704632387052087 0.00036046152788389606 0 -0.012197562922768163 -0.0015023972451894429 0 -0.014704632387052087 0.00036046152788389606 0 -0.012608935967316253 -0.0011255523330318421 0 -0.012584490049389977 -0.00094419385338699753 0 -0.012763228936955471 -0.0009897789430021646 0 -0.012584490049389977 -0.00094419385338699753 0 -0.012763228936955471 -0.0009897789430021646 0 -0.01268734448918035 -0.00075350451475405958 0 -0.012584490049389977 -0.00094419385338699753 0 -0.012451501564166564 -0.00082250468366506548 0 -0.01268734448918035 -0.00075350451475405958 0 -0.012451501564166564 -0.00082250468366506548 0 -0.01229059822314376 -0.00085423743241184623 0 -0.012412264841687844 -0.0010170060161989931 0 -0.012584490049389977 -0.00094419385338699753 0 -0.012451501564166564 -0.00082250468366506548 0 -0.012412264841687844 -0.0010170060161989931 0 -0.012608935967316253 -0.0011255523330318421 0 -0.012584490049389977 -0.00094419385338699753 0 -0.012412264841687844 -0.0010170060161989931 0 -0.012342008518133572 -0.00065418159810256031 0 -0.012328185747741105 -0.00046562821216391176 0 -0.012229665987699643 -0.00061523656557519618 0 -0.012494910657535368 -0.00061918587887731084 0 -0.012342008518133572 -0.00065418159810256031 0 -0.012328185747741105 -0.00046562821216391176 0 -0.012451501564166564 -0.00082250468366506548 0 -0.01229059822314376 -0.00085423743241184623 0 -0.012342008518133572 -0.00065418159810256031 0 -0.012451501564166564 -0.00082250468366506548 0 -0.012494910657535368 -0.00061918587887731084 0 -0.012342008518133572 -0.00065418159810256031 0 -0.012451501564166564 -0.00082250468366506548 0 -0.012494910657535368 -0.00061918587887731084 0 -0.01268734448918035 -0.00075350451475405958 0 -0.01268734448918035 -0.00075350451475405958 0 -0.01277984836950201 -0.00056611672638642039 0 -0.012638913493841684 -0.00057423073714374547 0 -0.012494910657535368 -0.00061918587887731084 0 -0.01268734448918035 -0.00075350451475405958 0 -0.012638913493841684 -0.00057423073714374547 0 -0.012494910657535368 -0.00061918587887731084 0 -0.012638913493841684 -0.00057423073714374547 0 -0.012520765238418391 -0.00044148453032190978 0 -0.01268980035228911 -0.0004491220720550203 0 -0.012623632648232774 -0.00027626237717783729 0 -0.012888269362273976 -0.0003885944546141911 0 -0.012638913493841684 -0.00057423073714374547 0 -0.01268980035228911 -0.0004491220720550203 0 -0.012520765238418391 -0.00044148453032190978 0 -0.01277984836950201 -0.00056611672638642039 0 -0.01268980035228911 -0.0004491220720550203 0 -0.012888269362273976 -0.0003885944546141911 0 -0.01277984836950201 -0.00056611672638642039 0 -0.012638913493841684 -0.00057423073714374547 0 -0.01268980035228911 -0.0004491220720550203 0 -0.01268980035228911 -0.0004491220720550203 0 -0.012520765238418391 -0.00044148453032190978 0 -0.012623632648232774 -0.00027626237717783729 0 -0.012520765238418391 -0.00044148453032190978 0 -0.012328185747741105 -0.00046562821216391176 0 -0.01240213542313724 -0.00028905442296909054 0 -0.012520765238418391 -0.00044148453032190978 0 -0.01240213542313724 -0.00028905442296909054 0 -0.012623632648232774 -0.00027626237717783729 0 -0.012494910657535368 -0.00061918587887731084 0 -0.012520765238418391 -0.00044148453032190978 0 -0.012328185747741105 -0.00046562821216391176 0 -0.012372067227748024 -0.00017072698593043588 0 -0.01259901616211124 -6.5149004997417474e-05 0 -0.012280273350113948 -6.8515926661956821e-05 0 -0.01240213542313724 -0.00028905442296909054 0 -0.012531204220958939 -0.00018984478134084629 0 -0.012623632648232774 -0.00027626237717783729 0 -0.01240213542313724 -0.00028905442296909054 0 -0.012531204220958939 -0.00018984478134084629 0 -0.012372067227748024 -0.00017072698593043588 0 -0.012531204220958939 -0.00018984478134084629 0 -0.012372067227748024 -0.00017072698593043588 0 -0.01259901616211124 -6.5149004997417474e-05 0 -0.011810413927996737 -0.0015034430941312975 0 -0.011778240884100243 -0.001432412711180742 0 -0.011784673597026975 -0.0014433298363125285 0 -0.012367656974583682 -0.000880480337791158 0 -0.011996826374828157 -0.0012013344776863684 0 -0.011805248310872795 -0.0016862574649702785 0 -0.011996826374828157 -0.0012013344776863684 0 -0.011915131547600329 -0.0017543108992010969 0 -0.011982188276155232 -0.0018009005403431025 0 -0.011822394739871759 -0.001803370908410364 0 -0.011883379587174838 -0.0017029542894292748 0 -0.011915131547600329 -0.0017543108992010969 0 -0.011822394739871759 -0.001803370908410364 0 -0.011975137889248064 -0.0017077452302812245 0 -0.011982188276155232 -0.0018009005403431025 0 -0.012029041996418572 -0.0017390133522373992 0 -0.012702848888707147 -4.0552319575156987e-05 0 -0.01259901616211124 -6.5149004997417474e-05 0 -0.012280273350113948 -6.8515926661956821e-05 0 -0.011975137889248064 -0.0017077452302812245 0 -0.011915131547600329 -0.0017543108992010969 0 -0.011982188276155232 -0.0018009005403431025 0 -0.01259901616211124 -6.5149004997417474e-05 0 -0.012638054825572814 -0.00017567928383536652 0 -0.012802647912189177 -0.00017306743979715234 0 -0.012623632648232774 -0.00027626237717783729 0 -0.012802647912189177 -0.00017306743979715234 0 -0.012888269362273976 -0.0003885944546141911 0 -0.012531204220958939 -0.00018984478134084629 0 -0.01259901616211124 -6.5149004997417474e-05 0 -0.012638054825572814 -0.00017567928383536652 0 -0.012531204220958939 -0.00018984478134084629 0 -0.012638054825572814 -0.00017567928383536652 0 -0.012623632648232774 -0.00027626237717783729 0 -0.012638054825572814 -0.00017567928383536652 0 -0.012623632648232774 -0.00027626237717783729 0 -0.012802647912189177 -0.00017306743979715234 0 -0.012985269370649376 -0.00022744749823812871 0 -0.012802647912189177 -0.00017306743979715234 0 -0.013088061681850323 -4.5746396184223827e-05 0 -0.012985269370649376 -0.00022744749823812871 0 -0.012802647912189177 -0.00017306743979715234 0 -0.012888269362273976 -0.0003885944546141911 0 -0.012670801503270485 -6.0484885877721527e-05 0 -0.012928742971998112 -0.00010625820550925118 0 -0.01259901616211124 -6.5149004997417474e-05 0 -0.012802647912189177 -0.00017306743979715234 0 -0.013088061681850323 -4.5746396184223827e-05 0 -0.011982188276155232 -0.0018009005403431025 0 -0.012092453744959188 -0.001753211147289786 0 -0.012029041996418572 -0.0017390133522373992 0 -0.011982188276155232 -0.0018009005403431025 0 -0.012092453744959188 -0.001753211147289786 0 -0.012167671440463972 -0.0017914017571796506 0 -0.012702848888707147 -4.0552319575156987e-05 0 -0.01259901616211124 -6.5149004997417474e-05 0 -0.012989587975276575 -0.00012045370075461614 0 -0.012702848888707147 -4.0552319575156987e-05 0 -0.013093739125241498 -4.9520358254903831e-05 0 -0.012989587975276575 -0.00012045370075461614 0 -0.012367656974583682 -0.000880480337791158 0 -0.012574686614976543 -0.00094565587934046437 0 -0.013093739125241498 -4.9520358254903831e-05 0 -0.012989587975276575 -0.00012045370075461614 0 -0.013271306997287161 -7.6403229154379032e-05 0 -0.012155054485088648 -0.0017076957993518802 0 -0.012167671440463972 -0.0017914017571796506 0 -0.012241975921281923 -0.0017368750110116817 0 -0.012155054485088648 -0.0017076957993518802 0 -0.012092453744959188 -0.001753211147289786 0 -0.012167671440463972 -0.0017914017571796506 0 -0.012985269370649376 -0.00022744749823812871 0 -0.013190018271315928 -0.00022222974759494681 0 -0.013299796261316808 -0.00038976253747664277 0 -0.013088061681850323 -4.5746396184223827e-05 0 -0.013190018271315928 -0.00022222974759494681 0 -0.013589528525399963 -6.2562758118014236e-05 0 -0.012985269370649376 -0.00022744749823812871 0 -0.013088061681850323 -4.5746396184223827e-05 0 -0.013190018271315928 -0.00022222974759494681 0 -0.014877207573261723 0.00042857382783476533 0 -0.014885527923332337 0.00045106379549282333 0 -0.014870902727275828 0.00043298816303830934 0 -0.013299796261316808 -0.00038976253747664277 0 -0.012888269362273976 -0.0003885944546141911 0 -0.013022916623755099 -0.00069513421028518426 0 -0.012985269370649376 -0.00022744749823812871 0 -0.013299796261316808 -0.00038976253747664277 0 -0.012888269362273976 -0.0003885944546141911 0 -0.014173609506488119 8.8468139208195881e-05 0 -0.013771816548338089 -0.00028724079838332974 0 -0.01277984836950201 -0.00056611672638642039 0 -0.012888269362273976 -0.0003885944546141911 0 -0.013022916623755099 -0.00069513421028518426 0 -0.01268734448918035 -0.00075350451475405958 0 -0.01277984836950201 -0.00056611672638642039 0 -0.013022916623755099 -0.00069513421028518426 0 -0.014877207573261723 0.00042857382783476533 0 -0.014883380936614522 0.00045028167810645279 0 -0.014885527923332337 0.00045106379549282333 0 -0.016162810093680428 0.001425086501093195 0 -0.015533390627681559 0.00088076630470609169 0 -0.016430029636093847 0.0021439058010996703 0 -0.016844923862192242 0.0019248468492501863 0 -0.01635224342485115 0.0014005315046533744 0 -0.015931364369130237 0.0020168539742868494 0 -0.016430029636093847 0.0021439058010996703 0 -0.01635224342485115 0.0014005315046533744 0 -0.015931364369130237 0.0020168539742868494 0 -0.015790870484415884 0.0014260666558365267 0 -0.01635224342485115 0.0014005315046533744 0 -0.015790870484415884 0.0014260666558365267 0 -0.01635224342485115 0.0014005315046533744 0 -0.015824887018991523 0.00090847976566222331 0 -0.015533390627681559 0.00088076630470609169 0 -0.015423927494597259 0.0005336204946657341 0 -0.014877207573261723 0.00042857382783476533 0 -0.014870902727275828 0.00043298816303830934 0 -0.014859333134607484 0.00040414547639001941 0 -0.014870902727275828 0.00043298816303830934 0 -0.014859333134607484 0.00040414547639001941 0 -0.014854703119102726 0.00040464020073597846 0 -0.014173609506488119 8.8468139208195881e-05 0 -0.013926017498289242 6.7112104465555893e-05 0 -0.013190018271315928 -0.00022222974759494681 0 -0.013299796261316808 -0.00038976253747664277 0 -0.013589528525399963 -6.2562758118014236e-05 0 -0.012928742971998112 -0.00010625820550925118 0 -0.013926017498289242 6.7112104465555893e-05 0 -0.012167671440463972 -0.0017914017571796506 0 -0.012241975921281923 -0.0017368750110116817 0 -0.012339562820261907 -0.0017692616493360047 0 -0.012989587975276575 -0.00012045370075461614 0 -0.013356206466940452 -0.00015693363603710905 0 -0.013271306997287161 -7.6403229154379032e-05 0 -0.013093739125241498 -4.9520358254903831e-05 0 -0.013271306997287161 -7.6403229154379032e-05 0 -0.013463027094877327 -3.6096844514189796e-05 0 -0.012574686614976543 -0.00094565587934046437 0 -0.013117041214589779 -0.00077001245602081989 0 -0.013366482598043086 4.9675369680040087e-05 0 -0.013881409433510043 -2.4570968020327457e-05 0 -0.013356206466940452 -0.00015693363603710905 0 -0.013271306997287161 -7.6403229154379032e-05 0 -0.013376294391171595 -0.00013403582331378205 0 -0.01230073934708345 -0.0017175935817197554 0 -0.012386964857435482 -0.0017093254476908035 0 -0.012339562820261907 -0.0017692616493360047 0 -0.01230073934708345 -0.0017175935817197554 0 -0.012241975921281923 -0.0017368750110116817 0 -0.012339562820261907 -0.0017692616493360047 0 -0.014174679625525245 -0.0006852556607182328 0 -0.014333604329059065 -0.00042010572331438022 0 -0.014170435558603802 -0.00041278146881061552 0 -0.014174679625525245 -0.0006852556607182328 0 -0.014288826374426408 -0.0005481293947859168 0 -0.014333604329059065 -0.00042010572331438022 0 -0.013202839610154388 -0.0012226945690689739 0 -0.013117041214589779 -0.00077001245602081989 0 -0.013117041214589779 -0.00077001245602081989 0 -0.013881409433510043 -2.4570968020327457e-05 0 -0.014288826374426408 -0.0005481293947859168 0 -0.014375514840136864 -0.00044345610943414908 0 -0.014333604329059065 -0.00042010572331438022 0 -0.013271306997287161 -7.6403229154379032e-05 0 -0.013463027094877327 -3.6096844514189796e-05 0 -0.013372642794476083 -0.00013572355680587506 0 -0.015423927494597259 0.0005336204946657341 0 -0.014393826785781764 7.8918448284019164e-05 0 -0.014393826785781764 7.8918448284019164e-05 0 -0.015249694619183974 0.00025176988971326904 0 -0.015085894042772602 5.9679488245000672e-05 0 -0.014647713661544952 0.0002987435502691586 0 -0.015337294549840024 0.00026606256805394564 0 -0.014870902727275828 0.00043298816303830934 0 -0.014847513262635594 0.00041097902848909196 0 -0.014854703119102726 0.00040464020073597846 0 -0.013922750785739254 7.1886667262014328e-05 0 -0.014000662593862212 0.00016227980625720435 0 -0.014189455695157203 5.8918964374623249e-05 0 -0.013926017498289242 6.7112104465555893e-05 0 -0.014393826785781764 7.8918448284019164e-05 0 -0.013926017498289242 6.7112104465555893e-05 0 -0.013881409433510043 -2.4570968020327457e-05 0 -0.013881409433510043 -2.4570968020327457e-05 0 -0.014393826785781764 7.8918448284019164e-05 0 -0.015423927494597259 0.0005336204946657341 0 -0.015487504411666098 0.0010249089117558171 0 -0.01594433161643781 0.00070021038078676057 0 -0.015799748680952626 0.00058027292820325455 0 -0.01547821332446747 0.00096377323949652929 0 -0.015423927494597259 0.0005336204946657341 0 -0.015249694619183974 0.00025176988971326904 0 -0.014174679625525245 -0.0006852556607182328 0 -0.014170435558603802 -0.00041278146881061552 0 -0.01400515159970314 -0.00055203623610789322 0 -0.015249694619183974 0.00025176988971326904 0 -0.01463902592002477 -0.00020834705986119828 0 -0.014992001127572258 -0.00011431978912148356 0 -0.015397390902400295 0.00023143502043239695 0 -0.014999960903967257 0.00061036248285114929 0 -0.01465656851935793 -0.00049841379238232909 0 -0.01463902592002477 -0.00020834705986119828 0 -0.015249694619183974 0.00025176988971326904 0 -0.015001026619135297 0.00061056021507111197 0 -0.015782736492022196 0.0005500129948309894 0 -0.015397390902400295 0.00023143502043239695 0 -0.014999960903967257 0.00061036248285114929 0 -0.015799748680952626 0.00058027292820325455 0 -0.014999995437377926 0.00061045503912501636 0 -0.01547821332446747 0.00096377323949652929 0 -0.014999995437377926 0.00061045503912501636 0 -0.014999991550180751 0.0012434967820177398 0 -0.01547821332446747 0.00096377323949652929 0 -0.014999969289928524 0.0012438761511595214 0 -0.015411448161073546 0.0011123122952784489 0 -0.015444103087800627 0.001702641033862827 0 -0.015000061445097803 0.0012435241983631351 0 -0.015487504411666098 0.0010249089117558171 0 -0.015790870484415884 0.0014260666558365267 0 -0.015824887018991523 0.00090847976566222331 0 -0.015411448161073546 0.0011123122952784489 0 -0.015790870484415884 0.0014260666558365267 0 -0.015411448161073546 0.0011123122952784489 0 -0.015444103087800627 0.001702641033862827 0 -0.015931364369130237 0.0020168539742868494 0 -0.015790870484415884 0.0014260666558365267 0 -0.015444103087800627 0.001702641033862827 0 -0.014999934008717452 0.0020840396369389376 0 -0.014999969289928524 0.0012438761511595214 0 -0.015444103087800627 0.001702641033862827 0 -0.011622337617587455 -0.0004502711779869897 0 -0.011268689007152922 -0.00053430669568923822 0 -0.011732542714385336 -0.00064462831106606197 0 -0.011622337617587455 -0.0004502711779869897 0 -0.011781908872546997 -0.00066426601976220842 0 -0.01205844475517634 -0.00065381694905787535 0 -0.011622337617587455 -0.0004502711779869897 0 -0.011268689007152922 -0.00053430669568923822 0 -0.010907940777414525 -0.00031054533597517473 0 -0.011622337617587455 -0.0004502711779869897 0 -0.011677283986770703 -0.00058062594734878208 0 -0.011732542714385336 -0.00064462831106606197 0 -0.011622337617587455 -0.0004502711779869897 0 -0.011677283986770703 -0.00058062594734878208 0 -0.011658441827032004 -0.00062681754048864744 0 -0.011677283986770703 -0.00058062594734878208 0 -0.011732542714385336 -0.00064462831106606197 0 -0.011679532818679899 -0.00060111390521212565 0 -0.011677283986770703 -0.00058062594734878208 0 -0.011658441827032004 -0.00062681754048864744 0 -0.011650440893597893 -0.00065602327292651054 0 -0.011658441827032004 -0.00062681754048864744 0 -0.011649099492294169 -0.00069278724368917414 0 -0.011650440893597893 -0.00065602327292651054 0 -0.011658441827032004 -0.00062681754048864744 0 -0.011649099492294169 -0.00069278724368917414 0 -0.011685653003412082 -0.00074598580855669925 0 -0.011658441827032004 -0.00062681754048864744 0 -0.011759204699079076 -0.0007473622625996715 0 -0.011685653003412082 -0.00074598580855669925 0 -0.011658441827032004 -0.00062681754048864744 0 -0.011759204699079076 -0.0007473622625996715 0 -0.011781908872546997 -0.00066426601976220842 0 -0.011622337617587455 -0.0004502711779869897 0 -0.011658441827032004 -0.00062681754048864744 0 -0.011781908872546997 -0.00066426601976220842 0 -0.011759204699079076 -0.0007473622625996715 0 -0.011781908872546997 -0.00066426601976220842 0 -0.011910745701696347 -0.00081515133347630849 0 -0.01205844475517634 -0.00065381694905787535 0 -0.01213060346463528 -0.00094014435848813974 0 -0.011910745701696347 -0.00081515133347630849 0 -0.011781908872546997 -0.00066426601976220842 0 -0.01205844475517634 -0.00065381694905787535 0 -0.011910745701696347 -0.00081515133347630849 0 -0.010589906844763077 0.00021809652474122148 0 -0.0094797603196341822 0.00049487564807437409 0 -0.0097569927964951848 7.8704057387039355e-06 0 -0.011353481547301772 -0.00032599310782062087 0 -0.010791250199214421 0.00040570128589616103 0 -0.01205844475517634 -0.00065381694905787535 0 -0.01213060346463528 -0.00094014435848813974 0 -0.01229375075609963 -0.00084041787163814609 0 -0.010589906844763077 0.00021809652474122148 0 -0.010390398215910758 -0.0002858439710886904 0 -0.0097569927964951848 7.8704057387039355e-06 0 -0.010390398215910758 -0.0002858439710886904 0 -0.0097569927964951848 7.8704057387039355e-06 0 -0.0097705352501419977 -0.00060221634039418835 0 -0.011576207812301243 -0.00038807271247047237 0 -0.011353481547301772 -0.00032599310782062087 0 -0.011622337617587455 -0.0004502711779869897 0 -0.010589906844763077 0.00021809652474122148 0 -0.010907940777414525 -0.00031054533597517473 0 -0.010589906844763077 0.00021809652474122148 0 -0.010390398215910758 -0.0002858439710886904 0 -0.010907940777414525 -0.00031054533597517473 0 -0.010390398215910758 -0.0002858439710886904 0 -0.010907940777414525 -0.00031054533597517473 0 -0.011002573276102793 -0.0007656568934843144 0 -0.011268689007152922 -0.00053430669568923822 0 -0.010907940777414525 -0.00031054533597517473 0 -0.011002573276102793 -0.0007656568934843144 0 -0.010398854521418649 -0.00055654366617401672 0 -0.010069567465342155 -0.00082751802031369448 0 -0.010539762677291722 -0.0006578449567852915 0 -0.0090898592263404156 0.0013759665332545355 0 -0.009563205794720692 0.001710146417800405 0 -0.010390398215910758 -0.0002858439710886904 0 -0.011002573276102793 -0.0007656568934843144 0 -0.0097705352501419977 -0.00060221634039418835 0 -0.010398854521418649 -0.00055654366617401672 0 -0.010069567465342155 -0.00082751802031369448 0 -0.0097705352501419977 -0.00060221634039418835 0 -0.010777919674920197 -0.00080488836749965118 0 -0.0097908614187186029 -0.00057342739392032382 0 -0.0081317129320546896 0.003122635875148268 0 -0.0081464039626354574 0.0035826503990186095 0 -0.0075836395728160373 0.0033929534076934421 0 -0.0090898592263404156 0.0013759665332545355 0 -0.0087302882313595575 0.0011179685444881518 0 -0.0081317129320546896 0.003122635875148268 0 -0.0081464039626354574 0.0035826503990186095 0 -0.0085019957180538109 0.0033928745356687638 0 -0.0086902687291017765 0.0029361379513425561 0 -0.0085019957180538109 0.0033928745356687638 0 -0.008847110731651172 0.0034747335903484232 0 -0.0081464039626354574 0.0035826503990186095 0 -0.0085019957180538109 0.0033928745356687638 0 -0.008748685298949694 0.0038588827459973447 0 -0.0085019957180538109 0.0033928745356687638 0 -0.008847110731651172 0.0034747335903484232 0 -0.008748685298949694 0.0038588827459973447 0 -0.0086902687291017765 0.0029361379513425561 0 -0.0092062187147396671 0.0032339694099848084 0 -0.008847110731651172 0.0034747335903484232 0 -0.0092062187147396671 0.0032339694099848084 0 -0.0091886696142912602 0.003686527061849347 0 -0.008847110731651172 0.0034747335903484232 0 -0.0091886696142912602 0.003686527061849347 0 -0.008847110731651172 0.0034747335903484232 0 -0.008748685298949694 0.0038588827459973447 0 -0.010398854521418649 -0.00055654366617401672 0 -0.010539762677291722 -0.0006578449567852915 0 -0.010999374857553439 -0.00049416658058356472 0 -0.0091886696142912602 0.003686527061849347 0 -0.008748685298949694 0.0038588827459973447 0 -0.0095616357685665843 0.0042939783181396339 0 -0.011268689007152922 -0.00053430669568923822 0 -0.011002573276102793 -0.0007656568934843144 0 -0.011732542714385336 -0.00064462831106606197 0 -0.010777919674920197 -0.00080488836749965118 0 -0.010981926087682857 0.00055299102378587438 0 -0.009563205794720692 0.001710146417800405 0 -0.010981926087682857 0.00055299102378587438 0 -0.0095616357685665843 0.0042939783181396339 0 -0.0097282655999924531 0.0035336585028949213 0 -0.010269285023052216 0.0040580263672887126 0 -0.0091886696142912602 0.003686527061849347 0 -0.0095616357685665843 0.0042939783181396339 0 -0.0097282655999924531 0.0035336585028949213 0 -0.0098415375182479784 0.0028293620588774604 0 -0.0092062187147396671 0.0032339694099848084 0 -0.0097282655999924531 0.0035336585028949213 0 -0.0092062187147396671 0.0032339694099848084 0 -0.0091886696142912602 0.003686527061849347 0 -0.0097282655999924531 0.0035336585028949213 0 -0.0098415375182479784 0.0028293620588774604 0 -0.0097282655999924531 0.0035336585028949213 0 -0.010588655187032028 0.003169947990966497 0 -0.0097282655999924531 0.0035336585028949213 0 -0.010588655187032028 0.003169947990966497 0 -0.010269285023052216 0.0040580263672887126 0 -0.010588655187032028 0.003169947990966497 0 -0.011076647770903687 0.0037599752698166469 0 -0.010269285023052216 0.0040580263672887126 0 -0.011503174658593115 0.0029263698973501892 0 -0.010588655187032028 0.003169947990966497 0 -0.011076647770903687 0.0037599752698166469 0 -0.011503174658593115 0.0029263698973501892 0 -0.011076647770903687 0.0037599752698166469 0 -0.01208998632211764 0.0033729531691777575 0 -0.011076647770903687 0.0037599752698166469 0 -0.01208998632211764 0.0033729531691777575 0 -0.01201277244055696 0.0039474159263777108 0 -0.011076647770903687 0.0037599752698166469 0 -0.011534653405823365 0.0042091150906805362 0 -0.010757400585659077 0.0041205065281642566 0 -0.011534653405823365 0.0042091150906805362 0 -0.011033499230037037 0.0045686264618308705 0 -0.010757400585659077 0.0041205065281642566 0 -0.011658804675700104 -0.00057909241156082483 0 -0.011636213749424159 -0.00057544340310577047 0 -0.011650935271828689 -0.00059103690186040458 0 -0.011534653405823365 0.0042091150906805362 0 -0.011033499230037037 0.0045686264618308705 0 -0.012882400630721959 0.0046909370180491326 0 -0.011076647770903687 0.0037599752698166469 0 -0.011534653405823365 0.0042091150906805362 0 -0.01201277244055696 0.0039474159263777108 0 -0.011658804675700104 -0.00057909241156082483 0 -0.01166083067049601 -0.00058260519615033917 0 -0.011650935271828689 -0.00059103690186040458 0 -0.011644866179279951 -0.00054321244891281117 0 -0.011658804675700104 -0.00057909241156082483 0 -0.01166083067049601 -0.00058260519615033917 0 -0.010981926087682857 0.00055299102378587438 0 -0.011307363024176441 0.0021550057713206391 0 -0.011732542714385336 -0.00064462831106606197 0 -0.01166083067049601 -0.00058260519615033917 0 -0.011679532818679899 -0.00060111390521212565 0 -0.0095616357685665843 0.0042939783181396339 0 -0.011033499230037037 0.0045686264618308705 0 -0.010269285023052216 0.0040580263672887126 0 -0.010981926087682857 0.00055299102378587438 0 -0.011863856296082843 -0.00076290558247269218 0 -0.011076647770903687 0.0037599752698166469 0 -0.010269285023052216 0.0040580263672887126 0 -0.010757400585659077 0.0041205065281642566 0 -0.011033499230037037 0.0045686264618308705 0 -0.010269285023052216 0.0040580263672887126 0 -0.010757400585659077 0.0041205065281642566 0 -0.014027386298082858 0.0038062311486417458 0 -0.012649124480702894 0.0037829720526264951 0 -0.012882528187106501 0.0031271832522807522 0 -0.013529947054403274 0.0025262050110789257 0 -0.014027386298082858 0.0038062311486417458 0 -0.012882528187106501 0.0031271832522807522 0 -0.013529947054403274 0.0025262050110789257 0 -0.014549303915658798 0.002721091266578829 0 -0.014027386298082858 0.0038062311486417458 0 -0.012649124480702894 0.0037829720526264951 0 -0.012882528187106501 0.0031271832522807522 0 -0.01208998632211764 0.0033729531691777575 0 -0.012474649829687911 0.0026644879913637976 0 -0.011503174658593115 0.0029263698973501892 0 -0.01208998632211764 0.0033729531691777575 0 -0.012474649829687911 0.0026644879913637976 0 -0.012882528187106501 0.0031271832522807522 0 -0.01208998632211764 0.0033729531691777575 0 -0.012649124480702894 0.0037829720526264951 0 -0.01208998632211764 0.0033729531691777575 0 -0.01201277244055696 0.0039474159263777108 0 -0.011534653405823365 0.0042091150906805362 0 -0.01201277244055696 0.0039474159263777108 0 -0.012882400630721959 0.0046909370180491326 0 -0.011307363024176441 0.0021550057713206391 0 -0.012157487329622447 0.001923283256403163 0 -0.012649124480702894 0.0037829720526264951 0 -0.01201277244055696 0.0039474159263777108 0 -0.012882400630721959 0.0046909370180491326 0 -0.014027386298082858 0.0038062311486417458 0 -0.012649124480702894 0.0037829720526264951 0 -0.012882400630721959 0.0046909370180491326 0 -0.011646991128697885 -0.00055759419639754386 0 -0.011636213749424159 -0.00057544340310577047 0 -0.011633623181995316 -0.00058004132826629891 0 -0.014794533300501756 0.0046946373597730462 0 -0.014027386298082858 0.0038062311486417458 0 -0.012882400630721959 0.0046909370180491326 0 -0.013753522878401921 0.0030443422259723621 0 -0.012157487329622447 0.001923283256403163 0 -0.011648923352598428 -0.00055451912426824268 0 -0.011633623181995316 -0.00058004132826629891 0 -0.011619757527497582 -0.00061457891971512281 0 -0.011633623181995316 -0.00058004132826629891 0 -0.011637535282650319 -0.00062150899460451312 0 -0.011619757527497582 -0.00061457891971512281 0 -0.011636213749424159 -0.00057544340310577047 0 -0.011637535282650319 -0.00062150899460451312 0 -0.011645404337205595 -0.00060581001704590226 0 -0.011636213749424159 -0.00057544340310577047 0 -0.011645404337205595 -0.00060581001704590226 0 -0.011650935271828689 -0.00059103690186040458 0 -0.011636213749424159 -0.00057544340310577047 0 -0.011633623181995316 -0.00058004132826629891 0 -0.011637535282650319 -0.00062150899460451312 0 -0.011637535282650319 -0.00062150899460451312 0 -0.011619757527497582 -0.00061457891971512281 0 -0.011665951928768513 -0.00071984079822321357 0 -0.011559773210166794 -0.0011525891086176844 0 -0.011761818717390416 -0.00063320109163870532 0 -0.012083838301148054 -0.0010309820087694012 0 -0.011665951928768513 -0.00071984079822321357 0 -0.011952310836373605 -0.00067066476981622407 0 -0.012083838301148054 -0.0010309820087694012 0 -0.012161007324913419 -0.00074529243434406001 0 -0.011952310836373605 -0.00067066476981622407 0 -0.01229059822314376 -0.00085423743241184623 0 -0.012083838301148054 -0.0010309820087694012 0 -0.012161007324913419 -0.00074529243434406001 0 -0.01229059822314376 -0.00085423743241184623 0 -0.012412264841687844 -0.0010170060161989931 0 -0.012083838301148054 -0.0010309820087694012 0 -0.011658385895802238 -0.00062901577792803863 0 -0.011679532818679899 -0.00060111390521212565 0 -0.011653847472051039 -0.00060932023487180603 0 -0.011677283986770703 -0.00058062594734878208 0 -0.011658385895802238 -0.00062901577792803863 0 -0.011650440893597893 -0.00065602327292651054 0 -0.011677283986770703 -0.00058062594734878208 0 -0.011658385895802238 -0.00062901577792803863 0 -0.011679532818679899 -0.00060111390521212565 0 -0.01166083067049601 -0.00058260519615033917 0 -0.011679532818679899 -0.00060111390521212565 0 -0.011653847472051039 -0.00060932023487180603 0 -0.01166083067049601 -0.00058260519615033917 0 -0.011653847472051039 -0.00060932023487180603 0 -0.011650935271828689 -0.00059103690186040458 0 -0.011653847472051039 -0.00060932023487180603 0 -0.011645404337205595 -0.00060581001704590226 0 -0.011650935271828689 -0.00059103690186040458 0 -0.011653847472051039 -0.00060932023487180603 0 -0.011645404337205595 -0.00060581001704590226 0 -0.011650548865089903 -0.00063910188680083241 0 -0.011637535282650319 -0.00062150899460451312 0 -0.011645404337205595 -0.00060581001704590226 0 -0.011650548865089903 -0.00063910188680083241 0 -0.011658385895802238 -0.00062901577792803863 0 -0.011653847472051039 -0.00060932023487180603 0 -0.011650548865089903 -0.00063910188680083241 0 -0.011658385895802238 -0.00062901577792803863 0 -0.011650548865089903 -0.00063910188680083241 0 -0.011644734171367318 -0.00069388411333759189 0 -0.011637535282650319 -0.00062150899460451312 0 -0.01165250142325523 -0.0006697867218695945 0 -0.011665951928768513 -0.00071984079822321357 0 -0.011650548865089903 -0.00063910188680083241 0 -0.01165250142325523 -0.0006697867218695945 0 -0.011644734171367318 -0.00069388411333759189 0 -0.011637535282650319 -0.00062150899460451312 0 -0.011650548865089903 -0.00063910188680083241 0 -0.01165250142325523 -0.0006697867218695945 0 -0.01165250142325523 -0.0006697867218695945 0 -0.011644734171367318 -0.00069388411333759189 0 -0.011665951928768513 -0.00071984079822321357 0 -0.011644734171367318 -0.00069388411333759189 0 -0.011650440893597893 -0.00065602327292651054 0 -0.011632264779236463 -0.00072009412185791526 0 -0.011658385895802238 -0.00062901577792803863 0 -0.011644734171367318 -0.00069388411333759189 0 -0.011650440893597893 -0.00065602327292651054 0 -0.011649099492294169 -0.00069278724368917414 0 -0.011650440893597893 -0.00065602327292651054 0 -0.011632264779236463 -0.00072009412185791526 0 -0.011632264779236463 -0.00072009412185791526 0 -0.011651654073820975 -0.00075971512553347478 0 -0.011626740986791067 -0.00079840193742344889 0 -0.011632264779236463 -0.00072009412185791526 0 -0.011625997937152353 -0.00072573055747203886 0 -0.011626740986791067 -0.00079840193742344889 0 -0.011625997937152353 -0.00072573055747203886 0 -0.011614005405183397 -0.00078513799036169444 0 -0.011626740986791067 -0.00079840193742344889 0 -0.011625997937152353 -0.00072573055747203886 0 -0.011639372977856196 -0.00068992053637806133 0 -0.011614005405183397 -0.00078513799036169444 0 -0.011644734171367318 -0.00069388411333759189 0 -0.011632264779236463 -0.00072009412185791526 0 -0.011625997937152353 -0.00072573055747203886 0 -0.011625997937152353 -0.00072573055747203886 0 -0.011665951928768513 -0.00071984079822321357 0 -0.011639372977856196 -0.00068992053637806133 0 -0.011644734171367318 -0.00069388411333759189 0 -0.011625997937152353 -0.00072573055747203886 0 -0.011665951928768513 -0.00071984079822321357 0 -0.011665951928768513 -0.00071984079822321357 0 -0.011688063432779698 -0.00065275861057426869 0 -0.011639372977856196 -0.00068992053637806133 0 -0.011665951928768513 -0.00071984079822321357 0 -0.011688063432779698 -0.00065275861057426869 0 -0.011781492684615296 -0.00062799820229769449 0 -0.011688063432779698 -0.00065275861057426869 0 -0.011639372977856196 -0.00068992053637806133 0 -0.01165579796758767 -0.00062136295393106172 0 -0.011740007780311215 -0.00086155965829746051 0 -0.011758176060883214 -0.00082883938090045012 0 -0.01157337756004922 -0.00086812581704769022 0 -0.011639372977856196 -0.00068992053637806133 0 -0.01165579796758767 -0.00062136295393106172 0 -0.011614005405183397 -0.00078513799036169444 0 -0.011722199521320689 -0.0011241255023322053 0 -0.011615111826665124 -0.00094764688649545269 0 -0.011740007780311215 -0.00086155965829746051 0 -0.011758176060883214 -0.00082883938090045012 0 -0.01183162086373786 -0.00083417992744838979 0 -0.01165579796758767 -0.00062136295393106172 0 -0.011737464434386953 -0.0006151560057136952 0 -0.011808490289354752 -0.00057459649298840154 0 -0.011688063432779698 -0.00065275861057426869 0 -0.01165579796758767 -0.00062136295393106172 0 -0.011737464434386953 -0.0006151560057136952 0 -0.011725636846745314 -0.0013408281884217481 0 -0.011709985172451098 -0.0013034858168381235 0 -0.011726365583260769 -0.001344678568500063 0 -0.011709985172451098 -0.0013034858168381235 0 -0.011712868832658752 -0.0012670931426249107 0 -0.0117032998289001 -0.0012302322000119889 0 -0.011710176204430062 -0.00073247402519941275 0 -0.011615111826665124 -0.00094764688649545269 0 -0.011725636846745314 -0.0013408281884217481 0 -0.011709985172451098 -0.0013034858168381235 0 -0.0117032998289001 -0.0012302322000119889 0 -0.011712868832658752 -0.0012670931426249107 0 -0.0117032998289001 -0.0012302322000119889 0 -0.011732908988453411 -0.0012103853930173995 0 -0.012229665987699643 -0.00061523656557519618 0 -0.012161007324913419 -0.00074529243434406001 0 -0.012106134519310861 -0.00063056864386158392 0 -0.012342008518133572 -0.00065418159810256031 0 -0.012229665987699643 -0.00061523656557519618 0 -0.012161007324913419 -0.00074529243434406001 0 -0.012229665987699643 -0.00061523656557519618 0 -0.012106134519310861 -0.00063056864386158392 0 -0.012127111149405479 -0.00055620265413691575 0 -0.01229059822314376 -0.00085423743241184623 0 -0.012342008518133572 -0.00065418159810256031 0 -0.012161007324913419 -0.00074529243434406001 0 -0.012161007324913419 -0.00074529243434406001 0 -0.012106134519310861 -0.00063056864386158392 0 -0.011952310836373605 -0.00067066476981622407 0 -0.012106134519310861 -0.00063056864386158392 0 -0.012020444149296663 -0.0005799834573544288 0 -0.011952310836373605 -0.00067066476981622407 0 -0.012106134519310861 -0.00063056864386158392 0 -0.012127111149405479 -0.00055620265413691575 0 -0.012020444149296663 -0.0005799834573544288 0 -0.011665951928768513 -0.00071984079822321357 0 -0.011952310836373605 -0.00067066476981622407 0 -0.011781492684615296 -0.00062799820229769449 0 -0.011886158263977627 -0.00059046203337059886 0 -0.011952310836373605 -0.00067066476981622407 0 -0.011781492684615296 -0.00062799820229769449 0 -0.011886158263977627 -0.00059046203337059886 0 -0.011952310836373605 -0.00067066476981622407 0 -0.011951691753374228 -0.00056251600419641155 0 -0.012020444149296663 -0.0005799834573544288 0 -0.011952310836373605 -0.00067066476981622407 0 -0.011951691753374228 -0.00056251600419641155 0 -0.011886158263977627 -0.00059046203337059886 0 -0.011781492684615296 -0.00062799820229769449 0 -0.011808490289354752 -0.00057459649298840154 0 -0.011688063432779698 -0.00065275861057426869 0 -0.011781492684615296 -0.00062799820229769449 0 -0.011737464434386953 -0.0006151560057136952 0 -0.011781492684615296 -0.00062799820229769449 0 -0.011737464434386953 -0.0006151560057136952 0 -0.011808490289354752 -0.00057459649298840154 0 -0.011740007780311215 -0.00086155965829746051 0 -0.01183162086373786 -0.00083417992744838979 0 -0.011874219570272456 -0.00085077531906574855 0 -0.01165579796758767 -0.00062136295393106172 0 -0.011808490289354752 -0.00057459649298840154 0 -0.011871002054852245 -0.00049096458573463894 0 -0.011710176204430062 -0.00073247402519941275 0 -0.011882486479732517 -0.00063505467396968087 0 -0.011758176060883214 -0.00082883938090045012 0 -0.01183162086373786 -0.00083417992744838979 0 -0.011948828917081608 -0.0007898308330394478 0 -0.011722199521320689 -0.0011241255023322053 0 -0.011947533455510985 -0.00068115596909574909 0 -0.011725636846745314 -0.0013408281884217481 0 -0.011745757463898289 -0.0013605202696073087 0 -0.011753241603975933 -0.0013655861956945836 0 -0.011725636846745314 -0.0013408281884217481 0 -0.011745757463898289 -0.0013605202696073087 0 -0.011748170206873304 -0.0013641477067307833 0 -0.01183162086373786 -0.00083417992744838979 0 -0.011874219570272456 -0.00085077531906574855 0 -0.011948828917081608 -0.0007898308330394478 0 -0.011898245597527009 -0.00084553060993290935 0 -0.011874219570272456 -0.00085077531906574855 0 -0.011948828917081608 -0.0007898308330394478 0 -0.011898245597527009 -0.00084553060993290935 0 -0.011913206306295956 -0.00084768083859926031 0 -0.011948828917081608 -0.0007898308330394478 0 -0.011808490289354752 -0.00057459649298840154 0 -0.011953209797142305 -0.00047008974710706629 0 -0.011904624833432723 -0.00055121193896895046 0 -0.011898245597527009 -0.00084553060993290935 0 -0.011913206306295956 -0.00084768083859926031 0 -0.011874219570272456 -0.00085077531906574855 0 -0.011950234636045004 -0.00057592446819388753 0 -0.011882486479732517 -0.00063505467396968087 0 -0.011808490289354752 -0.00057459649298840154 0 -0.011953209797142305 -0.00047008974710706629 0 -0.011871002054852245 -0.00049096458573463894 0 -0.011886158263977627 -0.00059046203337059886 0 -0.011808490289354752 -0.00057459649298840154 0 -0.011904624833432723 -0.00055121193896895046 0 -0.011886158263977627 -0.00059046203337059886 0 -0.011904624833432723 -0.00055121193896895046 0 -0.011951691753374228 -0.00056251600419641155 0 -0.011953209797142305 -0.00047008974710706629 0 -0.011904624833432723 -0.00055121193896895046 0 -0.011951691753374228 -0.00056251600419641155 0 -0.012020444149296663 -0.0005799834573544288 0 -0.011953209797142305 -0.00047008974710706629 0 -0.011951691753374228 -0.00056251600419641155 0 -0.012328185747741105 -0.00046562821216391176 0 -0.012127111149405479 -0.00055620265413691575 0 -0.011953209797142305 -0.00047008974710706629 0 -0.012328185747741105 -0.00046562821216391176 0 -0.01240213542313724 -0.00028905442296909054 0 -0.012073401734642813 -0.0003485402160296687 0 -0.012328185747741105 -0.00046562821216391176 0 -0.012005842209242588 -0.00045704621686673601 0 -0.012073401734642813 -0.0003485402160296687 0 -0.012309629151989429 -0.00045710009172140358 0 -0.011950234636045004 -0.00057592446819388753 0 -0.012442816007554461 -0.00024968536413576899 0 -0.011947533455510985 -0.00068115596909574909 0 -0.012127111149405479 -0.00055620265413691575 0 -0.012020444149296663 -0.0005799834573544288 0 -0.011953209797142305 -0.00047008974710706629 0 -0.011950234636045004 -0.00057592446819388753 0 -0.011947533455510985 -0.00068115596909574909 0 -0.012328185747741105 -0.00046562821216391176 0 -0.012229665987699643 -0.00061523656557519618 0 -0.012127111149405479 -0.00055620265413691575 0 -0.011753241603975933 -0.0013655861956945836 0 -0.011737702978272271 -0.0013920906942481081 0 -0.01175454106197985 -0.0013733555017363672 0 -0.01240213542313724 -0.00028905442296909054 0 -0.012372067227748024 -0.00017072698593043588 0 -0.012098323248840335 -0.00035302758366960934 0 -0.012372067227748024 -0.00017072698593043588 0 -0.012098323248840335 -0.00035302758366960934 0 -0.012280273350113948 -6.8515926661956821e-05 0 -0.011947533455510985 -0.00068115596909574909 0 -0.011996826374828157 -0.0012013344776863684 0 -0.011996826374828157 -0.0012013344776863684 0 -0.011694904953816015 -0.0013892891505070245 0 -0.011737702978272271 -0.0013920906942481081 0 -0.01176422561096388 -0.0013990442166125151 0 -0.01175454106197985 -0.0013733555017363672 0 -0.01176422561096388 -0.0013990442166125151 0 -0.01175454106197985 -0.0013733555017363672 0 -0.011748170206873304 -0.0013641477067307833 0 -0.011745757463898289 -0.0013605202696073087 0 -0.01175454106197985 -0.0013733555017363672 0 -0.011748170206873304 -0.0013641477067307833 0 -0.011745757463898289 -0.0013605202696073087 0 -0.011753241603975933 -0.0013655861956945836 0 -0.01175454106197985 -0.0013733555017363672 0 -0.01176422561096388 -0.0013990442166125151 0 -0.011748170206873304 -0.0013641477067307833 0 -0.011755699179426505 -0.0013799770076334474 0 -0.011795377283296441 -0.0014630022997803253 0 -0.011775915286245909 -0.0014175941999725304 0 -0.01178233838016784 -0.001415913930649037 0 -0.011755699179426505 -0.0013799770076334474 0 -0.011775915286245909 -0.0014175941999725304 0 -0.01178233838016784 -0.001415913930649037 0 -0.01176422561096388 -0.0013990442166125151 0 -0.011755699179426505 -0.0013799770076334474 0 -0.011775915286245909 -0.0014175941999725304 0 -0.011778240884100243 -0.001432412711180742 0 -0.01176422561096388 -0.0013990442166125151 0 -0.011784673597026975 -0.0014433298363125285 0 -0.01176422561096388 -0.0013990442166125151 0 -0.011775915286245909 -0.0014175941999725304 0 -0.011784673597026975 -0.0014433298363125285 0 -0.011795377283296441 -0.0014630022997803253 0 -0.011775915286245909 -0.0014175941999725304 0 -0.011784673597026975 -0.0014433298363125285 0 -0.011712868832658752 -0.0012670931426249107 0 -0.011701193618852834 -0.0013377439442567316 0 -0.011748509533299561 -0.0013028309155905719 0 -0.011709985172451098 -0.0013034858168381235 0 -0.011712868832658752 -0.0012670931426249107 0 -0.011701193618852834 -0.0013377439442567316 0 -0.011755699179426505 -0.0013799770076334474 0 -0.011701193618852834 -0.0013377439442567316 0 -0.011726365583260769 -0.001344678568500063 0 -0.011709985172451098 -0.0013034858168381235 0 -0.011701193618852834 -0.0013377439442567316 0 -0.011726365583260769 -0.001344678568500063 0 -0.011725636846745314 -0.0013408281884217481 0 -0.011748170206873304 -0.0013641477067307833 0 -0.011726365583260769 -0.001344678568500063 0 -0.011748170206873304 -0.0013641477067307833 0 -0.011755699179426505 -0.0013799770076334474 0 -0.011726365583260769 -0.001344678568500063 0 -0.011706123636349094 -0.0013530621713518721 0 -0.011699489264954581 -0.0014686982873587094 0 -0.011701193618852834 -0.0013377439442567316 0 -0.011616512448471242 -0.0015239217852631214 0 -0.011695456616151552 -0.0014821634929792246 0 -0.011755699179426505 -0.0013799770076334474 0 -0.011701193618852834 -0.0013377439442567316 0 -0.01178233838016784 -0.001415913930649037 0 -0.011779344886088356 -0.0014929971783821734 0 -0.011701193618852834 -0.0013377439442567316 0 -0.011748509533299561 -0.0013028309155905719 0 -0.011779344886088356 -0.0014929971783821734 0 -0.011701193618852834 -0.0013377439442567316 0 -0.011695456616151552 -0.0014821634929792246 0 -0.011779344886088356 -0.0014929971783821734 0 -0.011824979361537995 -0.0013254716721425 0 -0.011748509533299561 -0.0013028309155905719 0 -0.01232478770674739 -0.0045769356847618027 0 -0.01224185721064433 -0.0045777683883491717 0 -0.012867099406362938 -0.0076548026448696651 0 -0.012618495798667643 -0.0076394759375448974 0 -0.012535195468204778 -0.0077854928518136081 0 -0.011779344886088356 -0.0014929971783821734 0 -0.011924013726777391 -0.0013802498224078598 0 -0.011824979361537995 -0.0013254716721425 0 -0.012618495798667643 -0.0076394759375448974 0 -0.012535195468204778 -0.0077854928518136081 0 -0.012474723742206329 -0.0076807906710564585 0 -0.011924013726777391 -0.0013802498224078598 0 -0.011824979361537995 -0.0013254716721425 0 -0.011905046913409972 -0.0012110636346263505 0 -0.011824979361537995 -0.0013254716721425 0 -0.011905046913409972 -0.0012110636346263505 0 -0.011794964242985614 -0.0012031608367536598 0 -0.011824979361537995 -0.0013254716721425 0 -0.011748509533299561 -0.0013028309155905719 0 -0.011794964242985614 -0.0012031608367536598 0 -0.011712868832658752 -0.0012670931426249107 0 -0.011748509533299561 -0.0013028309155905719 0 -0.011732908988453411 -0.0012103853930173995 0 -0.011748509533299561 -0.0013028309155905719 0 -0.011732908988453411 -0.0012103853930173995 0 -0.011794964242985614 -0.0012031608367536598 0 -0.0117032998289001 -0.0012302322000119889 0 -0.011732908988453411 -0.0012103853930173995 0 -0.011762598467836807 -0.0010494762400941524 0 -0.011615111826665124 -0.00094764688649545269 0 -0.011747600552197292 -0.0010545548398931243 0 -0.011388521783355286 -0.00089448485502011598 0 -0.011762598467836807 -0.0010494762400941524 0 -0.011660828499406526 -0.00094232423511238542 0 -0.011615111826665124 -0.00094764688649545269 0 -0.011616792712484406 -0.00091484648767147458 0 -0.011614005405183397 -0.00078513799036169444 0 -0.011660828499406526 -0.00094232423511238542 0 -0.011626740986791067 -0.00079840193742344889 0 -0.011762598467836807 -0.0010494762400941524 0 -0.011802918252202145 -0.00096050254999237869 0 -0.011729023905339316 -0.00091849488785974119 0 -0.011762598467836807 -0.0010494762400941524 0 -0.011660828499406526 -0.00094232423511238542 0 -0.011729023905339316 -0.00091849488785974119 0 -0.011732908988453411 -0.0012103853930173995 0 -0.011762598467836807 -0.0010494762400941524 0 -0.011794964242985614 -0.0012031608367536598 0 -0.011905046913409972 -0.0012110636346263505 0 -0.011794964242985614 -0.0012031608367536598 0 -0.011843941460192749 -0.0011101874658717736 0 -0.011762598467836807 -0.0010494762400941524 0 -0.011794964242985614 -0.0012031608367536598 0 -0.011843941460192749 -0.0011101874658717736 0 -0.011905046913409972 -0.0012110636346263505 0 -0.011843941460192749 -0.0011101874658717736 0 -0.011956986107357287 -0.001026429648329559 0 -0.011843941460192749 -0.0011101874658717736 0 -0.011865204088312731 -0.00099038413569548477 0 -0.011956986107357287 -0.001026429648329559 0 -0.011843941460192749 -0.0011101874658717736 0 -0.011802918252202145 -0.00096050254999237869 0 -0.011865204088312731 -0.00099038413569548477 0 -0.011762598467836807 -0.0010494762400941524 0 -0.011843941460192749 -0.0011101874658717736 0 -0.011802918252202145 -0.00096050254999237869 0 -0.01183438985506439 -0.00086410870059409613 0 -0.011910745701696347 -0.00081515133347630849 0 -0.011956986107357287 -0.001026429648329559 0 -0.011802918252202145 -0.00096050254999237869 0 -0.011865204088312731 -0.00099038413569548477 0 -0.01183438985506439 -0.00086410870059409613 0 -0.011802918252202145 -0.00096050254999237869 0 -0.01183438985506439 -0.00086410870059409613 0 -0.011750002839466081 -0.00084812690864404005 0 -0.011802918252202145 -0.00096050254999237869 0 -0.011750002839466081 -0.00084812690864404005 0 -0.011729023905339316 -0.00091849488785974119 0 -0.011865204088312731 -0.00099038413569548477 0 -0.01183438985506439 -0.00086410870059409613 0 -0.011956986107357287 -0.001026429648329559 0 -0.011759204699079076 -0.0007473622625996715 0 -0.01183438985506439 -0.00086410870059409613 0 -0.011910745701696347 -0.00081515133347630849 0 -0.011759204699079076 -0.0007473622625996715 0 -0.01183438985506439 -0.00086410870059409613 0 -0.011750002839466081 -0.00084812690864404005 0 -0.011750002839466081 -0.00084812690864404005 0 -0.011685653003412082 -0.00074598580855669925 0 -0.011677564975197502 -0.0008364363195142475 0 -0.011759204699079076 -0.0007473622625996715 0 -0.011750002839466081 -0.00084812690864404005 0 -0.011685653003412082 -0.00074598580855669925 0 -0.011685653003412082 -0.00074598580855669925 0 -0.011651654073820975 -0.00075971512553347478 0 -0.011677564975197502 -0.0008364363195142475 0 -0.011649099492294169 -0.00069278724368917414 0 -0.011685653003412082 -0.00074598580855669925 0 -0.011651654073820975 -0.00075971512553347478 0 -0.011649099492294169 -0.00069278724368917414 0 -0.011632264779236463 -0.00072009412185791526 0 -0.011651654073820975 -0.00075971512553347478 0 -0.011651654073820975 -0.00075971512553347478 0 -0.011626740986791067 -0.00079840193742344889 0 -0.011677564975197502 -0.0008364363195142475 0 -0.011660828499406526 -0.00094232423511238542 0 -0.011626740986791067 -0.00079840193742344889 0 -0.011677564975197502 -0.0008364363195142475 0 -0.011660828499406526 -0.00094232423511238542 0 -0.011729023905339316 -0.00091849488785974119 0 -0.011677564975197502 -0.0008364363195142475 0 -0.011750002839466081 -0.00084812690864404005 0 -0.011729023905339316 -0.00091849488785974119 0 -0.011677564975197502 -0.0008364363195142475 0 -0.01213060346463528 -0.00094014435848813974 0 -0.011910745701696347 -0.00081515133347630849 0 -0.011956986107357287 -0.001026429648329559 0 -0.011905046913409972 -0.0012110636346263505 0 -0.011956986107357287 -0.001026429648329559 0 -0.01213575961904201 -0.0012205334669974212 0 -0.01213060346463528 -0.00094014435848813974 0 -0.011956986107357287 -0.001026429648329559 0 -0.01213575961904201 -0.0012205334669974212 0 -0.01213060346463528 -0.00094014435848813974 0 -0.01213575961904201 -0.0012205334669974212 0 -0.012326025836165724 -0.0010678189889585651 0 -0.012238669861168476 -0.0079191863426417639 0 -0.012316357691555506 -0.0077311972141730191 0 -0.01209425210631635 -0.0077233940718475979 0 -0.01224185721064433 -0.0045777683883491717 0 -0.012140642760446517 -0.0045813444748513529 0 -0.011924013726777391 -0.0013802498224078598 0 -0.011905046913409972 -0.0012110636346263505 0 -0.01213575961904201 -0.0012205334669974212 0 -0.012535195468204778 -0.0077854928518136081 0 -0.012238669861168476 -0.0079191863426417639 0 -0.012316357691555506 -0.0077311972141730191 0 -0.012535195468204778 -0.0077854928518136081 0 -0.012316357691555506 -0.0077311972141730191 0 -0.012474723742206329 -0.0076807906710564585 0 -0.012430093520896936 -0.0075599499942010625 0 -0.012316357691555506 -0.0077311972141730191 0 -0.012186578047257479 -0.0076522323273025194 0 -0.012430093520896936 -0.0075599499942010625 0 -0.012316357691555506 -0.0077311972141730191 0 -0.012474723742206329 -0.0076807906710564585 0 -0.012430093520896936 -0.0075599499942010625 0 -0.012618495798667643 -0.0076394759375448974 0 -0.012474723742206329 -0.0076807906710564585 0 -0.012044101532642675 -0.0075733318534357717 0 -0.012186578047257479 -0.0076522323273025194 0 -0.01209425210631635 -0.0077233940718475979 0 -0.012316357691555506 -0.0077311972141730191 0 -0.012186578047257479 -0.0076522323273025194 0 -0.01209425210631635 -0.0077233940718475979 0 -0.01209425210631635 -0.0077233940718475979 0 -0.011914629915214676 -0.0076184145776293346 0 -0.011927480002657628 -0.0078398346722454992 0 -0.012044101532642675 -0.0075733318534357717 0 -0.01209425210631635 -0.0077233940718475979 0 -0.011914629915214676 -0.0076184145776293346 0 -0.011914629915214676 -0.0076184145776293346 0 -0.011927480002657628 -0.0078398346722454992 0 -0.011654200428289916 -0.0077064101739109875 0 -0.011683709899656556 -0.007527376661558954 0 -0.011914629915214676 -0.0076184145776293346 0 -0.011654200428289916 -0.0077064101739109875 0 -0.011927480002657628 -0.0078398346722454992 0 -0.011654200428289916 -0.0077064101739109875 0 -0.011557197805527763 -0.0079851977651379247 0 -0.012238669861168476 -0.0079191863426417639 0 -0.01209425210631635 -0.0077233940718475979 0 -0.011927480002657628 -0.0078398346722454992 0 -0.011402410546101263 -0.0075165788865068847 0 -0.011106670004873939 -0.00776748033969182 0 -0.011220025265249386 -0.0072079560502455609 0 -0.011516799494167557 -0.0073847516996944761 0 -0.011402410546101263 -0.0075165788865068847 0 -0.011220025265249386 -0.0072079560502455609 0 -0.011683709899656556 -0.007527376661558954 0 -0.011402410546101263 -0.0075165788865068847 0 -0.011654200428289916 -0.0077064101739109875 0 -0.011516799494167557 -0.0073847516996944761 0 -0.011683709899656556 -0.007527376661558954 0 -0.011402410546101263 -0.0075165788865068847 0 -0.011402410546101263 -0.0075165788865068847 0 -0.011654200428289916 -0.0077064101739109875 0 -0.011557197805527763 -0.0079851977651379247 0 -0.011402410546101263 -0.0075165788865068847 0 -0.011106670004873939 -0.00776748033969182 0 -0.011557197805527763 -0.0079851977651379247 0 -0.011106670004873939 -0.00776748033969182 0 -0.011557197805527763 -0.0079851977651379247 0 -0.011065170220697369 -0.0083693277603378961 0 -0.011557197805527763 -0.0079851977651379247 0 -0.011613866339695069 -0.0084191767169831313 0 -0.011065170220697369 -0.0083693277603378961 0 -0.010731643507757937 -0.0042576346880314423 0 -0.010563206990121808 -0.0087591906468002297 0 -0.009775661990004075 -0.0079572944561261683 0 -0.0098172062310483837 -0.0079514661691187215 0 -0.009842635673069651 -0.0080475698637139017 0 -0.0098172062310483837 -0.0079514661691187215 0 -0.0098554582098509032 -0.0079851489849588359 0 -0.009842635673069651 -0.0080475698637139017 0 -0.012238669861168476 -0.0079191863426417639 0 -0.011927480002657628 -0.0078398346722454992 0 -0.011980134160388213 -0.0081118779622257262 0 -0.012140642760446517 -0.0045813444748513529 0 -0.012389130043846581 -0.0046056238159360328 0 -0.011927480002657628 -0.0078398346722454992 0 -0.011557197805527763 -0.0079851977651379247 0 -0.011980134160388213 -0.0081118779622257262 0 -0.011557197805527763 -0.0079851977651379247 0 -0.011613866339695069 -0.0084191767169831313 0 -0.011980134160388213 -0.0081118779622257262 0 -0.012473292068850717 -0.00097652987183451871 0 -0.012326025836165724 -0.0010678189889585651 0 -0.01229375075609963 -0.00084041787163814609 0 -0.010731643507757937 -0.0042576346880314423 0 -0.012389130043846581 -0.0046056238159360328 0 -0.010731643507757937 -0.0042576346880314423 0 -0.010791250199214421 0.00040570128589616103 0 -0.01213060346463528 -0.00094014435848813974 0 -0.012326025836165724 -0.0010678189889585651 0 -0.01229375075609963 -0.00084041787163814609 0 -0.0097569927964951848 7.8704057387039355e-06 0 -0.0094864323230063104 -0.000270102627147826 0 -0.0097705352501419977 -0.00060221634039418835 0 -0.0094797603196341822 0.00049487564807437409 0 -0.0097569927964951848 7.8704057387039355e-06 0 -0.0090746288646029079 0.0001153961016590854 0 -0.0097569927964951848 7.8704057387039355e-06 0 -0.0094864323230063104 -0.000270102627147826 0 -0.0090746288646029079 0.0001153961016590854 0 -0.0090341399495991077 0.00016281500364006738 0 -0.0091999837351081082 -0.00033920609115272989 0 -0.0090746288646029079 0.0001153961016590854 0 -0.0091192690928913397 0.00030511912101298562 0 -0.0090404763270565333 0.00025957908707469372 0 -0.0090746288646029079 0.0001153961016590854 0 -0.009054648176201472 0.00024888977818855686 0 -0.0088952481726359001 0.00034979864645253193 0 -0.0094864323230063104 -0.000270102627147826 0 -0.0090746288646029079 0.0001153961016590854 0 -0.0093027586251958321 -0.00058759808098565519 0 -0.0090351453347694635 0.00039331074762829392 0 -0.0094797603196341822 0.00049487564807437409 0 -0.0091192690928913397 0.00030511912101298562 0 -0.0094797603196341822 0.00049487564807437409 0 -0.0090746288646029079 0.0001153961016590854 0 -0.0091192690928913397 0.00030511912101298562 0 -0.0090351453347694635 0.00039331074762829392 0 -0.0090404763270565333 0.00025957908707469372 0 -0.0090298210518693668 0.00027319963917435571 0 -0.010731643507757937 -0.0042576346880314423 0 -0.009283920625009821 -0.0038523678332957841 0 -0.0090351453347694635 0.00039331074762829392 0 -0.0091192690928913397 0.00030511912101298562 0 -0.0090404763270565333 0.00025957908707469372 0 -0.0090404763270565333 0.00025957908707469372 0 -0.0090298210518693668 0.00027319963917435571 0 -0.009061259341097385 0.00027735974850166427 0 -0.0090298210518693668 0.00027319963917435571 0 -0.009061259341097385 0.00027735974850166427 0 -0.0090751245653356016 0.00025484614284490618 0 -0.009283920625009821 -0.0038523678332957841 0 -0.0093731633465279195 -0.0040040522282729718 0 -0.0090834939545395496 0.00032075111308394122 0 -0.0090827455626881111 0.00032379662726345234 0 -0.0090404763270565333 0.00025957908707469372 0 -0.0090728036724232446 0.00031664864688765195 0 -0.009061259341097385 0.00027735974850166427 0 -0.0090728036724232446 0.00031664864688765195 0 -0.009061259341097385 0.00027735974850166427 0 -0.0090771259085416743 0.00027157326740268349 0 -0.0090404763270565333 0.00025957908707469372 0 -0.0090728036724232446 0.00031664864688765195 0 -0.009054648176201472 0.00024888977818855686 0 -0.0090746288646029079 0.0001153961016590854 0 -0.0090404763270565333 0.00025957908707469372 0 -0.009054648176201472 0.00024888977818855686 0 -0.0090728036724232446 0.00031664864688765195 0 -0.009054648176201472 0.00024888977818855686 0 -0.0090624021041957933 0.00040393065617429095 0 -0.009054648176201472 0.00024888977818855686 0 -0.0090047036269798719 0.00039606484180882659 0 -0.0090624021041957933 0.00040393065617429095 0 -0.0090047036269798719 0.00039606484180882659 0 -0.0090624021041957933 0.00040393065617429095 0 -0.0090332392545215204 0.0005016731934376163 0 -0.0090624021041957933 0.00040393065617429095 0 -0.0090994432390722798 0.00052555045173031207 0 -0.0091557332296295472 0.00046909333165273659 0 -0.0090728036724232446 0.00031664864688765195 0 -0.0090624021041957933 0.00040393065617429095 0 -0.0091557332296295472 0.00046909333165273659 0 -0.0090624021041957933 0.00040393065617429095 0 -0.0090994432390722798 0.00052555045173031207 0 -0.0090332392545215204 0.0005016731934376163 0 -0.0090907497195291554 0.00061127074221333216 0 -0.0089887148816022045 0.00057549741834444189 0 -0.0091670518448649981 0.00082907024199329053 0 -0.0090994432390722798 0.00052555045173031207 0 -0.0090907497195291554 0.00061127074221333216 0 -0.0091803444182494923 0.00063595449618051463 0 -0.0090994432390722798 0.00052555045173031207 0 -0.0090907497195291554 0.00061127074221333216 0 -0.0090332392545215204 0.0005016731934376163 0 -0.0090907497195291554 0.00061127074221333216 0 -0.0091803444182494923 0.00063595449618051463 0 -0.0091670518448649981 0.00082907024199329053 0 -0.0090907497195291554 0.00061127074221333216 0 -0.0090332392545215204 0.0005016731934376163 0 -0.0089887148816022045 0.00057549741834444189 0 -0.0090047036269798719 0.00039606484180882659 0 -0.0090332392545215204 0.0005016731934376163 0 -0.0089552405870456184 0.00046531789076537425 0 -0.0090332392545215204 0.0005016731934376163 0 -0.0089887148816022045 0.00057549741834444189 0 -0.0089552405870456184 0.00046531789076537425 0 -0.0089872384963281104 0.0011118880589863522 0 -0.0082939807512065842 0.00094458020545644113 0 -0.0085890630787405029 0.0012999304940525969 0 -0.0089489568575383347 0.00077910232860485822 0 -0.0087302882313595575 0.0011179685444881518 0 -0.0089887148816022045 0.00057549741834444189 0 -0.0089552405870456184 0.00046531789076537425 0 -0.008837717987906852 0.00049216519131058286 0 -0.0089552405870456184 0.00046531789076537425 0 -0.008837717987906852 0.00049216519131058286 0 -0.0088952481726359001 0.00034979864645253193 0 -0.010069567465342155 -0.00082751802031369448 0 -0.0095257515176424071 -0.0010157594268109076 0 -0.0097705352501419977 -0.00060221634039418835 0 -0.0087302882313595575 0.0011179685444881518 0 -0.0091999837351081082 -0.00033920609115272989 0 -0.0095257515176424071 -0.0010157594268109076 0 -0.0097705352501419977 -0.00060221634039418835 0 -0.0093027586251958321 -0.00058759808098565519 0 -0.0094864323230063104 -0.000270102627147826 0 -0.0097705352501419977 -0.00060221634039418835 0 -0.0093027586251958321 -0.00058759808098565519 0 -0.009054648176201472 0.00024888977818855686 0 -0.0090047036269798719 0.00039606484180882659 0 -0.0088952481726359001 0.00034979864645253193 0 -0.0090047036269798719 0.00039606484180882659 0 -0.0089552405870456184 0.00046531789076537425 0 -0.0088952481726359001 0.00034979864645253193 0 -0.0093220675205559333 0.0004503233049693971 0 -0.0092999566344310735 0.00059860544665357664 0 -0.0092735101092800733 0.0005096826557263568 0 -0.0093220675205559333 0.0004503233049693971 0 -0.0094063427072046159 0.00053749905045834766 0 -0.0092999566344310735 0.00059860544665357664 0 -0.0093220675205559333 0.0004503233049693971 0 -0.0092735101092800733 0.0005096826557263568 0 -0.0092612268189119669 0.00040329860484829478 0 -0.0093220675205559333 0.0004503233049693971 0 -0.0094105740534397974 0.00044310665307250305 0 -0.0094124960453895005 0.00034612252941760663 0 -0.0094063427072046159 0.00053749905045834766 0 -0.0094891631029548028 0.00043025501350335831 0 -0.0094864195092915892 0.00056148593769256966 0 -0.0094105740534397974 0.00044310665307250305 0 -0.0094124960453895005 0.00034612252941760663 0 -0.0094891631029548028 0.00043025501350335831 0 -0.0094105740534397974 0.00044310665307250305 0 -0.0094063427072046159 0.00053749905045834766 0 -0.0094891631029548028 0.00043025501350335831 0 -0.0093220675205559333 0.0004503233049693971 0 -0.0094105740534397974 0.00044310665307250305 0 -0.0094063427072046159 0.00053749905045834766 0 -0.009388603780200051 0.00065150550360575229 0 -0.0094864195092915892 0.00056148593769256966 0 -0.0094770844287163716 0.00068673475698729971 0 -0.0094063427072046159 0.00053749905045834766 0 -0.009388603780200051 0.00065150550360575229 0 -0.0092999566344310735 0.00059860544665357664 0 -0.0094063427072046159 0.00053749905045834766 0 -0.009388603780200051 0.00065150550360575229 0 -0.0094864195092915892 0.00056148593769256966 0 -0.009388603780200051 0.00065150550360575229 0 -0.0092999566344310735 0.00059860544665357664 0 -0.0093167305255852512 0.00068217327855609746 0 -0.0092999566344310735 0.00059860544665357664 0 -0.0092235015233392073 0.00068396144172202839 0 -0.0092534085499568902 0.0007278970922866509 0 -0.0092999566344310735 0.00059860544665357664 0 -0.0092281522604879037 0.00056977856933766312 0 -0.0092735101092800733 0.0005096826557263568 0 -0.0092999566344310735 0.00059860544665357664 0 -0.0092235015233392073 0.00068396144172202839 0 -0.0092281522604879037 0.00056977856933766312 0 -0.0090994432390722798 0.00052555045173031207 0 -0.0091803444182494923 0.00063595449618051463 0 -0.0091557332296295472 0.00046909333165273659 0 -0.0092281522604879037 0.00056977856933766312 0 -0.0091803444182494923 0.00063595449618051463 0 -0.0091557332296295472 0.00046909333165273659 0 -0.0092235015233392073 0.00068396144172202839 0 -0.0092281522604879037 0.00056977856933766312 0 -0.0091803444182494923 0.00063595449618051463 0 -0.0092235015233392073 0.00068396144172202839 0 -0.0091803444182494923 0.00063595449618051463 0 -0.0091915080614159671 0.0007459315097380671 0 -0.0092281522604879037 0.00056977856933766312 0 -0.0091557332296295472 0.00046909333165273659 0 -0.0092243866798632414 0.00046144481099597435 0 -0.0090728036724232446 0.00031664864688765195 0 -0.0091557332296295472 0.00046909333165273659 0 -0.009182470570155055 0.00038334816772732843 0 -0.0091557332296295472 0.00046909333165273659 0 -0.0092243866798632414 0.00046144481099597435 0 -0.009182470570155055 0.00038334816772732843 0 -0.0092735101092800733 0.0005096826557263568 0 -0.0092243866798632414 0.00046144481099597435 0 -0.0092612268189119669 0.00040329860484829478 0 -0.0092281522604879037 0.00056977856933766312 0 -0.0092735101092800733 0.0005096826557263568 0 -0.0092243866798632414 0.00046144481099597435 0 -0.0098880004175414538 -0.0078449133306781136 0 -0.0098513664768765195 -0.0079270045058595206 0 -0.0099079076992200678 -0.0080084067125093077 0 -0.0092918159777045338 -0.0015005376125522864 0 -0.0090827455626881111 0.00032379662726345234 0 -0.0092918159777045338 -0.0015005376125522864 0 -0.0093731633465279195 -0.0040040522282729718 0 -0.0092243866798632414 0.00046144481099597435 0 -0.0092612268189119669 0.00040329860484829478 0 -0.009182470570155055 0.00038334816772732843 0 -0.0090940592227659271 0.00024621099649887508 0 -0.0090771259085416743 0.00027157326740268349 0 -0.0090751245653356016 0.00025484614284490618 0 -0.009061259341097385 0.00027735974850166427 0 -0.0090771259085416743 0.00027157326740268349 0 -0.0090751245653356016 0.00025484614284490618 0 -0.0098513664768765195 -0.0079270045058595206 0 -0.0098554582098509032 -0.0079851489849588359 0 -0.0099132468347702639 -0.0080224761333319086 0 -0.0098172062310483837 -0.0079514661691187215 0 -0.0098513664768765195 -0.0079270045058595206 0 -0.0098554582098509032 -0.0079851489849588359 0 -0.0098513664768765195 -0.0079270045058595206 0 -0.0099079076992200678 -0.0080084067125093077 0 -0.0099132468347702639 -0.0080224761333319086 0 -0.0099079076992200678 -0.0080084067125093077 0 -0.0097647533038081498 -0.0080182259047482957 0 -0.0097714900001910198 -0.0080292042785708589 0 -0.0099079076992200678 -0.0080084067125093077 0 -0.0097985100446485313 -0.0081134852645791105 0 -0.0097647533038081498 -0.0080182259047482957 0 -0.0093220675205559333 0.0004503233049693971 0 -0.0091902991495070186 0.00034088801684653504 0 -0.0094124960453895005 0.00034612252941760663 0 -0.0092918159777045338 -0.0015005376125522864 0 -0.0096374902766494675 -0.0051373603863968222 0 -0.0097863527584702188 -0.0088705110100970701 0 -0.0096374902766494675 -0.0051373603863968222 0 -0.0098880004175414538 -0.0078449133306781136 0 -0.0099079076992200678 -0.0080084067125093077 0 -0.010109012076871376 -0.0078153551807043416 0 -0.0095725256852444776 0.00061798480195045192 0 -0.0092918159777045338 -0.0015005376125522864 0 -0.0096374902766494675 -0.0051373603863968222 0 -0.0094805091178419079 -0.0010105521004345511 0 -0.0097985100446485313 -0.0081134852645791105 0 -0.0097647533038081498 -0.0080182259047482957 0 -0.0096497870304680222 -0.0079765846534239938 0 -0.0097647533038081498 -0.0080182259047482957 0 -0.0096497870304680222 -0.0079765846534239938 0 -0.0097073763371139359 -0.0080074034552399947 0 -0.0097647533038081498 -0.0080182259047482957 0 -0.0097714900001910198 -0.0080292042785708589 0 -0.0097073763371139359 -0.0080074034552399947 0 -0.0097260045897542557 -0.0080283169255315895 0 -0.0097714900001910198 -0.0080292042785708589 0 -0.0097073763371139359 -0.0080074034552399947 0 -0.0097260045897542557 -0.0080283169255315895 0 -0.0097306034668755807 -0.0080458810910898383 0 -0.0097714900001910198 -0.0080292042785708589 0 -0.0099079076992200678 -0.0080084067125093077 0 -0.0097714900001910198 -0.0080292042785708589 0 -0.0098798035611201689 -0.0080749959482758604 0 -0.0097306034668755807 -0.0080458810910898383 0 -0.0097714900001910198 -0.0080292042785708589 0 -0.0098798035611201689 -0.0080749959482758604 0 -0.0097306034668755807 -0.0080458810910898383 0 -0.0098798035611201689 -0.0080749959482758604 0 -0.0096063752508744899 -0.0080705528944018303 0 -0.0098798035611201689 -0.0080749959482758604 0 -0.0096063752508744899 -0.0080705528944018303 0 -0.010046371003791077 -0.0081159345697681112 0 -0.0096063752508744899 -0.0080705528944018303 0 -0.010046371003791077 -0.0081159345697681112 0 -0.0099481392508820477 -0.0077890852862902878 0 -0.0086482387531437877 -0.0088938806397589245 0 -0.0096063752508744899 -0.0080705528944018303 0 -0.0086719726321088739 -0.0081017502231384361 0 -0.0097260045897542557 -0.0080283169255315895 0 -0.0097306034668755807 -0.0080458810910898383 0 -0.0096063752508744899 -0.0080705528944018303 0 -0.0091479420774040199 -0.0085641103930675366 0 -0.0096054186143211279 -0.008069411846538416 0 -0.009842635673069651 -0.0080475698637139017 0 -0.0099132468347702639 -0.0080224761333319086 0 -0.010046371003791077 -0.0081159345697681112 0 -0.0098554582098509032 -0.0079851489849588359 0 -0.009842635673069651 -0.0080475698637139017 0 -0.0099132468347702639 -0.0080224761333319086 0 -0.0099079076992200678 -0.0080084067125093077 0 -0.0098798035611201689 -0.0080749959482758604 0 -0.0099132468347702639 -0.0080224761333319086 0 -0.0098798035611201689 -0.0080749959482758604 0 -0.0099132468347702639 -0.0080224761333319086 0 -0.010046371003791077 -0.0081159345697681112 0 -0.011065170220697369 -0.0083693277603378961 0 -0.010046371003791077 -0.0081159345697681112 0 -0.010569950639629046 -0.007855533340481469 0 -0.011106670004873939 -0.00776748033969182 0 -0.011065170220697369 -0.0083693277603378961 0 -0.010569950639629046 -0.007855533340481469 0 -0.010563206990121808 -0.0087591906468002297 0 -0.0099859736849270773 -0.0079566751483760804 0 -0.011106670004873939 -0.00776748033969182 0 -0.010569950639629046 -0.007855533340481469 0 -0.010377380714838532 -0.0074823983229489518 0 -0.010046371003791077 -0.0081159345697681112 0 -0.010569950639629046 -0.007855533340481469 0 -0.0099481392508820477 -0.0077890852862902878 0 -0.010569950639629046 -0.007855533340481469 0 -0.010377380714838532 -0.0074823983229489518 0 -0.0099481392508820477 -0.0077890852862902878 0 -0.0098187451315778981 -0.0065917500750201832 0 -0.010497521151882159 -0.0069402203244228683 0 -0.010377380714838532 -0.0074823983229489518 0 -0.010497521151882159 -0.0069402203244228683 0 -0.010377380714838532 -0.0074823983229489518 0 -0.011220025265249386 -0.0072079560502455609 0 -0.011106670004873939 -0.00776748033969182 0 -0.010377380714838532 -0.0074823983229489518 0 -0.011220025265249386 -0.0072079560502455609 0 -0.0096063752508744899 -0.0080705528944018303 0 -0.008705011684998154 -0.0073416351412495069 0 -0.0095403689167455376 -0.0072499861665238181 0 -0.0096063752508744899 -0.0080705528944018303 0 -0.0086719726321088739 -0.0081017502231384361 0 -0.008705011684998154 -0.0073416351412495069 0 -0.010377380714838532 -0.0074823983229489518 0 -0.0099481392508820477 -0.0077890852862902878 0 -0.0095403689167455376 -0.0072499861665238181 0 -0.0096063752508744899 -0.0080705528944018303 0 -0.0099481392508820477 -0.0077890852862902878 0 -0.0095403689167455376 -0.0072499861665238181 0 -0.0098187451315778981 -0.0065917500750201832 0 -0.010377380714838532 -0.0074823983229489518 0 -0.0095403689167455376 -0.0072499861665238181 0 -0.0086628404445035657 -0.0060077629823646339 0 -0.008705011684998154 -0.0073416351412495069 0 -0.0095403689167455376 -0.0072499861665238181 0 -0.0086628404445035657 -0.0060077629823646339 0 -0.008705011684998154 -0.0073416351412495069 0 -0.0078507208258016773 -0.0068864781478435331 0 -0.008705011684998154 -0.0073416351412495069 0 -0.0078507208258016773 -0.0068864781478435331 0 -0.0081186299983049132 -0.0076649266338996887 0 -0.0086719726321088739 -0.0081017502231384361 0 -0.008705011684998154 -0.0073416351412495069 0 -0.0081186299983049132 -0.0076649266338996887 0 -0.0081186299983049132 -0.0076649266338996887 0 -0.0072310350381693108 -0.0075491569595926428 0 -0.0081194929504951347 -0.0084236357649096882 0 -0.0078507208258016773 -0.0068864781478435331 0 -0.0081186299983049132 -0.0076649266338996887 0 -0.0072310350381693108 -0.0075491569595926428 0 -0.0070333569374778065 -0.005958869929707079 0 -0.0071677856316651684 -0.0077120832855365881 0 -0.0070562232489851506 -0.0060326666004717503 0 -0.0078507208258016773 -0.0068864781478435331 0 -0.0072310350381693108 -0.0075491569595926428 0 -0.0070562232489851506 -0.0060326666004717503 0 -0.006909828091659252 -0.0073276685839983868 0 -0.0061988791482062372 -0.006663146463582301 0 -0.0053825530782484927 -0.0061520650513135558 0 -0.0061988791482062372 -0.006663146463582301 0 -0.0052849698215475692 -0.0071256902600890116 0 -0.0061988791482062372 -0.006663146463582301 0 -0.0052849698215475692 -0.0071256902600890116 0 -0.0060712182273742919 -0.0079030796302045972 0 -0.0037008661147913016 -0.0051400921857540855 0 -0.0038398466145190841 -0.005256110546375559 0 -0.0036972057621050755 -0.0053225337060183115 0 -0.0044881886679082892 -0.006118714284749251 0 -0.0049607407991394794 -0.006669715496058431 0 -0.006909828091659252 -0.0073276685839983868 0 -0.0061988791482062372 -0.006663146463582301 0 -0.0060712182273742919 -0.0079030796302045972 0 -0.0038398466145190841 -0.005256110546375559 0 -0.0038233874590638053 -0.0053599153386714882 0 -0.0039834959164101492 -0.0053872840397115119 0 -0.006909828091659252 -0.0073276685839983868 0 -0.0060712182273742919 -0.0079030796302045972 0 -0.0068701138880503448 -0.0085785868131663823 0 -0.0049607407991394794 -0.006669715496058431 0 -0.0056499991020773754 -0.0062805863412962668 0 -0.0060712182273742919 -0.0079030796302045972 0 -0.0068701138880503448 -0.0085785868131663823 0 -0.0067777095320595265 -0.008628674966186925 0 -0.0038398466145190841 -0.005256110546375559 0 -0.0038233874590638053 -0.0053599153386714882 0 -0.0036972057621050755 -0.0053225337060183115 0 -0.0036972057621050755 -0.0053225337060183115 0 -0.0037766901191855916 -0.0054744177095131579 0 -0.0035901286713778727 -0.0054080106889162248 0 -0.0038233874590638053 -0.0053599153386714882 0 -0.0036972057621050755 -0.0053225337060183115 0 -0.0037766901191855916 -0.0054744177095131579 0 -0.0038233874590638053 -0.0053599153386714882 0 -0.0037766901191855916 -0.0054744177095131579 0 -0.0039834959164101492 -0.0053872840397115119 0 -0.0044169413812435877 -0.0018284210416869837 0 -0.0040337125862503634 -0.001909470895527091 0 -0.003901169330678586 -0.0022495264161016717 0 -0.0038640666582061157 -0.0033834535701421499 0 -0.0056499991020773754 -0.0062805863412962668 0 -0.0040337125862503634 -0.001909470895527091 0 -0.0038413232335517914 -0.0021936768383117571 0 -0.0037994046945878765 -0.0016370857498147341 0 -0.0061783524610621379 -0.0058966210618762675 0 -0.0074141831797815624 -0.00537735093566974 0 -0.0072392307353008646 -0.0062160560296990403 0 -0.0073567488892125514 -0.0063350914039004272 0 -0.0072470781477530274 -0.0064221295249739449 0 -0.0040337125862503634 -0.001909470895527091 0 -0.0038413232335517914 -0.0021936768383117571 0 -0.003901169330678586 -0.0022495264161016717 0 -0.007319605275898285 -0.009022130606115954 0 -0.0073195902676469428 -0.0088672806183224904 0 -0.0077144384791609354 -0.0089630119354553311 0 -0.0061783524610621379 -0.0058966210618762675 0 -0.0063241196958871496 -0.0074703157651034458 0 -0.0063241196958871496 -0.0074703157651034458 0 -0.0056499991020773754 -0.0062805863412962668 0 -0.0066512608645297837 -0.0064966686047559534 0 -0.0066509766353428949 -0.0064654079106822417 0 -0.0066300883476950118 -0.0064761150181007277 0 -0.0061783524610621379 -0.0058966210618762675 0 -0.0056499991020773754 -0.0062805863412962668 0 -0.0077144384791609354 -0.0089630119354553311 0 -0.0078090849705114334 -0.0095402924737769974 0 -0.0080018620895460791 -0.0089538853391683722 0 -0.007319605275898285 -0.009022130606115954 0 -0.0077144384791609354 -0.0089630119354553311 0 -0.0078090849705114334 -0.0095402924737769974 0 -0.0061783524610621379 -0.0058966210618762675 0 -0.0086257890835216705 -0.0078204954175672622 0 -0.0091479420774040199 -0.0085641103930675366 0 -0.0086257890835216705 -0.0078204954175672622 0 -0.0086482387531437877 -0.0088938806397589245 0 -0.0078090849705114334 -0.0095402924737769974 0 -0.0080018620895460791 -0.0089538853391683722 0 -0.0097260045897542557 -0.0080283169255315895 0 -0.009716660739550886 -0.0080076426557193145 0 -0.0097073763371139359 -0.0080074034552399947 0 -0.0077144384791609354 -0.0089630119354553311 0 -0.0080018620895460791 -0.0089538853391683722 0 -0.0081194929504951347 -0.0084236357649096882 0 -0.0086482387531437877 -0.0088938806397589245 0 -0.0086719726321088739 -0.0081017502231384361 0 -0.0081194929504951347 -0.0084236357649096882 0 -0.0086482387531437877 -0.0088938806397589245 0 -0.0080018620895460791 -0.0089538853391683722 0 -0.0081194929504951347 -0.0084236357649096882 0 -0.0086719726321088739 -0.0081017502231384361 0 -0.0081186299983049132 -0.0076649266338996887 0 -0.0081194929504951347 -0.0084236357649096882 0 -0.0072310350381693108 -0.0075491569595926428 0 -0.0072662641270835457 -0.0088953690461994195 0 -0.0081194929504951347 -0.0084236357649096882 0 -0.0073195902676469428 -0.0088672806183224904 0 -0.0077144384791609354 -0.0089630119354553311 0 -0.0081194929504951347 -0.0084236357649096882 0 -0.0063241196958871496 -0.0074703157651034458 0 -0.0081500806731298163 -0.0085430672338499269 0 -0.0071677856316651684 -0.0077120832855365881 0 -0.0063241196958871496 -0.0074703157651034458 0 -0.003098538213298732 -0.0051458729095726777 0 -0.0033775203444328795 -0.0051017769959366584 0 -0.0033379269412541547 -0.0052219944877932162 0 -0.0031631024412969288 -0.0049775074368227385 0 -0.003098538213298732 -0.0051458729095726777 0 -0.0033775203444328795 -0.0051017769959366584 0 -0.003395270888376998 -0.0050213039385220079 0 -0.0031631024412969288 -0.0049775074368227385 0 -0.0033775203444328795 -0.0051017769959366584 0 -0.003568358765879652 -0.0050673300951750736 0 -0.0033775203444328795 -0.0051017769959366584 0 -0.0035246943479372546 -0.0051273056277447576 0 -0.003568358765879652 -0.0050673300951750736 0 -0.003395270888376998 -0.0050213039385220079 0 -0.0033775203444328795 -0.0051017769959366584 0 -0.0033775203444328795 -0.0051017769959366584 0 -0.0033379269412541547 -0.0052219944877932162 0 -0.0035246943479372546 -0.0051273056277447576 0 -0.0033379269412541547 -0.0052219944877932162 0 -0.0035246943479372546 -0.0051273056277447576 0 -0.0035327116109113072 -0.0052624099774124904 0 -0.003568358765879652 -0.0050673300951750736 0 -0.0035916602314151921 -0.0050653853305505023 0 -0.0035246943479372546 -0.0051273056277447576 0 -0.0040514115415131082 -0.0056367975662663583 0 -0.0044881886679082892 -0.006118714284749251 0 -0.0035916602314151921 -0.0050653853305505023 0 -0.0037008661147913016 -0.0051400921857540855 0 -0.0035246943479372546 -0.0051273056277447576 0 -0.0044778410998498165 -0.0062322632645341915 0 -0.0053825530782484927 -0.0061520650513135558 0 -0.0052849698215475692 -0.0071256902600890116 0 -0.0037008661147913016 -0.0051400921857540855 0 -0.0035246943479372546 -0.0051273056277447576 0 -0.0035327116109113072 -0.0052624099774124904 0 -0.0037008661147913016 -0.0051400921857540855 0 -0.0036972057621050755 -0.0053225337060183115 0 -0.0035327116109113072 -0.0052624099774124904 0 -0.0036972057621050755 -0.0053225337060183115 0 -0.0035901286713778727 -0.0054080106889162248 0 -0.0035327116109113072 -0.0052624099774124904 0 -0.0035901286713778727 -0.0054080106889162248 0 -0.0035327116109113072 -0.0052624099774124904 0 -0.0033585631764786344 -0.0054231272171572087 0 -0.0035901286713778727 -0.0054080106889162248 0 -0.0033585631764786344 -0.0054231272171572087 0 -0.0035755908022624639 -0.0055630003855171826 0 -0.0033379269412541547 -0.0052219944877932162 0 -0.0035327116109113072 -0.0052624099774124904 0 -0.0033585631764786344 -0.0054231272171572087 0 -0.0033379269412541547 -0.0052219944877932162 0 -0.0033585631764786344 -0.0054231272171572087 0 -0.0031304991402797294 -0.0053193851320988937 0 -0.0033585631764786344 -0.0054231272171572087 0 -0.0031304991402797294 -0.0053193851320988937 0 -0.003052695606375758 -0.0055684869359461982 0 -0.003098538213298732 -0.0051458729095726777 0 -0.0033379269412541547 -0.0052219944877932162 0 -0.0031304991402797294 -0.0053193851320988937 0 -0.0033585631764786344 -0.0054231272171572087 0 -0.0031546074421374671 -0.0054640124815969254 0 -0.003378446844232671 -0.0056450669808978827 0 -0.0031546074421374671 -0.0054640124815969254 0 -0.003378446844232671 -0.0056450669808978827 0 -0.003151447924198328 -0.0057699749793772622 0 -0.0033385216639927177 -0.0054246526891429747 0 -0.0031052466124585026 -0.0055136319741002603 0 -0.0042974748484803128 -0.0020041544466541067 0 -0.0043639348275933713 -0.0019720322145565313 0 -0.004232603870145628 -0.0020846300628633665 0 -0.0048546052710421233 -0.001344859181018353 0 -0.0051112171796642092 -0.0010220543782990873 0 -0.0033585631764786344 -0.0054231272171572087 0 -0.003378446844232671 -0.0056450669808978827 0 -0.0035755908022624639 -0.0055630003855171826 0 -0.0038499783621871284 -0.0038349350786205348 0 -0.0040339777500961087 -0.0037414081623136897 0 -0.0042974748484803128 -0.0020041544466541067 0 -0.0043639348275933713 -0.0019720322145565313 0 -0.0044244245023499921 -0.0018669222177695435 0 -0.0054478681138496075 -0.00064223461621354654 0 -0.0052481854111017696 -0.00060646457520781869 0 -0.0054042187219554933 -0.00040158216765793039 0 -0.0054478681138496075 -0.00064223461621354654 0 -0.0052481854111017696 -0.00060646457520781869 0 -0.0051416636278298813 -0.00091156739060946964 0 -0.0037766901191855916 -0.0054744177095131579 0 -0.0035901286713778727 -0.0054080106889162248 0 -0.0035755908022624639 -0.0055630003855171826 0 -0.0038640666582061157 -0.0033834535701421499 0 -0.0040339777500961087 -0.0037414081623136897 0 -0.0044169413812435877 -0.0018284210416869837 0 -0.0044244245023499921 -0.0018669222177695435 0 -0.0044440081658429819 -0.0018533487814645054 0 -0.0054478681138496075 -0.00064223461621354654 0 -0.004937968465768305 -0.001212713879504548 0 -0.0051416636278298813 -0.00091156739060946964 0 -0.004937968465768305 -0.001212713879504548 0 -0.0051416636278298813 -0.00091156739060946964 0 -0.0047211418844673864 -0.0010953153484489098 0 -0.0051416636278298813 -0.00091156739060946964 0 -0.004953821186166895 -0.00067877946337448149 0 -0.0047678362788788429 -0.00078461686368707848 0 -0.0051654065688688357 -0.00093479440983391037 0 -0.0046014988721569507 -0.00098655086922125931 0 -0.0048546052710421233 -0.001344859181018353 0 -0.0046679930566420379 -0.001534336734090061 0 -0.0043639348275933713 -0.0019720322145565313 0 -0.0044244245023499921 -0.0018669222177695435 0 -0.0044440081658429819 -0.0018533487814645054 0 -0.0052481854111017696 -0.00060646457520781869 0 -0.004953821186166895 -0.00067877946337448149 0 -0.0051664565061824135 -0.00039206517560403021 0 -0.0052481854111017696 -0.00060646457520781869 0 -0.0051416636278298813 -0.00091156739060946964 0 -0.004953821186166895 -0.00067877946337448149 0 -0.004953821186166895 -0.00067877946337448149 0 -0.0047678362788788429 -0.00078461686368707848 0 -0.0048441782766607674 -0.0004890799682318363 0 -0.0051664565061824135 -0.00039206517560403021 0 -0.004971724059702423 1.1920776935563054e-05 0 -0.0054361989489697662 -0.00016744801356751151 0 -0.0051664565061824135 -0.00039206517560403021 0 -0.004971724059702423 1.1920776935563054e-05 0 -0.0048441782766607674 -0.0004890799682318363 0 -0.004953821186166895 -0.00067877946337448149 0 -0.0051664565061824135 -0.00039206517560403021 0 -0.0048441782766607674 -0.0004890799682318363 0 -0.005294864224879822 0.00025414237739091334 0 -0.0054477789993313732 0.00029556047141151296 0 -0.004971724059702423 1.1920776935563054e-05 0 -0.0054361989489697662 -0.00016744801356751151 0 -0.0054717338223603963 0.00028470344207173526 0 -0.0054361989489697662 -0.00016744801356751151 0 -0.0056471472161107863 -0.0001054001645129761 0 -0.0054717338223603963 0.00028470344207173526 0 -0.0051664565061824135 -0.00039206517560403021 0 -0.0054361989489697662 -0.00016744801356751151 0 -0.0054042187219554933 -0.00040158216765793039 0 -0.0052481854111017696 -0.00060646457520781869 0 -0.0051664565061824135 -0.00039206517560403021 0 -0.0054042187219554933 -0.00040158216765793039 0 -0.0054361989489697662 -0.00016744801356751151 0 -0.0054042187219554933 -0.00040158216765793039 0 -0.0055394876748767292 -0.0003139589246896285 0 -0.0054478681138496075 -0.00064223461621354654 0 -0.0054042187219554933 -0.00040158216765793039 0 -0.0055394876748767292 -0.0003139589246896285 0 -0.0054478681138496075 -0.00064223461621354654 0 -0.0055394876748767292 -0.0003139589246896285 0 -0.0057278960678364046 -0.00028471303248209522 0 -0.0042974748484803128 -0.0020041544466541067 0 -0.004232603870145628 -0.0020846300628633665 0 -0.0041442657720830948 -0.0021415133670969551 0 -0.0055394876748767292 -0.0003139589246896285 0 -0.0057278960678364046 -0.00028471303248209522 0 -0.0056471472161107863 -0.0001054001645129761 0 -0.0057278960678364046 -0.00028471303248209522 0 -0.0056471472161107863 -0.0001054001645129761 0 -0.0057535290918773021 -8.0821275472382743e-05 0 -0.0054361989489697662 -0.00016744801356751151 0 -0.0055394876748767292 -0.0003139589246896285 0 -0.0056471472161107863 -0.0001054001645129761 0 -0.0056471472161107863 -0.0001054001645129761 0 -0.0057366034647130786 6.2550542255670368e-05 0 -0.0054717338223603963 0.00028470344207173526 0 -0.0056471472161107863 -0.0001054001645129761 0 -0.0057535290918773021 -8.0821275472382743e-05 0 -0.0057366034647130786 6.2550542255670368e-05 0 -0.0057535290918773021 -8.0821275472382743e-05 0 -0.0057366034647130786 6.2550542255670368e-05 0 -0.005783041853270882 -1.3452795864940365e-05 0 -0.0057366034647130786 6.2550542255670368e-05 0 -0.0057698901760547061 4.6218101211917669e-05 0 -0.005783041853270882 -1.3452795864940365e-05 0 -0.0057858941278378113 1.8894728147837936e-05 0 -0.0057698901760547061 4.6218101211917669e-05 0 -0.005783041853270882 -1.3452795864940365e-05 0 -0.0058148173802746363 -5.9785545320292026e-05 0 -0.0057535290918773021 -8.0821275472382743e-05 0 -0.005783041853270882 -1.3452795864940365e-05 0 -0.0058148173802746363 -5.9785545320292026e-05 0 -0.0057278960678364046 -0.00028471303248209522 0 -0.0057535290918773021 -8.0821275472382743e-05 0 -0.0040891267794969672 -0.0021899858656970706 0 -0.004232603870145628 -0.0020846300628633665 0 -0.0041442657720830948 -0.0021415133670969551 0 -0.0038499783621871284 -0.0038349350786205348 0 -0.003545278049805178 -0.003826296924232823 0 -0.0044975355834790415 -0.0025438600577225839 0 -0.0051112171796642092 -0.0010220543782990873 0 -0.004221195162751731 -0.0007286455423360027 0 -0.0044373942574165532 -0.00056020880245966249 0 -0.0041779797166130034 -0.00052816900772189527 0 -0.0093244723719117309 -0.0081006211443032817 0 -0.0091859869333460551 -0.0079945434892712899 0 -0.0090372322209596005 -0.0081841289515641059 0 -0.0093244723719117309 -0.0081006211443032817 0 -0.0091859869333460551 -0.0079945434892712899 0 -0.0092294668967642744 -0.007886472861749946 0 -0.0086732245627168733 -0.0045580833414874461 0 -0.007175680255487751 -0.0045768997578701179 0 -0.0090319735268927226 -0.0079834143378357293 0 -0.0090372322209596005 -0.0081841289515641059 0 -0.0087947677625884804 -0.0073352879275492633 0 -0.007175680255487751 -0.0045768997578701179 0 -0.0083365488199253074 -0.0077138130011709183 0 -0.0091859869333460551 -0.0079945434892712899 0 -0.0090319735268927226 -0.0079834143378357293 0 -0.0092294668967642744 -0.007886472861749946 0 -0.0091859869333460551 -0.0079945434892712899 0 -0.0090319735268927226 -0.0079834143378357293 0 -0.0090372322209596005 -0.0081841289515641059 0 -0.007175680255487751 -0.0045768997578701179 0 -0.0062172376433653215 -0.00098720394129501684 0 -0.0091646313494406651 -0.0029560758874542523 0 -0.0091343092758592141 -0.0028110627455071851 0 -0.0090070878077676379 -0.0028724267060965185 0 -0.0070685866775477895 -0.0035002086552643678 0 -0.0076957656748070803 -0.0035379675595490104 0 -0.0069622292999261381 -0.0029114956107573965 0 -0.0076957656748070803 -0.0035379675595490104 0 -0.0069622292999261381 -0.0029114956107573965 0 -0.0075207471346456604 -0.0026372018238412249 0 -0.0086732245627168733 -0.0045580833414874461 0 -0.008008984507913949 -0.0023761029942197414 0 -0.0097985100446485313 -0.0081134852645791105 0 -0.0093244723719117309 -0.0081006211443032817 0 -0.0096497870304680222 -0.0079765846534239938 0 -0.0096374902766494675 -0.0051373603863968222 0 -0.0086732245627168733 -0.0045580833414874461 0 -0.0085829354083679053 -0.0029326301986403384 0 -0.0091646313494406651 -0.0029560758874542523 0 -0.0090070878077676379 -0.0028724267060965185 0 -0.008008984507913949 -0.0023761029942197414 0 -0.0087475820165683477 -0.0024099110357450799 0 -0.0093244723719117309 -0.0081006211443032817 0 -0.0096497870304680222 -0.0079765846534239938 0 -0.0092294668967642744 -0.007886472861749946 0 -0.0091482899574663844 -0.0027971159152395068 0 -0.0090070878077676379 -0.0028724267060965185 0 -0.0088339551468301202 -0.0027247924926683542 0 -0.0085829354083679053 -0.0029326301986403384 0 -0.0090070878077676379 -0.0028724267060965185 0 -0.0088339551468301202 -0.0027247924926683542 0 -0.0093357537412321473 -0.0075687776388265226 0 -0.0096497870304680222 -0.0079765846534239938 0 -0.0092294668967642744 -0.007886472861749946 0 -0.009716660739550886 -0.0080076426557193145 0 -0.0096497870304680222 -0.0079765846534239938 0 -0.0097073763371139359 -0.0080074034552399947 0 -0.0086257890835216705 -0.0078204954175672622 0 -0.009839548123252927 -0.0080722433517770812 0 -0.0086257890835216705 -0.0078204954175672622 0 -0.0074141831797815624 -0.00537735093566974 0 -0.0093357537412321473 -0.0075687776388265226 0 -0.0092294668967642744 -0.007886472861749946 0 -0.0091098305393085832 -0.0077468467173652513 0 -0.0090319735268927226 -0.0079834143378357293 0 -0.0092294668967642744 -0.007886472861749946 0 -0.0091098305393085832 -0.0077468467173652513 0 -0.0090319735268927226 -0.0079834143378357293 0 -0.0087947677625884804 -0.0073352879275492633 0 -0.0089579162212102062 -0.0067507205709587646 0 -0.0086256822038238302 -0.0082270147017508462 0 -0.0074141831797815624 -0.00537735093566974 0 -0.0074141831797815624 -0.00537735093566974 0 -0.0052387973581761978 -0.0031647318781262896 0 -0.0040337125862503634 -0.001909470895527091 0 -0.0037994046945878765 -0.0016370857498147341 0 -0.004117149548589898 -0.0017035403403222516 0 -0.0087947677625884804 -0.0073352879275492633 0 -0.0089579162212102062 -0.0067507205709587646 0 -0.0074073074391226871 -0.008043010436126867 0 -0.0037994046945878765 -0.0016370857498147341 0 -0.0041934923823214176 -0.0014874209466563455 0 -0.0042434546026979755 -0.0011588997596511006 0 -0.0044169413812435877 -0.0018284210416869837 0 -0.0040337125862503634 -0.001909470895527091 0 -0.0043292946811076486 -0.0017460954106493548 0 -0.0040337125862503634 -0.001909470895527091 0 -0.004117149548589898 -0.0017035403403222516 0 -0.0043292946811076486 -0.0017460954106493548 0 -0.004117149548589898 -0.0017035403403222516 0 -0.0043292946811076486 -0.0017460954106493548 0 -0.0041934923823214176 -0.0014874209466563455 0 -0.0043292946811076486 -0.0017460954106493548 0 -0.0041934923823214176 -0.0014874209466563455 0 -0.0044887641334995813 -0.0013346705593632016 0 -0.0037994046945878765 -0.0016370857498147341 0 -0.004117149548589898 -0.0017035403403222516 0 -0.0041934923823214176 -0.0014874209466563455 0 -0.0044169413812435877 -0.0018284210416869837 0 -0.0044440081658429819 -0.0018533487814645054 0 -0.0043292946811076486 -0.0017460954106493548 0 -0.004937968465768305 -0.001212713879504548 0 -0.0043292946811076486 -0.0017460954106493548 0 -0.0044887641334995813 -0.0013346705593632016 0 -0.0046679930566420379 -0.001534336734090061 0 -0.0043340549894100387 -0.0017364929472678957 0 -0.0044887641334995813 -0.0013346705593632016 0 -0.0047211418844673864 -0.0010953153484489098 0 -0.0042434546026979755 -0.0011588997596511006 0 -0.0047678362788788429 -0.00078461686368707848 0 -0.0045957123456923082 -0.00062960741513527047 0 -0.0044558137220937991 -0.00076029454624135424 0 -0.0046014988721569507 -0.00098655086922125931 0 -0.0052387973581761978 -0.0031647318781262896 0 -0.004937968465768305 -0.001212713879504548 0 -0.0044887641334995813 -0.0013346705593632016 0 -0.0047211418844673864 -0.0010953153484489098 0 -0.0047678362788788429 -0.00078461686368707848 0 -0.0045957123456923082 -0.00062960741513527047 0 -0.0048441782766607674 -0.0004890799682318363 0 -0.007175680255487751 -0.0045768997578701179 0 -0.0052387973581761978 -0.0031647318781262896 0 -0.0089395263189783018 -0.0081342372281851781 0 -0.0087947677625884804 -0.0073352879275492633 0 -0.0074073074391226871 -0.008043010436126867 0 -0.004221195162751731 -0.0007286455423360027 0 -0.004481849262936208 -0.00073486332194994456 0 -0.0044373942574165532 -0.00056020880245966249 0 -0.0041934923823214176 -0.0014874209466563455 0 -0.0044887641334995813 -0.0013346705593632016 0 -0.0042434546026979755 -0.0011588997596511006 0 -0.0045957123456923082 -0.00062960741513527047 0 -0.004481849262936208 -0.00073486332194994456 0 -0.0044373942574165532 -0.00056020880245966249 0 -0.0052845310515208946 -0.0014704816508975341 0 -0.0052387973581761978 -0.0031647318781262896 0 -0.0048779323117059481 0.00020012408989923203 0 -0.0062172376433653215 -0.00098720394129501684 0 -0.0044373942574165532 -0.00056020880245966249 0 -0.0045239170969131439 -0.00028758781718010278 0 -0.0041779797166130034 -0.00052816900772189527 0 -0.0056172953375429498 0.00057559965161138279 0 -0.0056527450403225394 0.00056102551945230608 0 -0.0056800103673895113 0.00058008401650176916 0 -0.0044373942574165532 -0.00056020880245966249 0 -0.0045239170969131439 -0.00028758781718010278 0 -0.0046544573469693221 -0.0004297137790528502 0 -0.004971724059702423 1.1920776935563054e-05 0 -0.0048441782766607674 -0.0004890799682318363 0 -0.0046544573469693221 -0.0004297137790528502 0 -0.004971724059702423 1.1920776935563054e-05 0 -0.0045239170969131439 -0.00028758781718010278 0 -0.0046544573469693221 -0.0004297137790528502 0 -0.0045957123456923082 -0.00062960741513527047 0 -0.0048441782766607674 -0.0004890799682318363 0 -0.0046544573469693221 -0.0004297137790528502 0 -0.0045957123456923082 -0.00062960741513527047 0 -0.0044373942574165532 -0.00056020880245966249 0 -0.0046544573469693221 -0.0004297137790528502 0 -0.005514858000141178 0.00050147831043354982 0 -0.0056132068509333723 0.0005370224849694169 0 -0.0055798036312995659 0.00049711629749322843 0 -0.005514858000141178 0.00050147831043354982 0 -0.0056172953375429498 0.00057559965161138279 0 -0.0056132068509333723 0.0005370224849694169 0 -0.005294864224879822 0.00025414237739091334 0 -0.0048779323117059481 0.00020012408989923203 0 -0.0056132068509333723 0.0005370224849694169 0 -0.0056290014128486266 0.00052665542658955806 0 -0.0055798036312995659 0.00049711629749322843 0 -0.0056132068509333723 0.0005370224849694169 0 -0.0056527450403225394 0.00056102551945230608 0 -0.005651584187099992 0.00054600997287541724 0 -0.0056172953375429498 0.00057559965161138279 0 -0.0056132068509333723 0.0005370224849694169 0 -0.0056527450403225394 0.00056102551945230608 0 -0.0056132068509333723 0.0005370224849694169 0 -0.005651584187099992 0.00054600997287541724 0 -0.0056290014128486266 0.00052665542658955806 0 -0.005651584187099992 0.00054600997287541724 0 -0.0056778517396610896 0.00054221733774993946 0 -0.0056568501859437306 0.00053650255086638778 0 -0.0066312141632263394 0.00015646571112481705 0 -0.0061403787142847886 0.00097200551870582424 0 -0.005651584187099992 0.00054600997287541724 0 -0.0056778517396610896 0.00054221733774993946 0 -0.0057226950550423239 0.00060490328684250575 0 -0.0056778517396610896 0.00054221733774993946 0 -0.0057226950550423239 0.00060490328684250575 0 -0.0057453756961569789 0.00049933903908186297 0 -0.0076318492543563056 8.5852955439719343e-05 0 -0.0073717327571118738 -0.00010686101363437713 0 -0.0072483875873573453 0.00056268334639089884 0 -0.0076318492543563056 8.5852955439719343e-05 0 -0.0072483875873573453 0.00056268334639089884 0 -0.0074523383608748259 0.00099624592515206085 0 -0.0056527450403225394 0.00056102551945230608 0 -0.005651584187099992 0.00054600997287541724 0 -0.0056822876336197802 0.00055594598232117619 0 -0.0055195864843477884 0.0004549966873836501 0 -0.0066312141632263394 0.00015646571112481705 0 -0.0066312141632263394 0.00015646571112481705 0 -0.0062172376433653215 -0.00098720394129501684 0 -0.0056527450403225394 0.00056102551945230608 0 -0.0056822876336197802 0.00055594598232117619 0 -0.0056800103673895113 0.00058008401650176916 0 -0.0074460060062792157 -0.00029403846952787301 0 -0.0076214932310966245 -0.00119935872388546 0 -0.0070362616867250382 -0.00059621292422300741 0 -0.0066312141632263394 0.00015646571112481705 0 -0.0083347127909040811 -0.00043115504682216438 0 -0.008008984507913949 -0.0023761029942197414 0 -0.0083347127909040811 -0.00043115504682216438 0 -0.0071829754935936688 -0.0014147161381784467 0 -0.0076214932310966245 -0.00119935872388546 0 -0.0070362616867250382 -0.00059621292422300741 0 -0.008008984507913949 -0.0023761029942197414 0 -0.0062172376433653215 -0.00098720394129501684 0 -0.0094891631029548028 0.00043025501350335831 0 -0.0095711484515651635 0.00050093796896104857 0 -0.0094864195092915892 0.00056148593769256966 0 -0.0094805091178419079 -0.0010105521004345511 0 -0.0083347127909040811 -0.00043115504682216438 0 -0.0091482899574663844 -0.0027971159152395068 0 -0.0088339551468301202 -0.0027247924926683542 0 -0.009099405437922068 -0.0025055585155676933 0 -0.0094864195092915892 0.00056148593769256966 0 -0.0095451597952690582 0.00063201106124938212 0 -0.0094770844287163716 0.00068673475698729971 0 -0.0095711484515651635 0.00050093796896104857 0 -0.0094864195092915892 0.00056148593769256966 0 -0.0095451597952690582 0.00063201106124938212 0 -0.0083347127909040811 -0.00043115504682216438 0 -0.0083843774362138915 0.00060748538451154701 0 -0.0095451597952690582 0.00063201106124938212 0 -0.0094770844287163716 0.00068673475698729971 0 -0.0095118580329742689 0.00076141091286047191 0 -0.0072483875873573453 0.00056268334639089884 0 -0.0071260615994086342 0.0012322134960647076 0 -0.0074523383608748259 0.00099624592515206085 0 -0.0083843774362138915 0.00060748538451154701 0 -0.0071934706716873945 0.0013205619159230345 0 -0.0071934706716873945 0.0013205619159230345 0 -0.0061403787142847886 0.00097200551870582424 0 -0.0094770844287163716 0.00068673475698729971 0 -0.0095118580329742689 0.00076141091286047191 0 -0.0094188608459622632 0.00073913721078064539 0 -0.0061403787142847886 0.00097200551870582424 0 -0.0057408622800309943 0.00083357739003272092 0 -0.0071934706716873945 0.0013205619159230345 0 -0.0084529059283878494 0.0011473243010304331 0 -0.0071934706716873945 0.0013205619159230345 0 -0.0061452325424157543 0.00099605524920034485 0 -0.0061136170775219507 0.0023654716789779473 0 -0.0064135324967570639 0.00056991746303961389 0 -0.0073601003393905691 0.0014816133902164441 0 -0.0060695859819040769 0.0017878396063354504 0 -0.0064135324967570639 0.00056991746303961389 0 -0.0058923170533543706 0.00064385402416416385 0 -0.0060695859819040769 0.0017878396063354504 0 -0.0056175200219818391 0.0021110439555509651 0 -0.0058923170533543706 0.00064385402416416385 0 -0.0057257577424891324 0.00057484277782342361 0 -0.0057055001278027064 0.00056988574122596918 0 -0.0058923170533543706 0.00064385402416416385 0 -0.0057257577424891324 0.00057484277782342361 0 -0.0056905148075041736 0.00055312585466155866 0 -0.0057055001278027064 0.00056988574122596918 0 -0.0056948287315794757 0.00059234020436559238 0 -0.0061403787142847886 0.00097200551870582424 0 -0.0056778517396610896 0.00054221733774993946 0 -0.0056905148075041736 0.00055312585466155866 0 -0.0057055001278027064 0.00056988574122596918 0 -0.005651584187099992 0.00054600997287541724 0 -0.0056568501859437306 0.00053650255086638778 0 -0.0056290014128486266 0.00052665542658955806 0 -0.0056778517396610896 0.00054221733774993946 0 -0.0056905148075041736 0.00055312585466155866 0 -0.0056568501859437306 0.00053650255086638778 0 -0.0056290014128486266 0.00052665542658955806 0 -0.0056360638932022086 0.00052214119456000423 0 -0.0055798036312995659 0.00049711629749322843 0 -0.0056568501859437306 0.00053650255086638778 0 -0.0056290014128486266 0.00052665542658955806 0 -0.0056360638932022086 0.00052214119456000423 0 -0.0056905148075041736 0.00055312585466155866 0 -0.0056568501859437306 0.00053650255086638778 0 -0.0056360638932022086 0.00052214119456000423 0 -0.0055798036312995659 0.00049711629749322843 0 -0.005562324425743159 0.00047297236324092085 0 -0.005488678743461959 0.00040685964770760985 0 -0.0056360638932022086 0.00052214119456000423 0 -0.0055798036312995659 0.00049711629749322843 0 -0.005562324425743159 0.00047297236324092085 0 -0.005562324425743159 0.00047297236324092085 0 -0.0056251821175559696 0.00048849215073619771 0 -0.0055035108218449303 0.00044189066863874622 0 -0.0050819596131772083 0.002707261711443856 0 -0.0049794004706902994 0.002710463090228374 0 -0.0056360638932022086 0.00052214119456000423 0 -0.005562324425743159 0.00047297236324092085 0 -0.0056251821175559696 0.00048849215073619771 0 -0.0057257577424891324 0.00057484277782342361 0 -0.0056360638932022086 0.00052214119456000423 0 -0.0056251821175559696 0.00048849215073619771 0 -0.0057257577424891324 0.00057484277782342361 0 -0.0056905148075041736 0.00055312585466155866 0 -0.0056360638932022086 0.00052214119456000423 0 -0.0044811665989533114 0.0049662117714791296 0 -0.0044005150822432407 0.0049301444950779275 0 -0.0043808057966320544 0.0049424873670853089 0 -0.0044811665989533114 0.0049662117714791296 0 -0.0044005150822432407 0.0049301444950779275 0 -0.0044220954483406858 0.0048865308135532847 0 -0.0044811665989533114 0.0049662117714791296 0 -0.0044220954483406858 0.0048865308135532847 0 -0.0045736123954788826 0.0048242259246937102 0 -0.0035923625070125053 0.0079545754616280485 0 -0.003288032009626022 0.0082135200572331663 0 -0.0045736123954788826 0.0048242259246937102 0 -0.0046609384189773614 0.0049407391265389499 0 -0.0047697962195363628 0.0047602475114949415 0 -0.0050734993742785443 0.0028403498285101453 0 -0.0071099954742376414 0.0018325771184568131 0 -0.0064135324967570639 0.00056991746303961389 0 -0.0058216034466316699 0.00052785968638426365 0 -0.0078106660728542773 0.00012846491240692083 0 -0.0064135324967570639 0.00056991746303961389 0 -0.0058216034466316699 0.00052785968638426365 0 -0.0058923170533543706 0.00064385402416416385 0 -0.0050819596131772083 0.002707261711443856 0 -0.0050734993742785443 0.0028403498285101453 0 -0.0044811665989533114 0.0049662117714791296 0 -0.0045736123954788826 0.0048242259246937102 0 -0.0046609384189773614 0.0049407391265389499 0 -0.0057257577424891324 0.00057484277782342361 0 -0.0058216034466316699 0.00052785968638426365 0 -0.0058923170533543706 0.00064385402416416385 0 -0.0057257577424891324 0.00057484277782342361 0 -0.0056251821175559696 0.00048849215073619771 0 -0.0058216034466316699 0.00052785968638426365 0 -0.0046466956636596144 0.0047347576399632456 0 -0.0031341145959163392 0.0050967730388794966 0 -0.0040225689512663745 0.0059697674656643855 0 -0.0048175642568835863 0.0026818558157066224 0 -0.00476111819171987 0.0025422640395341262 0 -0.0051381613661044406 0.0059620488406248884 0 -0.0046466956636596144 0.0047347576399632456 0 -0.0040225689512663745 0.0059697674656643855 0 -0.0057366034647130786 6.2550542255670368e-05 0 -0.00576635822041367 9.2315957458214437e-05 0 -0.0056643358342521617 0.00016214088983550551 0 -0.0057366034647130786 6.2550542255670368e-05 0 -0.0057698901760547061 4.6218101211917669e-05 0 -0.00576635822041367 9.2315957458214437e-05 0 -0.0057738661995320861 5.2121798132874988e-05 0 -0.0057698901760547061 4.6218101211917669e-05 0 -0.00576635822041367 9.2315957458214437e-05 0 -0.0061574347742062215 -0.00083669620782733938 0 -0.00476111819171987 0.0025422640395341262 0 -0.0057366034647130786 6.2550542255670368e-05 0 -0.0055370532615732198 0.00042497519248132126 0 -0.0054717338223603963 0.00028470344207173526 0 -0.0031341145959163392 0.0050967730388794966 0 -0.0032426285084479825 0.005881194356338524 0 -0.0040225689512663745 0.0059697674656643855 0 -0.0031341145959163392 0.0050967730388794966 0 -0.0026168512452564513 0.0059512283405198877 0 -0.0032426285084479825 0.005881194356338524 0 -0.0055370532615732198 0.00042497519248132126 0 -0.005488678743461959 0.00040685964770760985 0 -0.0055035108218449303 0.00044189066863874622 0 -0.0043855600549910223 0.0049007515079289733 0 -0.0043808057966320544 0.0049424873670853089 0 -0.0043759000018764177 0.0049334908364296074 0 -0.00476111819171987 0.0025422640395341262 0 -0.0049794004706902994 0.002710463090228374 0 -0.00476111819171987 0.0025422640395341262 0 -0.003480025729671838 0.0054898769259289779 0 -0.0055370532615732198 0.00042497519248132126 0 -0.0054717338223603963 0.00028470344207173526 0 -0.005488678743461959 0.00040685964770760985 0 -0.005514858000141178 0.00050147831043354982 0 -0.0055798036312995659 0.00049711629749322843 0 -0.005488678743461959 0.00040685964770760985 0 -0.005514858000141178 0.00050147831043354982 0 -0.0054717338223603963 0.00028470344207173526 0 -0.005488678743461959 0.00040685964770760985 0 -0.005562324425743159 0.00047297236324092085 0 -0.005488678743461959 0.00040685964770760985 0 -0.0055035108218449303 0.00044189066863874622 0 -0.0044005150822432407 0.0049301444950779275 0 -0.0043808057966320544 0.0049424873670853089 0 -0.0043609078320412022 0.0049386342350303839 0 -0.0029352238840520601 0.0083908114764858887 0 -0.0018482454784449702 0.011973660590641788 0 -0.0035923625070125053 0.0079545754616280485 0 -0.0029352238840520601 0.0083908114764858887 0 -0.002428052665601583 0.011206435156102305 0 -0.0022708370177618722 0.011197488720169802 0 -0.0023081961902725106 0.011150566273853224 0 -0.0044005150822432407 0.0049301444950779275 0 -0.0044220954483406858 0.0048865308135532847 0 -0.0043609078320412022 0.0049386342350303839 0 -0.0023071894028188805 0.011050334700878539 0 -0.0023889084816732355 0.010988515608327849 0 -0.0023809002608415029 0.011072214257658674 0 -0.0023071894028188805 0.011050334700878539 0 -0.0023205114447833798 0.011147543775431293 0 -0.0023081961902725106 0.011150566273853224 0 -0.0023071894028188805 0.011050334700878539 0 -0.0023809002608415029 0.011072214257658674 0 -0.0023205114447833798 0.011147543775431293 0 -0.0029352238840520601 0.0083908114764858887 0 -0.0026204457380754657 0.0088198823616918495 0 -0.0021049246976668798 0.0068177586102440057 0 -0.0026168512452564513 0.0059512283405198877 0 -0.0031930053440128408 0.0065076574019535521 0 -0.0043808057966320544 0.0049424873670853089 0 -0.0043609078320412022 0.0049386342350303839 0 -0.0043759000018764177 0.0049334908364296074 0 -0.0029352238840520601 0.0083908114764858887 0 -0.003480025729671838 0.0054898769259289779 0 -0.0026204457380754657 0.0088198823616918495 0 -0.0034219977185811065 0.007968479536967275 0 -0.0023889084816732355 0.010988515608327849 0 -0.0024518432281190579 0.010962190490430427 0 -0.0024935397851225398 0.010931403380334107 0 -0.0031930053440128408 0.0065076574019535521 0 -0.0042685278891988476 0.0062081471651779171 0 -0.0040225689512663745 0.0059697674656643855 0 -0.0026168512452564513 0.0059512283405198877 0 -0.0032426285084479825 0.005881194356338524 0 -0.0031930053440128408 0.0065076574019535521 0 -0.0032426285084479825 0.005881194356338524 0 -0.0031930053440128408 0.0065076574019535521 0 -0.0040225689512663745 0.0059697674656643855 0 -0.0023889084816732355 0.010988515608327849 0 -0.0023809002608415029 0.011072214257658674 0 -0.0024518432281190579 0.010962190490430427 0 -0.0023809002608415029 0.011072214257658674 0 -0.0024510374680675579 0.011092091355706409 0 -0.0024030062494236211 0.011186190842129155 0 -0.0023809002608415029 0.011072214257658674 0 -0.0024510374680675579 0.011092091355706409 0 -0.0024518432281190579 0.010962190490430427 0 -0.0024510374680675579 0.011092091355706409 0 -0.0025326086064809744 0.011114915823562466 0 -0.0024518432281190579 0.010962190490430427 0 -0.0026658099125393222 0.010594939276643334 0 -0.0024631943188424305 0.011093746885382073 0 -0.0026313467914942392 0.011071601877553966 0 -0.0025326086064809744 0.011114915823562466 0 -0.0024518432281190579 0.010962190490430427 0 -0.0051381613661044406 0.0059620488406248884 0 -0.0042643968906075497 0.0062019504506270751 0 -0.0040225689512663745 0.0059697674656643855 0 -0.0025909175720085485 0.010978591776935265 0 -0.0024518432281190579 0.010962190490430427 0 -0.0024935397851225398 0.010931403380334107 0 -0.0034219977185811065 0.007968479536967275 0 -0.0033475288425813907 0.0072099824989619926 0 -0.003107629087732669 0.0066264875736486289 0 -0.0034219977185811065 0.007968479536967275 0 -0.0025090753036844768 0.01126055996769079 0 -0.0024030062494236211 0.011186190842129155 0 -0.0024129900435549598 0.011317068249189512 0 -0.0025090753036844768 0.01126055996769079 0 -0.0024129900435549598 0.011317068249189512 0 -0.0024627941662205199 0.011408774221909319 0 -0.0025347544744087338 0.011462760718201083 0 -0.0025090753036844768 0.01126055996769079 0 -0.0024627941662205199 0.011408774221909319 0 -0.0024510374680675579 0.011092091355706409 0 -0.0025326086064809744 0.011114915823562466 0 -0.0025157091111231203 0.011270190890857941 0 -0.0024529812667676899 0.011102633134825284 0 -0.002508287760121537 0.011267158257993619 0 -0.0024510374680675579 0.011092091355706409 0 -0.0025090753036844768 0.01126055996769079 0 -0.0024030062494236211 0.011186190842129155 0 -0.0023809002608415029 0.011072214257658674 0 -0.0024030062494236211 0.011186190842129155 0 -0.0023205114447833798 0.011147543775431293 0 -0.0024030062494236211 0.011186190842129155 0 -0.002352957184602638 0.011232982634175003 0 -0.0023205114447833798 0.011147543775431293 0 -0.0024030062494236211 0.011186190842129155 0 -0.002352957184602638 0.011232982634175003 0 -0.0024129900435549598 0.011317068249189512 0 -0.002352957184602638 0.011232982634175003 0 -0.0024129900435549598 0.011317068249189512 0 -0.002354094993042601 0.011357211356460071 0 -0.002352957184602638 0.011232982634175003 0 -0.0022516107365887655 0.011164631711478416 0 -0.002354094993042601 0.011357211356460071 0 -0.0023205114447833798 0.011147543775431293 0 -0.0023081961902725106 0.011150566273853224 0 -0.0022516107365887655 0.011164631711478416 0 -0.002352957184602638 0.011232982634175003 0 -0.0023205114447833798 0.011147543775431293 0 -0.0022516107365887655 0.011164631711478416 0 -0.0023081961902725106 0.011150566273853224 0 -0.0022516107365887655 0.011164631711478416 0 -0.0024032592340829614 0.011089561895649152 0 -0.0022516107365887655 0.011164631711478416 0 -0.0023410237435891289 0.01095357936139575 0 -0.0024032592340829614 0.011089561895649152 0 -0.0022334991528603445 0.01113043176580064 0 -0.0023782805967194147 0.011361307787410433 0 -0.0023782805967194147 0.011361307787410433 0 -0.0022227873770891424 0.011462536940775691 0 -0.0022516107365887655 0.011164631711478416 0 -0.0020628857074991647 0.01140118726828261 0 -0.0023024547312916646 0.011455083155992611 0 -0.0022863585410163485 0.011497289822090423 0 -0.0022994873728640363 0.011525431397054253 0 -0.0023024547312916646 0.011455083155992611 0 -0.0022863585410163485 0.011497289822090423 0 -0.0022994873728640363 0.011525431397054253 0 -0.0022819584744207858 0.011546302301031531 0 -0.0023292471811050919 0.011579284601863601 0 -0.0022994873728640363 0.011525431397054253 0 -0.002303080727165448 0.011525488033772782 0 -0.0023292471811050919 0.011579284601863601 0 -0.0022994873728640363 0.011525431397054253 0 -0.0022819584744207858 0.011546302301031531 0 -0.0022994873728640363 0.011525431397054253 0 -0.002303080727165448 0.011525488033772782 0 -0.0023024547312916646 0.011455083155992611 0 -0.0022602916953822177 0.011645878809548073 0 -0.0023031652696262569 0.011535930256079813 0 -0.002303080727165448 0.011525488033772782 0 -0.0023024547312916646 0.011455083155992611 0 -0.0023475450733195674 0.011474254385130665 0 -0.0022516107365887655 0.011164631711478416 0 -0.0023024547312916646 0.011455083155992611 0 -0.002354094993042601 0.011357211356460071 0 -0.0023024547312916646 0.011455083155992611 0 -0.002354094993042601 0.011357211356460071 0 -0.0023475450733195674 0.011474254385130665 0 -0.002354094993042601 0.011357211356460071 0 -0.0024028274273900445 0.011453472783120812 0 -0.0023475450733195674 0.011474254385130665 0 -0.0024129900435549598 0.011317068249189512 0 -0.002354094993042601 0.011357211356460071 0 -0.0024028274273900445 0.011453472783120812 0 -0.0024028274273900445 0.011453472783120812 0 -0.0023475450733195674 0.011474254385130665 0 -0.0023700258147012353 0.011557289091222096 0 -0.002303080727165448 0.011525488033772782 0 -0.0023475450733195674 0.011474254385130665 0 -0.0023700258147012353 0.011557289091222096 0 -0.0023161335435286975 0.011630344653070926 0 -0.002303080727165448 0.011525488033772782 0 -0.0023700258147012353 0.011557289091222096 0 -0.0023161335435286975 0.011630344653070926 0 -0.0023633933136709357 0.011650265045509171 0 -0.0023700258147012353 0.011557289091222096 0 -0.0023633933136709357 0.011650265045509171 0 -0.0023700258147012353 0.011557289091222096 0 -0.0024122852751477363 0.011629602319686606 0 -0.0023700258147012353 0.011557289091222096 0 -0.0024122852751477363 0.011629602319686606 0 -0.0024409398461811985 0.011522406823674256 0 -0.0024028274273900445 0.011453472783120812 0 -0.0023700258147012353 0.011557289091222096 0 -0.0024409398461811985 0.011522406823674256 0 -0.0024668718300558537 0.011595324811939338 0 -0.0024202502826005195 0.011702503420602471 0 -0.0024122852751477363 0.011629602319686606 0 -0.0024668718300558537 0.011595324811939338 0 -0.0024122852751477363 0.011629602319686606 0 -0.0024409398461811985 0.011522406823674256 0 -0.0025347544744087338 0.011462760718201083 0 -0.0024409398461811985 0.011522406823674256 0 -0.0024627941662205199 0.011408774221909319 0 -0.0024028274273900445 0.011453472783120812 0 -0.0024409398461811985 0.011522406823674256 0 -0.0024627941662205199 0.011408774221909319 0 -0.0024129900435549598 0.011317068249189512 0 -0.0024028274273900445 0.011453472783120812 0 -0.0024627941662205199 0.011408774221909319 0 -0.0027604870799157193 0.011043998863426453 0 -0.0025934606483690851 0.011050621533575278 0 -0.002789980116967788 0.010906893354184035 0 -0.0025934606483690851 0.011050621533575278 0 -0.0025550130078444934 0.010921870920772233 0 -0.002789980116967788 0.010906893354184035 0 -0.0037488497856414597 0.011293805754400001 0 -0.0051154025053914273 0.0066207838695054267 0 -0.0037488497856414597 0.011293805754400001 0 -0.004303727475437052 0.01041307874122553 0 -0.0052436146789604397 0.010468502606743917 0 -0.0043954003481094708 0.010372333589541016 0 -0.0046963361435563627 0.0093592516414926254 0 -0.0027604870799157193 0.011043998863426453 0 -0.002789980116967788 0.010906893354184035 0 -0.0029132313549773544 0.011077322856787905 0 -0.0026661755654387698 0.011162553344306995 0 -0.0027604870799157193 0.011043998863426453 0 -0.0029132313549773544 0.011077322856787905 0 -0.003288032009626022 0.0082135200572331663 0 -0.0051154025053914273 0.0066207838695054267 0 -0.0026661755654387698 0.011162553344306995 0 -0.0027604870799157193 0.011043998863426453 0 -0.0025934606483690851 0.011050621533575278 0 -0.002428052665601583 0.011206435156102305 0 -0.0026661755654387698 0.011162553344306995 0 -0.0025934606483690851 0.011050621533575278 0 -0.002428052665601583 0.011206435156102305 0 -0.0023081961902725106 0.011150566273853224 0 -0.0024032592340829614 0.011089561895649152 0 -0.002428052665601583 0.011206435156102305 0 -0.0024032592340829614 0.011089561895649152 0 -0.0025934606483690851 0.011050621533575278 0 -0.0023410237435891289 0.01095357936139575 0 -0.0024032592340829614 0.011089561895649152 0 -0.0025550130078444934 0.010921870920772233 0 -0.0024032592340829614 0.011089561895649152 0 -0.0025934606483690851 0.011050621533575278 0 -0.0025550130078444934 0.010921870920772233 0 -0.0025561812120448251 0.011505801873366537 0 -0.0029144416159460462 0.011546451758870903 0 -0.0027539913213476381 0.011238365246646918 0 -0.0023782805967194147 0.011361307787410433 0 -0.0025995461503954321 0.011206331707353731 0 -0.0023782805967194147 0.011361307787410433 0 -0.002480491429784409 0.0114085337386683 0 -0.0029144416159460462 0.011546451758870903 0 -0.0027539913213476381 0.011238365246646918 0 -0.0031112254978059805 0.011277558181054888 0 -0.0029144416159460462 0.011546451758870903 0 -0.0031112254978059805 0.011277558181054888 0 -0.0032772499156805434 0.011585733426920644 0 -0.0025995461503954321 0.011206331707353731 0 -0.0037488497856414597 0.011293805754400001 0 -0.003791224134628444 0.011070231014168192 0 -0.0037488497856414597 0.011293805754400001 0 -0.004303957851464502 0.010992474190341946 0 -0.0041792012601171505 0.010605199160854218 0 -0.0040342286679179457 0.010885076186962699 0 -0.0041792012601171505 0.010605199160854218 0 -0.0040342286679179457 0.010885076186962699 0 -0.0038994204527681396 0.010515369923201425 0 -0.0041700795427396884 0.011141889410652145 0 -0.004037066743688633 0.011247053132175727 0 -0.0040342286679179457 0.010885076186962699 0 -0.0041700795427396884 0.011141889410652145 0 -0.004303957851464502 0.010992474190341946 0 -0.0040342286679179457 0.010885076186962699 0 -0.004037066743688633 0.011247053132175727 0 -0.0040342286679179457 0.010885076186962699 0 -0.0038038582055969767 0.010941648154208757 0 -0.0040312580155910981 0.011239123067239612 0 -0.0038894361846803244 0.010968361362914835 0 -0.0040342286679179457 0.010885076186962699 0 -0.0038038582055969767 0.010941648154208757 0 -0.0038317564240540722 0.010730636829057215 0 -0.004009283105827011 0.011311658189726752 0 -0.0037585397949141774 0.011929475817573686 0 -0.003846283343978317 0.011223591479292342 0 -0.0039625645358216588 0.011078707969139167 0 -0.003739212418688079 0.010940702603602012 0 -0.0038038582055969767 0.010941648154208757 0 -0.0035634833627529224 0.01057381652743721 0 -0.0038317564240540722 0.010730636829057215 0 -0.0038894361846803244 0.010968361362914835 0 -0.0035271097709920654 0.011006647838129036 0 -0.0039625645358216588 0.011078707969139167 0 -0.003844719892695205 0.010828719692255042 0 -0.003739212418688079 0.010940702603602012 0 -0.0035634833627529224 0.01057381652743721 0 -0.0038317564240540722 0.010730636829057215 0 -0.0038994204527681396 0.010515369923201425 0 -0.0040342286679179457 0.010885076186962699 0 -0.0038317564240540722 0.010730636829057215 0 -0.0038994204527681396 0.010515369923201425 0 -0.0043954003481094708 0.010372333589541016 0 -0.0038454354121998848 0.0096067971083144046 0 -0.0046963361435563627 0.0093592516414926254 0 -0.004303727475437052 0.01041307874122553 0 -0.003500631339754548 0.010316964165886152 0 -0.0043954003481094708 0.010372333589541016 0 -0.0035229093799781087 0.010294021070012005 0 -0.0038454354121998848 0.0096067971083144046 0 -0.0035634833627529224 0.01057381652743721 0 -0.0038994204527681396 0.010515369923201425 0 -0.0035229093799781087 0.010294021070012005 0 -0.0035229093799781087 0.010294021070012005 0 -0.0038454354121998848 0.0096067971083144046 0 -0.0030583611164818007 0.0098835129689623432 0 -0.0087468715335341056 0.00084122119469569204 0 -0.0089300286377278753 0.00093898764510796603 0 -0.0089750290841723417 0.0008894206586679748 0 -0.0087468715335341056 0.00084122119469569204 0 -0.0087077510682673376 0.0010224512784117454 0 -0.008847517759526035 0.0010197135916252555 0 -0.0066943913383763071 0.004964088260993464 0 -0.0059313907025418926 0.0073187574334560631 0 -0.0087468715335341056 0.00084122119469569204 0 -0.0089300286377278753 0.00093898764510796603 0 -0.008847517759526035 0.0010197135916252555 0 -0.0066943913383763071 0.004964088260993464 0 -0.0051154025053914273 0.0066207838695054267 0 -0.0087468715335341056 0.00084122119469569204 0 -0.0084423854224973949 0.00093227250394204038 0 -0.0087077510682673376 0.0010224512784117454 0 -0.010136405679680998 0.0032738784026796518 0 -0.0096424374399475092 0.0031809936920568749 0 -0.0097285999629213478 0.0029873489488386755 0 -0.010136405679680998 0.0032738784026796518 0 -0.0094419605370697178 0.0038102671546788539 0 -0.0096424374399475092 0.0031809936920568749 0 -0.0087468715335341056 0.00084122119469569204 0 -0.0089750290841723417 0.0008894206586679748 0 -0.0089936174837454523 0.0008156361938161888 0 -0.0090580498958864435 0.0009058613316221644 0 -0.0089750290841723417 0.0008894206586679748 0 -0.0090503349689511729 0.00093252564726337183 0 -0.0089300286377278753 0.00093898764510796603 0 -0.0089750290841723417 0.0008894206586679748 0 -0.0090503349689511729 0.00093252564726337183 0 -0.0090580498958864435 0.0009058613316221644 0 -0.0089750290841723417 0.0008894206586679748 0 -0.0089936174837454523 0.0008156361938161888 0 -0.008506692924215277 0.0031580211579159078 0 -0.0059313907025418926 0.0073187574334560631 0 -0.008506692924215277 0.0031580211579159078 0 -0.0066986310572324246 0.0078468597275361297 0 -0.0068125094123806778 0.0046394136081676978 0 -0.0075374734703634021 0.0065404185144811115 0 -0.0081515832432436652 0.0063762030846337579 0 -0.003844719892695205 0.010828719692255042 0 -0.0036244139729329234 0.010518987453478386 0 -0.0036716004968457925 0.010506230510562065 0 -0.0035634833627529224 0.01057381652743721 0 -0.0035229093799781087 0.010294021070012005 0 -0.0030583611164818007 0.0098835129689623432 0 -0.0066986310572324246 0.0078468597275361297 0 -0.0037585397949141774 0.011929475817573686 0 -0.0035271097709920654 0.011006647838129036 0 -0.0059313907025418926 0.0073187574334560631 0 -0.0066986310572324246 0.0078468597275361297 0 -0.0059313907025418926 0.0073187574334560631 0 -0.0066986310572324246 0.0078468597275361297 0 -0.007073414403317933 0.0077261303923022179 0 -0.010136405679680998 0.0032738784026796518 0 -0.010240691356107889 0.0035955840900024553 0 -0.0094419605370697178 0.0038102671546788539 0 -0.0043719693837654906 0.011756928468771452 0 -0.0043706573192922827 0.01173385703756331 0 -0.0044659833645027923 0.011747298276140773 0 -0.0043706573192922827 0.01173385703756331 0 -0.0043309228443494021 0.01170907297884839 0 -0.0044169241013654603 0.011715483456479459 0 -0.0043706573192922827 0.01173385703756331 0 -0.0044169241013654603 0.011715483456479459 0 -0.0044659833645027923 0.011747298276140773 0 -0.003844719892695205 0.010828719692255042 0 -0.0036244139729329234 0.010518987453478386 0 -0.003739212418688079 0.010940702603602012 0 -0.0043719693837654906 0.011756928468771452 0 -0.0043706573192922827 0.01173385703756331 0 -0.004289336510497942 0.011727675774496314 0 -0.0043706573192922827 0.01173385703756331 0 -0.004289336510497942 0.011727675774496314 0 -0.0043309228443494021 0.01170907297884839 0 -0.0041489121846154577 0.011657587916946474 0 -0.004289336510497942 0.011727675774496314 0 -0.0042664260254881734 0.011691724803615636 0 -0.0042885116027182348 0.011666469361401526 0 -0.0041489121846154577 0.011657587916946474 0 -0.0042664260254881734 0.011691724803615636 0 -0.004289336510497942 0.011727675774496314 0 -0.0043309228443494021 0.01170907297884839 0 -0.0042664260254881734 0.011691724803615636 0 -0.0042885116027182348 0.011666469361401526 0 -0.0043309228443494021 0.01170907297884839 0 -0.0042664260254881734 0.011691724803615636 0 -0.0043309228443494021 0.01170907297884839 0 -0.0043846934029611951 0.011681601271680421 0 -0.0044169241013654603 0.011715483456479459 0 -0.0042885116027182348 0.011666469361401526 0 -0.0043309228443494021 0.01170907297884839 0 -0.0043846934029611951 0.011681601271680421 0 -0.0044369921786033793 0.011655950020316943 0 -0.0043846934029611951 0.011681601271680421 0 -0.004473281193132771 0.011688759304210863 0 -0.0043846934029611951 0.011681601271680421 0 -0.004473281193132771 0.011688759304210863 0 -0.0044169241013654603 0.011715483456479459 0 -0.0044369921786033793 0.011655950020316943 0 -0.004473281193132771 0.011688759304210863 0 -0.0044990738799156093 0.01166797832390247 0 -0.004473281193132771 0.011688759304210863 0 -0.0044990738799156093 0.01166797832390247 0 -0.0045415017324673523 0.01167847300057143 0 -0.004473281193132771 0.011688759304210863 0 -0.0045415017324673523 0.01167847300057143 0 -0.0044979132383231729 0.011713760012924086 0 -0.0044979132383231729 0.011713760012924086 0 -0.0045550708134583324 0.011713089570684738 0 -0.0044659833645027923 0.011747298276140773 0 -0.0045415017324673523 0.01167847300057143 0 -0.0044979132383231729 0.011713760012924086 0 -0.0045550708134583324 0.011713089570684738 0 -0.004473281193132771 0.011688759304210863 0 -0.0044979132383231729 0.011713760012924086 0 -0.0044169241013654603 0.011715483456479459 0 -0.0044979132383231729 0.011713760012924086 0 -0.0044169241013654603 0.011715483456479459 0 -0.0044659833645027923 0.011747298276140773 0 -0.0049339879577147338 0.011735681248383588 0 -0.004901581970426022 0.01175066348702759 0 -0.0049611687968440562 0.011768766662846132 0 -0.0049944212336054941 0.011726119577049459 0 -0.0049339879577147338 0.011735681248383588 0 -0.0049611687968440562 0.011768766662846132 0 -0.0049254601034015759 0.01170566949569444 0 -0.0049944212336054941 0.011726119577049459 0 -0.0049339879577147338 0.011735681248383588 0 -0.0049339879577147338 0.011735681248383588 0 -0.004901581970426022 0.01175066348702759 0 -0.0048815757004951549 0.011735893663066394 0 -0.004899098930009521 0.01172024864306479 0 -0.0049339879577147338 0.011735681248383588 0 -0.0048815757004951549 0.011735893663066394 0 -0.0048338985684718439 0.01174338116522694 0 -0.004901581970426022 0.01175066348702759 0 -0.0048815757004951549 0.011735893663066394 0 -0.0048424504412788961 0.01171300546778023 0 -0.0048338985684718439 0.01174338116522694 0 -0.0048815757004951549 0.011735893663066394 0 -0.0044701592793107339 0.012551729702943387 0 -0.0066322659227923981 0.0080351008344819105 0 -0.004901581970426022 0.01175066348702759 0 -0.004908354237413628 0.011756596549497992 0 -0.0049611687968440562 0.011768766662846132 0 -0.0048338985684718439 0.01174338116522694 0 -0.004901581970426022 0.01175066348702759 0 -0.004908354237413628 0.011756596549497992 0 -0.0066322659227923981 0.0080351008344819105 0 -0.0066324787935485539 0.007210627824081571 0 -0.008748222720267481 0.0031370398545698215 0 -0.008514317726590637 0.0029436268718192131 0 -0.0084740978488430062 0.0031335980996846247 0 -0.008748222720267481 0.0031370398545698215 0 -0.0084740978488430062 0.0031335980996846247 0 -0.0085657633149053992 0.0032539622115139786 0 -0.0083819151810614178 0.0030816683540970534 0 -0.008514317726590637 0.0029436268718192131 0 -0.0084740978488430062 0.0031335980996846247 0 -0.0066322659227923981 0.0080351008344819105 0 -0.0084770675524243524 0.0024785560425533513 0 -0.0083819151810614178 0.0030816683540970534 0 -0.0084740978488430062 0.0031335980996846247 0 -0.0084706040942334575 0.0031517375432193366 0 -0.0084706040942334575 0.0031517375432193366 0 -0.0083886122337775235 0.0030756543952059089 0 -0.0085872048071766287 0.0028095593441070381 0 -0.0084770675524243524 0.0024785560425533513 0 -0.0085804738763804109 0.0031357288122682682 0 -0.0084740978488430062 0.0031335980996846247 0 -0.0084706040942334575 0.0031517375432193366 0 -0.0083886122337775235 0.0030756543952059089 0 -0.0085525196959035116 0.0034241338129813743 0 -0.0088374403100270633 0.0031002467882985914 0 -0.0085872048071766287 0.0028095593441070381 0 -0.0084740978488430062 0.0031335980996846247 0 -0.0085657633149053992 0.0032539622115139786 0 -0.0083886122337775235 0.0030756543952059089 0 -0.0087942273807438427 0.0037893630157963256 0 -0.0085657633149053992 0.0032539622115139786 0 -0.0083886122337775235 0.0030756543952059089 0 -0.0094419605370697178 0.0038102671546788539 0 -0.008991636910226964 0.0034786203444701121 0 -0.0093353695750129865 0.0032840430632755224 0 -0.0085908129055303154 0.004065480695479671 0 -0.0094419605370697178 0.0038102671546788539 0 -0.008991636910226964 0.0034786203444701121 0 -0.0066322659227923981 0.0080351008344819105 0 -0.007073414403317933 0.0077261303923022179 0 -0.0085908129055303154 0.004065480695479671 0 -0.0085525196959035116 0.0034241338129813743 0 -0.008991636910226964 0.0034786203444701121 0 -0.008991636910226964 0.0034786203444701121 0 -0.009151343079036138 0.0030649572489426912 0 -0.0093353695750129865 0.0032840430632755224 0 -0.0085525196959035116 0.0034241338129813743 0 -0.008991636910226964 0.0034786203444701121 0 -0.0088374403100270633 0.0031002467882985914 0 -0.0088374403100270633 0.0031002467882985914 0 -0.009151343079036138 0.0030649572489426912 0 -0.0089178546474745039 0.0027550137472074398 0 -0.008991636910226964 0.0034786203444701121 0 -0.0088374403100270633 0.0031002467882985914 0 -0.009151343079036138 0.0030649572489426912 0 -0.009151343079036138 0.0030649572489426912 0 -0.0093353695750129865 0.0032840430632755224 0 -0.009443726792187971 0.0028876080504358394 0 -0.0094419605370697178 0.0038102671546788539 0 -0.0093353695750129865 0.0032840430632755224 0 -0.0096424374399475092 0.0031809936920568749 0 -0.0093353695750129865 0.0032840430632755224 0 -0.0096424374399475092 0.0031809936920568749 0 -0.009443726792187971 0.0028876080504358394 0 -0.0096424374399475092 0.0031809936920568749 0 -0.009443726792187971 0.0028876080504358394 0 -0.0097285999629213478 0.0029873489488386755 0 -0.009686325724062873 0.0026061617230252253 0 -0.009443726792187971 0.0028876080504358394 0 -0.0097285999629213478 0.0029873489488386755 0 -0.009686325724062873 0.0026061617230252253 0 -0.0093036158970570895 0.002521844297208157 0 -0.009443726792187971 0.0028876080504358394 0 -0.009151343079036138 0.0030649572489426912 0 -0.009443726792187971 0.0028876080504358394 0 -0.0091829686217107017 0.0027656155476033575 0 -0.0093036158970570895 0.002521844297208157 0 -0.009443726792187971 0.0028876080504358394 0 -0.0091829686217107017 0.0027656155476033575 0 -0.009151343079036138 0.0030649572489426912 0 -0.0091829686217107017 0.0027656155476033575 0 -0.0089178546474745039 0.0027550137472074398 0 -0.0088374403100270633 0.0031002467882985914 0 -0.0089178546474745039 0.0027550137472074398 0 -0.0085872048071766287 0.0028095593441070381 0 -0.0089178546474745039 0.0027550137472074398 0 -0.0090351059779320651 0.0023949552112516636 0 -0.0087505126058989614 0.0023562188197259809 0 -0.0093036158970570895 0.002521844297208157 0 -0.0091829686217107017 0.0027656155476033575 0 -0.0090351059779320651 0.0023949552112516636 0 -0.0091829686217107017 0.0027656155476033575 0 -0.0089178546474745039 0.0027550137472074398 0 -0.0090351059779320651 0.0023949552112516636 0 -0.0093036158970570895 0.002521844297208157 0 -0.0090351059779320651 0.0023949552112516636 0 -0.0091661353974684875 0.0019370833801451808 0 -0.0090351059779320651 0.0023949552112516636 0 -0.008834447187968459 0.002005841980061793 0 -0.0087505126058989614 0.0023562188197259809 0 -0.0090351059779320651 0.0023949552112516636 0 -0.008834447187968459 0.002005841980061793 0 -0.0091661353974684875 0.0019370833801451808 0 -0.0098314451327841078 0.0025635715652683635 0 -0.0091261708408894252 0.0019263454478028795 0 -0.009686325724062873 0.0026061617230252253 0 -0.0093036158970570895 0.002521844297208157 0 -0.0091661353974684875 0.0019370833801451808 0 -0.0095599131388474541 0.0024021872604334518 0 -0.0091661353974684875 0.0019370833801451808 0 -0.0095383833023987997 0.0017944267719996348 0 -0.0084810578441204751 0.0030387860833938208 0 -0.008438135401089843 0.0030831238833011697 0 -0.0080524454681641811 0.0022385153217078695 0 -0.0083007623398801186 0.0026016719906968638 0 -0.0081947664635522097 0.0023677437463824882 0 -0.0080524454681641811 0.0022385153217078695 0 -0.0083886122337775235 0.0030756543952059089 0 -0.0083007623398801186 0.0026016719906968638 0 -0.0083007623398801186 0.0026016719906968638 0 -0.0084518038334918805 0.0024025892850006651 0 -0.0081947664635522097 0.0023677437463824882 0 -0.0083007623398801186 0.0026016719906968638 0 -0.0085872048071766287 0.0028095593441070381 0 -0.0084518038334918805 0.0024025892850006651 0 -0.0083886122337775235 0.0030756543952059089 0 -0.0083007623398801186 0.0026016719906968638 0 -0.0085872048071766287 0.0028095593441070381 0 -0.0089178546474745039 0.0027550137472074398 0 -0.0085872048071766287 0.0028095593441070381 0 -0.0087505126058989614 0.0023562188197259809 0 -0.0085872048071766287 0.0028095593441070381 0 -0.0087505126058989614 0.0023562188197259809 0 -0.0084518038334918805 0.0024025892850006651 0 -0.008834447187968459 0.002005841980061793 0 -0.0087505126058989614 0.0023562188197259809 0 -0.0085174265217219172 0.0020401385744945235 0 -0.0085174265217219172 0.0020401385744945235 0 -0.0084518038334918805 0.0024025892850006651 0 -0.0082691981663454914 0.0021022603406542525 0 -0.0087505126058989614 0.0023562188197259809 0 -0.0085174265217219172 0.0020401385744945235 0 -0.0084518038334918805 0.0024025892850006651 0 -0.008065105104138437 0.0022737580802250734 0 -0.0082691981663454914 0.0021022603406542525 0 -0.0081947664635522097 0.0023677437463824882 0 -0.0084518038334918805 0.0024025892850006651 0 -0.0082691981663454914 0.0021022603406542525 0 -0.0081947664635522097 0.0023677437463824882 0 -0.008065105104138437 0.0022737580802250734 0 -0.0082691981663454914 0.0021022603406542525 0 -0.0080764686784611708 0.0015995553326081768 0 -0.0082691981663454914 0.0021022603406542525 0 -0.0084548596693714319 0.0017151833680420191 0 -0.0080764686784611708 0.0015995553326081768 0 -0.0085174265217219172 0.0020401385744945235 0 -0.0082691981663454914 0.0021022603406542525 0 -0.0084548596693714319 0.0017151833680420191 0 -0.008834447187968459 0.002005841980061793 0 -0.0085174265217219172 0.0020401385744945235 0 -0.008808798409613466 0.0016236205991170525 0 -0.0085174265217219172 0.0020401385744945235 0 -0.0084548596693714319 0.0017151833680420191 0 -0.008808798409613466 0.0016236205991170525 0 -0.0084548596693714319 0.0017151833680420191 0 -0.0085890630787405029 0.0012999304940525969 0 -0.008808798409613466 0.0016236205991170525 0 -0.0085890630787405029 0.0012999304940525969 0 -0.008808798409613466 0.0016236205991170525 0 -0.0089384114567877277 0.001297367758172309 0 -0.0081317129320546896 0.003122635875148268 0 -0.0075836395728160373 0.0033929534076934421 0 -0.0078235694169414716 0.0027990582568053432 0 -0.0087302882313595575 0.0011179685444881518 0 -0.007827403974722362 0.0024526211686097536 0 -0.0084548596693714319 0.0017151833680420191 0 -0.0085890630787405029 0.0012999304940525969 0 -0.0080764686784611708 0.0015995553326081768 0 -0.0082939807512065842 0.00094458020545644113 0 -0.0085890630787405029 0.0012999304940525969 0 -0.0080764686784611708 0.0015995553326081768 0 -0.0095383833023987997 0.0017944267719996348 0 -0.0091049514367602148 0.0015188897458628002 0 -0.0091061397105614127 0.00098765299823881528 0 -0.0091661353974684875 0.0019370833801451808 0 -0.0095383833023987997 0.0017944267719996348 0 -0.0091049514367602148 0.0015188897458628002 0 -0.008834447187968459 0.002005841980061793 0 -0.0091661353974684875 0.0019370833801451808 0 -0.008808798409613466 0.0016236205991170525 0 -0.008808798409613466 0.0016236205991170525 0 -0.0091049514367602148 0.0015188897458628002 0 -0.0089384114567877277 0.001297367758172309 0 -0.0091661353974684875 0.0019370833801451808 0 -0.008808798409613466 0.0016236205991170525 0 -0.0091049514367602148 0.0015188897458628002 0 -0.0091049514367602148 0.0015188897458628002 0 -0.0089384114567877277 0.001297367758172309 0 -0.0091061397105614127 0.00098765299823881528 0 -0.0089872384963281104 0.0011118880589863522 0 -0.0085890630787405029 0.0012999304940525969 0 -0.0089384114567877277 0.001297367758172309 0 -0.0089872384963281104 0.0011118880589863522 0 -0.0089384114567877277 0.001297367758172309 0 -0.0091061397105614127 0.00098765299823881528 0 -0.0093165607034765025 0.0013701039848515767 0 -0.0091327038053446892 0.00099362164531036209 0 -0.0091204880975290937 0.00086393757740900045 0 -0.0091061397105614127 0.00098765299823881528 0 -0.0091670518448649981 0.00082907024199329053 0 -0.0089489568575383347 0.00077910232860485822 0 -0.0092085405633992815 0.00086377258618931406 0 -0.0089872384963281104 0.0011118880589863522 0 -0.0091061397105614127 0.00098765299823881528 0 -0.0091670518448649981 0.00082907024199329053 0 -0.0091803444182494923 0.00063595449618051463 0 -0.0091670518448649981 0.00082907024199329053 0 -0.0091915080614159671 0.0007459315097380671 0 -0.0091670518448649981 0.00082907024199329053 0 -0.0091915080614159671 0.0007459315097380671 0 -0.0091761688882641742 0.00079084069270096962 0 -0.0091670518448649981 0.00082907024199329053 0 -0.0091428406235430273 0.00083809075577276251 0 -0.0091761688882641742 0.00079084069270096962 0 -0.0091204880975290937 0.00086393757740900045 0 -0.0091670518448649981 0.00082907024199329053 0 -0.0091428406235430273 0.00083809075577276251 0 -0.0091428406235430273 0.00083809075577276251 0 -0.0091505224958491789 0.00084941691962411316 0 -0.0091761688882641742 0.00079084069270096962 0 -0.0091428406235430273 0.00083809075577276251 0 -0.0091505224958491789 0.00084941691962411316 0 -0.0091250699035888144 0.00087693263600569546 0 -0.0091204880975290937 0.00086393757740900045 0 -0.0091428406235430273 0.00083809075577276251 0 -0.0091250699035888144 0.00087693263600569546 0 -0.0091642059786324441 0.0008635070553218104 0 -0.0091997658355737841 0.0008088844119851933 0 -0.0092244485091403771 0.00084065627551442265 0 -0.0091642059786324441 0.0008635070553218104 0 -0.0091505224958491789 0.00084941691962411316 0 -0.0091997658355737841 0.0008088844119851933 0 -0.0091642059786324441 0.0008635070553218104 0 -0.0092244485091403771 0.00084065627551442265 0 -0.0091985180039365587 0.00087556086292811628 0 -0.0091642059786324441 0.0008635070553218104 0 -0.0091505224958491789 0.00084941691962411316 0 -0.0091230935872075071 0.00088670162061257494 0 -0.0091505224958491789 0.00084941691962411316 0 -0.0091250699035888144 0.00087693263600569546 0 -0.0091230935872075071 0.00088670162061257494 0 -0.0091505224958491789 0.00084941691962411316 0 -0.0091997658355737841 0.0008088844119851933 0 -0.0091761688882641742 0.00079084069270096962 0 -0.0091997658355737841 0.0008088844119851933 0 -0.0091761688882641742 0.00079084069270096962 0 -0.0092534085499568902 0.0007278970922866509 0 -0.0092235015233392073 0.00068396144172202839 0 -0.0091761688882641742 0.00079084069270096962 0 -0.0092534085499568902 0.0007278970922866509 0 -0.0092235015233392073 0.00068396144172202839 0 -0.0091915080614159671 0.0007459315097380671 0 -0.0091761688882641742 0.00079084069270096962 0 -0.0092999566344310735 0.00059860544665357664 0 -0.0093167305255852512 0.00068217327855609746 0 -0.0092534085499568902 0.0007278970922866509 0 -0.009388603780200051 0.00065150550360575229 0 -0.0093167305255852512 0.00068217327855609746 0 -0.0093265374890074589 0.00075323576728368309 0 -0.0093167305255852512 0.00068217327855609746 0 -0.0093265374890074589 0.00075323576728368309 0 -0.0092534085499568902 0.0007278970922866509 0 -0.0091997658355737841 0.0008088844119851933 0 -0.0092534085499568902 0.0007278970922866509 0 -0.0092595296940518792 0.00078726373429530041 0 -0.0093265374890074589 0.00075323576728368309 0 -0.0092534085499568902 0.0007278970922866509 0 -0.0092595296940518792 0.00078726373429530041 0 -0.009388603780200051 0.00065150550360575229 0 -0.0094770844287163716 0.00068673475698729971 0 -0.0094188608459622632 0.00073913721078064539 0 -0.009388603780200051 0.00065150550360575229 0 -0.0093265374890074589 0.00075323576728368309 0 -0.0094188608459622632 0.00073913721078064539 0 -0.0095118580329742689 0.00076141091286047191 0 -0.0094188608459622632 0.00073913721078064539 0 -0.0093909253232338508 0.00084222656114691047 0 -0.0093265374890074589 0.00075323576728368309 0 -0.0094188608459622632 0.00073913721078064539 0 -0.0093909253232338508 0.00084222656114691047 0 -0.0093265374890074589 0.00075323576728368309 0 -0.0093909253232338508 0.00084222656114691047 0 -0.0092999292623250421 0.00084873188705185973 0 -0.0093909253232338508 0.00084222656114691047 0 -0.0092999292623250421 0.00084873188705185973 0 -0.0092470701029545559 0.00092107380375125913 0 -0.0091997658355737841 0.0008088844119851933 0 -0.0092595296940518792 0.00078726373429530041 0 -0.0092244485091403771 0.00084065627551442265 0 -0.0093265374890074589 0.00075323576728368309 0 -0.0092595296940518792 0.00078726373429530041 0 -0.0092999292623250421 0.00084873188705185973 0 -0.0092595296940518792 0.00078726373429530041 0 -0.0092999292623250421 0.00084873188705185973 0 -0.0092244485091403771 0.00084065627551442265 0 -0.0092999292623250421 0.00084873188705185973 0 -0.009242064463004818 0.00086961116123292919 0 -0.0092244485091403771 0.00084065627551442265 0 -0.009242064463004818 0.00086961116123292919 0 -0.0092244485091403771 0.00084065627551442265 0 -0.0091985180039365587 0.00087556086292811628 0 -0.0073601003393905691 0.0014816133902164441 0 -0.0081824135324766525 0.00086165607463107468 0 -0.0084911864478338529 0.00081579982430196357 0 -0.0084911864478338529 0.00081579982430196357 0 -0.008711790528479188 0.00070383023819168731 0 -0.0089914159912008393 0.00087453252040756374 0 -0.0091985180039365587 0.00087556086292811628 0 -0.0092470701029545559 0.00092107380375125913 0 -0.0091248238369614834 0.0008932604923068293 0 -0.009242064463004818 0.00086961116123292919 0 -0.0091985180039365587 0.00087556086292811628 0 -0.0092470701029545559 0.00092107380375125913 0 -0.0092999292623250421 0.00084873188705185973 0 -0.009242064463004818 0.00086961116123292919 0 -0.0092470701029545559 0.00092107380375125913 0 -0.0081824135324766525 0.00086165607463107468 0 -0.0084911864478338529 0.00081579982430196357 0 -0.0081459613037459175 0.00059768043639302334 0 -0.0084911864478338529 0.00081579982430196357 0 -0.0081459613037459175 0.00059768043639302334 0 -0.008711790528479188 0.00070383023819168731 0 -0.0075653080854081942 0.00095042023032290604 0 -0.0071099954742376414 0.0018325771184568131 0 -0.0064135324967570639 0.00056991746303961389 0 -0.0074371060382071351 0.00076547188280831949 0 -0.0078106660728542773 0.00012846491240692083 0 -0.0084529059283878494 0.0011473243010304331 0 -0.0088603958088348759 0.00087843098087255888 0 -0.0064135324967570639 0.00056991746303961389 0 -0.0073601003393905691 0.0014816133902164441 0 -0.0074371060382071351 0.00076547188280831949 0 -0.0073601003393905691 0.0014816133902164441 0 -0.0081824135324766525 0.00086165607463107468 0 -0.0074371060382071351 0.00076547188280831949 0 -0.0081824135324766525 0.00086165607463107468 0 -0.0074371060382071351 0.00076547188280831949 0 -0.0078106660728542773 0.00012846491240692083 0 -0.0084423854224973949 0.00093227250394204038 0 -0.0086326863473007789 0.0012254893402909482 0 -0.0087077510682673376 0.0010224512784117454 0 -0.0051154025053914273 0.0066207838695054267 0 -0.0071099954742376414 0.0018325771184568131 0 -0.0046609384189773614 0.0049407391265389499 0 -0.0047697962195363628 0.0047602475114949415 0 -0.0048671968854955049 0.0048867306351721195 0 -0.0088718599307275499 0.0011395843279900964 0 -0.008847517759526035 0.0010197135916252555 0 -0.0089693699643757733 0.00098444415551014568 0 -0.0086326863473007789 0.0012254893402909482 0 -0.0088718599307275499 0.0011395843279900964 0 -0.0087077510682673376 0.0010224512784117454 0 -0.0071099954742376414 0.0018325771184568131 0 -0.008993860695934594 0.00088416956185006243 0 -0.0088718599307275499 0.0011395843279900964 0 -0.0087077510682673376 0.0010224512784117454 0 -0.008847517759526035 0.0010197135916252555 0 -0.0089300286377278753 0.00093898764510796603 0 -0.008847517759526035 0.0010197135916252555 0 -0.0089693699643757733 0.00098444415551014568 0 -0.0089300286377278753 0.00093898764510796603 0 -0.0089693699643757733 0.00098444415551014568 0 -0.0090503349689511729 0.00093252564726337183 0 -0.008993860695934594 0.00088416956185006243 0 -0.0089452173014979881 0.00093541901366581105 0 -0.008711790528479188 0.00070383023819168731 0 -0.0089914159912008393 0.00087453252040756374 0 -0.0090954659853809822 0.00092810806714261663 0 -0.0088718599307275499 0.0011395843279900964 0 -0.0089693699643757733 0.00098444415551014568 0 -0.0090954659853809822 0.00092810806714261663 0 -0.0090839113648109263 0.00090710200933067503 0 -0.0089914159912008393 0.00087453252040756374 0 -0.0090954659853809822 0.00092810806714261663 0 -0.0090839113648109263 0.00090710200933067503 0 -0.0090954659853809822 0.00092810806714261663 0 -0.0090992862683246748 0.00091271766994359209 0 -0.0089693699643757733 0.00098444415551014568 0 -0.0090954659853809822 0.00092810806714261663 0 -0.0090503349689511729 0.00093252564726337183 0 -0.008506692924215277 0.0031580211579159078 0 -0.0094567112068640723 0.001416636856886643 0 -0.008506692924215277 0.0031580211579159078 0 -0.0098314451327841078 0.0025635715652683635 0 -0.009860529674597265 0.0028180879084500556 0 -0.0095599131388474541 0.0024021872604334518 0 -0.009711190125291768 0.0023433619034213152 0 -0.0090580498958864435 0.0009058613316221644 0 -0.0090503349689511729 0.00093252564726337183 0 -0.0090982719827480615 0.00092511852636824397 0 -0.010136405679680998 0.0032738784026796518 0 -0.009686325724062873 0.0026061617230252253 0 -0.0097285999629213478 0.0029873489488386755 0 -0.0090954659853809822 0.00092810806714261663 0 -0.0090982719827480615 0.00092511852636824397 0 -0.0090992862683246748 0.00091271766994359209 0 -0.0090954659853809822 0.00092810806714261663 0 -0.0090503349689511729 0.00093252564726337183 0 -0.0090982719827480615 0.00092511852636824397 0 -0.0090839113648109263 0.00090710200933067503 0 -0.0090992862683246748 0.00091271766994359209 0 -0.0091056325346515754 0.0009037310219736621 0 -0.0095599131388474541 0.0024021872604334518 0 -0.0095383833023987997 0.0017944267719996348 0 -0.009711190125291768 0.0023433619034213152 0 -0.0090982719827480615 0.00092511852636824397 0 -0.0090992862683246748 0.00091271766994359209 0 -0.0091118266499229245 0.00089800484987023006 0 -0.0093165607034765025 0.0013701039848515767 0 -0.0094567112068640723 0.001416636856886643 0 -0.0091204880975290937 0.00086393757740900045 0 -0.0090982719827480615 0.00092511852636824397 0 -0.0091118266499229245 0.00089800484987023006 0 -0.0090992862683246748 0.00091271766994359209 0 -0.0091056325346515754 0.0009037310219736621 0 -0.0091118266499229245 0.00089800484987023006 0 -0.0091204880975290937 0.00086393757740900045 0 -0.0091250699035888144 0.00087693263600569546 0 -0.0091118266499229245 0.00089800484987023006 0 -0.0091056325346515754 0.0009037310219736621 0 -0.0091250699035888144 0.00087693263600569546 0 -0.0091230935872075071 0.00088670162061257494 0 -0.0091056325346515754 0.0009037310219736621 0 -0.0091250699035888144 0.00087693263600569546 0 -0.0091118266499229245 0.00089800484987023006 0 -0.0088603958088348759 0.00087843098087255888 0 -0.0090130161501033867 0.00083346540936155933 0 -0.0092470701029545559 0.00092107380375125913 0 -0.0089914159912008393 0.00087453252040756374 0 -0.0091248238369614834 0.0008932604923068293 0 -0.0091230935872075071 0.00088670162061257494 0 -0.0091248238369614834 0.0008932604923068293 0 -0.0090882198557206886 0.00090379817530384938 0 -0.0091642059786324441 0.0008635070553218104 0 -0.0091985180039365587 0.00087556086292811628 0 -0.0091248238369614834 0.0008932604923068293 0 -0.0091642059786324441 0.0008635070553218104 0 -0.0091230935872075071 0.00088670162061257494 0 -0.0091248238369614834 0.0008932604923068293 0 -0.0089914159912008393 0.00087453252040756374 0 -0.0091248238369614834 0.0008932604923068293 0 -0.0090882198557206886 0.00090379817530384938 0 -0.0090839113648109263 0.00090710200933067503 0 -0.0089914159912008393 0.00087453252040756374 0 -0.0090882198557206886 0.00090379817530384938 0 -0.0090839113648109263 0.00090710200933067503 0 -0.0091056325346515754 0.0009037310219736621 0 -0.0090882198557206886 0.00090379817530384938 0 -0.0091056325346515754 0.0009037310219736621 0 -0.0091230935872075071 0.00088670162061257494 0 -0.0090882198557206886 0.00090379817530384938 0 
</DataArray>
</PointData>
<CellData Scalars="region_id,cross_section_updated," Vectors="" Tensors="stress,">
<DataArray type="Float64" Name="region_id" format="ascii">
5 5 5 5 5 6 5 5 6 5 5 5 5 6 5 5 6 5 5 5 5 5 5 5 6 5 5 5 5 5 5 5 5 6 6 6 5 5 5 5 5 5 6 5 5 5 5 5 5 5 5 5 5 5 5 5 5 6 5 5 5 5 5 5 5 5 5 5 6 5 5 5 5 5 6 5 5 6 6 5 6 5 5 5 5 5 5 5 5 5 5 6 5 5 5 5 6 5 5 5 5 5 6 5 5 5 5 5 5 5 5 6 5 6 5 5 5 5 6 5 5 6 5 5 6 5 6 5 5 6 5 5 6 5 5 5 5 5 5 5 6 5 6 5 5 5 6 5 5 5 6 5 5 5 5 5 5 5 5 6 5 5 5 6 5 5 5 5 5 5 5 5 5 5 6 6 5 6 5 6 5 5 5 5 5 5 5 5 6 5 5 5 5 5 5 5 5 5 5 5 5 5 6 5 5 5 6 5 6 5 5 6 5 5 5 5 6 5 5 5 6 5 6 5 6 5 5 6 5 5 5 5 5 5 5 5 5 6 5 5 5 5 5 6 5 5 5 6 5 5 6 5 5 5 5 5 5 5 5 5 6 5 5 5 6 5 5 5 5 6 6 5 5 5 5 6 5 6 5 5 5 5 6 5 5 6 5 5 6 5 5 5 6 5 6 6 6 6 5 5 5 5 5 5 5 5 6 5 6 5 6 5 6 5 5 5 5 6 6 6 5 5 6 5 5 5 6 6 5 5 6 5 5 5 6 5 5 5 5 5 5 5 5 5 6 5 5 5 6 6 6 5 5 5 5 5 5 5 5 6 5 5 5 5 5 5 5 5 5 5 5 5 5 5 5 5 5 5 5 5 5 5 5 5 5 5 5 5 5 5 5 5 5 5 5 5 5 5 5 5 5 6 5 5 5 5 5 5 5 5 5 5 5 5 5 5 5 5 5 5 5 5 6 5 6 5 5 5 5 5 5 5 5 5 6 6 5 5 5 5 5 6 5 6 6 5 6 5 5 5 5 5 5 5 5 5 5 5 6 5 5 5 5 5 5 5 5 5 6 5 5 5 5 5 5 5 5 5 6 5 5 5 5 5 5 6 5 5 5 5 5 6 5 5 5 6 5 6 5 6 5 6 6 5 5 5 6 5 5 5 5 5 5 5 5 5 5 5 5 5 5 6 5 5 5 5 5 5 6 5 5 5 6 5 5 5 5 5 5 5 5 5 5 5 6 5 5 5 6 5 5 6 5 5 5 6 5 5 5 6 6 5 5 5 5 5 5 5 5 5 5 5 5 5 5 5 5 5 5 5 5 6 5 5 5 5 5 6 5 5 6 6 5 6 5 6 5 5 6 5 5 5 5 5 5 6 5 5 6 5 5 6 5 5 5 5 6 5 5 5 6 5 6 5 6 5 5 5 6 5 5 5 6 5 5 5 5 5 5 5 5 5 5 5 5 5 5 5 5 5 5 5 5 5 6 5 5 5 5 6 5 5 5 5 5 6 5 5 5 6 5 5 5 5 5 5 5 5 5 6 5 6 5 5 5 6 5 5 6 5 5 6 5 5 5 5 5 5 5 5 5 5 5 6 5 5 5 5 5 6 5 5 5 5 6 5 5 5 5 6 5 5 5 6 5 6 5 5 5 5 5 5 5 6 5 5 5 5 5 5 5 5 5 5 5 5 5 5 5 5 5 5 5 5 5 5 5 5 5 5 5 5 5 5 5 5 5 5 5 5 5 5 5 5 5 5 5 5 5 5 5 5 5 5 5 6 5 5 5 5 5 5 5 6 5 5 5 5 5 5 5 6 5 5 5 6 5 6 5 6 5 6 5 6 5 5 6 5 5 5 5 5 5 5 5 6 5 5 5 5 5 5 5 5 5 5 5 5 5 5 5 5 6 5 5 5 5 5 5 5 5 5 5 5 5 5 5 5 5 5 6 5 5 5 5 5 5 5 5 5 6 5 6 5 6 5 5 5 5 5 5 5 6 5 5 6 5 5 5 6 5 5 5 5 5 5 5 6 5 5 5 5 6 5 5 5 6 5 5 5 5 6 5 5 5 5 5 5 5 5 5 5 5 5 5 5 5 5 5 5 5 5 5 5 5 5 5 5 5 6 5 5 5 5 6 5 5 5 5 5 5 6 5 5 5 6 5 5 6 5 5 6 5 5 5 5 6 5 5 5 5 5 5 5 5 5 5 5 5 5 6 5 5 5 5 5 5 5 5 5 5 5 5 5 5 5 5 5 5 5 6 5 5 6 5 5 5 6 5 5 6 5 6 5 5 5 5 5 5 5 6 5 5 5 5 5 5 6 5 5 5 5 5 5 5 5 5 5 5 6 6 5 5 5 6 5 5 5 5 5 5 6 5 5 5 6 5 5 5 5 5 5 5 6 5 5 5 5 5 5 5 5 5 5 5 5 5 6 5 5 5 5 5 5 5 5 5 5 5 5 5 5 5 5 5 5 5 5 5 5 5 5 5 5 5 6 5 6 5 5 5 5 5 5 6 5 5 5 5 6 6 5 6 5 6 5 5 5 5 5 5 5 5 5 5 5 5 6 5 5 5 5 6 5 5 6 5 5 5 5 5 6 6 5 5 5 6 5 5 5 6 5 5 5 5 5 5 5 5 6 5 5 5 5 5 5 5 6 5 6 5 5 6 5 5 5 5 5 5 5 5 5 5 6 5 5 6 5 5 5 5 6 5 5 5 5 5 5 5 5 5 5 5 5 5 5 6 5 5 6 5 5 5 5 5 5 5 5 5 5 5 5 5 5 6 5 5 5 5 5 6 5 5 5 5 5 5 5 5 5 5 5 6 5 5 5 5 5 5 6 5 5 5 5 5 5 5 5 5 5 5 5 5 6 5 5 5 5 5 5 5 5 6 5 5 5 5 5 5 5 5 5 6 5 5 5 5 5 5 5 5 5 5 5 5 5 5 5 5 5 5 6 5 6 5 5 5 5 5 5 5 5 5 6 5 5 5 5 5 6 5 5 5 5 5 5 5 5 5 5 6 5 5 5 5 6 5 6 5 5 5 5 5 5 5 5 5 5 5 5 5 5 5 5 5 5 5 5 5 5 5 5 5 5 5 5 5 5 5 5 5 5 5 5 5 5 5 5 5 6 5 5 6 5 5 5 5 5 5 5 5 5 5 5 5 5 5 6 5 5 6 5 5 5 5 5 6 5 5 5 6 5 5 5 5 5 5 5 5 5 5 6 5 6 5 5 5 5 5 5 5 5 5 5 5 5 5 5 6 5 5 5 5 5 5 5 5 5 5 6 5 6 5 5 5 6 5 5 5 5 6 5 5 5 5 5 5 5 6 5 5 5 5 5 5 5 5 5 5 5 5 5 5 5 5 5 5 5 5 5 5 5 5 5 5 6 5 6 5 5 5 5 6 5 5 5 5 6 5 6 5 5 5 5 6 5 5 5 6 5 5 5 6 5 5 6 5 5 6 5 6 6 5 5 5 5 5 5 5 5 6 5 6 5 5 6 5 5 5 5 5 5 5 5 6 5 6 6 5 5 6 5 5 6 5 5 5 5 5 6 5 5 6 5 5 5 5 6 5 5 5 5 5 5 5 5 5 5 5 5 5 6 6 5 5 5 5 5 5 5 5 5 5 6 5 5 6 5 5 6 5 5 5 6 5 5 5 5 5 5 5 5 5 5 5 5 5 5 5 5 5 5 6 5 5 5 5 5 5 5 5 6 5 5 6 5 5 5 5 5 6 5 5 5 5 5 6 5 5 5 6 5 5 5 5 5 6 5 5 5 6 6 5 6 5 5 5 5 6 6 5 5 5 5 5 5 5 5 5 5 5 5 5 5 5 5 5 5 5 5 6 5 5 5 5 5 5 6 5 5 5 5 5 5 5 5 5 5 6 5 5 5 5 5 5 5 5 5 5 5 5 5 5 5 5 5 5 5 5 5 5 5 5 5 5 5 5 5 5 5 5 5 5 5 5 5 5 5 5 5 5 5 5 5 5 5 5 5 5 6 5 6 5 5 5 5 5 6 5 6 5 5 5 5 5 6 6 5 5 5 6 6 5 6 6 6 5 5 5 5 5 5 5 5 5 5 5 5 5 5 5 5 5 5 5 5 5 5 5 5 6 5 6 5 5 5 5 6 5 5 5 6 5 5 5 5 5 5 5 6 5 5 5 5 5 5 5 5 6 5 5 6 5 5 5 5 5 5 5 6 5 6 5 5 5 6 5 5 5 5 5 5 5 5 5 6 5 5 5 5 6 5 5 6 5 5 6 5 5 6 5 5 5 5 6 5 5 6 6 5 5 5 5 5 6 5 5 5 5 5 5 5 5 5 5 5 5 5 5 5 5 5 6 5 5 5 5 5 5 5 6 5 5 5 6 5 6 5 5 5 6 5 6 5 5 5 6 6 5 5 5 5 5 5 5 6 5 6 5 5 5 6 5 5 5 6 5 6 5 5 5 5 5 5 5 5 5 6 5 5 5 5 5 5 5 5 5 5 5 5 5 5 5 5 5 5 5 5 6 5 5 5 5 5 5 5 5 5 5 5 5 5 5 5 5 6 5 5 5 6 6 5 5 5 6 6 5 5 5 6 5 5 5 5 6 5 6 5 5 6 5 5 6 5 5 5 5 5 5 5 5 5 5 5 5 5 5 5 5 6 5 6 5 5 5 5 5 5 5 6 6 6 5 6 5 6 5 5 5 6 5 5 5 5 6 5 5 5 6 5 5 5 5 5 5 5 6 5 5 5 5 5 5 5 5 5 5 6 5 5 5 5 5 5 5 5 5 5 5 6 5 5 5 5 5 5 5 5 5 5 5 5 6 5 5 5 5 5 5 5 5 5 5 5 5 5 5 5 6 5 5 5 5 5 6 5 5 5 5 6 5 5 6 5 6 5 5 5 5 5 5 6 6 6 5 5 5 5 5 5 5 5 5 6 5 5 5 6 5 6 6 5 5 6 5 5 5 5 5 5 5 5 5 5 5 5 5 5 5 5 5 5 5 5 5 5 6 5 5 5 5 5 5 5 5 5 5 5 5 5 5 5 5 6 6 6 5 5 5 5 5 5 6 6 5 5 5 5 5 5 5 5 5 5 5 5 5 5 5 5 5 5 5 5 5 6 5 5 5 5 5 6 5 5 5 5 6 6 5 5 5 5 5 5 5 5 6 5 5 5 5 6 5 5 5 5 5 6 6 6 5 5 5 5 5 5 5 5 5 5 6 5 5 5 5 5 5 5 6 5 5 5 5 5 5 5 5 5 6 5 5 5 5 5 5 5 5 5 5 5 5 5 5 5 5 5 5 5 5 5 5 5 5 6 6 5 5 6 5 5 5 5 6 5 6 5 5 5 5 5 6 5 5 5 5 6 5 5 5 5 5 5 5 5 5 5 5 5 5 5 5 5 5 6 5 5 5 5 5 5 5 5 6 5 5 5 5 5 5 5 5 5 5 5 5 5 5 5 5 6 5 5 5 5 5 5 6 5 5 5 5 5 5 6 5 6 5 5 5 5 5 5 5 5 5 5 5 5 5 6 5 5 5 5 5 5 5 5 5 5 5 5 5 5 5 5 5 5 5 5 5 5 5 5 5 5 5 5 5 5 5 5 6 5 5 5 5 5 5 5 5 5 5 5 5 5 5 5 5 5 5 5 5 5 5 5 5 5 5 5 5 5 5 5 5 5 5 5 5 5 5 5 6 5 5 5 6 5 5 5 5 5 5 5 5 5 5 5 5 5 5 5 5 5 5 5 5 5 5 6 5 5 5 5 5 5 5 5 6 5 5 5 6 5 5 5 5 5 5 5 5 5 5 5 5 5 5 5 5 5 5 5 5 5 5 5 5 5 5 5 5 5 6 5 5 5 5 5 5 5 5 6 5 5 5 5 5 5 5 5 5 6 5 5 5 5 6 5 5 5 5 5 5 6 5 5 5 6 5 5 5 6 5 5 5 5 5 6 5 5 5 5 5 6 5 5 5 6 5 5 6 5 5 5 5 5 5 5 5 5 6 6 6 6 6 5 5 5 5 5 5 5 5 5 5 5 5 5 5 5 5 5 5 5 5 5 5 5 6 5 6 5 5 6 6 6 5 5 5 6 5 6 5 5 5 5 6 5 5 5 6 5 5 6 5 5 5 5 5 5 5 5 6 5 5 5 5 6 6 5 5 5 5 6 5 5 5 5 5 5 6 5 5 5 6 5 5 5 5 5 5 5 6 5 5 5 5 5 5 5 5 5 5 6 5 5 5 5 5 5 5 5 5 5 5 5 5 6 5 5 5 5 5 5 5 5 5 6 5 5 5 5 5 5 5 5 6 5 5 5 5 5 6 5 5 6 5 5 6 5 5 5 5 5 5 5 5 5 5 5 5 5 5 5 6 5 5 5 5 5 5 5 6 5 5 5 5 5 5 5 5 5 5 6 6 5 5 6 5 5 6 5 5 5 5 5 6 5 6 5 5 5 5 5 5 6 6 5 6 5 5 5 5 6 5 5 5 5 5 5 5 6 5 5 5 5 5 5 6 5 5 5 5 5 5 5 5 5 5 5 5 5 5 5 5 5 5 5 5 5 5 5 6 5 5 5 6 5 6 5 5 5 5 5 5 5 5 5 5 5 5 5 5 5 5 5 5 6 5 5 6 6 5 5 5 5 5 5 5 5 5 5 5 5 5 5 5 5 6 5 5 5 5 6 5 5 5 5 5 5 5 5 5 5 5 5 5 6 5 5 5 5 5 5 5 5 5 5 5 5 5 5 5 5 5 5 5 5 6 5 5 5 5 5 6 5 5 5 6 5 5 5 5 5 5 5 5 5 5 5 5 5 5 5 5 5 6 5 5 5 5 5 5 5 5 5 5 5 5 5 5 5 5 5 5 5 5 5 5 5 5 5 5 5 5 5 5 6 5 5 5 6 5 5 5 5 5 5 5 5 5 5 5 5 5 5 5 5 5 5 5 5 5 5 5 5 5 5 5 5 5 5 5 5 5 5 5 5 5 5 5 5 5 5 5 5 5 5 5 5 5 5 5 5 5 5 5 5 5 5 5 5 5 5 5 5 5 5 5 5 5 5 5 5 5 5 5 5 5 5 5 5 6 5 5 5 5 5 5 5 5 5 5 5 5 5 5 5 6 5 5 5 5 5 5 5 6 5 5 5 5 6 5 6 6 5 5 6 5 5 5 5 5 5 5 5 5 5 5 5 5 5 5 5 5 5 5 5 5 6 5 5 5 5 5 5 5 5 6 5 5 6 5 5 5 5 5 6 5 5 5 5 6 5 5 5 5 5 6 5 6 5 5 5 5 5 5 5 5 5 5 5 5 5 5 5 5 5 5 5 5 5 6 5 6 6 5 5 5 5 6 5 6 5 5 5 5 6 5 5 6 6 5 6 6 5 5 5 5 5 5 5 6 5 5 5 5 5 6 5 5 5 6 5 5 5 5 5 5 5 5 5 5 5 5 5 5 5 5 5 5 5 5 5 5 5 5 5 5 5 6 5 5 5 6 5 5 6 5 6 5 5 5 5 5 5 5 5 5 5 6 5 5 5 5 6 5 5 5 5 6 5 5 5 5 5 6 5 6 5 5 5 5 5 5 5 5 5 5 5 5 5 5 5 5 5 6 5 5 5 5 5 5 5 5 5 5 5 5 5 5 6 5 5 5 5 5 5 6 5 5 5 5 5 5 5 5 5 5 5 5 5 5 5 5 5 5 5 5 6 5 5 5 5 5 5 5 5 5 5 5 5 5 5 5 5 5 5 6 5 5 5 5 5 6 5 5 6 5 5 5 6 5 5 5 5 5 5 5 5 5 5 5 6 5 5 5 6 5 5 6 5 5 6 5 6 6 5 5 5 6 5 5 5 5 5 5 5 5 5 5 5 6 5 5 5 5 5 5 6 5 5 5 6 5 5 5 5 5 5 5 5 5 5 5 5 5 5 5 5 5 5 5 5 5 5 5 6 5 5 5 5 5 5 5 5 5 5 5 5 5 5 5 5 5 5 5 5 5 5 5 5 5 5 5 5 5 5 5 5 5 5 5 5 5 6 5 5 5 6 5 5 5 5 5 5 5 5 5 5 5 5 5 5 5 5 5 5 5 5 5 5 5 5 5 5 5 5 5 5 5 5 5 5 6 5 5 5 5 5 5 6 5 5 5 5 6 5 6 5 5 5 5 5 6 5 5 5 6 5 5 5 5 5 5 6 6 5 5 5 5 6 5 5 5 5 6 5 5 5 6 5 5 5 5 5 6 5 6 5 5 6 5 6 5 5 5 5 6 5 5 6 5 6 5 6 5 5 6 5 6 5 5 5 5 5 5 6 5 5 5 5 5 6 5 6 5 5 5 5 5 6 5 6 5 5 5 6 5 6 5 5 5 5 5 5 5 5 5 5 5 5 5 5 5 5 6 5 6 5 5 6 5 5 5 6 6 5 5 6 6 6 5 5 5 5 6 5 5 5 5 5 5 5 5 5 5 5 5 5 5 5 5 5 5 5 5 5 5 5 6 5 5 5 6 5 6 6 5 5 6 5 6 5 5 6 5 5 5 5 5 5 5 6 5 5 6 5 5 5 5 5 5 5 5 6 5 5 5 5 5 5 5 5 5 5 5 5 5 6 5 5 5 5 5 5 5 5 5 5 5 5 5 5 5 5 5 6 5 5 5 5 6 5 5 5 6 6 5 5 5 5 5 5 5 5 5 5 5 5 6 5 5 5 5 5 5 6 5 5 5 5 5 6 5 5 5 5 5 6 5 5 6 5 5 6 5 5 5 5 6 5 5 5 5 5 5 5 5 5 5 5 5 5 5 5 5 5 6 5 5 5 5 5 6 5 5 5 5 5 5 6 5 5 5 5 5 5 6 5 6 5 5 5 6 6 5 5 5 5 5 6 5 5 5 5 5 5 5 5 5 5 5 6 6 5 5 5 5 5 6 5 6 6 5 6 5 5 5 5 5 6 6 6 5 5 5 6 6 6 5 5 6 5 6 5 6 5 5 6 5 5 5 5 6 6 6 5 6 5 5 5 5 5 5 5 5 5 5 5 5 5 5 6 5 5 5 5 5 5 5 6 5 5 6 6 5 5 5 6 6 5 6 5 5 5 5 5 5 5 6 5 5 5 6 5 6 5 6 5 6 5 5 6 5 5 5 5 5 6 5 6 5 5 5 6 6 5 5 5 5 5 5 5 5 5 5 6 5 5 5 6 5 5 6 5 5 5 5 5 5 6 5 5 5 5 6 5 5 5 5 5 5 5 5 5 5 5 5 6 5 6 5 6 5 6 6 5 5 5 5 5 5 6 6 6 5 5 6 5 6 5 5 5 6 5 6 6 6 5 6 6 6 5 5 6 6 5 5 5 5 5 6 5 5 5 5 5 5 5 5 5 5 5 5 5 5 6 5 5 6 5 6 6 5 5 6 5 5 6 5 6 5 6 6 5 5 5 6 5 5 6 6 6 5 5 6 5 5 5 5 5 5 6 5 5 5 5 5 5 5 5 5 5 5 6 5 5 5 5 6 6 5 5 6 6 5 5 6 5 6 5 5 5 5 5 5 6 5 6 5 5 5 5 5 5 5 6 5 5 5 5 5 5 5 5 5 6 5 5 5 5 5 6 5 5 5 5 5 6 5 5 6 5 5 5 5 5 5 5 5 6 5 5 5 5 5 5 6 5 5 5 5 5 6 5 6 5 5 5 6 6 6 5 5 6 5 6 5 5 5 5 6 5 5 5 5 5 5 5 5 5 5 6 5 5 5 5 6 5 5 5 5 6 5 6 5 5 5 6 5 5 5 5 5 5 5 5 5 5 5 5 5 5 5 6 5 5 5 5 5 5 5 6 5 5 5 5 5 5 5 5 5 5 5 5 5 5 5 5 6 6 5 5 5 6 5 5 5 6 6 5 5 5 5 5 5 5 5 5 5 5 5 5 5 5 5 5 5 5 5 5 5 6 5 5 5 5 5 6 5 5 5 5 5 5 5 5 6 6 5 5 6 5 5 5 5 5 5 5 5 5 5 5 5 5 5 5 5 5 5 5 5 5 5 5 5 5 5 5 5 5 5 5 5 5 5 5 6 5 5 5 5 5 5 5 5 5 5 5 5 6 5 5 5 5 5 5 5 5 5 5 6 5 5 5 5 5 5 5 5 5 5 5 5 5 5 5 5 5 5 5 5 5 5 5 5 5 5 5 5 5 5 5 5 5 5 5 5 5 5 5 5 5 5 5 5 5 5 5 5 5 5 5 5 5 5 5 5 5 5 5 5 5 5 5 5 6 5 6 5 5 5 5 6 5 5 5 5 5 6 5 5 5 5 5 5 5 6 5 5 5 5 6 5 5 6 5 6 5 5 5 5 5 5 5 5 6 5 5 5 5 5 5 5 5 5 5 5 5 6 5 6 5 5 6 6 5 5 5 6 5 5 6 6 5 5 6 5 5 5 5 5 5 5 6 5 5 5 6 5 5 5 5 5 5 5 6 5 6 5 5 5 6 5 5 5 5 6 5 5 5 5 5 5 5 5 5 5 5 5 5 5 5 5 5 5 5 5 5 5 5 5 5 6 5 5 5 5 5 5 5 5 5 5 6 5 5 5 5 5 5 5 5 5 6 5 5 5 5 5 5 5 5 5 5 5 5 5 5 5 5 5 5 5 5 5 5 5 5 5 5 5 5 5 5 5 5 5 5 5 5 5 5 5 5 5 5 6 5 5 5 5 5 5 5 5 5 5 5 5 5 5 5 5 5 5 5 6 5 5 5 5 5 6 5 5 5 5 5 5 5 5 5 5 5 5 5 6 5 5 5 5 5 5 5 5 5 5 5 5 5 5 5 5 5 5 5 5 5 5 5 5 5 5 5 6 5 5 5 5 5 5 5 5 5 5 6 5 5 5 5 5 5 5 5 6 6 5 5 5 5 6 5 5 5 6 5 5 6 5 5 5 6 5 5 5 6 5 5 6 5 6 5 5 5 5 5 5 5 5 6 5 5 5 6 6 5 5 6 5 5 6 5 5 5 5 6 5 5 5 5 5 6 5 5 5 5 5 5 5 5 5 5 5 5 5 6 5 5 5 5 5 5 5 6 5 5 6 5 5 5 5 5 5 5 5 6 5 5 6 5 5 5 5 5 5 6 5 5 5 5 5 5 5 5 6 5 5 5 6 6 5 5 5 5 5 6 5 5 5 5 5 5 5 5 5 5 5 5 6 6 5 6 5 6 5 5 5 5 6 5 5 6 5 5 6 6 6 5 5 5 5 5 5 5 5 5 6 5 6 5 5 5 5 5 5 5 5 6 5 6 5 5 5 6 5 5 5 5 5 6 6 5 5 5 6 5 6 5 6 6 5 6 6 5 5 5 5 5 6 5 5 6 5 5 6 5 5 6 5 6 5 5 5 6 5 5 5 5 5 6 5 6 5 5 5 5 5 5 5 5 5 5 6 5 5 5 5 6 6 5 6 5 5 6 5 5 5 5 5 6 5 5 6 5 5 5 6 5 5 5 5 6 5 5 6 5 5 5 6 5 5 5 5 5 5 5 5 6 5 5 5 6 6 5 5 5 5 5 5 6 5 5 5 6 5 5 5 5 5 5 5 5 6 5 5 5 5 5 5 5 5 5 5 5 5 5 5 5 5 5 5 5 5 5 5 5 5 5 5 5 5 5 5 5 5 5 5 5 5 5 5 6 6 5 5 6 5 5 6 6 5 5 6 6 5 5 5 6 5 5 5 5 5 5 6 5 5 6 5 5 5 5 5 5 5 5 5 5 5 6 5 5 5 5 5 5 5 5 5 5 5 5 5 5 5 5 5 5 5 5 5 5 5 5 5 5 5 6 5 5 5 5 5 5 5 6 5 5 5 5 5 5 5 5 6 5 5 5 6 5 5 5 5 5 5 5 5 6 5 5 5 5 5 5 5 5 5 5 5 5 5 5 6 5 6 5 5 5 5 5 6 5 5 5 5 5 6 5 5 5 5 6 5 5 5 5 5 5 5 5 5 5 5 6 5 6 5 5 5 5 5 5 6 5 5 6 5 5 5 5 5 5 5 5 5 5 5 5 5 5 5 5 5 5 6 5 6 5 5 5 5 5 5 5 5 5 5 5 5 5 5 5 5 6 5 5 6 5 5 5 5 6 5 5 5 5 5 6 5 5 5 5 5 5 6 5 5 5 5 5 5 5 5 5 6 5 5 5 5 5 5 5 5 5 5 6 5 5 6 5 5 5 5 6 5 5 6 6 5 5 6 5 5 5 5 5 5 5 5 5 5 5 6 5 5 5 5 5 5 5 5 6 5 5 5 5 5 5 5 5 5 5 5 5 5 6 5 5 5 5 5 5 5 5 5 5 5 5 5 6 5 5 5 5 5 5 5 5 5 5 5 5 5 5 5 5 5 5 5 5 5 6 6 5 5 5 5 5 5 5 5 5 5 5 6 5 6 5 5 5 5 5 5 6 5 5 5 5 5 5 6 5 5 5 5 6 5 5 5 5 5 5 6 5 5 5 5 5 5 5 6 5 5 6 5 5 5 5 5 5 5 5 5 5 5 5 5 5 5 5 5 5 5 5 5 5 5 5 5 5 5 5 5 5 5 5 5 5 5 5 5 5 5 5 5 5 5 5 5 6 5 5 5 5 5 5 5 5 5 5 5 5 6 5 5 5 5 5 5 5 5 5 5 5 6 5 6 5 5 5 5 5 5 5 5 5 5 5 5 5 5 5 5 5 5 5 5 5 5 5 5 5 5 5 5 5 5 5 5 5 5 6 5 5 5 5 5 5 5 6 5 5 5 6 6 5 5 5 5 5 5 5 5 5 5 5 5 5 5 5 5 5 5 5 5 5 5 5 5 5 5 5 6 5 5 5 5 5 5 5 5 6 5 5 5 5 5 6 5 6 6 5 6 5 5 5 6 5 5 5 5 5 5 6 5 6 5 6 5 5 5 5 6 5 6 5 5 5 6 6 5 6 5 6 5 6 5 6 6 5 5 5 5 5 6 5 5 5 5 5 5 5 5 6 5 5 6 6 5 5 6 5 5 6 6 5 6 5 5 5 6 5 5 6 5 6 5 5 5 5 5 5 5 5 5 5 5 5 5 5 5 5 5 5 5 5 5 5 5 5 5 5 6 5 5 5 5 6 5 5 5 6 5 5 5 5 5 5 5 5 5 5 5 5 5 5 5 5 5 5 5 5 5 6 5 5 5 6 5 5 5 5 6 5 5 5 5 6 5 6 5 5 6 5 5 6 6 6 5 5 6 5 5 5 5 5 5 5 5 5 5 5 5 5 5 6 5 5 5 5 5 6 5 6 5 5 5 5 5 5 5 6 5 5 5 6 6 5 5 5 5 5 6 5 5 5 5 5 5 5 5 5 5 5 5 5 5 5 5 5 5 5 5 5 5 6 5 5 5 6 5 5 5 6 5 5 5 6 5 5 6 5 5 6 5 5 5 6 5 5 5 5 5 5 5 5 6 5 6 6 5 5 6 5 5 5 5 5 5 6 5 5 5 5 5 5 5 5 5 5 5 5 5 5 5 6 5 5 5 5 5 5 5 6 5 5 6 5 5 5 5 5 5 5 5 5 5 6 5 6 5 5 5 5 6 5 5 5 5 6 5 6 5 5 5 5 5 5 6 5 5 5 5 5 6 5 6 5 5 6 6 5 5 5 6 5 6 5 5 5 5 5 6 5 5 5 6 5 6 6 5 6 5 5 5 5 5 5 5 6 5 5 5 5 6 5 5 5 5 6 5 5 5 5 6 5 5 5 6 5 6 5 6 5 5 5 6 6 5 6 5 6 5 6 5 5 6 5 5 6 5 5 6 5 5 6 6 5 6 5 6 5 6 5 5 5 5 5 5 5 6 5 5 5 6 5 5 5 6 5 5 5 5 5 5 5 5 5 5 5 5 5 6 5 5 5 5 5 6 5 5 5 5 5 5 6 5 5 5 5 5 6 5 6 5 6 5 5 5 5 5 5 5 5 5 5 6 6 5 5 5 5 5 5 5 5 5 5 5 5 5 5 5 5 5 5 5 5 5 5 5 5 6 5 5 5 5 5 5 5 5 5 5 5 6 6 5 5 5 6 5 5 5 6 5 5 6 5 5 5 5 5 5 5 5 5 5 5 5 5 6 5 5 5 5 5 5 5 6 6 5 6 6 5 5 5 6 6 6 5 5 5 6 5 6 5 5 5 5 5 5 5 5 5 5 5 5 5 5 5 5 5 5 5 5 6 5 5 5 6 5 5 5 6 5 5 5 6 5 5 5 5 5 5 5 5 6 5 5 5 5 5 6 5 5 5 5 5 6 5 6 6 6 5 6 5 5 6 5 5 5 5 6 5 5 6 5 5 6 5 5 5 6 5 6 6 5 5 6 5 6 5 6 5 6 6 5 6 5 5 5 6 6 5 5 5 5 6 5 5 5 5 5 5 6 5 5 5 5 6 5 5 6 5 5 6 5 6 6 5 6 5 5 6 6 5 5 6 5 5 5 6 6 5 6 5 5 5 6 6 5 5 5 5 5 5 5 5 5 6 5 5 5 5 5 5 5 5 5 5 5 5 5 5 5 5 5 5 5 5 5 5 5 5 6 5 5 5 6 5 5 5 5 6 5 5 5 5 6 5 5 5 5 5 5 5 5 5 5 5 5 5 5 5 5 5 5 5 5 5 5 5 5 5 5 5 5 5 5 5 5 5 5 5 5 5 5 5 5 5 5 5 5 6 5 5 5 5 6 5 5 5 5 5 6 5 6 5 6 5 5 5 5 6 5 5 5 5 5 6 5 5 5 5 5 6 5 5 6 5 5 6 5 5 5 5 6 5 5 5 5 5 5 5 5 6 6 5 5 5 6 5 5 6 5 5 5 5 5 5 5 5 5 6 5 6 5 5 6 5 5 5 6 5 5 5 5 5 5 5 5 6 6 5 6 6 5 5 6 5 5 5 6 5 5 5 6 5 5 5 5 5 5 5 5 5 5 5 5 5 5 5 5 5 5 6 5 5 5 5 5 5 5 5 5 5 5 5 5 5 6 5 5 5 6 5 5 5 5 5 5 6 5 5 5 5 5 5 5 5 5 6 5 5 5 5 5 5 6 5 5 6 5 5 6 6 5 5 5 5 6 5 5 5 5 5 5 5 5 5 5 5 5 6 5 5 5 5 5 5 5 5 5 5 5 5 6 5 5 6 5 5 5 6 6 5 6 5 6 5 5 5 5 5 5 5 6 5 5 6 5 5 5 5 5 5 5 5 5 5 5 5 5 6 5 5 5 6 5 5 5 6 5 5 5 6 5 5 5 5 6 5 5 5 5 5 5 5 6 5 5 5 6 5 5 5 5 5 6 5 5 5 5 5 5 5 5 5 5 6 5 5 6 5 5 5 6 5 5 6 5 5 5 5 6 5 5 5 5 5 5 5 6 6 5 6 5 5 6 5 6 6 6 5 5 5 5 6 6 5 5 6 5 5 5 6 5 6 5 5 5 5 5 5 5 5 5 5 6 5 5 5 6 5 5 5 5 6 5 5 6 5 5 6 5 5 5 5 6 5 6 5 5 5 5 5 5 5 5 5 5 5 5 5 5 5 5 5 5 5 5 5 5 5 5 5 5 5 5 5 5 6 5 5 6 5 5 5 5 5 5 5 5 5 5 5 5 6 5 5 5 5 5 5 6 5 5 5 6 6 5 5 5 5 5 6 5 5 5 5 6 5 5 6 5 5 5 5 5 5 6 6 6 6 5 6 5 5 6 5 6 5 5 5 5 5 6 5 5 5 5 5 5 5 6 5 6 6 5 5 5 5 5 5 6 5 5 5 5 5 5 5 5 5 5 5 5 5 5 5 5 5 5 6 5 5 5 5 5 5 5 5 5 5 5 5 5 5 5 6 5 5 5 5 5 5 5 5 5 5 5 5 5 5 5 5 5 6 5 5 5 5 5 5 6 6 5 5 5 5 6 5 5 5 5 5 5 5 5 5 5 5 5 5 5 5 5 5 6 5 6 5 5 5 5 5 5 5 5 5 6 5 5 5 5 5 5 6 5 5 5 5 5 5 5 6 5 5 5 5 5 5 5 5 5 5 5 5 5 5 6 5 5 5 5 5 5 5 5 5 5 5 5 5 5 5 5 6 6 5 6 5 5 6 5 5 5 6 5 5 5 5 5 6 5 5 5 5 5 5 5 5 5 5 5 5 5 5 6 5 5 5 5 5 5 5 5 5 5 5 5 5 5 5 5 5 5 5 5 5 5 5 5 6 5 6 5 5 5 6 5 5 5 5 5 5 5 5 6 5 5 5 5 5 5 5 6 5 5 6 5 5 6 5 5 5 5 5 5 5 5 5 6 5 6 5 5 5 5 6 6 5 5 5 5 5 5 5 5 5 5 5 5 5 5 5 5 5 5 6 5 5 5 5 5 5 5 6 5 5 5 5 6 5 5 5 5 5 6 5 5 6 5 6 5 5 5 5 5 6 5 6 5 5 6 5 5 5 6 5 5 5 6 5 5 5 5 5 5 5 5 6 5 5 5 5 5 5 5 6 5 5 5 6 6 5 5 5 5 6 5 5 5 5 5 5 6 5 5 5 5 5 5 6 5 5 5 5 5 5 5 6 5 5 5 5 5 5 5 5 6 5 5 6 5 5 5 5 5 5 5 5 5 5 5 5 5 5 5 6 5 5 5 5 6 5 5 5 5 5 5 5 5 5 5 6 5 5 5 5 6 5 5 5 5 5 5 5 5 5 5 5 5 5 5 5 5 5 5 5 5 5 5 5 5 5 5 5 5 5 5 5 5 5 5 5 5 5 5 5 5 5 5 6 6 5 5 5 5 6 5 5 5 6 5 5 5 5 5 5 5 5 5 5 5 5 5 5 5 5 5 5 5 6 5 5 5 5 5 5 5 5 5 5 5 5 6 5 5 5 5 5 5 5 5 5 5 5 6 5 6 5 6 5 5 5 5 5 5 6 5 5 5 6 5 5 5 5 5 5 5 5 5 6 5 5 5 5 5 5 6 5 5 5 5 5 5 5 5 5 5 5 5 5 5 5 5 5 6 6 5 5 5 5 5 5 5 6 5 5 5 5 5 5 5 6 5 5 6 5 5 5 5 6 5 5 5 5 6 5 5 5 5 5 5 5 5 5 5 5 5 6 5 5 5 5 5 5 5 6 5 5 5 5 5 5 5 5 5 5 5 5 5 6 5 5 5 5 5 5 6 5 5 5 5 5 5 5 6 5 5 5 5 5 5 5 5 6 6 5 5 6 5 5 5 5 5 5 5 5 5 5 5 5 5 5 5 5 5 6 5 5 6 5 5 5 5 5 5 5 5 5 5 5 5 5 5 5 5 5 5 5 5 5 5 5 5 5 5 6 5 5 5 6 5 5 5 5 5 6 5 5 5 5 5 5 5 6 5 5 5 5 5 6 6 5 5 6 5 5 5 5 5 5 5 5 5 5 6 5 5 5 5 5 5 5 5 6 5 5 5 5 5 5 5 5 6 5 6 5 5 5 5 6 5 5 5 5 5 5 5 5 5 5 5 5 6 5 5 5 5 6 5 5 5 6 5 5 5 5 5 5 5 5 5 6 5 5 5 5 5 6 5 5 5 6 5 6 5 5 5 6 5 5 6 5 5 5 5 5 5 6 6 5 5 5 5 5 5 6 5 6 5 6 5 5 5 5 5 5 5 5 6 5 5 5 5 5 5 5 5 5 5 5 5 5 5 5 5 5 6 6 5 5 6 6 5 5 5 5 5 6 5 5 6 5 5 5 6 6 5 5 5 6 5 5 5 5 5 5 5 5 6 5 5 6 6 5 6 5 5 5 6 5 6 5 5 5 5 5 5 5 5 5 5 5 5 5 5 5 6 5 5 5 5 5 5 5 5 6 5 6 5 5 5 5 6 5 5 5 5 5 5 6 5 5 5 5 6 6 5 5 6 5 6 5 5 5 5 5 6 5 5 5 5 5 5 5 5 5 6 5 5 5 5 6 5 5 5 5 6 5 5 5 5 5 5 5 5 5 6 5 6 5 6 5 6 5 5 5 5 5 5 5 5 5 5 5 6 5 5 5 5 5 5 5 6 6 5 5 5 5 6 5 5 6 5 5 5 5 5 5 5 5 6 5 5 5 5 6 5 5 5 5 5 5 6 5 5 5 5 5 5 5 5 5 5 5 5 5 5 5 5 5 5 5 6 5 5 5 5 5 5 5 5 5 5 5 5 5 5 5 5 5 5 5 5 5 5 5 5 5 6 5 5 5 6 5 5 5 5 5 5 5 5 6 5 5 5 6 5 5 5 6 5 5 5 6 5 5 5 5 5 6 5 5 5 5 5 5 5 5 5 5 6 5 5 5 6 5 5 5 6 5 5 5 6 6 5 5 5 6 6 5 6 5 5 5 5 5 5 5 5 5 6 5 5 5 5 6 5 5 6 5 6 5 5 6 5 5 6 5 5 6 5 5 5 6 5 5 5 5 5 5 5 5 5 5 5 5 5 5 5 5 5 5 5 5 5 6 5 5 5 5 5 5 5 5 5 5 6 5 5 5 5 5 5 5 5 6 5 5 5 5 6 5 5 5 6 5 6 5 5 5 5 5 5 5 5 5 5 5 5 5 5 5 5 5 6 5 5 5 5 5 5 5 5 5 5 5 5 5 5 5 5 5 5 5 5 5 5 5 5 5 5 5 5 5 5 5 6 6 5 5 5 5 5 5 5 5 5 5 5 5 5 6 5 5 5 5 5 6 5 6 5 5 5 5 6 5 5 5 5 5 5 5 5 5 5 5 5 5 5 5 6 5 5 5 5 5 5 6 5 5 5 5 6 5 5 5 5 5 5 5 6 5 5 5 5 5 5 5 5 5 5 5 5 5 5 5 5 5 5 5 5 6 5 5 5 5 5 5 6 5 5 5 5 5 6 5 5 5 5 5 5 5 5 5 5 5 5 5 5 5 5 6 5 5 5 5 5 5 5 5 5 5 6 5 5 6 5 5 5 5 5 5 5 6 6 5 5 5 5 5 5 5 5 5 5 5 5 5 5 5 5 5 5 5 5 5 5 5 5 5 5 5 5 6 6 5 5 5 6 5 5 5 5 5 5 5 5 5 5 6 5 5 5 5 6 5 5 5 5 5 5 5 5 5 5 5 5 5 5 5 5 5 5 6 5 5 5 5 6 5 6 5 5 5 5 5 6 5 6 5 5 5 5 5 5 5 6 5 5 5 5 6 5 6 5 5 5 5 5 5 5 6 5 6 5 5 5 6 5 5 5 5 5 5 5 5 5 5 5 5 5 5 5 5 5 5 6 5 5 5 5 5 5 5 5 5 5 5 5 5 5 5 6 5 5 5 6 5 5 5 5 5 5 5 5 5 5 5 5 6 5 5 5 5 5 5 6 5 5 6 6 5 5 5 5 5 5 5 5 5 5 6 5 5 5 5 5 5 5 5 5 5 5 5 5 5 5 5 5 5 5 5 5 5 6 5 5 5 5 5 5 5 5 5 5 5 5 5 5 5 5 6 5 5 5 5 5 5 5 5 5 5 6 5 5 5 5 5 5 6 5 5 5 5 5 5 5 5 5 5 5 5 5 5 5 5 5 5 5 5 5 5 6 5 5 5 5 5 5 5 5 5 5 5 5 5 5 5 5 5 5 5 5 5 6 5 5 5 5 5 5 6 5 5 5 5 5 5 5 5 5 5 5 5 6 5 6 5 5 6 5 5 5 5 5 5 5 5 5 5 5 5 5 5 5 5 5 5 5 6 5 5 5 5 5 5 5 5 5 5 5 5 5 5 5 5 5 5 5 5 5 5 5 5 5 5 5 5 5 5 5 5 5 5 5 5 5 5 5 5 5 5 5 5 5 5 5 5 5 5 5 5 5 5 5 5 5 5 5 5 5 5 5 5 5 5 5 5 5 5 5 5 5 5 5 5 5 5 5 5 5 5 5 5 5 5 5 5 5 5 5 5 5 5 5 5 5 5 5 5 5 5 5 5 5 5 5 5 5 5 5 5 5 5 5 5 5 5 5 5 5 5 5 5 5 5 5 5 5 5 5 5 5 6 5 6 5 5 5 5 5 5 6 5 5 5 6 5 6 5 5 6 5 5 5 5 5 5 5 5 5 5 5 5 5 5 6 5 5 5 6 5 5 5 5 5 6 5 5 6 5 5 5 5 5 6 5 5 5 5 5 5 5 5 5 5 5 5 5 5 6 5 6 5 6 5 5 5 5 5 5 5 5 5 5 5 5 5 5 5 6 5 6 5 5 5 6 5 5 5 6 5 5 6 5 5 5 6 5 5 6 5 6 5 5 5 5 6 5 5 5 6 5 5 5 5 5 6 6 5 5 6 5 5 6 5 6 5 5 5 5 5 5 6 5 5 5 5 5 5 6 6 5 5 6 5 5 6 5 5 5 5 5 5 5 5 6 5 5 5 6 5 5 5 6 5 5 5 5 5 5 5 5 5 5 5 5 5 5 5 5 5 6 5 5 5 5 5 5 5 6 5 5 5 5 5 5 6 5 5 5 5 5 5 5 5 5 5 5 5 5 5 5 5 5 6 6 5 5 5 5 5 5 5 5 6 6 5 5 5 6 5 5 6 5 5 6 5 6 5 5 5 6 5 5 5 6 6 5 5 5 5 5 5 5 5 5 5 6 6 5 5 5 5 5 5 5 5 5 5 5 5 6 5 5 5 5 5 5 5 5 6 5 5 5 5 6 5 6 5 5 6 5 6 5 5 6 5 5 6 5 5 5 5 5 5 5 5 5 5 5 5 5 5 5 5 5 5 5 5 5 5 5 5 5 5 5 5 5 5 6 5 5 5 5 5 5 5 5 5 5 6 5 5 5 6 5 5 5 5 6 5 5 5 5 5 6 5 5 5 5 6 5 5 6 5 5 5 6 5 5 5 5 5 5 6 5 5 5 6 5 5 5 6 5 5 5 5 5 6 6 5 5 5 5 5 6 5 5 5 6 6 6 6 5 5 5 5 5 5 6 5 5 5 5 5 5 5 5 5 5 6 5 5 5 5 5 5 5 5 5 5 5 6 5 5 5 5 5 5 5 5 5 5 5 5 6 5 6 5 5 5 5 5 6 5 5 5 5 5 5 5 6 5 5 5 5 6 6 5 5 6 6 5 6 5 6 5 5 5 5 5 6 5 5 5 5 5 6 5 6 5 5 6 5 5 5 6 5 5 5 5 5 5 5 6 6 6 5 5 6 5 5 5 5 5 5 5 5 5 5 5 5 5 6 5 5 5 6 6 5 6 5 5 5 6 5 5 5 5 5 5 5 5 5 5 5 5 5 5 5 5 5 5 5 6 5 5 5 5 6 5 5 6 6 5 5 5 5 5 5 5 5 5 5 5 5 5 5 5 5 5 5 5 6 5 5 5 5 5 5 5 5 5 5 5 5 5 5 5 5 5 5 5 5 5 5 5 5 5 5 5 5 5 5 5 5 5 5 5 5 5 5 5 5 5 5 5 5 5 5 5 5 5 5 5 5 5 5 5 5 5 5 5 5 5 5 5 5 5 5 5 5 5 5 5 5 5 6 5 5 5 5 5 5 5 5 5 5 6 5 5 5 5 5 6 5 5 5 5 5 5 5 5 6 5 6 5 6 5 5 6 5 5 5 5 5 5 5 6 5 5 5 5 6 5 5 5 5 6 5 5 6 5 5 5 5 5 5 5 5 5 5 5 5 5 5 5 5 5 5 5 5 5 5 5 5 5 5 5 5 5 5 5 5 6 5 6 5 5 5 6 5 5 5 5 6 5 5 5 5 5 6 6 5 5 5 5 5 5 5 5 5 6 5 6 5 5 5 5 5 6 5 5 5 5 5 5 5 5 5 5 5 5 5 6 5 5 5 5 6 5 5 5 5 5 6 5 5 5 5 5 5 6 5 5 5 5 5 5 5 5 5 5 5 5 5 5 5 6 5 5 5 5 5 5 5 5 5 6 5 5 5 5 5 5 6 6 5 5 5 5 5 6 5 5 5 5 5 5 5 5 5 6 5 6 6 5 5 5 5 5 6 5 5 5 5 5 5 5 5 6 5 5 5 5 5 6 5 5 5 5 5 5 5 5 5 5 5 6 5 5 5 5 5 6 5 5 5 5 5 5 5 5 5 5 5 5 5 5 5 5 6 5 5 6 5 5 5 5 5 5 6 6 6 5 5 5 5 5 5 5 5 5 5 5 5 5 5 5 5 5 6 5 5 5 5 5 5 5 5 5 5 5 5 5 5 5 5 5 5 5 5 5 5 5 5 5 5 6 5 6 5 5 5 5 5 5 5 5 5 5 5 5 5 5 5 5 5 5 5 5 5 5 6 5 6 5 5 5 5 6 5 5 5 5 5 5 5 5 5 5 5 5 5 6 5 5 6 5 5 5 5 5 5 5 6 5 5 5 6 6 5 5 6 5 5 5 5 6 6 5 5 5 5 5 5 5 5 5 5 5 5 5 5 5 5 5 5 5 5 5 5 5 5 5 5 5 6 6 5 5 5 5 5 5 5 5 5 5 5 5 6 5 5 5 5 5 6 5 5 5 5 5 5 5 5 5 6 5 5 5 6 5 5 5 5 6 5 5 6 5 6 5 5 5 6 6 5 5 5 5 5 6 6 5 5 6 6 5 5 5 6 6 6 6 5 6 5 6 5 6 6 5 5 5 5 6 5 5 5 5 5 5 5 5 5 5 5 5 5 5 5 5 5 5 5 5 6 5 5 5 6 5 5 5 5 5 6 5 5 6 5 6 5 5 5 5 5 5 5 5 5 5 6 6 5 5 5 5 5 5 5 5 5 5 5 5 5 5 5 5 5 6 5 5 6 5 5 5 5 5 5 5 5 5 5 6 5 5 5 5 6 5 5 5 5 5 5 6 5 5 5 5 5 5 5 5 5 5 5 5 5 5 5 5 5 5 5 5 5 5 5 5 5 5 5 5 5 5 5 5 5 6 5 5 5 5 5 6 5 5 5 5 5 5 5 5 5 5 5 5 5 5 5 5 5 5 6 5 6 5 5 5 5 5 5 5 6 5 5 5 5 5 5 5 5 6 6 5 6 5 5 5 5 6 6 5 5 5 5 5 5 5 5 5 5 5 5 5 5 5 5 5 6 5 5 5 5 5 6 5 5 5 5 5 5 5 5 5 6 5 6 5 5 5 5 5 5 5 5 5 5 5 5 5 5 5 5 5 5 5 5 5 5 5 5 5 5 5 5 5 5 5 6 5 5 5 5 5 5 5 5 5 5 5 5 5 5 5 5 5 5 5 5 5 5 6 5 5 5 6 5 5 5 6 6 5 5 5 5 6 5 5 5 5 5 5 6 5 5 5 6 6 5 5 5 5 5 5 5 5 5 5 5 5 5 5 5 5 5 5 6 5 5 5 6 5 5 5 5 5 5 5 5 5 5 5 5 5 5 5 5 5 5 5 5 5 5 5 5 5 5 5 5 5 6 6 5 5 5 5 5 5 5 5 5 6 6 5 6 6 5 5 5 5 5 5 5 5 5 5 5 5 6 5 5 5 5 5 5 6 5 5 5 5 5 5 5 5 5 5 5 5 5 5 5 5 5 6 5 5 5 5 5 6 5 5 5 6 5 5 5 5 5 5 6 5 6 5 5 5 6 6 5 6 5 5 6 6 5 5 5 5 5 5 5 5 6 6 5 5 5 5 5 5 5 5 6 5 5 5 5 5 5 5 5 5 5 5 5 5 6 5 6 5 6 5 5 5 5 6 5 5 5 5 6 6 5 5 5 5 5 5 5 6 5 5 5 5 5 5 5 5 5 5 5 5 5 5 5 5 5 5 5 6 6 5 5 5 6 5 6 5 5 6 5 5 5 6 5 6 5 6 5 5 5 5 5 6 6 5 5 5 6 6 5 5 5 5 5 5 5 5 5 5 6 5 5 6 5 5 6 5 5 5 5 6 6 5 5 5 5 5 5 5 5 5 6 5 5 5 5 5 6 5 5 5 5 5 6 6 5 5 6 6 5 6 5 6 5 5 5 6 5 5 6 6 5 6 6 6 5 5 5 5 5 6 5 5 5 5 5 5 5 5 5 6 5 5 5 5 5 5 6 5 6 5 5 6 5 5 5 5 6 5 5 5 5 6 5 5 5 5 5 6 6 5 5 5 5 5 6 6 5 5 5 5 5 6 5 5 6 6 5 5 5 5 5 5 5 5 6 5 5 5 6 6 5 5 5 5 6 5 5 5 5 5 5 5 5 5 5 6 6 5 5 5 5 5 5 6 5 5 5 5 5 5 5 5 5 5 5 5 5 5 5 5 5 5 5 6 6 5 5 5 6 5 5 5 5 5 5 5 6 6 5 5 6 6 5 5 5 5 5 6 5 6 5 5 6 5 5 5 5 6 5 5 5 5 5 6 5 6 5 5 5 5 5 5 5 6 6 5 5 5 6 6 6 6 5 5 5 5 5 5 5 5 5 5 5 5 5 5 5 5 5 5 5 5 5 5 5 5 5 5 5 5 5 6 5 5 6 5 5 5 6 5 5 6 5 5 5 5 5 5 6 5 5 5 5 5 5 5 5 5 5 5 5 5 5 5 5 5 5 5 5 5 6 5 5 6 5 5 5 5 5 5 5 5 5 5 5 5 5 5 5 5 5 5 5 5 6 5 5 5 5 5 5 5 5 5 5 6 5 6 5 5 5 5 5 5 5 5 5 5 5 5 5 5 5 5 5 5 5 5 5 5 5 5 5 5 5 5 5 5 5 5 5 5 5 5 5 5 5 5 6 5 6 5 5 5 5 6 5 5 5 6 5 5 5 6 5 5 5 5 5 6 6 5 5 5 5 5 5 5 5 6 5 5 5 5 5 6 5 5 5 5 5 5 5 5 
</DataArray>
<DataArray type="Float64" Name="stress" NumberOfComponents="9" format="ascii">
-651.91427948541605 1128.7939822497992 0 1128.7939822497992 0.26543317803225364 0 0 0 0 -152.66944625445467 1203.0742014280477 0 1203.0742014280477 -666.88623001350788 0 0 0 0 -0.59469081266070134 641.99711998422845 0 641.99711998422845 -1302.1293008251087 0 0 0 0 -155.26112766956976 851.62875845861254 0 851.62875845861254 -1385.2097292151084 0 0 0 0 67.767365993771818 270.35554363644769 0 270.35554363644769 -1741.7594052026452 0 0 0 0 -6.4612043032838926 3.8172217899799108 0 3.8172217899799108 -3.3749820539232545 0 0 0 0 -608.50061251293664 980.71593061101339 0 980.71593061101339 -783.88782392897701 0 0 0 0 -334.90140065455853 736.0086354815503 0 736.0086354815503 -177.12342580227778 0 0 0 0 -2.0220828935812349 18.058643227603753 0 18.058643227603753 7.8158521573287203 0 0 0 0 -76.217837583375513 119.82024485251895 0 119.82024485251895 -117.30049584264725 0 0 0 0 -95.595472212873574 151.15816827712752 0 151.15816827712752 -165.56608853742 0 0 0 0 106.52046827696904 90.639564004504791 0 90.639564004504791 -937.91271798094931 0 0 0 0 -173.72838891662013 836.12033438077151 0 836.12033438077151 -653.03291213421471 0 0 0 0 3.5759017920953138 9.8697498336235441 0 9.8697498336235441 -2.4142223963858669 0 0 0 0 -716.64650948131384 506.17222899523949 0 506.17222899523949 -238.89206847637888 0 0 0 0 -1416.2145357540394 716.68911138889598 0 716.68911138889598 -145.60101074990962 0 0 0 0 0.74954708388352387 3.6418945823077848 0 3.6418945823077848 -2.7246458732795986 0 0 0 0 1336.3688221017874 -212.0327408571884 0 -212.0327408571884 -197.86583891977716 0 0 0 0 -69.077166027404019 399.4505588338252 0 399.4505588338252 0.53477811865013791 0 0 0 0 -546.25832913128397 55.945494483690709 0 55.945494483690709 119.63953896836756 0 0 0 0 -118.94543178418462 7.822358236357104 0 7.822358236357104 -317.62488575745374 0 0 0 0 -953.82269354416349 587.88605406440183 0 587.88605406440183 -74.910855531939887 0 0 0 0 -50.888449643884087 183.64554009381391 0 183.64554009381391 135.41066065626001 0 0 0 0 -551.69892052712385 242.45494567808055 0 242.45494567808055 -0.010581191749224672 0 0 0 0 -15.958804990940877 -2.8244759090553515 0 -2.8244759090553515 1.4740792809569854 0 0 0 0 -81.638577320896729 -4.2591627792562576 0 -4.2591627792562576 -128.70965496903227 0 0 0 0 -2.102891029935563 151.77144741144002 0 151.77144741144002 -394.26487017260297 0 0 0 0 -654.43524945661193 385.92195603762957 0 385.92195603762957 -410.56111083042924 0 0 0 0 -1048.5844622183795 449.91078059020947 0 449.91078059020947 -86.399792414798867 0 0 0 0 -744.03022133126797 361.78474761544931 0 361.78474761544931 -64.436258477385309 0 0 0 0 -1177.8312205885959 309.5490496595703 0 309.5490496595703 -61.915912706623203 0 0 0 0 -818.12180426876148 523.75118951924014 0 523.75118951924014 -399.95367120859737 0 0 0 0 -50.855485201321244 -27.287884176389525 0 -27.287884176389525 105.72329829979572 0 0 0 0 -7.3597813172829802 -1.3012719328879072 0 -1.3012719328879072 -0.71778430033960205 0 0 0 0 -17.802430845429583 -9.8411886303864406 0 -9.8411886303864406 -5.3013575866227569 0 0 0 0 -22.774666753665457 3.9906396361185159 0 3.9906396361185159 6.5147515458878047 0 0 0 0 -22.246357973781414 6.9494360677199438 0 6.9494360677199438 1.3048197976186202 0 0 0 0 -55.060264281990385 20.13026200029708 0 20.13026200029708 54.493533789100184 0 0 0 0 -46.728218951779127 31.442819210330299 0 31.442819210330299 60.907724911165133 0 0 0 0 -62.647794024604082 37.28428758559312 0 37.28428758559312 16.640772053979163 0 0 0 0 -11.300183168112198 -205.2685005796684 0 -205.2685005796684 -69.935183696012245 0 0 0 0 -133.70200260970887 21.668982718703774 0 21.668982718703774 76.804091723501188 0 0 0 0 -4.5047895162611411 -3.2320739359475823 0 -3.2320739359475823 -3.9530929217874586 0 0 0 0 -1418.4613326900799 1132.7975603292616 0 1132.7975603292616 -560.15447151308035 0 0 0 0 -508.32302579915631 -282.86340598645074 0 -282.86340598645074 31.575281334349711 0 0 0 0 -218.5763380796925 -19.038347182766302 0 -19.038347182766302 109.35804755234858 0 0 0 0 -207.10337737257214 -27.489889003241842 0 -27.489889003241842 52.653856963650469 0 0 0 0 -105.74818706263613 47.621629206518264 0 47.621629206518264 65.863011694025772 0 0 0 0 100.40696224931889 72.630700316527509 0 72.630700316527509 80.310066521880799 0 0 0 0 1295.541087440607 153.0610851720694 0 153.0610851720694 -477.43001912439649 0 0 0 0 102.26124412738136 251.60475900366509 0 251.60475900366509 -702.82034833739453 0 0 0 0 -1445.6624786903121 147.98491060176821 0 147.98491060176821 -94.739770573731221 0 0 0 0 -848.97072333516189 -55.361643599229865 0 -55.361643599229865 272.19774499979394 0 0 0 0 -590.11691039289144 573.79008437948869 0 573.79008437948869 -41.309553733819484 0 0 0 0 -103.47324838936402 182.5573041364969 0 182.5573041364969 161.73402149747562 0 0 0 0 512.55737782580036 223.35800172250129 0 223.35800172250129 60.230883849344536 0 0 0 0 152.84640794337611 487.54249513009563 0 487.54249513009563 -31.531480398984058 0 0 0 0 -24.465574730843457 14.733348958885017 0 14.733348958885017 -0.98248468249073539 0 0 0 0 66.528322292504527 306.84598386121434 0 306.84598386121434 252.74380430057863 0 0 0 0 -182.48668438950335 -37.426168883097489 0 -37.426168883097489 291.10510161827551 0 0 0 0 60.419115014614363 328.65159599330946 0 328.65159599330946 190.78665430933233 0 0 0 0 25.573156781683792 60.99513122819917 0 60.99513122819917 -160.32958406069883 0 0 0 0 2.2572093847047654 180.0790492629676 0 180.0790492629676 -761.02201673996205 0 0 0 0 -80.631316098253592 72.44265549474494 0 72.44265549474494 -13.986835642073856 0 0 0 0 -261.26814753048529 106.34481349150883 0 106.34481349150883 241.29979160540461 0 0 0 0 -210.95531749873408 76.959295199611006 0 76.959295199611006 59.597174370537687 0 0 0 0 -449.2726373215919 -28.684883563742915 0 -28.684883563742915 148.72266530050183 0 0 0 0 -453.12171763241349 51.545233565397211 0 51.545233565397211 298.67409856023733 0 0 0 0 -11.08310987818183 2.9208815111312205 0 2.9208815111312205 -1.5288182774182246 0 0 0 0 -617.67534955927476 345.49176430681564 0 345.49176430681564 124.63979031224153 0 0 0 0 -494.43185568050103 73.458559114920718 0 73.458559114920718 466.25047079645083 0 0 0 0 -49.102344175291364 417.84298353910344 0 417.84298353910344 -386.19639316163375 0 0 0 0 -10.382581875550386 54.324629536201428 0 54.324629536201428 19.581001567645217 0 0 0 0 -121.3431540464826 -500.78348851960982 0 -500.78348851960982 -137.72270235130782 0 0 0 0 23.23553794270272 11.435467913107004 0 11.435467913107004 -4.6158620389553136 0 0 0 0 -204.50812252262403 569.52109092982937 0 569.52109092982937 -424.86169004379917 0 0 0 0 -589.39460545316615 568.93064162194241 0 568.93064162194241 236.96238760669075 0 0 0 0 2.5064795623046336 3.5305368777030566 0 3.5305368777030566 0.20703544955858177 0 0 0 0 3.050280093421236 7.8751119140241173 0 7.8751119140241173 5.6879452153819443 0 0 0 0 -259.7118993036529 71.582639742178799 0 71.582639742178799 -8.1406216436716932 0 0 0 0 -13.835944888413053 10.515617236524161 0 10.515617236524161 -2.5297097669249453 0 0 0 0 -95.599579034351336 228.93233417102965 0 228.93233417102965 -252.59124263549347 0 0 0 0 -80.267864176286821 182.97356757414218 0 182.97356757414218 -148.9918383232507 0 0 0 0 -163.55227277565427 269.00773210505577 0 269.00773210505577 -120.37916059194686 0 0 0 0 -166.37146804442909 254.44669264098548 0 254.44669264098548 -162.89509085647296 0 0 0 0 -185.58560286865395 246.96271661688479 0 246.96271661688479 -140.62285982400863 0 0 0 0 -160.26772644282028 229.3080287591074 0 229.3080287591074 -163.67335660316166 0 0 0 0 -125.13869545415946 247.59263334542629 0 247.59263334542629 -154.20574726878635 0 0 0 0 -126.86794420272781 243.73388661731951 0 243.73388661731951 -160.40566863982713 0 0 0 0 -183.35163148546417 290.64159297431797 0 290.64159297431797 -39.600293473442434 0 0 0 0 -313.2004174847898 221.71325721699031 0 221.71325721699031 -48.65484449124051 0 0 0 0 2.6313681337901116 7.2321598522303248 0 7.2321598522303248 7.7040757037458576 0 0 0 0 -182.74236951587591 116.53487928897812 0 116.53487928897812 -35.26019038308732 0 0 0 0 688.98271199776354 75.955060411090926 0 75.955060411090926 -336.75530363189318 0 0 0 0 544.13057099939033 131.46141683513633 0 131.46141683513633 -98.639237412848161 0 0 0 0 -87.758611258898782 186.96663772327611 0 186.96663772327611 184.62071611273859 0 0 0 0 3.1819732491011337 1.4176258738873457 0 1.4176258738873457 -0.26436544139215812 0 0 0 0 559.49367228680057 137.98496869914015 0 137.98496869914015 -291.72713734992885 0 0 0 0 124.2402620490393 -107.35839826355186 0 -107.35839826355186 -212.1562231218486 0 0 0 0 411.11701697876924 235.23444276092232 0 235.23444276092232 59.024483733919624 0 0 0 0 -57.219593145542603 432.48181503663545 0 432.48181503663545 -73.593303575900791 0 0 0 0 0.15112007613424794 103.13082558919814 0 103.13082558919814 -141.02154085803704 0 0 0 0 4.2251965533300933 3.043418175296452 0 3.043418175296452 1.1354238435369126 0 0 0 0 -74.834558166730858 94.042512181884376 0 94.042512181884376 -17.666778478549531 0 0 0 0 -53.90449965102016 73.458211926041258 0 73.458211926041258 -28.541378798363439 0 0 0 0 -64.462476201230857 137.80071603119904 0 137.80071603119904 -116.13425887183985 0 0 0 0 -0.75292666091331528 224.02841274303745 0 224.02841274303745 69.041704927687533 0 0 0 0 -82.893457459809724 149.96872798221011 0 149.96872798221011 179.64950571253212 0 0 0 0 -75.724503339020885 131.95879900314685 0 131.95879900314685 1.7695812206429764 0 0 0 0 69.890267900242179 75.360200281420475 0 75.360200281420475 174.11325212562951 0 0 0 0 -181.94185159913468 261.28752431482553 0 261.28752431482553 372.12823437464613 0 0 0 0 -13.926275385020716 13.708420201382076 0 13.708420201382076 -2.7562032421693985 0 0 0 0 107.15058743212285 181.15975874257788 0 181.15975874257788 66.832184142989718 0 0 0 0 -3.634661499571795 12.647711855970172 0 12.647711855970172 13.838712309623887 0 0 0 0 -26.292360436047602 38.161543285606967 0 38.161543285606967 -55.400660710820375 0 0 0 0 -5.6700245475221891 34.059724488050961 0 34.059724488050961 339.04347559585585 0 0 0 0 263.5729620841812 231.0996222773465 0 231.0996222773465 81.777453502734716 0 0 0 0 23.832762796744646 17.263649561809871 0 17.263649561809871 4.8374720091524068 0 0 0 0 3.25730061615198 4.2166463324770405 0 4.2166463324770405 -1.9727764449735261 0 0 0 0 52.256380743601767 17.666197575388651 0 17.666197575388651 -45.871965231344802 0 0 0 0 -15.573404737013334 77.950999379070709 0 77.950999379070709 -10.61054232405877 0 0 0 0 -7.8933781378107213 2.4654561101092867 0 2.4654561101092867 -0.27378239321927822 0 0 0 0 -32.580680357175879 18.182200862684113 0 18.182200862684113 -8.2712032607269066 0 0 0 0 -18.328903216402978 5.3533328506273392 0 5.3533328506273392 -17.876801392860216 0 0 0 0 0.59753217268783487 1.2742115810363615 0 1.2742115810363615 -1.681806988838531 0 0 0 0 -85.248020271239511 -33.981930782756535 0 -33.981930782756535 -3.8539039103852701 0 0 0 0 -8.8134804109734688 7.4468270665026353 0 7.4468270665026353 -2.9026374801349846 0 0 0 0 19.558122914106207 -2.1686364368742943 0 -2.1686364368742943 -37.585943318583304 0 0 0 0 67.354959913223865 74.360937172663398 0 74.360937172663398 -11.200663580231776 0 0 0 0 2.2812883370325068 4.9285031289424523 0 4.9285031289424523 -2.1378670793625147 0 0 0 0 7.6129875583719695 18.040715229253692 0 18.040715229253692 7.6586593530955724 0 0 0 0 -0.10980674326128792 17.053659707591578 0 17.053659707591578 -5.0225331175679457 0 0 0 0 -2.886845510402491 5.9597930262337417 0 5.9597930262337417 -2.5135775367651831 0 0 0 0 -14.354998864842855 -0.28185549420231837 0 -0.28185549420231837 3.3023818021756597 0 0 0 0 31.582471782225184 17.679589311934251 0 17.679589311934251 0.43223731785110431 0 0 0 0 34.132286568407153 37.870836367776519 0 37.870836367776519 23.042114748997847 0 0 0 0 43.33062301753489 20.384366187425258 0 20.384366187425258 -6.7824083269224502 0 0 0 0 71.172192818265103 48.65986716459156 0 48.65986716459156 3.5862160930410028 0 0 0 0 77.734294485051578 63.363460126993232 0 63.363460126993232 0.012314729807258118 0 0 0 0 130.41465125853028 29.88982585375561 0 29.88982585375561 -7.2069560954623739 0 0 0 0 -0.8591711459807243 -0.68831491367386377 0 -0.68831491367386377 1.3023739840384678 0 0 0 0 -7.430741090974152 5.4472188628897129 0 5.4472188628897129 0.0040086370972858276 0 0 0 0 -2.6634602603941886 0.18913864657668 0 0.18913864657668 1.4775316451962226 0 0 0 0 -7.4054189453163417 5.5944109091578866 0 5.5944109091578866 -1.7741805041296175 0 0 0 0 18.172227153987478 23.657772201771877 0 23.657772201771877 9.3072462280724721 0 0 0 0 21.806825160012522 15.846509153845545 0 15.846509153845545 -0.50644513346833264 0 0 0 0 -1.1602276397810733 0.020235103206630356 0 0.020235103206630356 -2.0343986579642603 0 0 0 0 -188.55928313002551 -20.710236745322618 0 -20.710236745322618 19.101444080522924 0 0 0 0 -116.47016132430144 39.979369811499055 0 39.979369811499055 -2.2649792758729745 0 0 0 0 3.1160105244125589 1.9852755367173813 0 1.9852755367173813 -1.7741805041411713 0 0 0 0 0.30566370928548636 -0.74715364695377673 0 -0.74715364695377673 -1.1543555340030309 0 0 0 0 -345.37563591294384 -48.434387656726358 0 -48.434387656726358 43.454550992762961 0 0 0 0 -94.161529369353957 75.820619806514514 0 75.820619806514514 -0.13746305010135984 0 0 0 0 34.385170492399993 111.95771961223727 0 111.95771961223727 2.4311813722815714 0 0 0 0 -95.420483846284696 -15.142837477540525 0 -15.142837477540525 141.64035014736146 0 0 0 0 -69.648221375442517 93.408826798942755 0 93.408826798942755 -3.9420184627160779 0 0 0 0 3.180703963540509 139.97755647716349 0 139.97755647716349 23.901643272511137 0 0 0 0 -81.264939665074053 61.596007658003145 0 61.596007658003145 -37.95083679642994 0 0 0 0 -116.37624956152285 -128.24082947389979 0 -128.24082947389979 -31.888571889372543 0 0 0 0 -4.8124536732546233 -2.379557942745592 0 -2.379557942745592 0.70339681962596501 0 0 0 0 -122.11390143934841 82.501647622873861 0 82.501647622873861 31.075151909087708 0 0 0 0 4.9856874545657774 70.446016622930074 0 70.446016622930074 11.228771772381151 0 0 0 0 20.405714978229298 13.895789784713998 0 13.895789784713998 -3.4187471567420289 0 0 0 0 -5.8642571897654889 2.3303249073775163 0 2.3303249073775163 4.2176118345293787 0 0 0 0 -46.739315722617903 58.649846658736351 0 58.649846658736351 -44.146329995608539 0 0 0 0 -117.17815271941072 181.0726050174635 0 181.0726050174635 101.94685368524915 0 0 0 0 -29.500807676384284 44.567109855070157 0 44.567109855070157 -121.23668355668633 0 0 0 0 -17.438701318409585 19.44764136593767 0 19.44764136593767 -178.46934218805109 0 0 0 0 3.8377383325814662 89.531614785944839 0 89.531614785944839 -82.90252685372252 0 0 0 0 -157.84374560581637 391.44217324096826 0 391.44217324096826 146.89771531405768 0 0 0 0 -6.7958732378901914 -45.309959936355881 0 -45.309959936355881 -52.983621553197736 0 0 0 0 162.70208484693285 279.03060756309424 0 279.03060756309424 -293.59070196449466 0 0 0 0 -206.64099664392415 -586.14672046233318 0 -586.14672046233318 -78.407622122822431 0 0 0 0 137.11806263405742 -4.0508799853705568 0 -4.0508799853705568 -548.91476752715971 0 0 0 0 -3.9711244583860577 1.4539552243818719 0 1.4539552243818719 -0.73950933087764525 0 0 0 0 -10.253434628659733 18.981941531438451 0 18.981941531438451 2.5117609118450304 0 0 0 0 -14.499648042117769 25.394567784664105 0 25.394567784664105 -5.5017440225274186 0 0 0 0 -14.684095288058295 17.534309085132072 0 17.534309085132072 -10.508278212337814 0 0 0 0 -10.432145624050463 23.38494311575414 0 23.38494311575414 -4.7564186333765974 0 0 0 0 -3.6418685834583471 8.5522742684168804 0 8.5522742684168804 -2.1704681604218337 0 0 0 0 -21.545098251974196 35.761122860325941 0 35.761122860325941 -21.529643316869624 0 0 0 0 -1.5505689158599125 26.83494524570051 0 26.83494524570051 2.9390357533266069 0 0 0 0 -9.4002593781756332 28.304530006092136 0 28.304530006092136 -23.336474529380212 0 0 0 0 -11.185817559637599 13.220086303032076 0 13.220086303032076 -10.128864498066832 0 0 0 0 -24.421756617693973 22.481100350415545 0 22.481100350415545 -12.735885319867521 0 0 0 0 -28.865202275243064 10.656779363311216 0 10.656779363311216 8.9093656118202489 0 0 0 0 -47.160017887501454 231.55417428845976 0 231.55417428845976 75.925068163538526 0 0 0 0 54.946387831044376 -19.341755621585435 0 -19.341755621585435 154.00072983176506 0 0 0 0 -0.031801514186852842 0.49256851761356302 0 0.49256851761356302 1.3187875368866457 0 0 0 0 -30.841324792592786 32.253755586476473 0 32.253755586476473 96.245534525041876 0 0 0 0 -9.8581584160638158 102.21055759050796 0 102.21055759050796 94.576169347556174 0 0 0 0 -16.214956242030894 80.689011253081844 0 80.689011253081844 21.738924432371277 0 0 0 0 7.3018520332739172 81.467299638715758 0 81.467299638715758 15.735115175026294 0 0 0 0 1.0303651015674404 48.60160934842861 0 48.60160934842861 -33.652876685084266 0 0 0 0 44.293854746949364 86.551395360947936 0 86.551395360947936 0.031288222478906391 0 0 0 0 126.87836211323156 37.300805169787054 0 37.300805169787054 -7.2015547300634353 0 0 0 0 13.409827819021302 32.86103459390506 0 32.86103459390506 -6.6079741901921807 0 0 0 0 13.997363458533073 80.606537844032573 0 80.606537844032573 15.329982936207671 0 0 0 0 32.544497618020614 56.671349238824405 0 56.671349238824405 13.783953211037442 0 0 0 0 -4.3041706813673954 58.736780628445558 0 58.736780628445558 54.064747317395813 0 0 0 0 -14.253045210210985 33.866713435767451 0 33.866713435767451 4.5014488332381006 0 0 0 0 -20.54932909782292 15.840023018086868 0 15.840023018086868 -6.6320400499243988 0 0 0 0 -7.3562638735052133 1.5347943083065019 0 1.5347943083065019 0.55184480110878553 0 0 0 0 18.841120311997656 26.723868637680425 0 26.723868637680425 -0.36722754396032542 0 0 0 0 -50.285816355863062 15.329454248447291 0 15.329454248447291 3.2088992794124351 0 0 0 0 -22.231076224833487 25.363945444991259 0 25.363945444991259 -0.02676937584328698 0 0 0 0 -0.98249151370309562 -0.86888331683078945 0 -0.86888331683078945 0.94736592569256572 0 0 0 0 -10.842143290275999 2.4897962598188315 0 2.4897962598188315 0.00026377041307880947 0 0 0 0 -3.5742273960389781 -1.6927805714773747 0 -1.6927805714773747 -1.2681323984233615 0 0 0 0 -450.22914493808639 298.80378551490503 0 298.80378551490503 -52.01570892768359 0 0 0 0 -12.786901645786202 1.7348088138342064 0 1.7348088138342064 -0.93754541350062937 0 0 0 0 -4.5618619446505306 2.2573332604877265 0 2.2573332604877265 1.057932315449051 0 0 0 0 -22.784861410480516 5.0567365225542744 0 5.0567365225542744 -4.3423363358997449 0 0 0 0 -24.814917254821921 1.6586797692179971 0 1.6586797692179971 -1.6850267327390611 0 0 0 0 -24.671195986396924 2.8904899331500928 0 2.8904899331500928 2.3173198565273196 0 0 0 0 -19.638082146339912 12.710377117185999 0 12.710377117185999 -4.2221323915728135 0 0 0 0 -13.278640993440888 9.4333782429381401 0 9.4333782429381401 -2.5045991377767223 0 0 0 0 -1.91349898523913 84.051400091142568 0 84.051400091142568 46.144094482267974 0 0 0 0 -34.541464382098638 10.912636788383679 0 10.912636788383679 0.43011268365262367 0 0 0 0 1.4993035738189064 76.884637120389016 0 76.884637120389016 39.83035782497609 0 0 0 0 -23.144650944121366 12.872739515847208 0 12.872739515847208 1.9075278047827169 0 0 0 0 -6.2158053231833037 14.97296155928052 0 14.97296155928052 -4.5022765983194404 0 0 0 0 -12.711913840854059 7.3378493461964354 0 7.3378493461964354 0.32791032248769625 0 0 0 0 -20.644941628830566 18.433968522496798 0 18.433968522496798 -2.4454963183234213 0 0 0 0 -12.105158791925739 12.158070484848537 0 12.158070484848537 -8.2001243962017867 0 0 0 0 -13.519650934525998 21.522963055136643 0 21.522963055136643 -3.3920324674290896 0 0 0 0 38.829969462469307 85.651751149641314 0 85.651751149641314 -4.1626569455402205 0 0 0 0 -27.818600144401046 23.120486201793014 0 23.120486201793014 -0.2921458198201492 0 0 0 0 -26.856788046610745 53.840480996052065 0 53.840480996052065 58.813477757154033 0 0 0 0 -11.452540901107568 19.981080793410001 0 19.981080793410001 -2.6237365882552695 0 0 0 0 49.077272503709537 70.468569226883119 0 70.468569226883119 -10.151456983156095 0 0 0 0 1.3432175586785888 43.061196408416436 0 43.061196408416436 67.983124889942701 0 0 0 0 -95.212277274651569 37.124789041125041 0 37.124789041125041 61.178360708243417 0 0 0 0 -55.09862548012461 96.430994591264607 0 96.430994591264607 19.626568284045788 0 0 0 0 -19.574738985815202 51.093028359871823 0 51.093028359871823 27.327490871670307 0 0 0 0 120.29005368289654 89.686132130991609 0 89.686132130991609 40.350631211104428 0 0 0 0 -22.243655981698339 99.187066862662505 0 99.187066862662505 104.7760397977836 0 0 0 0 -9.2617148398088247 2.0295175421138367 0 2.0295175421138367 -0.091269993996718313 0 0 0 0 -44.120644297705439 139.50033616608198 0 139.50033616608198 -88.340338813766721 0 0 0 0 30.409670854794967 69.298367970430263 0 69.298367970430263 -24.711110616710812 0 0 0 0 17.418779128856841 93.616008635835897 0 93.616008635835897 -26.930869234573038 0 0 0 0 18.967129796703375 9.2662071099766763 0 9.2662071099766763 -32.040316392725799 0 0 0 0 31.406224265287165 73.766757308465458 0 73.766757308465458 -8.0377784523279843 0 0 0 0 28.96592318076263 22.981179366488576 0 22.981179366488576 2.4963278539511862 0 0 0 0 23.357265729649953 51.33769805332895 0 51.33769805332895 -51.30147248475987 0 0 0 0 19.404032396614639 63.686201750522741 0 63.686201750522741 -31.438197637722624 0 0 0 0 217.04442253961315 37.416839895249723 0 37.416839895249723 -83.90044985380689 0 0 0 0 30.576488988555155 14.023423459680956 0 14.023423459680956 -1.7411918717420747 0 0 0 0 21.543459092812554 37.067751788370515 0 37.067751788370515 -26.661105689890974 0 0 0 0 70.091146685190324 70.381491570267826 0 70.381491570267826 -247.34667415211334 0 0 0 0 -7.2731435796555104 4.196979297876176 0 4.196979297876176 -2.5075644381243727 0 0 0 0 6.3229169154292322 78.995249554132897 0 78.995249554132897 97.108568286801528 0 0 0 0 14.824780924618608 28.048494820308406 0 28.048494820308406 18.419101655137638 0 0 0 0 19.764800588302023 69.150753173422345 0 69.150753173422345 -15.833471365322112 0 0 0 0 -32.933105693940888 56.393572334454802 0 56.393572334454802 28.846226393787219 0 0 0 0 -0.75548721479572123 56.502186586032622 0 56.502186586032622 26.045593596769322 0 0 0 0 36.862540290821926 35.29654627837408 0 35.29654627837408 37.690190335568332 0 0 0 0 -6.848377724756574 1.5759803465261939 0 1.5759803465261939 82.119035575124144 0 0 0 0 18.910627313816804 3.0590167012742313 0 3.0590167012742313 59.678733992944672 0 0 0 0 64.370818168270489 -31.271435532071337 0 -31.271435532071337 13.548264384495269 0 0 0 0 -6.3014802964890606 5.7976171177469382 0 5.7976171177469382 -4.0332114245789512 0 0 0 0 -33.345869427983416 14.129228151377902 0 14.129228151377902 60.430854176709317 0 0 0 0 54.472911476990703 201.25998624094291 0 201.25998624094291 -191.11367451449769 0 0 0 0 -103.95805643764743 -37.337871370330959 0 -37.337871370330959 35.487515815599181 0 0 0 0 -22.494935706108379 23.689168449361393 0 23.689168449361393 -21.542233190145708 0 0 0 0 8.1143108317046426 96.300961234679562 0 96.300961234679562 -119.62299486287975 0 0 0 0 21.04362182199111 62.044833559314156 0 62.044833559314156 -62.934675887707272 0 0 0 0 -65.905029878433197 112.11338341256669 0 112.11338341256669 -41.26947572035715 0 0 0 0 -72.756821553732152 -38.204900358065061 0 -38.204900358065061 85.513479761903 0 0 0 0 -20.899378923558999 25.210769015666763 0 25.210769015666763 -21.365538773460798 0 0 0 0 0.76483580340735102 4.5469934285440914 0 4.5469934285440914 2.1416872083976841 0 0 0 0 19.816588316432899 7.6104567029615282 0 7.6104567029615282 -104.16233020749496 0 0 0 0 -11.736381744609389 50.428183022651865 0 50.428183022651865 3.2154604975985421 0 0 0 0 -33.518288271425263 -34.431743375560472 0 -34.431743375560472 10.475464253213431 0 0 0 0 -43.265573303324345 31.800084646123651 0 31.800084646123651 49.976628455975515 0 0 0 0 -12.354600543189648 4.9016753224998908 0 4.9016753224998908 0.72836229237296379 0 0 0 0 -24.729488361834228 13.589817744457832 0 13.589817744457832 5.1846920625357598 0 0 0 0 -20.712735867473498 8.6408421854573803 0 8.6408421854573803 0.49145347459054278 0 0 0 0 -28.451283867681923 23.794457811676693 0 23.794457811676693 15.098493112804135 0 0 0 0 -19.581329670640116 13.752337128524232 0 13.752337128524232 -9.1026680695649702 0 0 0 0 -28.09803172059037 13.283694229947287 0 13.283694229947287 -8.9388583105901489 0 0 0 0 -25.095552380582376 16.00750847328527 0 16.00750847328527 -8.1779410389717668 0 0 0 0 -8.6018389213347177 5.9674804520155078 0 5.9674804520155078 6.2721197533821282 0 0 0 0 -21.507502856326028 15.52714478136113 0 15.52714478136113 -8.7410587542635767 0 0 0 0 -36.184365026008891 26.183243908738405 0 26.183243908738405 18.896116270061611 0 0 0 0 -18.106414525208642 17.108604836372777 0 17.108604836372777 -12.313449046792641 0 0 0 0 9.0005189438961679 72.018340636299399 0 72.018340636299399 51.014027215787792 0 0 0 0 -30.901035861548735 47.51828501826094 0 47.51828501826094 26.954421680513406 0 0 0 0 0.70658219546965029 1.4730306730467646 0 1.4730306730467646 -3.7225669425219223 0 0 0 0 10.195519191602216 47.985625973633432 0 47.985625973633432 -68.637294846237637 0 0 0 0 9.2221031025110278 -11.790608188326587 0 -11.790608188326587 -54.582237327053008 0 0 0 0 -44.332548786369443 12.411373024620843 0 12.411373024620843 -38.268729463263298 0 0 0 0 -15.727700336446873 20.546712693894023 0 20.546712693894023 -17.946989254620021 0 0 0 0 -2.8852038740296848 9.6816515844548121 0 9.6816515844548121 1.0424959338270128 0 0 0 0 -8.7249255179645075 9.2641142607185216 0 9.2641142607185216 -8.2599238536181794 0 0 0 0 -14.495247333605278 16.691825085880566 0 16.691825085880566 -14.68644546381077 0 0 0 0 -15.730319750627942 15.054628655807036 0 15.054628655807036 -15.002973273556123 0 0 0 0 -3.1675702226768294 2.7560040153264396 0 2.7560040153264396 -12.405862362466877 0 0 0 0 -22.036890619647238 13.577415647447197 0 13.577415647447197 -15.167475703550735 0 0 0 0 -29.908388451302017 16.362097430315771 0 16.362097430315771 -12.233047335714218 0 0 0 0 -0.58931624935939908 28.607049105457918 0 28.607049105457918 -17.148122184831664 0 0 0 0 -26.204442251701948 10.224785910337232 0 10.224785910337232 -3.426452958236041 0 0 0 0 -35.25925144735811 34.866757505034911 0 34.866757505034911 -23.777615339182375 0 0 0 0 -5.2254603016990586 23.295988467263669 0 23.295988467263669 -44.013671037853783 0 0 0 0 24.782989557494147 -1.8830112918367377 0 -1.8830112918367377 -33.203003578313655 0 0 0 0 20.122662956819113 -4.9279136796403691 0 -4.9279136796403691 -11.256199990406458 0 0 0 0 -0.51880648552571529 1.3662441092256081 0 1.3662441092256081 -4.0884550853861015 0 0 0 0 -89.082197037474543 2.2089565294591011 0 2.2089565294591011 11.52994615676289 0 0 0 0 -0.2650425430972092 -0.12399649480769881 0 -0.12399649480769881 -3.0434427917147389 0 0 0 0 -63.459233563864473 30.756045299740435 0 30.756045299740435 -28.925944373324455 0 0 0 0 -2.4949697952168393 4.8379097066050072 0 4.8379097066050072 -11.336363160183993 0 0 0 0 -103.5089240602465 60.096181539054669 0 60.096181539054669 4.1636115798319224 0 0 0 0 -0.052974937802986233 5.6972762830238111 0 5.6972762830238111 -2.2690633714602058 0 0 0 0 -30.282348734638617 20.001503998216776 0 20.001503998216776 -6.7468980319827097 0 0 0 0 -25.271156265793252 13.95788288670883 0 13.95788288670883 3.2662565253849607 0 0 0 0 -1.0117741446592845 8.5068332272203406 0 8.5068332272203406 -1.3118491352070123 0 0 0 0 -7.1746761069553031 5.2951783257412899 0 5.2951783257412899 -3.7721246308647096 0 0 0 0 -4.6766111847708629 7.1249238649323914 0 7.1249238649323914 -9.9480861760127226 0 0 0 0 -8.5581865057727811 6.4971430258089846 0 6.4971430258089846 -2.4890897578311808 0 0 0 0 -16.140773331843938 13.726519009483908 0 13.726519009483908 -3.5309152359579343 0 0 0 0 -21.665321181430954 22.121356533530161 0 22.121356533530161 -7.1449076175704249 0 0 0 0 -25.325638638852979 11.914390949445078 0 11.914390949445078 13.73596702744544 0 0 0 0 -19.341384101072492 10.636607825863237 0 10.636607825863237 -3.1675562921349183 0 0 0 0 -22.351928587268048 10.635104298773513 0 10.635104298773513 -4.6799438030407146 0 0 0 0 -17.99912876282724 1.1766366508581996 0 1.1766366508581996 7.616985795320943 0 0 0 0 -8.4175291527353693 8.010760037763248 0 8.010760037763248 -3.1112656428595074 0 0 0 0 -7.6467695503605739 4.6354342574521823 0 4.6354342574521823 -0.58524538937226112 0 0 0 0 -11.511869605082715 8.8392975152276279 0 8.8392975152276279 -4.464729864685566 0 0 0 0 -25.682040910876822 4.6978210341767408 0 4.6978210341767408 10.69976255641086 0 0 0 0 19.818266591119027 78.211401117026981 0 78.211401117026981 9.9524605694755337 0 0 0 0 -24.417409843758776 16.350104336033464 0 16.350104336033464 -10.440024346673567 0 0 0 0 -2.8111091690698231 3.0242033932518098 0 3.0242033932518098 -6.017657301381405 0 0 0 0 73.787851999131817 21.777684435282936 0 21.777684435282936 2.5814365600454039 0 0 0 0 -3.6833899290468253 1.4841161350195762 0 1.4841161350195762 -3.3541021296841791 0 0 0 0 -16.8749822155525 7.2534282312281846 0 7.2534282312281846 -3.4176803393898751 0 0 0 0 -55.859451364951383 99.711035645974334 0 99.711035645974334 -74.730122069906429 0 0 0 0 -106.88444643869661 128.76222475271788 0 128.76222475271788 -69.342403302354796 0 0 0 0 -128.4762370319695 123.4912613729739 0 123.4912613729739 -38.179065685028036 0 0 0 0 -18.925520087621408 83.97672738199617 0 83.97672738199617 -88.545337514318817 0 0 0 0 -150.29537720985536 86.960378335636051 0 86.960378335636051 -55.522385777705495 0 0 0 0 -70.005314428130077 35.649183032403016 0 35.649183032403016 -157.72223604964165 0 0 0 0 -210.58444101501573 -38.271808600445638 0 -38.271808600445638 -3.3651832614850719 0 0 0 0 -156.96846992368773 137.64571696218309 0 137.64571696218309 -89.874936959247862 0 0 0 0 -495.90869321906939 297.76719359940034 0 297.76719359940034 -101.46201661551459 0 0 0 0 -36.736060416587719 21.150175544761623 0 21.150175544761623 -7.8788475083527771 0 0 0 0 -116.76019255496431 81.549992454269159 0 81.549992454269159 90.695591108131339 0 0 0 0 -10.334569264621678 1.9825265495237545 0 1.9825265495237545 -23.140039787031128 0 0 0 0 -55.618652862453018 -9.3732874874804111 0 -9.3732874874804111 53.155470994519419 0 0 0 0 -26.081821436132898 20.798959915892155 0 20.798959915892155 -13.574019040018975 0 0 0 0 -6.9324205666700891 3.1912069722818082 0 3.1912069722818082 1.7115262764403383 0 0 0 0 -0.87984884761999638 0.8341783818995161 0 0.8341783818995161 -0.61703905823071636 0 0 0 0 33.253087881988904 53.07834782896316 0 53.07834782896316 -74.952952235522389 0 0 0 0 -1.0109303254102997 -19.098931332081065 0 -19.098931332081065 -3.6863341245771153 0 0 0 0 43.682088733930868 -31.500291065654892 0 -31.500291065654892 -66.303368846347439 0 0 0 0 -12.44037406026473 18.919101095678343 0 18.919101095678343 37.49120348976794 0 0 0 0 -8.3624025120516308 28.777878138742381 0 28.777878138742381 29.671038063948799 0 0 0 0 -12.250745422346881 18.108482977151652 0 18.108482977151652 26.757065140198392 0 0 0 0 118.29781300709874 31.293948225653367 0 31.293948225653367 -5.946182848609169 0 0 0 0 -24.808390597427206 13.670916026821942 0 13.670916026821942 2.8604959926997253 0 0 0 0 -2.6376370826932387 4.3623718584719171 0 4.3623718584719171 -2.8320144618094076 0 0 0 0 -8.388045196836174 29.38664992961094 0 29.38664992961094 17.547885369982396 0 0 0 0 -37.594922482086986 113.85346243803906 0 113.85346243803906 19.586980641550326 0 0 0 0 52.236150217759132 102.71908558927316 0 102.71908558927316 -76.159098401833035 0 0 0 0 -75.314354446047219 -129.96943201786416 0 -129.96943201786416 -83.244331918771081 0 0 0 0 -208.69791706198885 -29.994074781010568 0 -29.994074781010568 -30.056178383441875 0 0 0 0 -81.776102054021976 -67.396637205805746 0 -67.396637205805746 -55.907261435371765 0 0 0 0 -85.058130880097451 -69.826777623169619 0 -69.826777623169619 -2.9662309312334401 0 0 0 0 -133.36586073662329 -110.80528160974427 0 -110.80528160974427 42.973970685634413 0 0 0 0 -102.22956931155932 -41.935409328340029 0 -41.935409328340029 72.95088041255076 0 0 0 0 -120.8312979712864 29.481884637774783 0 29.481884637774783 91.214005072595 0 0 0 0 -120.494743340696 -46.960411794556421 0 -46.960411794556421 98.315446651653474 0 0 0 0 -95.703195970541856 -41.091925379831082 0 -41.091925379831082 16.775771328588235 0 0 0 0 -73.479248477222427 24.569479347377637 0 24.569479347377637 -28.416047613529372 0 0 0 0 -58.100414324209851 -2.586009114740591 0 -2.586009114740591 10.66527828641847 0 0 0 0 -126.79463905612647 59.289640668113861 0 59.289640668113861 -6.0512375363878164 0 0 0 0 -132.11486725063151 87.071503685099742 0 87.071503685099742 41.838024257198413 0 0 0 0 -128.31194628215599 135.89042393867021 0 135.89042393867021 65.282831412585892 0 0 0 0 -125.74868815400987 107.50451639542371 0 107.50451639542371 135.57542239566101 0 0 0 0 -122.11095603599097 13.414290133077884 0 13.414290133077884 200.65112869394216 0 0 0 0 -118.30987981209364 27.418280009906539 0 27.418280009906539 83.828132275404641 0 0 0 0 100.10571424285445 204.82737717392774 0 204.82737717392774 95.085679659827292 0 0 0 0 -74.416735746053746 129.76545302651721 0 129.76545302651721 310.61234739050269 0 0 0 0 -51.63624047000485 -1.4830313483871578 0 -1.4830313483871578 258.03191919841993 0 0 0 0 -73.541703915288963 115.18398182543024 0 115.18398182543024 121.09708550870528 0 0 0 0 101.33693556712387 221.38713456575715 0 221.38713456575715 247.53865815702011 0 0 0 0 274.1705507739498 389.89404272586171 0 389.89404272586171 609.20025839746813 0 0 0 0 257.66059837190551 313.11958389010761 0 313.11958389010761 295.30402545557445 0 0 0 0 97.145880178548396 -25.592195786601224 0 -25.592195786601224 431.85237027687072 0 0 0 0 25.799825048023195 80.68251380474976 0 80.68251380474976 274.44233557176631 0 0 0 0 116.63044601547517 57.600010708151785 0 57.600010708151785 759.41981088765897 0 0 0 0 591.66754460938682 -96.07070061815466 0 -96.07070061815466 299.49539516350615 0 0 0 0 274.28840202235733 -120.88594305477818 0 -120.88594305477818 305.96449324459536 0 0 0 0 116.09321876038302 -132.39699212164123 0 -132.39699212164123 90.880432444821054 0 0 0 0 -55.479660970609984 -56.505555161955272 0 -56.505555161955272 96.907422073170892 0 0 0 0 -62.735574036007165 -36.086463553892827 0 -36.086463553892827 315.90880195474892 0 0 0 0 -79.594493673022953 40.68542076484664 0 40.68542076484664 195.22900220393058 0 0 0 0 -118.25697102605773 -52.495985366822424 0 -52.495985366822424 185.01727986622427 0 0 0 0 -118.20524628481508 -48.291603063680668 0 -48.291603063680668 95.83958834700843 0 0 0 0 -14.124120080567081 -140.5677735769641 0 -140.5677735769641 -151.97284563857465 0 0 0 0 -37.3617032443276 122.56507362957478 0 122.56507362957478 153.40413891334174 0 0 0 0 -53.215602861109801 50.290500568105017 0 50.290500568105017 -291.27280800526933 0 0 0 0 -2.0961891106187807 0.92551289126923919 0 0.92551289126923919 -0.63129417538835497 0 0 0 0 32.914882283665065 -240.55770950002989 0 -240.55770950002989 -486.54847212610366 0 0 0 0 -158.28012464360108 -46.134593875974133 0 -46.134593875974133 -167.8563410846582 0 0 0 0 179.81151010633766 -118.707121430185 0 -118.707121430185 -10.910641892220156 0 0 0 0 125.71121570252581 -1.4315136989844177 0 -1.4315136989844177 -182.10637228897758 0 0 0 0 -72.504079944592377 -84.103411013458754 0 -84.103411013458754 91.286915106400556 0 0 0 0 138.84909689461119 49.96071519062798 0 49.96071519062798 94.255461488421133 0 0 0 0 295.23924804787384 116.29588652435268 0 116.29588652435268 71.240675843233475 0 0 0 0 82.622117773104947 170.14136012885638 0 170.14136012885638 58.006146306081064 0 0 0 0 169.23485239151341 -54.12248764625474 0 -54.12248764625474 -492.81015723049313 0 0 0 0 -73.231331786340888 -13.001909702667035 0 -13.001909702667035 -119.40315902479779 0 0 0 0 224.38717401406757 77.366530318220612 0 77.366530318220612 -159.61335258773397 0 0 0 0 -1.8441206612806127 122.32500006315513 0 122.32500006315513 145.63394419418546 0 0 0 0 157.50313922906207 230.84311928297211 0 230.84311928297211 198.35105371347163 0 0 0 0 -27.49235535038315 186.05649770282253 0 186.05649770282253 849.37185415424756 0 0 0 0 99.424028961380827 201.01081679737763 0 201.01081679737763 461.64610820366943 0 0 0 0 298.73883678097627 223.94375909509108 0 223.94375909509108 292.9412319638941 0 0 0 0 723.18738923274213 253.46094319485564 0 253.46094319485564 290.08312738463974 0 0 0 0 206.88986975303396 462.87542268291008 0 462.87542268291008 697.5438071036333 0 0 0 0 211.13743768883432 305.49956643370024 0 305.49956643370024 478.7458673232436 0 0 0 0 -7.946142269691336 175.95740183018643 0 175.95740183018643 493.99789376722947 0 0 0 0 2.4255027185343181 3.3066700551365926 0 3.3066700551365926 4.63941217357781 0 0 0 0 758.89343856937558 180.41235004019109 0 180.41235004019109 56.492662329110317 0 0 0 0 0.31446565117812497 1.9014315605862393 0 1.9014315605862393 0.73494980096015095 0 0 0 0 -44.754046592895065 27.432849622701497 0 27.432849622701497 -73.305353369152726 0 0 0 0 -0.86414561536366818 7.719402069962598 0 7.719402069962598 -68.965868353217957 0 0 0 0 -18.917508177273703 43.161033630664861 0 43.161033630664861 -48.137031153150019 0 0 0 0 278.32452088794525 4.5073875449670595 0 4.5073875449670595 -4.8627066817462037 0 0 0 0 87.467421447043307 43.992733803221199 0 43.992733803221199 -4.7517153120825242 0 0 0 0 76.574814572684772 60.594056916622776 0 60.594056916622776 7.8239932773831242 0 0 0 0 222.65809082396299 104.45396689514564 0 104.45396689514564 -30.896285375754815 0 0 0 0 68.36964911400355 132.35507879965917 0 132.35507879965917 -23.589071128862997 0 0 0 0 37.216151152584644 36.09386661350436 0 36.09386661350436 -5.38060436743217 0 0 0 0 5.6204089592700512 8.7071072532753959 0 8.7071072532753959 13.891300963437374 0 0 0 0 3.8718423420776062 14.048995522876126 0 14.048995522876126 22.524121190733041 0 0 0 0 -39.939124584576348 29.107446014858397 0 29.107446014858397 39.291878510022798 0 0 0 0 -40.474201180459204 31.918689227023606 0 31.918689227023606 24.522946996781684 0 0 0 0 -23.052555375027623 -17.732964960325717 0 -17.732964960325717 85.899738491876633 0 0 0 0 -16.578401238002243 17.239259277731207 0 17.239259277731207 20.43522983033472 0 0 0 0 -3.2688324696064228 13.695234426737443 0 13.695234426737443 13.266892154319066 0 0 0 0 -9.0073492908744015 6.0073184902337751 0 6.0073184902337751 12.172668348962297 0 0 0 0 3.8741372746080742 5.5735933883788675 0 5.5735933883788675 -2.9203690546455618 0 0 0 0 -1.0522112495493303 0.066715874745995052 0 0.066715874745995052 0.38120969165501606 0 0 0 0 -0.74675062384002899 0.62318606288238776 0 0.62318606288238776 2.0307878701018254 0 0 0 0 -3.6279952374316053 13.006484007088147 0 13.006484007088147 13.12351177166056 0 0 0 0 0.17649526006537997 11.083059876701782 0 11.083059876701782 5.6815363310118414 0 0 0 0 -127.49848028300039 -32.040032023685853 0 -32.040032023685853 -4.9610664533320232 0 0 0 0 -73.920248678718053 -10.800001346639874 0 -10.800001346639874 -33.891172647476196 0 0 0 0 -153.11371518755914 -10.608058691999759 0 -10.608058691999759 157.27315348122647 0 0 0 0 -16.701180038297025 153.65921749156041 0 153.65921749156041 19.345395381391427 0 0 0 0 -42.0439317280252 128.2076044616806 0 128.2076044616806 114.6191795065979 0 0 0 0 -88.000210573176446 34.00423900194437 0 34.00423900194437 49.847085579280247 0 0 0 0 29.688909969576343 298.95150510160056 0 298.95150510160056 299.442865755394 0 0 0 0 132.61229498851935 379.96813255482721 0 379.96813255482721 -104.86192591223517 0 0 0 0 -93.378224459134799 -27.588635800462725 0 -27.588635800462725 284.50942933011567 0 0 0 0 233.65209741043873 92.843742352241861 0 92.843742352241861 -71.43808532400908 0 0 0 0 78.62476840162708 456.25194750657829 0 456.25194750657829 103.02582959399479 0 0 0 0 3.8631849729362102 2.9568455456997071 0 2.9568455456997071 1.8957521824600576 0 0 0 0 142.86330845826888 347.68991010461332 0 347.68991010461332 -487.38252315388672 0 0 0 0 180.80085320419312 142.07211970843309 0 142.07211970843309 -156.37526064267149 0 0 0 0 189.37276458179258 179.8369099704064 0 179.8369099704064 -58.817002586642047 0 0 0 0 432.17857702842957 204.7194430239133 0 204.7194430239133 -59.18228450488823 0 0 0 0 13.130584485792497 108.72331787256917 0 108.72331787256917 -6.8054012412467273 0 0 0 0 28.756679421889203 253.60823461317614 0 253.60823461317614 -9.9495496729650768 0 0 0 0 -114.52141354922423 106.41641517077005 0 106.41641517077005 -42.068063413815253 0 0 0 0 -103.86420412482039 159.70904570046332 0 159.70904570046332 -230.35351725525106 0 0 0 0 -168.3223314763527 141.57932866655028 0 141.57932866655028 -17.48788944477019 0 0 0 0 9.7218942604602177 9.3659762042179437 0 9.3659762042179437 6.5298507437119113 0 0 0 0 -109.24940242675439 288.23990752216287 0 288.23990752216287 -299.74997067938966 0 0 0 0 -178.62384291925991 261.40787581439872 0 261.40787581439872 -149.80810154690698 0 0 0 0 -108.89600479834553 89.904849190386813 0 89.904849190386813 -203.50172926312371 0 0 0 0 -22.157468192177475 -67.867236744292313 0 -67.867236744292313 630.9195928061381 0 0 0 0 -284.97658229589433 61.526583284491608 0 61.526583284491608 -17.674322268811011 0 0 0 0 -201.46621852273165 -32.945528266339352 0 -32.945528266339352 321.15216126940413 0 0 0 0 -80.033866813450913 204.11941174976073 0 204.11941174976073 53.197129694082832 0 0 0 0 -41.147659217000182 200.97927590723521 0 200.97927590723521 -8.5397324305704387 0 0 0 0 -695.59983474894398 382.41084681605116 0 382.41084681605116 94.029861480641557 0 0 0 0 0.79151732143944997 1.4098205688028287 0 1.4098205688028287 -0.1957195825735738 0 0 0 0 712.72881293764294 -79.64877784973396 0 -79.64877784973396 -51.08853498109147 0 0 0 0 278.84024953454536 190.62364827854071 0 190.62364827854071 63.818723040558325 0 0 0 0 75.739891317787624 109.54691810728355 0 109.54691810728355 -19.044650974345132 0 0 0 0 24.528988546027904 56.548468764429344 0 56.548468764429344 0.16209236028589658 0 0 0 0 -109.56787684974915 122.18404152290714 0 122.18404152290714 -74.349335281731328 0 0 0 0 -94.657939335273113 137.68764431544423 0 137.68764431544423 -110.79710230829733 0 0 0 0 16.736076217544138 13.448421802913828 0 13.448421802913828 9.5698260670294886 0 0 0 0 23.510693702781282 -27.537843983394851 0 -27.537843983394851 -433.40644284140217 0 0 0 0 55.206309338878782 170.9695057566496 0 170.9695057566496 -179.87666725197778 0 0 0 0 -22.156499024327786 114.97170654353249 0 114.97170654353249 -137.89266227629241 0 0 0 0 152.47171152084775 214.3570583007895 0 214.3570583007895 -146.50627182962398 0 0 0 0 127.11862620580723 118.72363724555362 0 118.72363724555362 -381.0110541682152 0 0 0 0 4.326721721129843 3.6911287520760183 0 3.6911287520760183 0.11420110612062295 0 0 0 0 16.349472901129047 9.1872905959789932 0 9.1872905959789932 -21.091601300325692 0 0 0 0 63.851898674824042 1.8972502178930881 0 1.8972502178930881 -492.98246910134912 0 0 0 0 3.8408727966016158 2.2655589600690291 0 2.2655589600690291 -8.9245776540992665 0 0 0 0 2.1568240408981296 2.4335349515884843 0 2.4335349515884843 -1.4852181862667795 0 0 0 0 -4.7608724578894908 8.6875211429123738 0 8.6875211429123738 -0.20530639086427982 0 0 0 0 0.1492682147393225 2.5263970449425663 0 2.5263970449425663 -1.5816854007082384 0 0 0 0 0.67800110096868593 -0.50064243774977513 0 -0.50064243774977513 -8.6358884394644519 0 0 0 0 -1.0054398334800112 1.8626917912694516 0 1.8626917912694516 -1.7465449712107954 0 0 0 0 -96.640393875677546 -82.74202594929011 0 -82.74202594929011 -510.39180207479876 0 0 0 0 -2.0194693580692729 1.9819312868014194 0 1.9819312868014194 -1.9717896344140087 0 0 0 0 1.8914766951724857 -1.1117998998495153 0 -1.1117998998495153 -2.3058987671661413 0 0 0 0 -4.3109516917029396 15.844934989811009 0 15.844934989811009 -10.32320637428893 0 0 0 0 35.330517540496658 -233.59727450379432 0 -233.59727450379432 -1061.4688113394695 0 0 0 0 0.076394800300477073 81.656350051096524 0 81.656350051096524 614.67104872079426 0 0 0 0 0.41017984858513046 -3.5062590666467131 0 -3.5062590666467131 -1.0376583873191763 0 0 0 0 -5.2138442032519379 23.457436080767366 0 23.457436080767366 -37.416754134533448 0 0 0 0 -0.38478300114729791 18.834524210384188 0 18.834524210384188 -1094.1201796839596 0 0 0 0 124.41918053036352 221.25964395639676 0 221.25964395639676 -1041.373070019341 0 0 0 0 -60.152374155455618 56.88832857656962 0 56.88832857656962 -510.79689648234489 0 0 0 0 41.686540848386358 298.46501516123317 0 298.46501516123317 -495.82203359500522 0 0 0 0 -75.927007786973263 160.64864059387037 0 160.64864059387037 -325.63057182826378 0 0 0 0 -63.055357919503876 418.75817644002746 0 418.75817644002746 -605.57571073143845 0 0 0 0 -73.834261174226413 277.47594063429096 0 277.47594063429096 -95.633599621334724 0 0 0 0 69.974172584232292 171.62869714229601 0 171.62869714229601 -557.93016180394807 0 0 0 0 47.112034595331352 67.675445494374799 0 67.675445494374799 -390.43974902917034 0 0 0 0 18.010497681902052 350.10143662726932 0 350.10143662726932 -127.30504763376302 0 0 0 0 -0.26050120250147302 454.43215312322172 0 454.43215312322172 -90.150681448216346 0 0 0 0 -152.71644549777557 388.71172836999358 0 388.71172836999358 402.03186663157976 0 0 0 0 -261.14262535432863 181.48280320199774 0 181.48280320199774 555.69310650714397 0 0 0 0 2.0690592033410979 1.4085908096088104 0 1.4085908096088104 0.50520819880614454 0 0 0 0 -161.06077603762969 67.451168093233719 0 67.451168093233719 134.10884764805087 0 0 0 0 1054.2295264206659 -64.158794160830439 0 -64.158794160830439 -51.461386331615813 0 0 0 0 364.27300623455812 419.24263782936123 0 419.24263782936123 211.706843839871 0 0 0 0 70.93559466926672 73.228305331431329 0 73.228305331431329 -43.872103141788102 0 0 0 0 -97.566004649794195 293.25092940924696 0 293.25092940924696 296.10590321944255 0 0 0 0 -8.1591093141760211 243.9629736748775 0 243.9629736748775 233.07174523430149 0 0 0 0 0.92392378361178729 3.1668829685275739 0 3.1668829685275739 1.8867820911501951 0 0 0 0 -734.21393556957173 232.50498668643081 0 232.50498668643081 20.353238053412497 0 0 0 0 -48.002029802155448 183.94515690764274 0 183.94515690764274 -152.93804758827309 0 0 0 0 -197.26159242758513 562.43858692530739 0 562.43858692530739 168.39456367141247 0 0 0 0 1.4513182641475737 2.1427140525602368 0 2.1427140525602368 3.2500520068135046 0 0 0 0 -124.52648117856734 118.55211593796048 0 118.55211593796048 378.51421581159047 0 0 0 0 -35.553095909461263 286.34462740860909 0 286.34462740860909 283.63697085851163 0 0 0 0 -28.545310945082747 66.286080488802327 0 66.286080488802327 -54.42746503773742 0 0 0 0 -69.147991061334324 75.918813367185066 0 75.918813367185066 9.0620213961083209 0 0 0 0 -29.34823125881303 142.47115833472526 0 142.47115833472526 -43.347874418883293 0 0 0 0 50.692004421536694 144.13730556050541 0 144.13730556050541 -41.294045130643099 0 0 0 0 -44.762994420027098 171.97593404570125 0 171.97593404570125 263.66001870921173 0 0 0 0 13.955496703310928 42.908150979383208 0 42.908150979383208 513.62086879064009 0 0 0 0 1.6103429542272352 140.8331700669678 0 140.8331700669678 262.5300515947302 0 0 0 0 -53.229838616287907 122.59253067847862 0 122.59253067847862 348.35888988148508 0 0 0 0 7.1583243342975038 16.822755522141961 0 16.822755522141961 -60.385704117498335 0 0 0 0 1.7815988226928425 3.8132434786274487 0 3.8132434786274487 0.70154601221135771 0 0 0 0 155.59818141029245 214.8699177929393 0 214.8699177929393 -8.0039208123162098 0 0 0 0 -83.316155293206975 89.106945057719713 0 89.106945057719713 -1.3632208977413711 0 0 0 0 -42.944445650643502 140.97626813467059 0 140.97626813467059 125.97493761253281 0 0 0 0 3.7760972973726439 4.374968214058562 0 4.374968214058562 0.3370151249400628 0 0 0 0 6.0665363585212617 22.435143235432406 0 22.435143235432406 -28.873057951678675 0 0 0 0 73.667504625784204 168.18528380092539 0 168.18528380092539 -42.997159030812327 0 0 0 0 0.072417996866789736 0.75604808506077603 0 0.75604808506077603 -0.10822919555359434 0 0 0 0 -11.911318720896816 11.454026587131011 0 11.454026587131011 22.77901882317019 0 0 0 0 13.813386522451765 39.643210614307463 0 39.643210614307463 -81.729291662173637 0 0 0 0 3.8240614514725166 13.614074674378571 0 13.614074674378571 -36.353600145244855 0 0 0 0 -4.3285122716606708 3.3561555573596973 0 3.3561555573596973 -2.9270885867891536 0 0 0 0 -1.9830511660256889 31.481595116754761 0 31.481595116754761 13.614833555885525 0 0 0 0 -11.006576916581253 14.429375243931645 0 14.429375243931645 9.7591533992890618 0 0 0 0 98.293554386073083 61.869986785099172 0 61.869986785099172 77.291752575507417 0 0 0 0 -6.0237721058798854 6.5026044449166847 0 6.5026044449166847 -5.4429287149547392 0 0 0 0 -1.3422560882981713 1.963152835556933 0 1.963152835556933 -1.4920418470008983 0 0 0 0 15.29637769134024 14.840333686266604 0 14.840333686266604 -87.600927042269177 0 0 0 0 39.218752298424079 45.70255250142327 0 45.70255250142327 28.098650505693513 0 0 0 0 -3.9543619592423056 15.288159013266522 0 15.288159013266522 -44.946114791877335 0 0 0 0 4.2576206034500501 11.029494523572794 0 11.029494523572794 -42.741940664571302 0 0 0 0 2.5801148468744941 16.884325113183877 0 16.884325113183877 -36.121381029450276 0 0 0 0 5.5433068660204299 10.72483765349898 0 10.72483765349898 -48.634914169688273 0 0 0 0 3.1489678501166054 20.22904709297859 0 20.22904709297859 -34.230846528196707 0 0 0 0 2.4626251885056263 19.026049061560116 0 19.026049061560116 -6.8414358331283438 0 0 0 0 12.640147891186643 25.491688060377783 0 25.491688060377783 -6.3064444316769368 0 0 0 0 16.34933326781902 18.663611801970546 0 18.663611801970546 0.74622596718836576 0 0 0 0 0.19030300285521662 17.242403737653149 0 17.242403737653149 11.244932323519606 0 0 0 0 8.7718981335056014 16.236848384694895 0 16.236848384694895 -32.038213851708861 0 0 0 0 -13.973176861840329 23.650600605913496 0 23.650600605913496 10.202623735829548 0 0 0 0 -3.4850590495552751 20.074569081423761 0 20.074569081423761 0.71477583050727844 0 0 0 0 4.3867971640574979 14.383731498448469 0 14.383731498448469 2.9842046364829002 0 0 0 0 -2.2106209883786505 28.449493044510746 0 28.449493044510746 -31.712224485043407 0 0 0 0 -8.3533450943614298 21.506552363125593 0 21.506552363125593 38.691562188681928 0 0 0 0 -2.3807779308481258 17.85502239096968 0 17.85502239096968 10.37138585542948 0 0 0 0 -6.5692115566162101 26.621266298623596 0 26.621266298623596 24.859156450547744 0 0 0 0 4.6219002034631558 26.400817062363785 0 26.400817062363785 36.361273341593915 0 0 0 0 -5.9145684229365685 7.6078848886838273 0 7.6078848886838273 1.8508038360314671 0 0 0 0 2.447162082149589 24.990450999307541 0 24.990450999307541 42.060517177516886 0 0 0 0 11.221222739332006 6.1458134035565308 0 6.1458134035565308 19.637473558381316 0 0 0 0 0.66586678286694223 13.945287621124407 0 13.945287621124407 10.713653636717936 0 0 0 0 2.3939194745544228 26.950776476904139 0 26.950776476904139 20.87560529402117 0 0 0 0 -4.4853378564948798 18.185990884416242 0 18.185990884416242 21.544010642108333 0 0 0 0 -5.2933088749059607 7.9166380898989352 0 7.9166380898989352 -2.4977777748982817 0 0 0 0 6.2952257788929273 22.312465027758662 0 22.312465027758662 11.955645666027522 0 0 0 0 -3.2741157506934542 12.479413497597307 0 12.479413497597307 12.023927397895022 0 0 0 0 -2.5064772288634742 11.452144687808861 0 11.452144687808861 7.9171949018694505 0 0 0 0 -4.5066988913639818 12.542557620513136 0 12.542557620513136 14.162452793609816 0 0 0 0 -2.6785730564006371 13.281482903345022 0 13.281482903345022 12.265459846794329 0 0 0 0 0.81267912020945232 5.2614875604246869 0 5.2614875604246869 -8.0567274859817317 0 0 0 0 29.519868813542416 29.181979543362104 0 29.181979543362104 -1.0291355901390489 0 0 0 0 0.61233486600966103 -0.0044981244494124439 0 -0.0044981244494124439 -2.3767761164780481 0 0 0 0 -2.4428295617890399 54.970681325664373 0 54.970681325664373 72.233185678640439 0 0 0 0 -28.61202727471391 47.403883155180665 0 47.403883155180665 97.154354285523368 0 0 0 0 -6.5609195567151346 6.0543869638741583 0 6.0543869638741583 -5.3890766234018912 0 0 0 0 23.280906523243175 43.317011421691859 0 43.317011421691859 56.238316416187445 0 0 0 0 18.041077312293055 32.801463656374835 0 32.801463656374835 17.600396327175076 0 0 0 0 22.37495293658867 14.86756880878238 0 14.86756880878238 15.202861616115115 0 0 0 0 165.66224190188223 67.112507158962217 0 67.112507158962217 56.15447427615436 0 0 0 0 -29.004098898942175 280.12981781788585 0 280.12981781788585 -33.653306949994658 0 0 0 0 651.18032613863397 279.47296636615465 0 279.47296636615465 28.801906821609009 0 0 0 0 0.13741788544597711 1.513475241944235 0 1.513475241944235 -0.18433295823533058 0 0 0 0 206.8213523933573 265.65846554986865 0 265.65846554986865 249.59505735621133 0 0 0 0 242.84244704642333 337.70404212450921 0 337.70404212450921 190.65766048647492 0 0 0 0 3.7537262355027963 3.2980165825347942 0 3.2980165825347942 -4.9561469309075505 0 0 0 0 299.50043233470205 273.46106642253426 0 273.46106642253426 130.55808449282995 0 0 0 0 27.895622846248443 14.303493743485888 0 14.303493743485888 -3.7036538236970955 0 0 0 0 -2.1797857597004793 2.5999069617172985 0 2.5999069617172985 -0.31947050920415165 0 0 0 0 36.789600701871677 45.915694354484003 0 45.915694354484003 38.674577811965719 0 0 0 0 -109.77188259887043 129.97777655733807 0 129.97777655733807 108.9409472039406 0 0 0 0 36.596483639572398 37.51569635193664 0 37.51569635193664 31.329850325118969 0 0 0 0 32.928567668728647 36.301559785759309 0 36.301559785759309 45.126765161545336 0 0 0 0 1.0585090240990667 2.9101574420292131 0 2.9101574420292131 -1.7700696637943381 0 0 0 0 5.6449988952590502 8.7070591840310954 0 8.7070591840310954 -29.963802341932023 0 0 0 0 -23.441365160906571 -5.7185611836575845 0 -5.7185611836575845 36.38126657500834 0 0 0 0 149.7888479087851 163.29885018785717 0 163.29885018785717 -17.095647259659017 0 0 0 0 -5.4600098962281152 6.2766641100534795 0 6.2766641100534795 -4.7704911538454979 0 0 0 0 -125.15765428706072 239.58319594059139 0 239.58319594059139 -121.91887761489488 0 0 0 0 -1.0242020394848055 0.65368973765610505 0 0.65368973765610505 -0.37686895677265397 0 0 0 0 -172.02396897383733 213.05151595070492 0 213.05151595070492 -89.377894292698329 0 0 0 0 1.0498457103809073 1.0931761162135842 0 1.0931761162135842 -1.7385763140667336 0 0 0 0 36.875692095203704 52.066180113740302 0 52.066180113740302 78.973508923376357 0 0 0 0 2.6858563319692621 39.029304020106792 0 39.029304020106792 3.9092983374030155 0 0 0 0 193.47848937683739 -38.554929784673732 0 -38.554929784673732 110.60701585256902 0 0 0 0 0.10790157220696983 0.61334279347850007 0 0.61334279347850007 -0.66616017390406057 0 0 0 0 -8.6241948009264888 -120.78747664699767 0 -120.78747664699767 -18.394010268806596 0 0 0 0 51.550392164092045 -22.932916883863072 0 -22.932916883863072 -179.85225438855832 0 0 0 0 -97.177307127829408 133.7051319157672 0 133.7051319157672 264.81612242093615 0 0 0 0 -0.3177649602270094 0.97020009341119184 0 0.97020009341119184 0.12135103970992134 0 0 0 0 78.884321643039584 297.02886394838924 0 297.02886394838924 -85.573074041287327 0 0 0 0 -21.246126939659007 -105.44918418602174 0 -105.44918418602174 116.80142570910175 0 0 0 0 72.767952976955712 -155.10006406927641 0 -155.10006406927641 -154.72716073828633 0 0 0 0 -11.58736301906174 41.762223973615619 0 41.762223973615619 -14.189498363448365 0 0 0 0 12.589552104465838 30.785056152617472 0 30.785056152617472 -19.633704333464266 0 0 0 0 9.0713911400816869 39.059517083911487 0 39.059517083911487 -29.479652835441811 0 0 0 0 3.2686776352056768 21.179890632825845 0 21.179890632825845 13.354401502831024 0 0 0 0 -39.758904323200113 1.0318862496715155 0 1.0318862496715155 39.204595913815865 0 0 0 0 145.10013750892176 495.60048896353237 0 495.60048896353237 542.26542451929708 0 0 0 0 86.547957058159227 202.17111595745519 0 202.17111595745519 395.22840350156912 0 0 0 0 0.18611986805990455 401.97291943581786 0 401.97291943581786 765.62782742696891 0 0 0 0 -0.083365448525000829 451.61070659186953 0 451.61070659186953 225.69209338951987 0 0 0 0 149.27255506343135 520.08417509713036 0 520.08417509713036 -185.64194486805718 0 0 0 0 138.91104515227198 451.17327644083343 0 451.17327644083343 139.77652516216858 0 0 0 0 -40.535819477081532 199.54853169810394 0 199.54853169810394 -257.03423666169328 0 0 0 0 0.065904570441489341 332.91395974705847 0 332.91395974705847 -57.047540414179821 0 0 0 0 -281.20723080096286 339.3922497074509 0 339.3922497074509 89.243993544765544 0 0 0 0 -103.06949191066815 477.09455620319932 0 477.09455620319932 -234.18933158872687 0 0 0 0 356.31160707659728 87.166370924417151 0 87.166370924417151 -7.4762797863440937 0 0 0 0 304.59956354417227 337.21438625759401 0 337.21438625759401 -229.82319504783618 0 0 0 0 443.7772956914705 213.06101761331774 0 213.06101761331774 -120.34577487898423 0 0 0 0 -0.7410654456801069 2.7055062643141667 0 2.7055062643141667 -2.8574351277651147 0 0 0 0 -177.55484820085985 233.09871704210491 0 233.09871704210491 197.56858982134509 0 0 0 0 82.129960334132193 72.289372592158543 0 72.289372592158543 215.77579398493276 0 0 0 0 335.8395699065295 135.59909470223101 0 135.59909470223101 71.979371575082041 0 0 0 0 232.86651523724413 144.42793789782399 0 144.42793789782399 -7.999001847627369 0 0 0 0 0.017261877761988842 2.4536923802054389 0 2.4536923802054389 -0.41066295485683213 0 0 0 0 373.91086643675226 141.83159473079377 0 141.83159473079377 63.504084512327609 0 0 0 0 343.89304331943276 238.78795841229112 0 238.78795841229112 68.72717196936037 0 0 0 0 292.98390804630162 199.27014652193407 0 199.27014652193407 48.090468413844064 0 0 0 0 1.3054574537627559 142.03789613663321 0 142.03789613663321 63.232985772254324 0 0 0 0 592.16168216952519 237.36950367174063 0 237.36950367174063 -48.105302276331713 0 0 0 0 0.1413441064661356 1.3132984546278408 0 1.3132984546278408 -0.1105535279779275 0 0 0 0 -60.407268086310069 190.13839465022465 0 190.13839465022465 129.03137221669749 0 0 0 0 -0.54248765938245924 151.98593959569007 0 151.98593959569007 -122.15024819648534 0 0 0 0 304.69734654970671 333.48656602136271 0 333.48656602136271 -361.38932515663691 0 0 0 0 -0.45935118563203048 3.7329858235071782 0 3.7329858235071782 -7.0697701991608994 0 0 0 0 242.53070255155399 127.83172519699565 0 127.83172519699565 88.667893941214061 0 0 0 0 564.82240389557228 508.57307284489798 0 508.57307284489798 -332.56380990755133 0 0 0 0 446.20125266748801 126.87085323084102 0 126.87085323084102 -153.40684025049632 0 0 0 0 -28.490074262503185 267.47736671424718 0 267.47736671424718 -17.892375645040374 0 0 0 0 0.22923370745411376 -51.559693513705497 0 -51.559693513705497 -451.26061646088419 0 0 0 0 -266.80380351928034 374.80546683453213 0 374.80546683453213 -187.67058470828488 0 0 0 0 -619.08393166604219 -562.80982623773889 0 -562.80982623773889 -1043.0867224896574 0 0 0 0 -340.13967559162575 -399.32366547657762 0 -399.32366547657762 -945.83158604325581 0 0 0 0 88.736715335573535 48.296897330175852 0 48.296897330175852 -1610.9498149575666 0 0 0 0 0.86593925803684613 0.38524865332291114 0 0.38524865332291114 -1.2616486432532668 0 0 0 0 -47.416094951855484 -283.08142209732614 0 -283.08142209732614 -1479.6540620552951 0 0 0 0 0.91125172781569219 0.34340874261954468 0 0.34340874261954468 -0.79752975714179541 0 0 0 0 4.0927747922542039 5.0950166149614233 0 5.0950166149614233 -0.17251007734921586 0 0 0 0 6.6094758222461678 6.1894342396972206 0 6.1894342396972206 -15.560902057364729 0 0 0 0 11.804189541535834 -1.4486997604100225 0 -1.4486997604100225 -11.435346681380906 0 0 0 0 -0.24901204161595913 4.2082275242163831 0 4.2082275242163831 -5.2821334453231259 0 0 0 0 -0.059765577199868858 2.1122438855609289 0 2.1122438855609289 -2.3888605214206109 0 0 0 0 -1.3207282311050221 5.4926985724341648 0 5.4926985724341648 -5.2052135696740152 0 0 0 0 2.5987845888881083 0.13889233493268094 0 0.13889233493268094 -4.0834054983198769 0 0 0 0 241.10774537274847 -446.79789954033276 0 -446.79789954033276 -354.4264744702964 0 0 0 0 231.9582239931417 -165.65860231021696 0 -165.65860231021696 -137.76949225971475 0 0 0 0 0.034295357839468465 0.88055620362535336 0 0.88055620362535336 -4.2707927875514855 0 0 0 0 75.819862561067566 105.96715676040731 0 105.96715676040731 53.302061589967707 0 0 0 0 -163.37249259154487 292.79313174793606 0 292.79313174793606 -79.898428034801327 0 0 0 0 136.35427760948005 254.23801446314974 0 254.23801446314974 -115.46242004995293 0 0 0 0 361.80542534636334 89.963493350955105 0 89.963493350955105 -192.79770502189876 0 0 0 0 366.45375322235486 113.83387740554099 0 113.83387740554099 -121.04902653707541 0 0 0 0 345.24745802356119 44.905148197564813 0 44.905148197564813 -113.13921229881817 0 0 0 0 281.69343003148242 126.40543665541736 0 126.40543665541736 -173.64181082398864 0 0 0 0 118.77504163395497 -85.482380017831019 0 -85.482380017831019 186.66104163431737 0 0 0 0 370.85041141869442 -16.387556146870338 0 -16.387556146870338 -256.37577482041524 0 0 0 0 238.35117397515569 90.377217869587184 0 90.377217869587184 60.436153100230513 0 0 0 0 334.18473888659355 18.120715555192874 0 18.120715555192874 63.582849368060124 0 0 0 0 -0.91058822117412319 5.7303445809725169 0 5.7303445809725169 -9.4378600163219559 0 0 0 0 -414.56795001715363 210.41428533044382 0 210.41428533044382 -356.51837084894214 0 0 0 0 -1.9581745555551606 -2.633798375416518 0 -2.633798375416518 -17.765994917941498 0 0 0 0 169.97313784229482 -151.14639120491483 0 -151.14639120491483 -261.18599098723462 0 0 0 0 286.88013160068658 124.96872639996582 0 124.96872639996582 -416.78475075061579 0 0 0 0 -7.4008120133457851 10.3234031053953 0 10.3234031053953 -16.227977163624018 0 0 0 0 2.6377822440688306 -1.15938459766042 0 -1.15938459766042 -2.7294004546594479 0 0 0 0 379.33535851845227 207.85180671007038 0 207.85180671007038 36.905691471321916 0 0 0 0 26.633868134504155 -35.666637375124083 0 -35.666637375124083 -76.585813199071708 0 0 0 0 323.72543588004191 180.8339665238891 0 180.8339665238891 73.701396065109293 0 0 0 0 282.3455624604685 116.74130987606623 0 116.74130987606623 75.886243199915043 0 0 0 0 0.97714493336076202 3.2262464417604377 0 3.2262464417604377 -1.7874770876817507 0 0 0 0 -10.015668659814764 36.102234445877912 0 36.102234445877912 -20.653330556157016 0 0 0 0 58.881843835129985 26.314833415621251 0 26.314833415621251 -43.368300377742344 0 0 0 0 63.661466992809437 11.793271961329083 0 11.793271961329083 0.14164601875927474 0 0 0 0 225.34731025511428 22.828829838377715 0 22.828829838377715 -62.035808344717225 0 0 0 0 2.4120770868697647 1.2616287812698062 0 1.2616287812698062 -16.616312676367443 0 0 0 0 10.504616621969035 11.099979583475033 0 11.099979583475033 -20.495022925958892 0 0 0 0 -0.72227662952354876 2.8229615802001717 0 2.8229615802001717 -11.715931514641852 0 0 0 0 0.026936304424452828 5.6446949780101932 0 5.6446949780101932 -10.627209453784417 0 0 0 0 -1.4961440024130361 5.4149430856014504 0 5.4149430856014504 -13.743745808233534 0 0 0 0 18.565296254299483 5.7445758503606612 0 5.7445758503606612 -17.114371419327654 0 0 0 0 -0.37616252190365351 4.1474852662676085 0 4.1474852662676085 -9.7043730431009791 0 0 0 0 2.1444457215438888 3.4441510014406731 0 3.4441510014406731 -8.5258461482117127 0 0 0 0 84.405672565175337 211.98500856747705 0 211.98500856747705 40.001875871197626 0 0 0 0 143.37789698241977 229.43045190520206 0 229.43045190520206 42.42504568826007 0 0 0 0 68.585474970994255 177.61125064383555 0 177.61125064383555 118.7778382718061 0 0 0 0 29.345065586536293 216.58540498929324 0 216.58540498929324 102.27320211849656 0 0 0 0 65.744402814176283 181.36018729908938 0 181.36018729908938 124.24358469241088 0 0 0 0 108.19456857646583 150.9127470903959 0 150.9127470903959 110.36758471232133 0 0 0 0 0.46235293982019243 0.75679299372105113 0 0.75679299372105113 -0.71502276970728929 0 0 0 0 169.87178114063863 83.455880881489065 0 83.455880881489065 -113.51707576444051 0 0 0 0 101.40243411450501 119.76735265187745 0 119.76735265187745 -16.707361177933308 0 0 0 0 223.96186006782955 98.534528381236669 0 98.534528381236669 -37.9788005668197 0 0 0 0 228.05846776068211 182.66869270934694 0 182.66869270934694 -86.644250477258538 0 0 0 0 183.79995903400777 195.73339186145313 0 195.73339186145313 13.759653301618528 0 0 0 0 250.00068801462476 140.98660798099081 0 140.98660798099081 30.437603020523966 0 0 0 0 222.76600118870192 79.091074218301401 0 79.091074218301401 81.226096171463723 0 0 0 0 422.03628898048191 104.59880156123472 0 104.59880156123472 -19.566556738795043 0 0 0 0 321.4584252393106 113.92685649864143 0 113.92685649864143 2.8808889172864838 0 0 0 0 298.06774463926558 145.84251393742306 0 145.84251393742306 4.8018422376626404 0 0 0 0 201.4345706287786 158.45241383113171 0 158.45241383113171 2.7008868337325111 0 0 0 0 283.52923446817294 121.69500331097515 0 121.69500331097515 -10.885317530512111 0 0 0 0 266.33314030595648 139.29438958850551 0 139.29438958850551 -6.4779994193686434 0 0 0 0 273.7332514842019 141.0628829949128 0 141.0628829949128 -10.194291958920076 0 0 0 0 317.32450941561547 109.69555786270939 0 109.69555786270939 -1.2831707655477658 0 0 0 0 271.19504734221846 134.00750246169036 0 134.00750246169036 6.1255704532886739 0 0 0 0 150.40252495699679 201.32412609531457 0 201.32412609531457 19.464710998512601 0 0 0 0 162.246881891464 188.5348157958415 0 188.5348157958415 27.707222808032384 0 0 0 0 180.33766743037268 134.30171285204051 0 134.30171285204051 -24.773178589119198 0 0 0 0 238.3436053291407 222.70089952653962 0 222.70089952653962 -20.98986066620273 0 0 0 0 224.31504252156628 209.98915512987742 0 209.98915512987742 -16.382172128742241 0 0 0 0 337.60278075653332 258.5789239664291 0 258.5789239664291 -107.98582153350071 0 0 0 0 326.48013507033465 114.84982339251292 0 114.84982339251292 -15.633534429740394 0 0 0 0 331.11090812557086 108.29042597933585 0 108.29042597933585 -60.931376052414635 0 0 0 0 337.42121136395144 85.156333172351879 0 85.156333172351879 -11.842529669689611 0 0 0 0 281.69473540114996 143.75684702790022 0 143.75684702790022 -33.073953352501121 0 0 0 0 385.62747118247353 129.94178157927308 0 129.94178157927308 -89.244221316925177 0 0 0 0 550.07381787627673 119.82183320421063 0 119.82183320421063 -132.13499039890758 0 0 0 0 369.23504725723251 108.80103046960903 0 108.80103046960903 -113.96229799667344 0 0 0 0 583.17803873304365 301.12219257644028 0 301.12219257644028 -100.62358358054826 0 0 0 0 41.268468376729288 218.77344579912642 0 218.77344579912642 6.3935220139610465 0 0 0 0 45.42885433214542 261.25227551660464 0 261.25227551660464 42.802087973926973 0 0 0 0 69.812157742853742 247.9912363975418 0 247.9912363975418 38.453092019708492 0 0 0 0 197.49039897658258 284.66618521453574 0 284.66618521453574 10.01450176077924 0 0 0 0 21.991653712146217 231.11890508832039 0 231.11890508832039 25.102062330925037 0 0 0 0 76.109806124492025 247.48291182214143 0 247.48291182214143 -15.285420920954493 0 0 0 0 50.68362185335377 199.90544483850499 0 199.90544483850499 -26.528884463445138 0 0 0 0 -27.915561432419054 164.36679056593493 0 164.36679056593493 -98.286397736617801 0 0 0 0 -52.255311488210282 168.99031870719227 0 168.99031870719227 -2.785735763660341 0 0 0 0 -54.343015674567141 145.94930842395297 0 145.94930842395297 -91.48434019121305 0 0 0 0 -69.338976879218535 112.9938826052512 0 112.9938826052512 -38.89267138719697 0 0 0 0 20.294891308549268 228.99591891450109 0 228.99591891450109 4.9072022885120532 0 0 0 0 -70.917825083235584 74.588055407371712 0 74.588055407371712 -138.61883334693266 0 0 0 0 -15.638901932499721 124.30621733704174 0 124.30621733704174 -197.70904791478642 0 0 0 0 -25.916325395679451 107.49434564707917 0 107.49434564707917 -187.37725247111302 0 0 0 0 -13.466485348035349 140.24259538095794 0 140.24259538095794 -155.18826014593651 0 0 0 0 -20.713072342442501 109.22688022179977 0 109.22688022179977 -176.98734386702563 0 0 0 0 445.19278313950053 449.00001765896286 0 449.00001765896286 165.32547061353716 0 0 0 0 341.95282433474131 75.99324285217881 0 75.99324285217881 25.939187966936515 0 0 0 0 -138.23954826906174 300.86838150122139 0 300.86838150122139 93.980058559121971 0 0 0 0 261.66815162769853 479.55734227297171 0 479.55734227297171 92.937574235020293 0 0 0 0 3.5948802346323419 2.8108268006252217 0 2.8108268006252217 2.2504815411588481 0 0 0 0 650.78309586807518 -47.999829885112376 0 -47.999829885112376 -27.999667651469281 0 0 0 0 401.3579299258854 186.34482729976298 0 186.34482729976298 9.6852475301893719 0 0 0 0 114.23372826274863 -1.4629180883403023 0 -1.4629180883403023 -31.86831245866324 0 0 0 0 231.73482551454072 32.41562653494293 0 32.41562653494293 -28.727670063331971 0 0 0 0 90.275017000276421 3.141286119066649 0 3.141286119066649 7.0002020720912697 0 0 0 0 293.01858088801237 201.3598582545419 0 201.3598582545419 61.837376988459312 0 0 0 0 114.91378666402761 102.58753032253549 0 102.58753032253549 28.507574286450108 0 0 0 0 2.3661414109043477 2.8155110227157891 0 2.8155110227157891 2.2908891644109204 0 0 0 0 -59.371841660969949 57.513593532148661 0 57.513593532148661 41.748944608625607 0 0 0 0 -49.895524177904008 91.056998104624654 0 91.056998104624654 -56.088591257583175 0 0 0 0 -33.473786956925323 91.902531597033885 0 91.902531597033885 -232.43656917311819 0 0 0 0 -17.404645331247593 123.12863586086314 0 123.12863586086314 -207.35522658702394 0 0 0 0 -31.469061493451591 89.45992856187695 0 89.45992856187695 -240.75759303351515 0 0 0 0 24.091690790810389 9.6641824886683025 0 9.6641824886683025 4.2942361184832407 0 0 0 0 -26.510572072715149 114.52974064659793 0 114.52974064659793 -202.4580973376469 0 0 0 0 7.7652629238183977 8.3425149435831116 0 8.3425149435831116 5.3262196498783254 0 0 0 0 107.33770364806787 78.180062898161168 0 78.180062898161168 24.952824350912124 0 0 0 0 68.790894493118685 55.703441516923704 0 55.703441516923704 18.576059780676587 0 0 0 0 -18.323686371440999 3.8046093205412035 0 3.8046093205412035 -11.849897980395326 0 0 0 0 0.15306820284317268 6.7124465703011928 0 6.7124465703011928 -8.4117797703728954 0 0 0 0 -11.54529680457199 4.3641315194327035 0 4.3641315194327035 6.7311261207796633 0 0 0 0 -1.0629202358650645 1.8024171284466206 0 1.8024171284466206 -1.5915972361889743 0 0 0 0 -6.5225310983660165 13.48434919160718 0 13.48434919160718 2.1829127999080811 0 0 0 0 -0.03489771225768834 8.8680919505436151 0 8.8680919505436151 9.6598636512097897 0 0 0 0 -7.0881029321608366 -21.951387261262425 0 -21.951387261262425 -4.5363187711191131 0 0 0 0 2.0628388839272418 10.124180684579883 0 10.124180684579883 8.4919222685878566 0 0 0 0 -5.2539738304221828 15.345858069842507 0 15.345858069842507 4.2948556709179684 0 0 0 0 -0.038245192422891705 16.419783436708109 0 16.419783436708109 9.9389983752664008 0 0 0 0 -60.110513591542258 48.326472407674373 0 48.326472407674373 2.4776013582920768 0 0 0 0 -20.355427978398438 68.353678981895882 0 68.353678981895882 -22.403656158443482 0 0 0 0 -9.326864236476581 8.7796757938587859 0 8.7796757938587859 -1.1028396261643678 0 0 0 0 1.4045793455952662 -51.588070216963388 0 -51.588070216963388 -77.87311789283558 0 0 0 0 13.157711672934965 2.4588423901122951 0 2.4588423901122951 -56.566283170490351 0 0 0 0 16.950529383750109 66.065714121212295 0 66.065714121212295 -219.73502556910535 0 0 0 0 12.874553788728008 95.923562261088591 0 95.923562261088591 -289.10414697858869 0 0 0 0 -33.010172967158724 130.14582419726321 0 130.14582419726321 -248.86528512718905 0 0 0 0 -201.65386081983888 332.65686507254395 0 332.65686507254395 -488.28457592554332 0 0 0 0 4.719598344345286 45.814233937151243 0 45.814233937151243 -556.24076401139973 0 0 0 0 -23.783074804887292 155.11411284624592 0 155.11411284624592 -316.10484572706628 0 0 0 0 -4.1068838279923483 2.2044615632084721 0 2.2044615632084721 -1.9951831716544675 0 0 0 0 -87.766242374538706 -60.548875975531928 0 -60.548875975531928 -1.7905349785796716 0 0 0 0 -241.4212379209348 -114.9145392956525 0 -114.9145392956525 -17.964737420537858 0 0 0 0 -330.26727764683892 316.77802891226565 0 316.77802891226565 -160.28022998168308 0 0 0 0 39.122383672388423 145.86349861197596 0 145.86349861197596 -616.50857884242578 0 0 0 0 66.052409723804885 255.26451934077272 0 255.26451934077272 -270.19011926699022 0 0 0 0 90.269863581866957 101.41726743714753 0 101.41726743714753 -319.63822954952047 0 0 0 0 -338.34832074210863 -40.75238811577583 0 -40.75238811577583 -309.19877037818333 0 0 0 0 -485.95221531097923 257.59723568365735 0 257.59723568365735 -210.8349824134275 0 0 0 0 -225.28263280117244 127.05171172994596 0 127.05171172994596 -147.34383666136819 0 0 0 0 -229.34800653291222 153.33594943935896 0 153.33594943935896 -114.4476078494481 0 0 0 0 -212.29173948166863 55.435336622862451 0 55.435336622862451 -71.403216639713719 0 0 0 0 -41.781873954281764 48.421539481114451 0 48.421539481114451 -168.37116375470214 0 0 0 0 -72.933800678387342 143.92734638558431 0 143.92734638558431 -195.48368490081339 0 0 0 0 104.13386773659295 195.95539794219621 0 195.95539794219621 -50.322270449625648 0 0 0 0 -195.70280122563781 78.404166531053306 0 78.404166531053306 -41.5120467330471 0 0 0 0 225.21612780864962 168.40344683163949 0 168.40344683163949 -59.441284880465901 0 0 0 0 -0.29448101502659085 0.28573170055268804 0 0.28573170055268804 1.1679067817825626 0 0 0 0 -191.2325315936032 104.72714290314252 0 104.72714290314252 -61.823028945953411 0 0 0 0 -161.97801640410034 130.77574455521426 0 130.77574455521426 -42.655406479720114 0 0 0 0 -159.80694214865434 189.18075109114579 0 189.18075109114579 -122.83459293811757 0 0 0 0 -113.57624254534312 135.37102244908419 0 135.37102244908419 -60.223891890283994 0 0 0 0 -53.582709171278111 133.34838026206489 0 133.34838026206489 -59.418126353399202 0 0 0 0 -98.918227706140897 178.05187630506452 0 178.05187630506452 -100.9520739813488 0 0 0 0 -52.519967844978964 135.37460156302404 0 135.37460156302404 -147.66695895224984 0 0 0 0 -89.460517741979857 179.22966637981335 0 179.22966637981335 -187.33252327327682 0 0 0 0 -19.406680008789408 131.64998559414016 0 131.64998559414016 -197.5982776828605 0 0 0 0 -19.376043384199875 125.51183281465319 0 125.51183281465319 -247.50090648862897 0 0 0 0 -243.20567011317326 267.26829241769519 0 267.26829241769519 -249.46276490796936 0 0 0 0 -95.429020206279347 151.93964534957649 0 151.93964534957649 -160.71434865452829 0 0 0 0 205.89592508420355 -5.1476025402034793 0 -5.1476025402034793 -14.667257007346052 0 0 0 0 109.25641608928345 118.04919433627401 0 118.04919433627401 -7.3005912329390412 0 0 0 0 288.30990128230769 42.240221339508935 0 42.240221339508935 29.124982058762726 0 0 0 0 269.4484885000802 12.626434434056137 0 12.626434434056137 -13.237220721417543 0 0 0 0 425.40009953157278 -57.789800025486329 0 -57.789800025486329 -30.06222872496437 0 0 0 0 2.7303061189141928 4.1872182387145642 0 4.1872182387145642 -1.8132082622119867 0 0 0 0 195.46405569038325 -11.090636959366748 0 -11.090636959366748 39.185338735323967 0 0 0 0 -100.92203395303659 177.51440820782409 0 177.51440820782409 -146.75751829412229 0 0 0 0 -9.9257249465626955 176.63729830096872 0 176.63729830096872 -149.19536266172508 0 0 0 0 -337.69732316301452 335.79310733575858 0 335.79310733575858 -51.072736624740173 0 0 0 0 -2.2367120111266559 202.15534768042198 0 202.15534768042198 -142.53508931745182 0 0 0 0 6.9836707742724684 110.361337612223 0 110.361337612223 -168.33392102468861 0 0 0 0 81.499525716158587 36.124772653546302 0 36.124772653546302 -117.08477544750349 0 0 0 0 11.486339114137081 16.882498700213546 0 16.882498700213546 -121.6642025455094 0 0 0 0 225.2953825683544 112.92761023561343 0 112.92761023561343 27.847363947916165 0 0 0 0 1.7774250234023015 0.64511599682082377 0 0.64511599682082377 -0.22699825724396305 0 0 0 0 3.3591388266831927 23.152001138362721 0 23.152001138362721 -81.785841581908528 0 0 0 0 3.4261183131507096 6.4744245735098218 0 6.4744245735098218 -4.7590256762880045 0 0 0 0 152.41182101725826 17.072073372722116 0 17.072073372722116 5.0391201933853154 0 0 0 0 3.8552850372994598 5.2756357179715963 0 5.2756357179715963 -3.6141038136593977 0 0 0 0 11.736697740725504 87.459336659489281 0 87.459336659489281 -85.213396325318172 0 0 0 0 162.31973197709522 -35.914359961310765 0 -35.914359961310765 0.78929507754764927 0 0 0 0 262.57470787443526 -37.038812432081613 0 -37.038812432081613 -26.664850621200458 0 0 0 0 138.84731241076952 55.696068766455937 0 55.696068766455937 -98.900267543840528 0 0 0 0 43.613594697580993 17.79707089816111 0 17.79707089816111 -84.266948435242739 0 0 0 0 137.54839748957966 70.705493818116111 0 70.705493818116111 -63.19518748131668 0 0 0 0 52.242076428970904 238.50373245034734 0 238.50373245034734 572.08232665127434 0 0 0 0 -1.9225942075130575 2.2595014715376269 0 2.2595014715376269 -2.3441452275180126 0 0 0 0 108.12967632765503 50.29059985985441 0 50.29059985985441 262.53399410107022 0 0 0 0 198.88858666875603 289.97764446695874 0 289.97764446695874 182.68434555358908 0 0 0 0 0.6038040977760204 1.1447557688826393 0 1.1447557688826393 -0.2796968534998836 0 0 0 0 99.078585169580037 159.91954254934535 0 159.91954254934535 -233.48644401905949 0 0 0 0 88.67162199793529 3.6556618240429088 0 3.6556618240429088 -515.47697426393097 0 0 0 0 113.0536920113509 88.754296876464196 0 88.754296876464196 7.2867029244735022 0 0 0 0 -3.3804673193245804 6.0966322680292429 0 6.0966322680292429 -5.2780431878342 0 0 0 0 91.335850380630291 130.57178901742736 0 130.57178901742736 -49.938156458400044 0 0 0 0 97.950009883688836 109.67227094988448 0 109.67227094988448 15.399447672461974 0 0 0 0 116.69925313218846 42.698223456607593 0 42.698223456607593 -37.235902485241695 0 0 0 0 207.14058600697899 277.47324812833904 0 277.47324812833904 -4.9143323717034946 0 0 0 0 16.113182835168118 115.72547969832794 0 115.72547969832794 123.31438936973427 0 0 0 0 54.139295649554697 187.06223232002776 0 187.06223232002776 252.27523620193824 0 0 0 0 -50.572186779607364 33.416279654536993 0 33.416279654536993 106.29470164829036 0 0 0 0 -0.37257775986628872 1.9713762430768185 0 1.9713762430768185 2.5132270870487403 0 0 0 0 12.612978972800192 -48.533909269644937 0 -48.533909269644937 -10.170377798264781 0 0 0 0 249.25666351650761 40.665553531376645 0 40.665553531376645 -7.0986480266510625 0 0 0 0 -38.135979993987348 131.68106926522978 0 131.68106926522978 405.51749336518697 0 0 0 0 -7.8326284924260108 13.606137114811645 0 13.606137114811645 -4.4434215216751909 0 0 0 0 0.19194018949253433 0.54146834846277159 0 0.54146834846277159 3.1610161668793921 0 0 0 0 327.91734100950998 444.15767666764077 0 444.15767666764077 149.83646450748893 0 0 0 0 21.488558286519037 41.173624907127305 0 41.173624907127305 86.025054138412088 0 0 0 0 -25.471020650304126 -27.873935228817572 0 -27.873935228817572 33.620216134331713 0 0 0 0 1.2088808252351626 0.37257416572829527 0 0.37257416572829527 -0.1530149126975715 0 0 0 0 11.338717249047477 68.83314973258166 0 68.83314973258166 139.15106353859483 0 0 0 0 36.770836959381995 43.329870804682287 0 43.329870804682287 82.550490797444581 0 0 0 0 31.005537982513488 32.364330821323165 0 32.364330821323165 49.628788058617829 0 0 0 0 71.510606157768052 43.125274011650617 0 43.125274011650617 52.484040546799406 0 0 0 0 1.273293303948023 0.90527064295292803 0 0.90527064295292803 0.72997752063594401 0 0 0 0 64.709463525745377 -11.338561854992804 0 -11.338561854992804 -7.1354805851842684 0 0 0 0 137.82064679772157 16.077085311522751 0 16.077085311522751 -11.434593340269203 0 0 0 0 153.57803110164241 105.58016148925344 0 105.58016148925344 47.172208933292495 0 0 0 0 -27.131956581253689 85.262246643409071 0 85.262246643409071 174.19408079400091 0 0 0 0 77.986257592037873 52.459711309766135 0 52.459711309766135 55.1139917117398 0 0 0 0 60.796798471717921 72.402557615283513 0 72.402557615283513 35.329329969372338 0 0 0 0 38.350081800861517 68.595418989919381 0 68.595418989919381 60.361060383995209 0 0 0 0 55.717311416075063 62.523131057457249 0 62.523131057457249 47.252514587569749 0 0 0 0 2.244030696464506 10.257854453136588 0 10.257854453136588 45.749403372788947 0 0 0 0 -76.146047441456176 133.44778804823181 0 133.44778804823181 -21.423246806501993 0 0 0 0 -66.934605491591356 102.05147745057002 0 102.05147745057002 -99.555069503221603 0 0 0 0 -17.341543918060779 156.81320134170801 0 156.81320134170801 -14.245063617036067 0 0 0 0 33.491390181632596 208.59733108920591 0 208.59733108920591 -121.72795364131707 0 0 0 0 17.638854344055289 260.53529471498587 0 260.53529471498587 19.551473563397849 0 0 0 0 -79.511337036994519 146.77893271381254 0 146.77893271381254 -5.9497397293962422 0 0 0 0 -90.260600482492009 159.59823816411335 0 159.59823816411335 -18.839449616747515 0 0 0 0 -25.243028959721414 168.41922615432304 0 168.41922615432304 -29.545932990353322 0 0 0 0 -132.71438615249554 134.74209487003304 0 134.74209487003304 -15.76200565122781 0 0 0 0 -86.330518196067715 143.19987091327675 0 143.19987091327675 -60.035865526137513 0 0 0 0 -124.75501403941144 97.754536542841379 0 97.754536542841379 -20.159245762268256 0 0 0 0 -121.57328888523625 96.361781810026514 0 96.361781810026514 -25.678250384378771 0 0 0 0 -179.32217425818999 45.730000970924266 0 45.730000970924266 3.65149182825553 0 0 0 0 -78.191664049358224 5.6332764801281883 0 5.6332764801281883 11.461297767400083 0 0 0 0 -4.6348540956951183 17.180280311843489 0 17.180280311843489 -22.735742003373161 0 0 0 0 -7.9036326278583147 -1.7781642403024307 0 -1.7781642403024307 -10.123782666993066 0 0 0 0 -64.577175915736007 61.380281056225613 0 61.380281056225613 -10.151348071055509 0 0 0 0 -43.593283436572165 60.443662935450448 0 60.443662935450448 -39.513689941712073 0 0 0 0 1.8113897323742378 2.485419309368794 0 2.485419309368794 0.61883723320485728 0 0 0 0 11.055285033640757 64.585389623696074 0 64.585389623696074 188.31474086670278 0 0 0 0 36.997308931830048 39.904751905054582 0 39.904751905054582 48.831254248508685 0 0 0 0 -1.7901649420346075 27.520684207611339 0 27.520684207611339 107.35921184822109 0 0 0 0 -13.211603612267936 1.0555276968916587 0 1.0555276968916587 15.978329903973645 0 0 0 0 3.2903971760840136 2.9312889444272443 0 2.9312889444272443 0.96482299577674802 0 0 0 0 17.567528425181081 72.48884825046207 0 72.48884825046207 150.46108451441251 0 0 0 0 10.927760201433557 65.839657089345565 0 65.839657089345565 185.71017167243463 0 0 0 0 17.497499583078024 102.42983988532433 0 102.42983988532433 176.1673462513163 0 0 0 0 93.062987215613248 51.669776541097235 0 51.669776541097235 35.886267869260337 0 0 0 0 -18.858977297461024 83.777150831092058 0 83.777150831092058 484.35704723912932 0 0 0 0 18.303868962844717 154.40380845363325 0 154.40380845363325 -249.53843759396477 0 0 0 0 0.50728195398232856 1.2837557080150148 0 1.2837557080150148 0.39437748991042643 0 0 0 0 88.068535981194145 228.59905078169777 0 228.59905078169777 164.24137401242115 0 0 0 0 106.27741746152606 163.24894897808599 0 163.24894897808599 213.26841461658478 0 0 0 0 98.438113771302596 140.03457713823684 0 140.03457713823684 204.3864487905048 0 0 0 0 0.45835417626838648 0.65622628014225093 0 0.65622628014225093 -0.67905679985688039 0 0 0 0 103.05055353782882 170.08440958298706 0 170.08440958298706 75.094658888769118 0 0 0 0 58.646828159522556 78.751998615440243 0 78.751998615440243 211.00944450278257 0 0 0 0 0.36068073226898889 0.99695255873849931 0 0.99695255873849931 -0.31457460799401105 0 0 0 0 56.959144925345754 186.91736947968002 0 186.91736947968002 305.24677190513285 0 0 0 0 26.249530630209847 111.55372849991545 0 111.55372849991545 185.67735265826559 0 0 0 0 0.30754337627426764 1.6713255228217641 0 1.6713255228217641 -0.68654007327707589 0 0 0 0 65.6127803561576 92.940763300070103 0 92.940763300070103 134.96674286372036 0 0 0 0 49.694806036008231 86.178137409599003 0 86.178137409599003 87.081658549272106 0 0 0 0 30.480443775770254 136.83452545512955 0 136.83452545512955 164.15376918445418 0 0 0 0 19.506493724824395 141.77312164886825 0 141.77312164886825 70.525999347428296 0 0 0 0 -0.16514105002691792 0.42157130323475656 0 0.42157130323475656 -0.092497432501446042 0 0 0 0 -249.47118277025584 44.050739729840643 0 44.050739729840643 40.086948298874631 0 0 0 0 50.993383202039695 134.87635199092165 0 134.87635199092165 29.534292373868084 0 0 0 0 72.703738059466559 90.176695707857107 0 90.176695707857107 -1.8451557973767194 0 0 0 0 73.932627085032436 86.728846836512503 0 86.728846836512503 -8.8677364901996043 0 0 0 0 42.249170480187558 77.949853149505543 0 77.949853149505543 48.709252001593995 0 0 0 0 61.982372682674395 104.9096491526343 0 104.9096491526343 37.970250006055721 0 0 0 0 44.409076497875503 79.394892692784197 0 79.394892692784197 36.383206709868318 0 0 0 0 51.927453138934652 86.977251690088451 0 86.977251690088451 42.182074736514323 0 0 0 0 52.277741837232497 82.122886455886601 0 82.122886455886601 87.784744181870337 0 0 0 0 61.920592592909088 106.45862140334611 0 106.45862140334611 48.473446447642345 0 0 0 0 54.738404876308778 111.24221797034625 0 111.24221797034625 55.388968938475955 0 0 0 0 39.620056609906896 49.811261090164862 0 49.811261090164862 147.43284915400363 0 0 0 0 64.459663754525536 79.425247178920472 0 79.425247178920472 -65.066652121509833 0 0 0 0 0.229779221638438 1.0554768480434724 0 1.0554768480434724 -0.46846917670342592 0 0 0 0 43.853019059712096 146.03944824354312 0 146.03944824354312 248.06651143639556 0 0 0 0 39.217418463285867 153.91226777254724 0 153.91226777254724 75.28500104540035 0 0 0 0 101.47079921449767 161.73095235577057 0 161.73095235577057 -8.9021043230550276 0 0 0 0 262.71533031048966 200.18276521472762 0 200.18276521472762 70.42747210936443 0 0 0 0 88.046708475758351 115.71875014748366 0 115.71875014748366 76.304891610359846 0 0 0 0 46.98724238945033 103.30782778110506 0 103.30782778110506 62.393316780977329 0 0 0 0 58.858199857473664 120.07076231793872 0 120.07076231793872 76.282659177775713 0 0 0 0 56.380050882406067 119.81600949079711 0 119.81600949079711 78.323955381278211 0 0 0 0 59.934483735292815 102.91383093554123 0 102.91383093554123 50.471158301956166 0 0 0 0 61.251916692076975 108.68489562100945 0 108.68489562100945 49.875473139341921 0 0 0 0 27.776252618786202 134.38131962812008 0 134.38131962812008 121.72978856000191 0 0 0 0 45.989956240715401 126.70456039724331 0 126.70456039724331 75.445925797950622 0 0 0 0 47.236629391547467 136.03491914083133 0 136.03491914083133 100.43379180280317 0 0 0 0 50.22898651253854 115.98854938901422 0 115.98854938901422 102.15646480211581 0 0 0 0 40.818696235008247 114.07930764722732 0 114.07930764722732 94.274689269070223 0 0 0 0 72.765165123732004 123.60834685085683 0 123.60834685085683 97.067053879163723 0 0 0 0 26.489766223145125 113.07279340885179 0 113.07279340885179 112.07084457821475 0 0 0 0 87.927786307155657 89.789482082434461 0 89.789482082434461 74.343389953126461 0 0 0 0 88.792277520492462 110.98964440166083 0 110.98964440166083 99.785995467129396 0 0 0 0 -1.091590305133721 1.3973048546042364 0 1.3973048546042364 0.16434327582688013 0 0 0 0 -67.306065286724333 11.091140824948525 0 11.091140824948525 4.7754797722773219 0 0 0 0 159.87264264646728 146.45901772457273 0 146.45901772457273 92.856238687658333 0 0 0 0 -1.57963242960831 1.9980782166377722 0 1.9980782166377722 0.36155851857319021 0 0 0 0 -0.098245606299315114 9.3873383737718541 0 9.3873383737718541 3.1855797871721734 0 0 0 0 0.42372276823334687 8.0442898284727562 0 8.0442898284727562 -3.2203066884358122 0 0 0 0 21.570791811838717 121.93455133559019 0 121.93455133559019 146.87255577230462 0 0 0 0 2.2743183370965312 1.1915967727308612 0 1.1915967727308612 -0.55744680648098921 0 0 0 0 100.96408056337532 92.045902560070317 0 92.045902560070317 66.914136780025729 0 0 0 0 0.9407339692406822 -3.906816599330341 0 -3.906816599330341 22.287634544885805 0 0 0 0 -1.0212036330541565 1.8760241868813132 0 1.8760241868813132 -0.33503218622232112 0 0 0 0 44.92402836563997 56.646117291864357 0 56.646117291864357 64.585698205697554 0 0 0 0 0.28741014966622203 0.17523762858228054 0 0.17523762858228054 0.39079488012183106 0 0 0 0 68.568889313151885 78.088604488850251 0 78.088604488850251 73.832129038761195 0 0 0 0 64.141890705548576 71.256650912730038 0 71.256650912730038 74.314506747829 0 0 0 0 38.00136674366513 85.475128611176842 0 85.475128611176842 83.838088551983674 0 0 0 0 68.22322994589922 81.176940190196547 0 81.176940190196547 70.879517976271018 0 0 0 0 74.229967854367715 98.948988694836316 0 98.948988694836316 88.646421725039545 0 0 0 0 36.997572166781538 87.632686837669098 0 87.632686837669098 103.22292439898956 0 0 0 0 4.3388972103275592 99.07741800203803 0 99.07741800203803 108.39156740467297 0 0 0 0 -0.29108630782538114 0.69760632251293231 0 0.69760632251293231 -0.32309331751046244 0 0 0 0 21.883504756249749 67.163010393617697 0 67.163010393617697 101.2617776236948 0 0 0 0 -24.275120496160525 67.136006960056875 0 67.136006960056875 151.465317588787 0 0 0 0 -69.61015961645171 135.21167866310861 0 135.21167866310861 132.63901335627816 0 0 0 0 -19.127762597865512 121.98057215401241 0 121.98057215401241 134.34877681002581 0 0 0 0 7.8909155440901486 123.40294578379689 0 123.40294578379689 123.9602712198357 0 0 0 0 75.46811266892837 79.391920855452554 0 79.391920855452554 18.733010102315347 0 0 0 0 15.271167579862521 21.55656516594053 0 21.55656516594053 -32.130977734571097 0 0 0 0 63.561102035841031 110.85735872548139 0 110.85735872548139 65.684001435562095 0 0 0 0 65.371887336725194 67.812286953867897 0 67.812286953867897 3.7019087747266894 0 0 0 0 69.514206552092219 74.942669524133635 0 74.942669524133635 8.1113205232886685 0 0 0 0 -14.421648220122734 98.203801231742545 0 98.203801231742545 21.254099261468582 0 0 0 0 -8.9263508583262592 31.916671172852318 0 31.916671172852318 -5.6435622710523603 0 0 0 0 5.7155022411607206 70.128252963033447 0 70.128252963033447 12.433147422052571 0 0 0 0 -53.761191287005204 45.881116612006736 0 45.881116612006736 26.583839729883039 0 0 0 0 4.2370799859836552 56.175445183717784 0 56.175445183717784 64.108881058509724 0 0 0 0 38.132561643151348 136.20836560253548 0 136.20836560253548 108.30380012225578 0 0 0 0 38.780966573467595 -18.219765651660964 0 -18.219765651660964 -18.151666324381296 0 0 0 0 93.285875477417903 142.41202573630926 0 142.41202573630926 97.999731875155703 0 0 0 0 13.589569936278437 21.793985042201694 0 21.793985042201694 -31.740125674612784 0 0 0 0 0.71892366583622902 0.47455063378928841 0 0.47455063378928841 -0.15470806492576727 0 0 0 0 57.16574456532544 216.24948928864978 0 216.24948928864978 245.5919074846679 0 0 0 0 1.5912548564083409 24.048197988444372 0 24.048197988444372 -72.252156852544431 0 0 0 0 31.416831583325802 74.285723374764416 0 74.285723374764416 -21.784634277781151 0 0 0 0 11.000108194131514 22.824104187770072 0 22.824104187770072 -31.939540990620046 0 0 0 0 -2.8430062122279196 43.330008977857233 0 43.330008977857233 23.630844842076385 0 0 0 0 46.384478170582952 72.875965595592788 0 72.875965595592788 228.31405007795911 0 0 0 0 95.344587514438899 45.547109929411818 0 45.547109929411818 -21.209346582586775 0 0 0 0 -3.0973221771491808 37.504286392319273 0 37.504286392319273 78.942421284397369 0 0 0 0 56.974113668611608 75.752573969594295 0 75.752573969594295 86.887657370381021 0 0 0 0 76.627406990577583 123.27399263630696 0 123.27399263630696 60.617231983292868 0 0 0 0 -0.91861599034930919 1.1353494939522903 0 1.1353494939522903 -0.64782062396174744 0 0 0 0 -73.395843751415669 49.814379067319805 0 49.814379067319805 121.51234027922328 0 0 0 0 32.592518921490409 27.583269730377651 0 27.583269730377651 62.793288631812118 0 0 0 0 81.488120397050807 82.616513708047478 0 82.616513708047478 59.350470560979375 0 0 0 0 -0.23814231671259734 0.53300134091962548 0 0.53300134091962548 -0.55051541789860181 0 0 0 0 4.9341551959441858 26.48596374428962 0 26.48596374428962 71.353071802866452 0 0 0 0 129.32961823371807 34.770485447384999 0 34.770485447384999 -66.522291568982382 0 0 0 0 72.452087127032428 75.784948498159793 0 75.784948498159793 87.832896614298534 0 0 0 0 63.827175536156574 79.404289481444721 0 79.404289481444721 87.542942384225569 0 0 0 0 59.436026069291984 87.260389344558916 0 87.260389344558916 77.764241783076159 0 0 0 0 94.621290966701054 69.879657816154577 0 69.879657816154577 71.517705708239191 0 0 0 0 -14.573201474900998 8.4479517800191388 0 8.4479517800191388 7.8212126727877092 0 0 0 0 0.2982287490184703 -0.23817220504496817 0 -0.23817220504496817 0.49625420170598034 0 0 0 0 -61.729213245966093 -20.528365368605819 0 -20.528365368605819 6.333182965193231 0 0 0 0 -45.14032325390508 29.497552391109707 0 29.497552391109707 47.687791172813377 0 0 0 0 147.40145048845079 171.72811850278936 0 171.72811850278936 114.16703495356433 0 0 0 0 13.318293145784992 103.04248817951748 0 103.04248817951748 149.47458257657013 0 0 0 0 75.065829263523483 85.05190028523748 0 85.05190028523748 67.307876233021489 0 0 0 0 52.387641696994251 102.82828831593406 0 102.82828831593406 -19.553737839624773 0 0 0 0 -23.838776754937498 91.430824294697118 0 91.430824294697118 73.219391938415356 0 0 0 0 52.816968631581403 49.204483480476938 0 49.204483480476938 -25.304963376242739 0 0 0 0 49.019136896014061 66.119819586007452 0 66.119819586007452 18.558721685108594 0 0 0 0 55.861997578773298 60.908847625990802 0 60.908847625990802 59.272316723291624 0 0 0 0 57.964353637685917 81.055619664575971 0 81.055619664575971 20.529389803694357 0 0 0 0 67.768541361951065 83.062213694584898 0 83.062213694584898 5.2548524231333431 0 0 0 0 -14.013834681452863 60.511457686870472 0 60.511457686870472 8.4322495614942454 0 0 0 0 16.164909593922062 21.244197997655963 0 21.244197997655963 -32.133084880179425 0 0 0 0 31.388971371079606 60.312607448575818 0 60.312607448575818 26.272674950673036 0 0 0 0 34.441905389663589 52.740450915700876 0 52.740450915700876 19.707920416634579 0 0 0 0 22.861760651851 44.268116413252415 0 44.268116413252415 23.55542172243895 0 0 0 0 15.449986400552007 50.063651467285126 0 50.063651467285126 28.410865575510343 0 0 0 0 3.2211112247423443 35.80492494447094 0 35.80492494447094 18.894609461435721 0 0 0 0 5.1215039959424757 35.420493262388391 0 35.420493262388391 18.372749893396758 0 0 0 0 10.932989465305582 45.471659498788085 0 45.471659498788085 26.283118525511782 0 0 0 0 -4.0656406401321874 72.332840672619568 0 72.332840672619568 76.013946206298442 0 0 0 0 -11.523563810806081 16.484229713294098 0 16.484229713294098 7.915774505243462 0 0 0 0 -9.4419757051291526 23.538858230766891 0 23.538858230766891 30.776271942503513 0 0 0 0 -3.8855470085254638 20.391441655398694 0 20.391441655398694 6.6109756611676858 0 0 0 0 -6.2185451472178102 22.484042017599677 0 22.484042017599677 5.3028520678481073 0 0 0 0 -1.0318913976188924 25.39475803811365 0 25.39475803811365 8.0874834375317732 0 0 0 0 -3.7350477895852237 21.23721494978588 0 21.23721494978588 11.664079609805412 0 0 0 0 -4.92627737337898 18.881122571832748 0 18.881122571832748 6.0853687681053543 0 0 0 0 -4.6334386588496272 18.930943623624671 0 18.930943623624671 7.6837212626014662 0 0 0 0 -0.29989023704547435 17.107911191755647 0 17.107911191755647 -4.8611086055343549 0 0 0 0 -4.2450344407116063 16.49573004071226 0 16.49573004071226 0.26016444704578134 0 0 0 0 1.83782740769675 21.287927014900106 0 21.287927014900106 -1.134992617445846 0 0 0 0 -3.5414352916268399 10.812835079775141 0 10.812835079775141 -7.9526063242883538 0 0 0 0 -7.2915270951962157 10.826702401211151 0 10.826702401211151 -9.9801099560045259 0 0 0 0 -12.704200112246326 15.869374347060784 0 15.869374347060784 -2.0577207201799865 0 0 0 0 -12.949339187165606 13.604374047559304 0 13.604374047559304 -3.4520754407826644 0 0 0 0 -8.848463188016467 9.8203658112549874 0 9.8203658112549874 -0.10242146912878525 0 0 0 0 -5.5093109737936174 19.259815867698762 0 19.259815867698762 0.094425893598241828 0 0 0 0 5.3913784431715612 22.794092252338942 0 22.794092252338942 2.2267079529879084 0 0 0 0 -9.7936036646788125 10.561192051392709 0 10.561192051392709 -2.2953883304054443 0 0 0 0 2.0873167482093891 7.1077767962442522 0 7.1077767962442522 -5.128869908428177 0 0 0 0 -9.2840065008640522 10.946904937288082 0 10.946904937288082 -2.199789663554327 0 0 0 0 -9.9016713286350182 9.4121728842676617 0 9.4121728842676617 -6.4769034931049481 0 0 0 0 -9.7032002374762669 10.157406373787808 0 10.157406373787808 -2.5739912689908806 0 0 0 0 -9.2583551412099041 10.465661895912717 0 10.465661895912717 -2.6787134987210948 0 0 0 0 -14.105096530629908 7.1479134474460295 0 7.1479134474460295 -5.4681488926271413 0 0 0 0 -17.14688018628658 16.348687241318203 0 16.348687241318203 -5.3148289984071582 0 0 0 0 47.212891532610229 23.252560263062605 0 23.252560263062605 -10.872917119467274 0 0 0 0 0.10492477453226456 16.497716143522439 0 16.497716143522439 -2.954805576408944 0 0 0 0 -10.201653863358729 16.380686833470357 0 16.380686833470357 -6.7925370996974799 0 0 0 0 2.29615103067772 15.536114359072258 0 15.536114359072258 -12.108288657249886 0 0 0 0 6.4041691616657772 16.433994652174079 0 16.433994652174079 -18.471090446370908 0 0 0 0 -30.125424731508247 18.956851000834149 0 18.956851000834149 -8.8808922521147906 0 0 0 0 -44.755606263934169 19.568365538548733 0 19.568365538548733 -1.5158654079150438 0 0 0 0 7.2918148920168093 13.360102885593612 0 13.360102885593612 -3.772027258621911 0 0 0 0 5.0779661849839499 1.5706032678840103 0 1.5706032678840103 -1.0114739041280778 0 0 0 0 -11.701031619249989 8.4483143812626622 0 8.4483143812626622 0.43544885306437209 0 0 0 0 -4.1020184172375309 2.5854807715075268 0 2.5854807715075268 0.0028445735772333336 0 0 0 0 -24.288411686648033 6.3140998044016214 0 6.3140998044016214 -1.8817568850840871 0 0 0 0 0.25059201113501217 -0.038632192868796267 0 -0.038632192868796267 0.54032902821992757 0 0 0 0 0.011566566536203027 20.157066189355874 0 20.157066189355874 -0.78304597976693913 0 0 0 0 7.0578455644244968 33.046109297604062 0 33.046109297604062 11.627875117037775 0 0 0 0 10.494512513203517 32.0758646718607 0 32.0758646718607 11.288384048440093 0 0 0 0 -3.7861719304928556 10.094976891357874 0 10.094976891357874 -5.3156679101836346 0 0 0 0 12.354464671794631 15.293490674293878 0 15.293490674293878 -6.2519342520827195 0 0 0 0 13.368521435442744 36.795651488586827 0 36.795651488586827 29.254863814400778 0 0 0 0 29.308451748423977 31.045872500105588 0 31.045872500105588 -4.5952429744916259 0 0 0 0 22.293044879614172 45.759471221488411 0 45.759471221488411 20.226970101175766 0 0 0 0 35.100095352067001 37.880869966869568 0 37.880869966869568 3.8127468910497555 0 0 0 0 34.995689732057144 52.378775151061959 0 52.378775151061959 26.949982744151384 0 0 0 0 24.767316648139968 29.533208436200312 0 29.533208436200312 24.248409012554021 0 0 0 0 23.206096449865072 22.123224019067607 0 22.123224019067607 -9.4808946625353201 0 0 0 0 18.599803548729582 21.126126911384258 0 21.126126911384258 -30.99931408180224 0 0 0 0 21.538408694763348 49.165603148995615 0 49.165603148995615 20.436058543182753 0 0 0 0 -4.5179186486057006 21.992070123353756 0 21.992070123353756 -0.91701399797238992 0 0 0 0 -5.9930913434382092 25.229159417879146 0 25.229159417879146 0.77242192652192898 0 0 0 0 -0.015124177207326284 25.199396798652288 0 25.199396798652288 -1.0769831376228467 0 0 0 0 10.389162962074721 14.838564964879446 0 14.838564964879446 5.017631026130033 0 0 0 0 -49.046470845085423 56.692363013549766 0 56.692363013549766 34.243612437421461 0 0 0 0 -7.957740262052539 32.178194197755829 0 32.178194197755829 -6.0392917663066328 0 0 0 0 11.67759467715338 23.114594570474722 0 23.114594570474722 8.6187359723361752 0 0 0 0 17.921271433246147 58.825352564385639 0 58.825352564385639 -5.3602848521292117 0 0 0 0 -3.7979403940553311 26.209784922994004 0 26.209784922994004 0.71873020354652795 0 0 0 0 -3.0778479493128543 28.285387775238632 0 28.285387775238632 -3.0194136108002567 0 0 0 0 0.029300220983714098 17.681112497291451 0 17.681112497291451 6.2107160310188192 0 0 0 0 16.888917831609433 29.15802137773062 0 29.15802137773062 -7.8191076510129278 0 0 0 0 -0.71395246213051067 3.3463469667580767 0 3.3463469667580767 0.41981386448457769 0 0 0 0 -3.985106963537504 10.978864126041106 0 10.978864126041106 -10.307196139600784 0 0 0 0 -16.324895787169226 22.800795149846635 0 22.800795149846635 -8.0338871785147603 0 0 0 0 6.7208499238604418 15.760456033027594 0 15.760456033027594 -15.071769214153392 0 0 0 0 2.4845352638067197 5.6797416887524719 0 5.6797416887524719 -20.342591676384473 0 0 0 0 -0.95989069307012187 -1.2924998026250556 0 -1.2924998026250556 -1.669718354530179 0 0 0 0 -23.604964768170248 -21.66514301990992 0 -21.66514301990992 -26.594270786870766 0 0 0 0 62.175288601996726 29.770631502762626 0 29.770631502762626 -25.153123766907811 0 0 0 0 -4.6130196515005082 -44.900646688072811 0 -44.900646688072811 -68.927008886779731 0 0 0 0 4.8346646270500528 3.4443038192141415 0 3.4443038192141415 -22.779187263096908 0 0 0 0 -31.257513392520195 23.065367826791316 0 23.065367826791316 -43.571606886820518 0 0 0 0 -17.667068039609148 -5.743233573555699 0 -5.743233573555699 13.912623598393111 0 0 0 0 159.72816393334506 109.8319462234831 0 109.8319462234831 33.115538186095364 0 0 0 0 54.036503519069811 29.758685500000865 0 29.758685500000865 39.377606160508094 0 0 0 0 43.715997179686383 46.846341074854536 0 46.846341074854536 -25.911194609263475 0 0 0 0 124.59714353019081 41.024313104784596 0 41.024313104784596 -32.303731411535409 0 0 0 0 176.60263339654011 244.93527112637184 0 244.93527112637184 175.76050569894505 0 0 0 0 70.003830248437225 79.25038541605818 0 79.25038541605818 110.960979844549 0 0 0 0 0.54821369189730262 1.2031426903798437 0 1.2031426903798437 -1.219654775129797 0 0 0 0 127.82987935509118 113.71251917662494 0 113.71251917662494 45.736396146325205 0 0 0 0 57.711941399837087 56.992999992768091 0 56.992999992768091 26.386644915611214 0 0 0 0 89.407219562574028 170.11993522780358 0 170.11993522780358 146.08502883015626 0 0 0 0 99.06303150803069 136.73234432016307 0 136.73234432016307 147.91480427722172 0 0 0 0 86.792757206427268 63.367462685123428 0 63.367462685123428 -16.48486405463882 0 0 0 0 84.626916035842441 72.613465933907719 0 72.613465933907719 -51.390473245444809 0 0 0 0 58.52696130679692 66.376861873736743 0 66.376861873736743 -12.882904182130005 0 0 0 0 17.05239295281298 20.694737822590959 0 20.694737822590959 -31.840935012617056 0 0 0 0 62.509665668713751 35.014899005639506 0 35.014899005639506 -57.597241599716654 0 0 0 0 16.914198446769163 19.809922079089816 0 19.809922079089816 -31.103294940769572 0 0 0 0 45.893640027035872 -17.682563915799619 0 -17.682563915799619 -82.797240589967259 0 0 0 0 66.784090020679287 79.76046599509209 0 79.76046599509209 -19.388382922015808 0 0 0 0 14.152964053529892 23.045163184063146 0 23.045163184063146 29.385011706019693 0 0 0 0 -81.429375842362788 207.10700298681058 0 207.10700298681058 -168.87627329497542 0 0 0 0 -66.614320283384586 116.40241224287274 0 116.40241224287274 -168.17289301947676 0 0 0 0 -95.733188828831771 152.93375562555639 0 152.93375562555639 -107.16275982907473 0 0 0 0 38.651665457562558 130.55821904034292 0 130.55821904034292 -135.69623505846948 0 0 0 0 -44.636220543299714 161.57368314466385 0 161.57368314466385 -85.073214199996073 0 0 0 0 -164.15006788009487 151.85891388358505 0 151.85891388358505 -97.694097821220566 0 0 0 0 -42.237356392117363 79.724997835277463 0 79.724997835277463 -57.567606381597443 0 0 0 0 -29.873738393813255 159.00659056969562 0 159.00659056969562 -125.04171663923717 0 0 0 0 -11.833879625180998 61.006840791817012 0 61.006840791817012 -24.564791808003065 0 0 0 0 -135.06730836902261 252.77588294623854 0 252.77588294623854 -179.48691172050167 0 0 0 0 9.3099869059972065 18.552139723129955 0 18.552139723129955 25.673536603479853 0 0 0 0 -9.8918823352028085 21.170817458598606 0 21.170817458598606 -2.4105896542423579 0 0 0 0 19.362789583192352 32.147785354316511 0 32.147785354316511 -6.4832448052134168 0 0 0 0 15.770893289760664 13.488574963834573 0 13.488574963834573 6.1857145356120071 0 0 0 0 4.5814015028363428 13.012232056222729 0 13.012232056222729 -0.35967987399999402 0 0 0 0 19.99549238828331 35.061223043532664 0 35.061223043532664 -27.329289607349892 0 0 0 0 -23.403234028053703 46.37003984742114 0 46.37003984742114 -5.8698150010714016 0 0 0 0 3.4565104525026982 -19.695880559775105 0 -19.695880559775105 -5.4506193528286531 0 0 0 0 12.22252457121111 8.0985300498187627 0 8.0985300498187627 5.6752482980860464 0 0 0 0 95.80301408008927 91.486611921922304 0 91.486611921922304 -209.99267580439482 0 0 0 0 28.751055867101968 18.783624135076025 0 18.783624135076025 -44.135068181127281 0 0 0 0 -8.7747106069109577 -19.595124541776386 0 -19.595124541776386 -4.5783303114803857 0 0 0 0 55.106547716593923 8.9857100379804251 0 8.9857100379804251 0.033977369790591183 0 0 0 0 -23.547929659116562 -6.2643413039713778 0 -6.2643413039713778 47.122104539073916 0 0 0 0 -7.0640585578803439 18.983860747404833 0 18.983860747404833 38.690267325279819 0 0 0 0 -47.621200766299808 -15.723632220006948 0 -15.723632220006948 239.89252895006939 0 0 0 0 -31.955698892244982 40.174883672832948 0 40.174883672832948 438.42686776336632 0 0 0 0 -153.95165803299096 215.76733186172942 0 215.76733186172942 458.79606875790341 0 0 0 0 262.75953081556509 -337.64731874080826 0 -337.64731874080826 -2.0709409601149673 0 0 0 0 66.810145640853079 20.954836714880912 0 20.954836714880912 -124.29363948046739 0 0 0 0 -22.505892065904419 107.7854803900851 0 107.7854803900851 -97.369689874936739 0 0 0 0 -14.930741129695889 97.490188215369017 0 97.490188215369017 -118.16347938681429 0 0 0 0 -177.83800938359491 17.424568425329198 0 17.424568425329198 57.077584710728843 0 0 0 0 17.579091679821339 25.522387106125521 0 25.522387106125521 32.007856264744589 0 0 0 0 109.87510995215416 -87.883454511289528 0 -87.883454511289528 20.343249064952033 0 0 0 0 30.549279034397841 352.72868327744027 0 352.72868327744027 -188.40102452223437 0 0 0 0 3.2552912542750221 3.8646286462582395 0 3.8646286462582395 3.7036928932106861 0 0 0 0 462.44218339806685 259.78881456164527 0 259.78881456164527 -278.98152228010258 0 0 0 0 -260.53736110086174 -116.93386737159381 0 -116.93386737159381 464.97748697793213 0 0 0 0 19.547349101780128 36.470427943704863 0 36.470427943704863 -121.78670664630681 0 0 0 0 12.24329440377187 46.957817563290519 0 46.957817563290519 -36.761647698496404 0 0 0 0 50.35675889178674 77.062433445303213 0 77.062433445303213 -126.05447095339696 0 0 0 0 67.643712212957325 48.947439579279489 0 48.947439579279489 -129.17755846859063 0 0 0 0 -14.405381815438886 88.136735702900751 0 88.136735702900751 -92.810892642170074 0 0 0 0 -13.358178014308578 122.3065803387326 0 122.3065803387326 -122.95943297901795 0 0 0 0 -61.46165345668669 46.883078357174782 0 46.883078357174782 31.24155974488167 0 0 0 0 4.0513433698979497 52.587430252468039 0 52.587430252468039 -29.039317574485381 0 0 0 0 25.086683569470551 1.2767958390340937 0 1.2767958390340937 -20.951534217402582 0 0 0 0 14.438910741220752 -52.68972351384582 0 -52.68972351384582 -175.01690188375323 0 0 0 0 86.015356642914412 47.457976896715991 0 47.457976896715991 -241.88532704194631 0 0 0 0 -131.99353561747921 30.178519099010373 0 30.178519099010373 -56.736043080913078 0 0 0 0 -4.7667453131845043 6.4925685088855438 0 6.4925685088855438 -10.520835014543806 0 0 0 0 -39.213077785149835 33.276010304863121 0 33.276010304863121 37.465644646135843 0 0 0 0 -27.720235929404225 -19.795619373951922 0 -19.795619373951922 -104.19312953829285 0 0 0 0 107.2777850026232 -245.8743489435501 0 -245.8743489435501 -326.22298617808883 0 0 0 0 21.920551521870948 90.011183030635038 0 90.011183030635038 -131.4662979418099 0 0 0 0 164.012629398846 -203.83719960010876 0 -203.83719960010876 -335.41907444242315 0 0 0 0 -0.32693062290510788 -1.2363417405932395 0 -1.2363417405932395 -0.56528260909226447 0 0 0 0 71.134793565265682 49.592524142510229 0 49.592524142510229 -131.88945102660364 0 0 0 0 41.485720038670479 35.674150688791315 0 35.674150688791315 -1.1735130321767429 0 0 0 0 32.824963091836253 122.73461621316574 0 122.73461621316574 -133.37766343840485 0 0 0 0 39.485614087245352 79.50270674805563 0 79.50270674805563 -105.79420737188411 0 0 0 0 47.006888155247452 75.512198098337421 0 75.512198098337421 -124.039814886979 0 0 0 0 120.33897828286536 42.630258244716515 0 42.630258244716515 -133.91136961019129 0 0 0 0 112.40054694289938 98.330913616860016 0 98.330913616860016 -119.79550850177338 0 0 0 0 52.135545638775511 105.88744143381882 0 105.88744143381882 -59.427050777087061 0 0 0 0 142.31797673500478 80.819631971355193 0 80.819631971355193 -54.087300627854802 0 0 0 0 335.44739275495886 135.29501059784343 0 135.29501059784343 77.852601159584992 0 0 0 0 219.99906851048718 177.39757900319239 0 177.39757900319239 62.575177474394877 0 0 0 0 -0.10056474863866161 -0.79004976374622515 0 -0.79004976374622515 -0.17246730523434195 0 0 0 0 73.165364377431843 23.717448199493106 0 23.717448199493106 -9.7109063472562411 0 0 0 0 133.46598451384671 -17.711722477823059 0 -17.711722477823059 -29.543450194645629 0 0 0 0 277.45073255886632 -87.800288021514689 0 -87.800288021514689 -71.760065422940897 0 0 0 0 20.309013152374973 35.972749200367616 0 35.972749200367616 -8.0219495839528463 0 0 0 0 30.865548823478093 -15.017969147153963 0 -15.017969147153963 57.361568173799242 0 0 0 0 -27.27471255252658 -46.241312374661902 0 -46.241312374661902 204.97162709966688 0 0 0 0 -0.093329870081501731 -0.67145094040286679 0 -0.67145094040286679 0.87848575977533017 0 0 0 0 299.73780313594671 169.63141202390852 0 169.63141202390852 216.65143431422803 0 0 0 0 527.88414742863824 -196.34533843545978 0 -196.34533843545978 756.88075345406105 0 0 0 0 15.720985435890725 -59.891199243556457 0 -59.891199243556457 377.11114604637442 0 0 0 0 129.67944958395128 352.33279420884719 0 352.33279420884719 482.42669179860013 0 0 0 0 417.04620190387141 471.03314855138524 0 471.03314855138524 539.13983402299345 0 0 0 0 299.70576048877865 259.7269633672604 0 259.7269633672604 158.8834916933265 0 0 0 0 -12.793871322135828 165.24877390922643 0 165.24877390922643 308.2107181191077 0 0 0 0 -11.751231864199326 168.97533103513979 0 168.97533103513979 244.71336351777427 0 0 0 0 41.022396109019439 207.7439789954098 0 207.7439789954098 440.39887580339564 0 0 0 0 41.279846729658743 194.384750164401 0 194.384750164401 202.86321353657877 0 0 0 0 570.58493645958697 367.13856416871386 0 367.13856416871386 295.95486095331034 0 0 0 0 226.87750281859007 402.54820005482816 0 402.54820005482816 635.62034544809103 0 0 0 0 44.167795572198884 -154.15863544950116 0 -154.15863544950116 727.78366380586999 0 0 0 0 2.0531733513595363 3.3311431805517984 0 3.3311431805517984 5.6620166601744089 0 0 0 0 555.86921640744481 125.97212639177337 0 125.97212639177337 9.059307785182682 0 0 0 0 28.086627702051828 -58.405259297095199 0 -58.405259297095199 160.99268949148973 0 0 0 0 -181.27549914151314 -66.031732808731249 0 -66.031732808731249 376.63494003769301 0 0 0 0 -42.138418947564787 48.366487993767805 0 48.366487993767805 195.95553440796721 0 0 0 0 -233.96070294318815 126.33312717639456 0 126.33312717639456 164.33281480574442 0 0 0 0 -49.945858760314877 194.37723955263027 0 194.37723955263027 205.26578684276092 0 0 0 0 -43.690415424076491 -16.399016718383791 0 -16.399016718383791 166.85009695227563 0 0 0 0 -78.703074083665342 -87.16504627510767 0 -87.16504627510767 477.51118885696633 0 0 0 0 -3.2515715638931511 2.3768595439165097 0 2.3768595439165097 1.5460722097567547 0 0 0 0 -39.161806961801631 148.98463688293123 0 148.98463688293123 -24.657677419052561 0 0 0 0 -105.06356024229535 115.2780457261415 0 115.2780457261415 187.6785942859442 0 0 0 0 -98.721737524625496 78.170597024410426 0 78.170597024410426 247.72122621917697 0 0 0 0 -45.499127952345589 23.981074300469118 0 23.981074300469118 166.17031659702025 0 0 0 0 -33.654245802065361 107.08930293465346 0 107.08930293465346 60.556960854519275 0 0 0 0 6.7782717489671995 123.66111425951317 0 123.66111425951317 -22.563126793304036 0 0 0 0 22.912565851515865 177.14324590467822 0 177.14324590467822 154.10330288930709 0 0 0 0 -206.1803296052085 142.81135062970361 0 142.81135062970361 -44.733522961145354 0 0 0 0 -169.94411554931685 233.72500211778515 0 233.72500211778515 -96.016096303163067 0 0 0 0 -0.21456792367440869 13.806903320651372 0 13.806903320651372 22.961297994355213 0 0 0 0 -60.998487626653514 137.55718436364259 0 137.55718436364259 -66.732270354032153 0 0 0 0 -70.137255893543625 136.55469373828782 0 136.55469373828782 -188.59722385871999 0 0 0 0 -26.78535336151981 65.219285832321475 0 65.219285832321475 -36.009755843411995 0 0 0 0 -107.57118396724763 150.45301135753471 0 150.45301135753471 -22.395979718563467 0 0 0 0 -105.93682003212962 127.86410060070875 0 127.86410060070875 63.021841789710379 0 0 0 0 -58.057633708565845 11.625500817306602 0 11.625500817306602 211.92495720918305 0 0 0 0 -81.556887992701377 20.452153986437224 0 20.452153986437224 190.40044042033514 0 0 0 0 5.499237632348013 78.231639205593638 0 78.231639205593638 21.607174594537355 0 0 0 0 -135.7531094240112 165.70485375076714 0 165.70485375076714 -113.31199169787942 0 0 0 0 -43.239258649307885 88.395088517372642 0 88.395088517372642 32.100953691444374 0 0 0 0 -137.50660582675482 195.67646050427538 0 195.67646050427538 -19.749455148819834 0 0 0 0 -125.26542294956016 58.239150792613145 0 58.239150792613145 29.29637313202511 0 0 0 0 -50.396563846614299 -70.488912576479379 0 -70.488912576479379 231.73028016503486 0 0 0 0 -114.37708033115268 -36.431489677566788 0 -36.431489677566788 381.39001982818536 0 0 0 0 10.215248708063882 95.036515706260616 0 95.036515706260616 245.83902695823599 0 0 0 0 82.24870831815133 -35.087750010483433 0 -35.087750010483433 168.41052562457753 0 0 0 0 -43.596133133025695 0.37417081538364627 0 0.37417081538364627 360.11606185486926 0 0 0 0 -201.2762855291403 163.40749349677753 0 163.40749349677753 317.72555909404036 0 0 0 0 -6.4942871892723701 3.020417242480832 0 3.020417242480832 2.3203312803202891 0 0 0 0 -133.91828290709054 167.5251633349535 0 167.5251633349535 49.002673350376426 0 0 0 0 -4.0449396539973321 2.4145078602592562 0 2.4145078602592562 1.7126384039279579 0 0 0 0 -10.713244030669102 107.06173656807687 0 107.06173656807687 61.19569007685277 0 0 0 0 -127.12146806187229 174.8216056990359 0 174.8216056990359 16.530269552269601 0 0 0 0 -195.57142649582238 67.452433794644094 0 67.452433794644094 82.674172753851963 0 0 0 0 -91.291851459631289 -97.235692465019383 0 -97.235692465019383 192.53957334197139 0 0 0 0 -47.365977470537473 99.7632967923455 0 99.7632967923455 85.80909768318088 0 0 0 0 -225.47961341245536 156.79786152150155 0 156.79786152150155 122.74637144302687 0 0 0 0 -225.19853037800567 -52.423963930636091 0 -52.423963930636091 594.29195514048843 0 0 0 0 -295.0482509614003 -34.540884796243063 0 -34.540884796243063 221.45770247471592 0 0 0 0 132.29723614922841 -170.58357874442481 0 -170.58357874442481 185.1499430198628 0 0 0 0 2.4965128803298882 3.7181993158669115 0 3.7181993158669115 5.5811240580608654 0 0 0 0 123.7754916725662 -209.1940569458518 0 -209.1940569458518 778.62122869447194 0 0 0 0 311.069141384869 8.2339648034703714 0 8.2339648034703714 -110.64570487741912 0 0 0 0 422.97450733871301 247.99422762960512 0 247.99422762960512 -7.0271965187307615 0 0 0 0 -50.566730990747601 27.80268907908976 0 27.80268907908976 68.697965490753631 0 0 0 0 -54.32336782112975 116.90746262883016 0 116.90746262883016 -26.175959992018761 0 0 0 0 8.9934967985460901 10.992895877106953 0 10.992895877106953 13.355857121538094 0 0 0 0 -52.53178424505677 39.178375478117232 0 39.178375478117232 6.4570627749308187 0 0 0 0 -12.132664119237688 60.699917134024588 0 60.699917134024588 12.098582688187889 0 0 0 0 -11.023092030409316 75.342983139746138 0 75.342983139746138 11.422513534787868 0 0 0 0 105.05996786482137 74.350143070972535 0 74.350143070972535 5.0290672242517758 0 0 0 0 110.22791703280745 65.345251954691776 0 65.345251954691776 -24.270502407265667 0 0 0 0 42.72812438866822 62.628607213198848 0 62.628607213198848 -24.812203344896261 0 0 0 0 65.454971592746006 113.09496293545453 0 113.09496293545453 -14.072860083040723 0 0 0 0 -100.19102401713826 80.942500291443139 0 80.942500291443139 8.8779179774201111 0 0 0 0 -93.413564660037082 31.90846294777657 0 31.90846294777657 32.552073513530559 0 0 0 0 -43.26350490006007 45.738475176702195 0 45.738475176702195 15.71038267678523 0 0 0 0 5.9801664329013882 18.45733975171337 0 18.45733975171337 2.7212683444910084 0 0 0 0 2.1480615517139086 26.599819272290915 0 26.599819272290915 2.6198963644601463 0 0 0 0 -11.313089759765717 40.394040509556362 0 40.394040509556362 -3.9897097008979472 0 0 0 0 -0.041320495089166798 73.621053795413047 0 73.621053795413047 -59.034848456829423 0 0 0 0 -357.04369940869219 179.6492538411967 0 179.6492538411967 -55.070740960591138 0 0 0 0 3.8374176930760084 7.0619299982302621 0 7.0619299982302621 -1.5793041384743489 0 0 0 0 -80.963901730291582 166.07521268389382 0 166.07521268389382 -107.69299101518118 0 0 0 0 12.616744762639598 19.865310450097212 0 19.865310450097212 19.468895781521045 0 0 0 0 -54.81187005308675 48.207123676258561 0 48.207123676258561 15.328722585770265 0 0 0 0 -22.304164306753137 169.94870878963235 0 169.94870878963235 170.48605556085749 0 0 0 0 -29.427619212430727 115.033428566152 0 115.033428566152 133.8938867423858 0 0 0 0 5.9318928243046685 169.26848498993877 0 169.26848498993877 210.19950590116787 0 0 0 0 46.776472058831132 203.73504832493927 0 203.73504832493927 137.77988205756083 0 0 0 0 42.658375726827217 185.06403309863254 0 185.06403309863254 123.41679522492086 0 0 0 0 114.30475273276534 284.03280187907149 0 284.03280187907149 217.04982887982078 0 0 0 0 5.5244277786187013 144.28850099066221 0 144.28850099066221 294.34657019204224 0 0 0 0 266.81367820509331 399.61143726524006 0 399.61143726524006 360.19430529650708 0 0 0 0 124.24266796473239 192.07734768884256 0 192.07734768884256 77.631932601230687 0 0 0 0 169.47994305667453 230.20746851106651 0 230.20746851106651 74.805379992681992 0 0 0 0 193.88336835454174 157.29996578320424 0 157.29996578320424 -2.3834568046149798 0 0 0 0 92.359548438522324 100.08296418625741 0 100.08296418625741 -15.928601543697368 0 0 0 0 123.32810240679828 157.67715467440667 0 157.67715467440667 12.567133817323338 0 0 0 0 136.69897459575986 207.04085909102105 0 207.04085909102105 68.936579505527334 0 0 0 0 78.858410443997855 159.09788074090829 0 159.09788074090829 45.292346079769231 0 0 0 0 82.106798833169705 175.47346299183823 0 175.47346299183823 80.982612936881196 0 0 0 0 59.641531080491404 140.5971946087393 0 140.5971946087393 47.264350427247336 0 0 0 0 58.149592825357104 139.71531600477192 0 139.71531600477192 69.771128284079168 0 0 0 0 24.15194907256955 146.12820114675833 0 146.12820114675833 101.47286367258857 0 0 0 0 35.772475859957922 163.62645962931128 0 163.62645962931128 108.86198681802853 0 0 0 0 69.437690837003174 116.17162146330156 0 116.17162146330156 35.243230848564053 0 0 0 0 57.013849790947006 115.27737203064385 0 115.27737203064385 44.571777185003157 0 0 0 0 59.936378262977087 103.2597870306563 0 103.2597870306563 18.577156240266049 0 0 0 0 92.101524925128615 137.81138520094555 0 137.81138520094555 23.783872557682116 0 0 0 0 64.797575788044924 70.962039132917198 0 70.962039132917198 -4.7341309903895308 0 0 0 0 82.154648579820787 100.46474718094942 0 100.46474718094942 -20.073370263589823 0 0 0 0 73.919707420027407 114.89655706147278 0 114.89655706147278 -0.12894200700975489 0 0 0 0 79.019774873082497 115.26750071674178 0 115.26750071674178 -3.7863345781006501 0 0 0 0 67.373366425836139 79.085417905892655 0 79.085417905892655 -37.832220428652363 0 0 0 0 63.879400497849929 80.233728519836859 0 80.233728519836859 -48.687773611220109 0 0 0 0 79.596161436753391 64.259275324267492 0 64.259275324267492 -20.911832385416346 0 0 0 0 60.121557777508315 37.998144200686738 0 37.998144200686738 7.7633031251298235 0 0 0 0 33.32546367850955 53.366645530080859 0 53.366645530080859 5.3265780754932166 0 0 0 0 55.778527195987408 70.499621475513777 0 70.499621475513777 0.37213555335983983 0 0 0 0 55.37527208521351 93.099426263469624 0 93.099426263469624 20.783829480944405 0 0 0 0 30.006588537853531 74.647402079368476 0 74.647402079368476 23.066902024619822 0 0 0 0 47.819850588841291 81.536660241753907 0 81.536660241753907 16.286340087908684 0 0 0 0 51.944563960081723 90.803267117311407 0 90.803267117311407 29.386998219600173 0 0 0 0 -122.8690784974533 97.73033237702839 0 97.73033237702839 -79.658992998445683 0 0 0 0 -106.3404665158273 123.40237725077628 0 123.40237725077628 -41.957698165879265 0 0 0 0 4.8786072584145268 14.740515677467286 0 14.740515677467286 3.1355171889335622 0 0 0 0 -20.221708182906468 3.8273885513343089 0 3.8273885513343089 21.249219418681605 0 0 0 0 -52.570450788280141 17.26991253786764 0 17.26991253786764 17.476261299718317 0 0 0 0 -3.2645936872564221 1.5244970180205542 0 1.5244970180205542 0.089238549699878433 0 0 0 0 3.4700700251632952 51.587607157565799 0 51.587607157565799 -56.840325162681438 0 0 0 0 -12.447303798595385 106.501165526146 0 106.501165526146 -47.785518172091543 0 0 0 0 9.9998609990798286 89.137688643199908 0 89.137688643199908 -20.151474366621187 0 0 0 0 -103.72662359415699 92.141195259364395 0 92.141195259364395 -26.148416404177624 0 0 0 0 -14.54859268963628 60.245288983272076 0 60.245288983272076 -46.260826578098204 0 0 0 0 14.023531200882644 90.477113613489564 0 90.477113613489564 -28.810060886804422 0 0 0 0 38.753106964315521 54.973394770562663 0 54.973394770562663 -22.087581007730478 0 0 0 0 34.287414191490825 53.957881382633786 0 53.957881382633786 27.95794254215798 0 0 0 0 40.981119778109132 49.881368441987433 0 49.881368441987433 -32.463274030209959 0 0 0 0 -27.425199167320898 54.620440849595525 0 54.620440849595525 37.295046626859403 0 0 0 0 -19.47858066875051 45.450471760394066 0 45.450471760394066 -68.426832897685472 0 0 0 0 -142.28803394949136 82.358759772087978 0 82.358759772087978 -36.809565576295427 0 0 0 0 -89.514334849925945 127.592039143492 0 127.592039143492 -42.642844248388883 0 0 0 0 -154.34344727136704 95.844013561332304 0 95.844013561332304 -25.12709255401569 0 0 0 0 2.5565839873826626 1.06547082734388 0 1.06547082734388 -8.4513818297853476 0 0 0 0 -145.44649460631263 90.423671581947929 0 90.423671581947929 -44.392486180471678 0 0 0 0 -410.17930126416104 136.58053560143435 0 136.58053560143435 0.074063329588170745 0 0 0 0 -0.56246581155523678 -0.94062443076559532 0 -0.94062443076559532 -2.6381345637345675 0 0 0 0 -88.002322826254385 142.20502755912457 0 142.20502755912457 -192.38108064581684 0 0 0 0 -302.24336415897051 187.6416855176567 0 187.6416855176567 75.672987863559683 0 0 0 0 -182.74504066522059 5.1899921342992457 0 5.1899921342992457 27.503454988222074 0 0 0 0 -85.524695215084648 56.652502639108206 0 56.652502639108206 229.93245222764381 0 0 0 0 -62.024479681444063 74.375387829451938 0 74.375387829451938 256.87134243826949 0 0 0 0 0.72830047675563492 5.2443692292379538 0 5.2443692292379538 -0.53455415175191945 0 0 0 0 54.859140845466754 173.71933616421484 0 173.71933616421484 71.347272869148583 0 0 0 0 -50.899579778611951 60.065732074948755 0 60.065732074948755 43.122362896630875 0 0 0 0 186.86799696170783 159.33561271139479 0 159.33561271139479 257.33809011141966 0 0 0 0 1.0310143315409306 1.5130361945458617 0 1.5130361945458617 -0.26836377151715851 0 0 0 0 18.853058900825999 44.542285723785426 0 44.542285723785426 29.758718602649424 0 0 0 0 -73.06041341810851 96.968943331291484 0 96.968943331291484 231.33392236300824 0 0 0 0 -121.07746238830532 67.498847078228664 0 67.498847078228664 56.60881458543372 0 0 0 0 30.309473465356859 46.936945725074111 0 46.936945725074111 29.352829726559321 0 0 0 0 58.189307127438951 58.042719782923086 0 58.042719782923086 28.622615268383015 0 0 0 0 10.416405155952816 28.019448556408861 0 28.019448556408861 109.8348047350737 0 0 0 0 24.345060852385359 69.987075329025174 0 69.987075329025174 142.06171268151775 0 0 0 0 -3.9442715682762355 8.5551207293658535 0 8.5551207293658535 187.71710020088358 0 0 0 0 -19.675387916671752 47.401849851976522 0 47.401849851976522 229.07624000890974 0 0 0 0 -19.212681988447002 -13.629695167590398 0 -13.629695167590398 151.13268163107386 0 0 0 0 -2.0733919867441983 4.759800191762146 0 4.759800191762146 -1.4042842732919318 0 0 0 0 -3.250647808330541 9.2877449682973747 0 9.2877449682973747 10.207225549285795 0 0 0 0 -3.5430736123773983 5.1388793335908929 0 5.1388793335908929 -0.42219081145707449 0 0 0 0 -6.2257071212170558 12.150183709762132 0 12.150183709762132 0.69338837371651607 0 0 0 0 -1.7144164744859154 5.9449453206657381 0 5.9449453206657381 0.15302131449789158 0 0 0 0 0.80523577603889862 11.679964614617347 0 11.679964614617347 2.7672234498431862 0 0 0 0 2.7343540525907883 10.484863025240884 0 10.484863025240884 0.15233272614932503 0 0 0 0 2.8100538289363612 14.06591664834923 0 14.06591664834923 2.0834840739107676 0 0 0 0 1.5888680530406418 14.176409051968221 0 14.176409051968221 9.2310159177141031 0 0 0 0 1.3225915432121838 15.606444697568804 0 15.606444697568804 9.4970322701201439 0 0 0 0 3.1039349280690658 12.507772983367431 0 12.507772983367431 7.0316570654467796 0 0 0 0 -0.91381310858560028 8.2662660207533918 0 8.2662660207533918 13.819389816508192 0 0 0 0 0.19039059169153916 10.099626704748516 0 10.099626704748516 6.6602389896420391 0 0 0 0 -0.17907694255700335 11.237913140782439 0 11.237913140782439 16.088568555911479 0 0 0 0 -0.1095612693898147 7.6878913290420314 0 7.6878913290420314 13.924839135433103 0 0 0 0 1.0435588193067815 6.8534446567136911 0 6.8534446567136911 4.7756026911611116 0 0 0 0 -0.21765201582456939 7.2931692970505537 0 7.2931692970505537 12.64764363201175 0 0 0 0 -0.15143579987018541 0.71181185417484727 0 0.71181185417484727 -0.7530720965274611 0 0 0 0 27.342547649158405 42.327900754935399 0 42.327900754935399 14.882317912755752 0 0 0 0 19.365996756136155 114.85291521738202 0 114.85291521738202 120.19134431679049 0 0 0 0 26.063585931889975 35.394775795153691 0 35.394775795153691 145.56986221904663 0 0 0 0 96.563156204429106 22.634075441757886 0 22.634075441757886 186.04192935619176 0 0 0 0 110.0742905220759 57.395576664976033 0 57.395576664976033 2.2170380244938315 0 0 0 0 52.814112301839486 79.910648472187859 0 79.910648472187859 101.4584185878266 0 0 0 0 79.845117161305097 136.03458347364358 0 136.03458347364358 225.01864856668726 0 0 0 0 39.524580283483374 49.255859858438271 0 49.255859858438271 115.69157054504649 0 0 0 0 -7.1142088742271881 14.836437133506479 0 14.836437133506479 195.71027308717748 0 0 0 0 -9.4953414801166218 -16.310426076611293 0 -16.310426076611293 345.11866176992771 0 0 0 0 0.30187995324521921 1.5655671351314453 0 1.5655671351314453 -1.5526993229270971 0 0 0 0 25.017304031112872 88.549429180337029 0 88.549429180337029 -96.851571190189134 0 0 0 0 3.9714673278815553 4.4094251599901071 0 4.4094251599901071 1.5324930019021963 0 0 0 0 -34.606421928849159 62.877925738934209 0 62.877925738934209 -106.06233246198826 0 0 0 0 5.8684005624381825 26.494507182525922 0 26.494507182525922 -92.732581412608852 0 0 0 0 -3.80847878093482 49.980749941591057 0 49.980749941591057 -118.50498289812276 0 0 0 0 1.7854732909773503 4.6827222077616355 0 4.6827222077616355 -1.0217703443473329 0 0 0 0 113.98175866759993 127.30244475880227 0 127.30244475880227 126.22334080439032 0 0 0 0 31.898710149802355 38.206082066857562 0 38.206082066857562 -145.94751321751028 0 0 0 0 -2.143200254678959 107.45013249326439 0 107.45013249326439 260.7823284482638 0 0 0 0 -1.969178944408668 119.51714155716036 0 119.51714155716036 342.49332213749585 0 0 0 0 1.5183921515017147 3.0519746465371291 0 3.0519746465371291 -0.94408310367992598 0 0 0 0 34.00722042995767 23.998242093281078 0 23.998242093281078 -277.05915719613813 0 0 0 0 -42.564356864699221 38.770944369171048 0 38.770944369171048 -145.08001390495883 0 0 0 0 58.731923141720472 138.76638388244555 0 138.76638388244555 169.9091876270686 0 0 0 0 34.852457714434422 104.20181920037066 0 104.20181920037066 395.32220895998398 0 0 0 0 9.5965212801165762 78.821049738900911 0 78.821049738900911 -41.252989841782437 0 0 0 0 28.426682548676126 131.56731831032664 0 131.56731831032664 -140.81466032214121 0 0 0 0 -9.1598339835672959 109.38367932121855 0 109.38367932121855 18.22246304786313 0 0 0 0 -0.20946461785774773 0.9019184916328129 0 0.9019184916328129 0.83695425025450376 0 0 0 0 33.98319061125585 139.11065283511471 0 139.11065283511471 -70.17756153308801 0 0 0 0 -35.144828211148706 113.3132542631447 0 113.3132542631447 111.52475519662403 0 0 0 0 14.980427400667395 20.09453476118324 0 20.09453476118324 -48.832485404918771 0 0 0 0 -38.856298197386423 54.347591484827262 0 54.347591484827262 62.341832255875488 0 0 0 0 20.417239042406436 -74.085089440281081 0 -74.085089440281081 199.03088309829218 0 0 0 0 -100.28582576302961 107.13444454346723 0 107.13444454346723 -63.747554972709622 0 0 0 0 -53.754877829225734 82.614265024591077 0 82.614265024591077 -73.399444075416795 0 0 0 0 -59.918992484799674 187.22059449847347 0 187.22059449847347 -209.0491978200871 0 0 0 0 -95.287538367215348 91.393538472887485 0 91.393538472887485 -57.085724031694554 0 0 0 0 30.65644052976495 180.59177201380044 0 180.59177201380044 -17.036586297062968 0 0 0 0 -60.505866949009942 136.46046595152256 0 136.46046595152256 4.0425221868335939 0 0 0 0 -33.303086376829015 56.285406790657362 0 56.285406790657362 -16.535130501931562 0 0 0 0 102.72773302747737 102.86646582773756 0 102.86646582773756 -40.202011808101815 0 0 0 0 6.9628982858957897 15.090051722365388 0 15.090051722365388 -7.4576792333333231 0 0 0 0 10.989173103429493 10.247947948631918 0 10.247947948631918 -9.9899252030081698 0 0 0 0 3.0461055713822134 25.027657097140036 0 25.027657097140036 -33.848421020811656 0 0 0 0 11.921851531449647 51.313849354120975 0 51.313849354120975 -36.897597717674216 0 0 0 0 28.790705917523155 27.417195128926323 0 27.417195128926323 -3.4838284648867557 0 0 0 0 1.1126093329758078 22.0250408335678 0 22.0250408335678 -4.1017848033006885 0 0 0 0 3.5143106024770532 14.857073796913028 0 14.857073796913028 1.7358303068895111 0 0 0 0 5.5386991131817922 15.43867298123223 0 15.43867298123223 1.1236490557821526 0 0 0 0 3.5731441736570559 9.4125829985850942 0 9.4125829985850942 -7.3746737801666313 0 0 0 0 6.8115378563470586 13.957837568167633 0 13.957837568167633 -1.1318891624905518 0 0 0 0 -6.2055378083350661 15.838048210351189 0 15.838048210351189 -4.7399552337719797 0 0 0 0 -3.3322446840647899 8.066269833696424 0 8.066269833696424 -0.36945327412104234 0 0 0 0 -94.136959299617956 131.45135196864931 0 131.45135196864931 -43.955597937960192 0 0 0 0 3.4809023947240405 3.3248848749647522 0 3.3248848749647522 3.0022796571898311 0 0 0 0 16.262291652674321 26.06591916474099 0 26.06591916474099 -37.204029540772012 0 0 0 0 2.1969430690213443 2.446072748072794 0 2.446072748072794 2.3676509776001637 0 0 0 0 -133.85115874642361 76.275801754836721 0 76.275801754836721 6.1485090721544111 0 0 0 0 20.223161612554577 31.184964232711536 0 31.184964232711536 -13.877167076823753 0 0 0 0 -68.602383326404379 -7.7060870800041812 0 -7.7060870800041812 47.49174825274531 0 0 0 0 -50.620764318915462 -53.334498019858074 0 -53.334498019858074 138.98461419679097 0 0 0 0 -0.10348341770576042 2.4233591158329091 0 2.4233591158329091 2.1618126080453131 0 0 0 0 -79.276332123277825 113.02895647277182 0 113.02895647277182 -118.44024158956745 0 0 0 0 -38.203861815556593 61.412494124564546 0 61.412494124564546 -53.638498059761332 0 0 0 0 -49.870258517570619 39.029747700475127 0 39.029747700475127 -39.211963175649544 0 0 0 0 -57.681238835479235 35.682046252573855 0 35.682046252573855 -37.055098339733377 0 0 0 0 1.7273095082403245 3.1856467840629321 0 3.1856467840629321 3.6674155792396341 0 0 0 0 -73.624961593221542 47.858882246420421 0 47.858882246420421 17.142619727899728 0 0 0 0 0.46558874294876773 0.86208865013039571 0 0.86208865013039571 1.2548743707645471 0 0 0 0 39.384429416364583 -7.0238681168957555 0 -7.0238681168957555 -0.61965561124634405 0 0 0 0 104.02615349953703 -21.102949002361129 0 -21.102949002361129 -12.692775343237372 0 0 0 0 74.452425068644516 42.865476905373725 0 42.865476905373725 -37.68798354439059 0 0 0 0 98.408640883245198 81.894536268362231 0 81.894536268362231 9.6422963259537937 0 0 0 0 1.5091335940833801 8.5712640111999931 0 8.5712640111999931 -1.6200608620598018 0 0 0 0 54.245648150084889 109.15791383432224 0 109.15791383432224 -33.334350825658476 0 0 0 0 -52.594369068378001 -45.840199158366886 0 -45.840199158366886 45.581674403078068 0 0 0 0 -34.093676664815575 -57.54853334019208 0 -57.54853334019208 -40.497701394287873 0 0 0 0 -17.164916495503306 25.031043164465906 0 25.031043164465906 -17.848994269775076 0 0 0 0 -40.798417463483929 68.578952985075375 0 68.578952985075375 103.85792569114528 0 0 0 0 -31.582457353113568 52.145958393075489 0 52.145958393075489 -39.565929376562678 0 0 0 0 -27.253973324070103 -79.815055938724981 0 -79.815055938724981 159.22720462281723 0 0 0 0 12.822222750687295 5.6897560711762551 0 5.6897560711762551 -26.912777037383805 0 0 0 0 156.26157479547328 -78.582055338498321 0 -78.582055338498321 -66.132458841810148 0 0 0 0 -33.951733046154914 21.325115593638657 0 21.325115593638657 6.4225545827757742 0 0 0 0 -3.6378123541422553 18.145828207025588 0 18.145828207025588 6.1144188263968999 0 0 0 0 9.5864317882478645 139.438244129125 0 139.438244129125 373.21182747968487 0 0 0 0 -22.049660322980344 16.852654399191124 0 16.852654399191124 2.3589571148886535 0 0 0 0 1.5045246074229937 14.281273899038759 0 14.281273899038759 4.7360898884028444 0 0 0 0 94.847094148120959 -45.373997347625846 0 -45.373997347625846 126.84694929540274 0 0 0 0 0.03868375616492159 5.7531329723465632 0 5.7531329723465632 -4.8750691033107856 0 0 0 0 0.15638689040984488 12.461305186303946 0 12.461305186303946 -1.3414754962752369 0 0 0 0 -59.722553169165622 65.819447666566703 0 65.819447666566703 17.510295051015419 0 0 0 0 -20.259925213485985 18.344996627681212 0 18.344996627681212 1.7987771780099138 0 0 0 0 -44.062907150379033 25.626024442527523 0 25.626024442527523 -26.217965070591163 0 0 0 0 -31.148560581888887 44.42860097904304 0 44.42860097904304 -0.33916796702033025 0 0 0 0 -20.141776335380882 22.256312600181218 0 22.256312600181218 -26.230853949335142 0 0 0 0 -27.404393756029094 18.741009787556322 0 18.741009787556322 -20.610361533314062 0 0 0 0 -26.493832931228098 19.854856176156318 0 19.854856176156318 -28.615286498662499 0 0 0 0 -26.364934600862398 22.097255694136948 0 22.097255694136948 296.40873618264777 0 0 0 0 -24.857899911504106 17.86019432082427 0 17.86019432082427 -2.9391615112723768 0 0 0 0 -69.604513167152618 81.356623055226919 0 81.356623055226919 295.9310154860641 0 0 0 0 -27.808134217790979 17.739231368747483 0 17.739231368747483 -2.9665001762966332 0 0 0 0 -22.529806133663442 21.754515662825725 0 21.754515662825725 -20.504834767729335 0 0 0 0 14.78428416218776 81.416751250786092 0 81.416751250786092 85.971144389392066 0 0 0 0 -11.790776398553021 2.415721369115996 0 2.415721369115996 -0.77259556599101131 0 0 0 0 14.060485308578791 63.155046326689444 0 63.155046326689444 162.36410320501091 0 0 0 0 1.7807739721465623 -6.15791400614944 0 -6.15791400614944 37.39258498444724 0 0 0 0 -18.764521295501254 29.859700076193803 0 29.859700076193803 22.812392399599048 0 0 0 0 23.00632965397017 51.703543022480517 0 51.703543022480517 26.493149526299021 0 0 0 0 4.0022697180220348 -6.4783606023759148 0 -6.4783606023759148 -26.254257885178959 0 0 0 0 -28.247893744046451 9.8491530309802329 0 9.8491530309802329 -5.494229767791694 0 0 0 0 29.874582584881864 24.506751926426659 0 24.506751926426659 15.551865560511942 0 0 0 0 -8.0236793335207039 58.155856864079396 0 58.155856864079396 21.428833254090932 0 0 0 0 -3.5478931530092837 -1.0460553541817603 0 -1.0460553541817603 1.0903888827306787 0 0 0 0 -0.1421009046580366 47.696207159830465 0 47.696207159830465 -117.44454153283004 0 0 0 0 1.0141074935434915 3.25285311725181 0 3.25285311725181 0.50704774498063188 0 0 0 0 -16.684322142298967 14.648093523561609 0 14.648093523561609 7.9983688031760689 0 0 0 0 141.86944446881171 95.843021455575581 0 95.843021455575581 -118.00805931713876 0 0 0 0 -10.403238494436664 16.755753232513598 0 16.755753232513598 -3.2027331565459463 0 0 0 0 -20.391410920107603 6.9967021363570474 0 6.9967021363570474 2.1782407923096088 0 0 0 0 -9.7657978699171508 18.883231648382207 0 18.883231648382207 14.250968818000729 0 0 0 0 -28.879136643950915 21.325498988005165 0 21.325498988005165 19.162719888692664 0 0 0 0 -2.5038482052555864 11.337542735218861 0 11.337542735218861 15.31667619993059 0 0 0 0 -21.549439620714111 38.530782977635681 0 38.530782977635681 33.764079360604228 0 0 0 0 -0.01953857503758627 22.267136503492111 0 22.267136503492111 30.457948297545954 0 0 0 0 -4.9992874191157171 8.7898184516998299 0 8.7898184516998299 6.7004723105419544 0 0 0 0 3.418530380241009 15.819294699211696 0 15.819294699211696 0.51360077403660398 0 0 0 0 -26.203511574560252 6.9249935775467293 0 6.9249935775467293 34.443363150052392 0 0 0 0 4.2017836755366638 9.8253941597698429 0 9.8253941597698429 12.141137940147274 0 0 0 0 0.63950956663029501 16.789435589507775 0 16.789435589507775 2.296478984048008 0 0 0 0 -2.5876092250691727 15.864056591457484 0 15.864056591457484 8.1684644876659149 0 0 0 0 -3.0234485132022506 3.6042368824386415 0 3.6042368824386415 12.603569419850352 0 0 0 0 6.1917581137095112 6.036931643346179 0 6.036931643346179 16.06736741977511 0 0 0 0 -4.74968280405119 3.0853126993995375 0 3.0853126993995375 -42.197554107697215 0 0 0 0 0.32864787309517851 9.1029942671539175 0 9.1029942671539175 15.475997346273289 0 0 0 0 -1.8452114713581977 41.62363151869431 0 41.62363151869431 -67.35255941896321 0 0 0 0 -1.6229744686115737 2.2501738926152512 0 2.2501738926152512 2.3754514708578327 0 0 0 0 -29.634903207203024 62.469118179264115 0 62.469118179264115 -64.481172740684997 0 0 0 0 -60.912047462712508 76.730011913350609 0 76.730011913350609 -62.534648687155823 0 0 0 0 -106.23882318554388 79.811926509311888 0 79.811926509311888 -38.321032437423128 0 0 0 0 -71.008994349089335 51.541442231409746 0 51.541442231409746 -27.139652398123872 0 0 0 0 -42.396831920443219 16.765914011048153 0 16.765914011048153 -20.149472359255014 0 0 0 0 -111.69733503430325 90.980716423415288 0 90.980716423415288 -30.066606974786282 0 0 0 0 -50.654016190590482 -22.174250402147663 0 -22.174250402147663 27.890694880275987 0 0 0 0 -73.236369630292756 45.482923461546306 0 45.482923461546306 -41.31406798165699 0 0 0 0 -39.035387437528698 34.3459716364614 0 34.3459716364614 -43.427626908247476 0 0 0 0 -88.027951206186117 85.7500447201528 0 85.7500447201528 -65.186300909526835 0 0 0 0 -69.734818288196038 99.726193251796758 0 99.726193251796758 -103.52592981946145 0 0 0 0 -75.120499638174806 84.294545175440362 0 84.294545175440362 -74.953187954550231 0 0 0 0 -89.347524459699343 95.120755134655155 0 95.120755134655155 -77.323731184962526 0 0 0 0 -10.900442234364547 2.1559002089932449 0 2.1559002089932449 4.4392123562858323 0 0 0 0 -6.0396553792818111 2.3796452071675631 0 2.3796452071675631 1.5011305078815909 0 0 0 0 -32.956772409042969 -6.56501276050858 0 -6.56501276050858 95.015693120425567 0 0 0 0 -83.019955667623435 175.7561468621534 0 175.7561468621534 -227.7858036112475 0 0 0 0 -134.04547871390241 85.760122049055099 0 85.760122049055099 -23.231970460310549 0 0 0 0 -36.707043295271433 17.068675005185469 0 17.068675005185469 -334.73334831725515 0 0 0 0 -43.564032036865683 7.5030914538883735 0 7.5030914538883735 80.757240669445309 0 0 0 0 -17.764605363114242 28.095022163243812 0 28.095022163243812 -80.751086771390874 0 0 0 0 -42.340080493384448 68.585852571774012 0 68.585852571774012 -123.45325715039689 0 0 0 0 -27.649708033066418 84.883320216904394 0 84.883320216904394 -113.47636751177924 0 0 0 0 -67.115227865029738 64.349787348161044 0 64.349787348161044 11.723373942468243 0 0 0 0 -5.3948657435321365 13.856353885656063 0 13.856353885656063 23.415674951163055 0 0 0 0 -2.7737490841574584 3.5892010433979138 0 3.5892010433979138 2.0069041049114249 0 0 0 0 -41.39881150571091 46.006643399021414 0 46.006643399021414 -34.353899033449125 0 0 0 0 -44.170945484165713 95.867345662566549 0 95.867345662566549 -43.849934718342411 0 0 0 0 0.50252111320504156 11.459721198701487 0 11.459721198701487 15.33009389776754 0 0 0 0 -97.41271333527402 85.260496360401703 0 85.260496360401703 16.55127982707927 0 0 0 0 384.72575288785083 93.932109003595542 0 93.932109003595542 11.110026647424093 0 0 0 0 1.333719266980637 4.9658703669565227 0 4.9658703669565227 6.8844774851867214 0 0 0 0 232.79198120053479 161.26102920968879 0 161.26102920968879 60.955403021409438 0 0 0 0 -147.7000708907799 -54.437161759322407 0 -54.437161759322407 362.84157157226036 0 0 0 0 44.717455757141579 -7.6613715426337876 0 -7.6613715426337876 25.040447350897011 0 0 0 0 -0.64536428309725125 1.3930412187308931 0 1.3930412187308931 4.3830981510159432 0 0 0 0 58.623079815719393 204.9405208335811 0 204.9405208335811 347.04873773212239 0 0 0 0 104.19796525650236 112.07451584286719 0 112.07451584286719 172.95625853785896 0 0 0 0 45.534361231782896 155.35661141639685 0 155.35661141639685 159.21440648710268 0 0 0 0 17.607337515546533 147.05707331257145 0 147.05707331257145 158.8701457868774 0 0 0 0 10.905821514386844 116.70548461262524 0 116.70548461262524 32.576324845591444 0 0 0 0 -7.7698163179011317 56.922176308349663 0 56.922176308349663 123.80614121150575 0 0 0 0 -14.864688982845109 106.17294737324482 0 106.17294737324482 -119.97730829399006 0 0 0 0 -158.52773915008584 341.00094933300716 0 341.00094933300716 -21.347675203151994 0 0 0 0 -103.94411364194093 280.49280950567663 0 280.49280950567663 43.798665850787074 0 0 0 0 -103.0022452361809 260.1201018424581 0 260.1201018424581 174.28826938831298 0 0 0 0 -203.15552053731517 270.56405702835764 0 270.56405702835764 66.114443584767287 0 0 0 0 -75.881867869131383 338.02238979821232 0 338.02238979821232 186.35871290865907 0 0 0 0 -116.36586622327741 246.67540677286524 0 246.67540677286524 12.26353033914711 0 0 0 0 -164.24041433030152 133.16959704408112 0 133.16959704408112 -44.429093162878416 0 0 0 0 -8.4932051985815633 -20.220661733619636 0 -20.220661733619636 129.32756391925068 0 0 0 0 -162.78244612333947 153.47411669145004 0 153.47411669145004 154.66531333827879 0 0 0 0 -170.23867925500963 97.229433872555092 0 97.229433872555092 322.65015749709346 0 0 0 0 -145.08612684348191 54.058622431075491 0 54.058622431075491 42.918591158748313 0 0 0 0 0.25626243699650786 1.4899991161976907 0 1.4899991161976907 1.1982974175223884 0 0 0 0 -21.166362134405063 62.973360022406268 0 62.973360022406268 -121.83281285007251 0 0 0 0 -119.63832677593746 -1.014640436764239 0 -1.014640436764239 114.02905099999043 0 0 0 0 -113.46416981062066 91.881829346977611 0 91.881829346977611 -27.683520095695712 0 0 0 0 -146.74263484000403 142.62264375575614 0 142.62264375575614 -65.799498511659294 0 0 0 0 -48.192419977105601 113.61959517868945 0 113.61959517868945 -210.56287017228533 0 0 0 0 -22.88660199835067 62.231537456476872 0 62.231537456476872 -111.75670400118588 0 0 0 0 -68.892540912886034 239.25035070658851 0 239.25035070658851 -293.38917047652603 0 0 0 0 -39.966634321317542 152.13438023589879 0 152.13438023589879 298.0450852626509 0 0 0 0 -1.0702625777858259 2.0552250545165904 0 2.0552250545165904 0.13693599207905649 0 0 0 0 86.452093042795241 81.986250512789411 0 81.986250512789411 -29.209555903784349 0 0 0 0 49.507788568227625 100.83905530079574 0 100.83905530079574 -15.88399441789079 0 0 0 0 -5.2178488096872577 3.8997834234416189 0 3.8997834234416189 3.2576119193347601 0 0 0 0 97.19132690197398 9.4291891779670323 0 9.4291891779670323 5.4900287920117989 0 0 0 0 -89.508394933476666 -45.612839602028544 0 -45.612839602028544 260.76894058380418 0 0 0 0 -366.62656211500143 154.4539960278853 0 154.4539960278853 249.0357783129657 0 0 0 0 253.50200785925153 -322.68484110507052 0 -322.68484110507052 164.73905965746599 0 0 0 0 -25.230085241242705 86.373436345962546 0 86.373436345962546 -19.819642604796172 0 0 0 0 1.96898130434165 1.5728204109379398 0 1.5728204109379398 -0.19551328822787351 0 0 0 0 129.27485772963337 -16.509920905789841 0 -16.509920905789841 -174.52016994318529 0 0 0 0 4.5798571608020211 56.984166368539718 0 56.984166368539718 0.37149028500789427 0 0 0 0 43.267600414472327 52.714931857661213 0 52.714931857661213 -8.7868407119949552 0 0 0 0 -12.72428838288306 52.190152139300608 0 52.190152139300608 30.097000372086768 0 0 0 0 32.139752813886389 39.438385597540673 0 39.438385597540673 0.090456542666288442 0 0 0 0 -6.1621074789104355 14.633989894208296 0 14.633989894208296 -10.954962503449661 0 0 0 0 24.909702596649367 71.491690544640733 0 71.491690544640733 -5.5983513007449801 0 0 0 0 3.3187968378733785 47.715722309047578 0 47.715722309047578 -36.760923617947093 0 0 0 0 -61.852642751509848 19.375364598066881 0 19.375364598066881 -11.067019356464698 0 0 0 0 11.546416521696315 27.658225874111476 0 27.658225874111476 32.542183220363789 0 0 0 0 -124.46391388064512 -44.331271717966956 0 -44.331271717966956 49.09322333222508 0 0 0 0 -270.41276285204367 163.63588201256425 0 163.63588201256425 56.072781660994224 0 0 0 0 -353.31081709515638 27.227524646946222 0 27.227524646946222 352.09950746558025 0 0 0 0 104.88265030538605 -280.36841953411931 0 -280.36841953411931 268.7795216574068 0 0 0 0 -45.645806814573007 -73.84337558284642 0 -73.84337558284642 58.545177296600741 0 0 0 0 -14.54089637191818 8.4943563112248341 0 8.4943563112248341 6.80141621718065 0 0 0 0 -14.344477846589143 15.96285359072499 0 15.96285359072499 22.068598501591623 0 0 0 0 103.10236000943223 -30.866122040450136 0 -30.866122040450136 -50.334207280297051 0 0 0 0 -10.054201765604375 10.167786262103618 0 10.167786262103618 26.44934684139912 0 0 0 0 -15.45684759809755 -1.4703011888417477 0 -1.4703011888417477 11.467954633343311 0 0 0 0 -0.39590373377034638 9.6714707618241853 0 9.6714707618241853 2.8067101909035044 0 0 0 0 -3.8887059616681654 14.922249218723664 0 14.922249218723664 17.28873018412196 0 0 0 0 0.051622231633430715 5.6916629653242126 0 5.6916629653242126 2.9172743664739436 0 0 0 0 -13.560000682937243 19.813094992361584 0 19.813094992361584 68.273832147493295 0 0 0 0 -13.924868559449351 149.14853067483045 0 149.14853067483045 -80.009149063376753 0 0 0 0 -20.151577230892144 -3.8992039973309147 0 -3.8992039973309147 -9.7704648013423139 0 0 0 0 14.33340903617227 34.963777141275841 0 34.963777141275841 4.1520147299088421 0 0 0 0 -20.033321297023164 10.608985084742866 0 10.608985084742866 15.988376345742068 0 0 0 0 -1.0171337017733322 7.4522904140333779 0 7.4522904140333779 5.2697074242363797 0 0 0 0 -5.9274198843613704 31.640944544277772 0 31.640944544277772 63.954409155267058 0 0 0 0 -4.0184443358157296 30.96910993293568 0 30.96910993293568 43.679043663945777 0 0 0 0 -13.583003080115304 32.854247080460482 0 32.854247080460482 51.302391428587725 0 0 0 0 -23.120937072118977 5.2343309306961601 0 5.2343309306961601 58.543131932434335 0 0 0 0 -13.169609533431867 17.088981567745577 0 17.088981567745577 6.5442147668436519 0 0 0 0 -17.670850037015043 24.350017643206229 0 24.350017643206229 47.196793101520598 0 0 0 0 -14.738456109236722 63.181490123954063 0 63.181490123954063 9.3249752389929199 0 0 0 0 -10.896093921823194 41.787528767450567 0 41.787528767450567 28.78599123339518 0 0 0 0 -8.2227854676311836 43.066939135052053 0 43.066939135052053 29.262644688213186 0 0 0 0 -9.813526011794238 50.77328736610616 0 50.77328736610616 -7.3242153815735946 0 0 0 0 -15.835445713928493 61.78530910007612 0 61.78530910007612 18.728358243170078 0 0 0 0 -14.261148580211739 61.384424310490431 0 61.384424310490431 16.07623979336131 0 0 0 0 -13.056222000130219 50.304939060049946 0 50.304939060049946 40.158443411881308 0 0 0 0 0.51873992272885516 58.96244523612404 0 58.96244523612404 40.624077837470395 0 0 0 0 -3.9257528077068855 42.277383188163185 0 42.277383188163185 52.738546127082373 0 0 0 0 -9.419104787048127 35.417928328712151 0 35.417928328712151 50.337589968363318 0 0 0 0 -7.5114363579268684 51.106253533640484 0 51.106253533640484 36.043373034415708 0 0 0 0 -3.5056675924279261 22.209222012828832 0 22.209222012828832 3.71576932179903 0 0 0 0 -3.1170604234939674 3.1048095750411449 0 3.1048095750411449 29.158339289293508 0 0 0 0 -3.9420042597303109 37.623788402879654 0 37.623788402879654 19.406446198474441 0 0 0 0 -2.2928686512125367 15.690297721828951 0 15.690297721828951 5.7292070896170841 0 0 0 0 -43.068834913043247 34.714355145079026 0 34.714355145079026 19.592878590769715 0 0 0 0 -26.973324290178425 22.09437060957498 0 22.09437060957498 22.901752154797578 0 0 0 0 -5.8983542270470934 60.828538820847825 0 60.828538820847825 -62.558317258108218 0 0 0 0 -21.735227176483022 10.435860958357807 0 10.435860958357807 -10.911954458992113 0 0 0 0 95.648535214801086 215.13063953578603 0 215.13063953578603 17.913222991301154 0 0 0 0 52.80574917199192 -83.703938373117126 0 -83.703938373117126 147.53694489306508 0 0 0 0 25.474953461567033 27.394586009135381 0 27.394586009135381 15.957585224572647 0 0 0 0 115.9842519169033 184.79147097891473 0 184.79147097891473 -558.31425301215677 0 0 0 0 -45.659400290733174 59.673038155346148 0 59.673038155346148 -117.84931584473816 0 0 0 0 55.887064414142515 191.3222244262688 0 191.3222244262688 -310.68690435669487 0 0 0 0 186.51681924544573 25.415696329398543 0 25.415696329398543 -233.4383529099141 0 0 0 0 104.36526018017958 15.736005668922189 0 15.736005668922189 -214.38133078847386 0 0 0 0 -192.80764870526764 203.25927065941505 0 203.25927065941505 -256.25493786646621 0 0 0 0 61.82194669819728 77.861776442445262 0 77.861776442445262 -483.63385870280035 0 0 0 0 -22.620335530617012 -129.29223387560705 0 -129.29223387560705 -37.532523607616895 0 0 0 0 -39.267564364185091 101.8745032288989 0 101.8745032288989 6.9509537508147332 0 0 0 0 -63.943105204525637 91.638426649729809 0 91.638426649729809 45.279401198335108 0 0 0 0 30.320231425905625 24.102063575000489 0 24.102063575000489 15.355405680330286 0 0 0 0 -45.149772740485787 88.531739212859975 0 88.531739212859975 38.576122235699131 0 0 0 0 -23.595508520862495 72.61865836196921 0 72.61865836196921 45.029016416694503 0 0 0 0 -1.1312845502325217 57.956683602391422 0 57.956683602391422 38.434845818635949 0 0 0 0 -14.138131216445345 59.324628565642342 0 59.324628565642342 48.805909913389769 0 0 0 0 -12.614189614567294 68.146065535167509 0 68.146065535167509 26.384999478359532 0 0 0 0 -20.734168953778862 67.949165142868878 0 67.949165142868878 34.37673951441684 0 0 0 0 -36.506542250914208 98.676046472828602 0 98.676046472828602 21.36333742372517 0 0 0 0 -20.119400249262981 83.67300743371743 0 83.67300743371743 1.611371233857426 0 0 0 0 -288.27469839066543 -61.929578834791755 0 -61.929578834791755 237.44580442711595 0 0 0 0 -111.77908142946399 69.117452040403805 0 69.117452040403805 -90.857331283579697 0 0 0 0 -80.280010769409273 65.966596062175086 0 65.966596062175086 51.7296296591594 0 0 0 0 -51.628471661155345 75.985967584296304 0 75.985967584296304 46.622189454242289 0 0 0 0 -27.981867849392074 67.472180205171753 0 67.472180205171753 48.1885584348056 0 0 0 0 -73.743015995944006 36.30183336455957 0 36.30183336455957 36.022963682360569 0 0 0 0 -20.200692676906328 50.112195149595209 0 50.112195149595209 35.349531274026958 0 0 0 0 62.37862236138244 121.41845773344176 0 121.41845773344176 31.72128540297399 0 0 0 0 20.378073927444348 87.221500047471636 0 87.221500047471636 77.165640196063578 0 0 0 0 21.595698887984327 58.072982411380508 0 58.072982411380508 10.820036687740867 0 0 0 0 20.117558862068108 69.142834395628597 0 69.142834395628597 47.088350688987703 0 0 0 0 0.77794563163479324 56.071798595792643 0 56.071798595792643 38.58572691077643 0 0 0 0 -13.463938373100973 64.006691499427689 0 64.006691499427689 44.326111096430395 0 0 0 0 8.2263507017632946 58.602289053058485 0 58.602289053058485 111.99059265775941 0 0 0 0 21.382730679772067 76.687185192706238 0 76.687185192706238 66.79729465735727 0 0 0 0 27.519247436847991 60.387678507103828 0 60.387678507103828 55.452921965228597 0 0 0 0 17.666217413767299 61.952293139907852 0 61.952293139907852 58.964875936868339 0 0 0 0 14.632337006351008 54.963755294000293 0 54.963755294000293 44.243915460898279 0 0 0 0 7.6585185200037813 71.32729517459029 0 71.32729517459029 54.179705470036424 0 0 0 0 0.59673974318866385 62.601607753731514 0 62.601607753731514 49.774653442837007 0 0 0 0 6.2662952686732751 48.298683414115658 0 48.298683414115658 51.281021904053887 0 0 0 0 4.9141297525493428 47.881445079148762 0 47.881445079148762 55.227838650553167 0 0 0 0 11.61143776273093 34.964841739118128 0 34.964841739118128 69.31810003442024 0 0 0 0 10.92315283116659 56.00248056071905 0 56.00248056071905 63.841860734890361 0 0 0 0 27.676721457328313 31.459887869507838 0 31.459887869507838 89.951410278517869 0 0 0 0 23.122079891792964 51.34369369887645 0 51.34369369887645 55.351334801363919 0 0 0 0 17.935235968198867 57.282480405488968 0 57.282480405488968 89.390437383641256 0 0 0 0 26.882934848523291 -1.2201169465515704 0 -1.2201169465515704 88.442482082085917 0 0 0 0 17.109304500401777 15.518010937947111 0 15.518010937947111 64.712992204389593 0 0 0 0 5.2737060927756829 34.22634031027701 0 34.22634031027701 63.601558730410034 0 0 0 0 12.1441630039335 16.050594999440364 0 16.050594999440364 98.210353816646602 0 0 0 0 13.957585333384486 45.997402247465288 0 45.997402247465288 84.530263184129581 0 0 0 0 -4.6132065055608109 19.946581973705179 0 19.946581973705179 184.66067377253694 0 0 0 0 11.865635055513849 63.931964785588207 0 63.931964785588207 153.4674331918286 0 0 0 0 51.552285262772784 64.674397949174818 0 64.674397949174818 108.00570724943827 0 0 0 0 -1.7194270729451091 51.911716914170029 0 51.911716914170029 105.90493325838588 0 0 0 0 33.579478663718874 25.197893385125099 0 25.197893385125099 85.043855352643732 0 0 0 0 32.786632795952301 39.753539726015788 0 39.753539726015788 -35.87406102744535 0 0 0 0 23.211819729345734 68.920874606265897 0 68.920874606265897 59.816020592426867 0 0 0 0 27.168977032428415 58.1117905476342 0 58.1117905476342 53.369368112191296 0 0 0 0 4.3719053185832308 42.213948021813849 0 42.213948021813849 67.621732761721432 0 0 0 0 57.566868893036371 42.655762384626996 0 42.655762384626996 -80.000154227687744 0 0 0 0 1.7890638635948832 6.0790507085032779 0 6.0790507085032779 -7.6698600294736412 0 0 0 0 6.7039566978523908 52.02908504739753 0 52.02908504739753 -5.5781580029579345 0 0 0 0 -8.8102334790520143 23.816553254973631 0 23.816553254973631 -26.216555693013955 0 0 0 0 12.267833269565699 37.819646073822696 0 37.819646073822696 -9.1814220837550238 0 0 0 0 13.591686959645813 114.55147032923651 0 114.55147032923651 -32.704331245197892 0 0 0 0 -26.942581395540401 -5.91687617739899 0 -5.91687617739899 -36.422327577462056 0 0 0 0 -10.407459275281326 67.304676925299646 0 67.304676925299646 -95.804492172475875 0 0 0 0 152.81015646698506 11.381985098731093 0 11.381985098731093 -128.26681670233665 0 0 0 0 26.266248637613828 30.351308912410452 0 30.351308912410452 10.359754578355634 0 0 0 0 14.75901416591114 28.713330817578026 0 28.713330817578026 -188.73596246365423 0 0 0 0 0.18816562085203259 -0.60104632722508811 0 -0.60104632722508811 0.079675822986106759 0 0 0 0 -1.3799840525862237 103.0441500190318 0 103.0441500190318 132.7328242636022 0 0 0 0 -8.751861811731942 97.370291270708549 0 97.370291270708549 -54.916132798389299 0 0 0 0 36.484286454651738 136.19841003068723 0 136.19841003068723 79.352075667661552 0 0 0 0 -5.5446394594109734 122.99659279155821 0 122.99659279155821 42.646369466418037 0 0 0 0 1.9631885460039484 97.678198255764073 0 97.678198255764073 39.03104904395741 0 0 0 0 -25.93426176830657 37.389478602353549 0 37.389478602353549 -5.7779288865600975 0 0 0 0 -16.20265498389416 30.455305556378633 0 30.455305556378633 -7.5580677181570817 0 0 0 0 -4.1550859729886724 32.262285534809052 0 32.262285534809052 0.075065713946969481 0 0 0 0 12.144333800822551 33.146409880593637 0 33.146409880593637 -19.116455517509166 0 0 0 0 4.5420250269380631 35.880452193823658 0 35.880452193823658 -15.456623267255054 0 0 0 0 2.7684917754780098 19.463094415075687 0 19.463094415075687 -5.092877669237712 0 0 0 0 -4.0031551221326183 32.295432166274281 0 32.295432166274281 -10.302199903268431 0 0 0 0 18.367496388459131 45.689927119596177 0 45.689927119596177 -17.51049940498342 0 0 0 0 -2.9257613580850315 24.442383217100275 0 24.442383217100275 -25.856117701975201 0 0 0 0 -3.7267574442030025 0.96326878643493785 0 0.96326878643493785 -0.10066100587367188 0 0 0 0 -2.0799034331314346 1.5825710452541628 0 1.5825710452541628 0.75036997621239365 0 0 0 0 -80.652955502489931 430.64446998002677 0 430.64446998002677 -529.89254018001839 0 0 0 0 -29.870008612415404 372.75371774610176 0 372.75371774610176 -223.19120805022794 0 0 0 0 -57.240115861353843 -64.982258464566712 0 -64.982258464566712 132.60432135470001 0 0 0 0 -322.10475460872112 127.22725615887248 0 127.22725615887248 40.483635882192175 0 0 0 0 -380.71465959630586 141.15484429579737 0 141.15484429579737 328.01311945846828 0 0 0 0 -423.40767101605888 311.94803793900064 0 311.94803793900064 -68.46685780172902 0 0 0 0 -538.84536042044056 394.56040371572453 0 394.56040371572453 50.318255532940384 0 0 0 0 -596.83309638452192 256.30975590108937 0 256.30975590108937 200.08642659161706 0 0 0 0 -303.21668159106775 114.89208184814925 0 114.89208184814925 141.05917336721905 0 0 0 0 -355.52459417429782 114.7159023811837 0 114.7159023811837 38.998368886772369 0 0 0 0 195.29676891465351 188.20810317794894 0 188.20810317794894 -237.31134170341102 0 0 0 0 -206.0265296621219 316.60268354413347 0 316.60268354413347 244.87874211425515 0 0 0 0 40.980419865210933 43.143424142621825 0 43.143424142621825 -95.113598848663969 0 0 0 0 -0.68566358999669319 -21.251568926831169 0 -21.251568926831169 -435.8290034122183 0 0 0 0 -91.633293714192405 96.948863490807526 0 96.948863490807526 131.08896898161038 0 0 0 0 -113.22909708125371 268.79361870896537 0 268.79361870896537 -168.83960010968985 0 0 0 0 -19.154292074399564 118.07219464544505 0 118.07219464544505 72.632766166621877 0 0 0 0 -7.0383708523368114 90.345984413848782 0 90.345984413848782 76.240436450179914 0 0 0 0 -165.90044267583653 143.78143670401164 0 143.78143670401164 137.0143035935107 0 0 0 0 -56.527928770083236 64.132462138146366 0 64.132462138146366 190.92129010951248 0 0 0 0 -13.4621654388975 57.873294719183832 0 57.873294719183832 127.81019470562205 0 0 0 0 -20.391626989377983 44.298248134091409 0 44.298248134091409 205.84044236082264 0 0 0 0 -25.962403226787501 22.036289373671025 0 22.036289373671025 -15.58408936370688 0 0 0 0 -20.59954455634761 31.037090264057042 0 31.037090264057042 -2.029419651174976 0 0 0 0 -28.895907555228355 24.599551360757438 0 24.599551360757438 -15.874595205913806 0 0 0 0 -25.036633444604377 76.940721352679248 0 76.940721352679248 24.965007212660566 0 0 0 0 -28.53426304448341 24.001876060413966 0 24.001876060413966 -10.496015003073264 0 0 0 0 -50.060240823539061 55.309569456083409 0 55.309569456083409 43.783123155153589 0 0 0 0 -47.734608229831792 32.232935635205649 0 32.232935635205649 36.290500200129827 0 0 0 0 51.416486206107493 52.252417677387712 0 52.252417677387712 -59.837132830201881 0 0 0 0 12.828619985204568 95.247190147252695 0 95.247190147252695 -56.983265571543598 0 0 0 0 -23.907570111601892 23.492907074397259 0 23.492907074397259 -23.324023730140851 0 0 0 0 -17.791177628023433 30.050804064330805 0 30.050804064330805 -16.08175755893285 0 0 0 0 0.67434009210592194 24.943515172912157 0 24.943515172912157 -9.5181863977941248 0 0 0 0 -23.904526865469393 31.118956029271885 0 31.118956029271885 -3.7393213071263744 0 0 0 0 2.4947268545095831 15.541069523593155 0 15.541069523593155 -0.67768193937826027 0 0 0 0 -28.774678620405098 50.477901170448149 0 50.477901170448149 0.89771152118191822 0 0 0 0 -26.907416431517959 52.724568459427246 0 52.724568459427246 3.4843694776645862 0 0 0 0 -54.540095251715684 35.045111208029994 0 35.045111208029994 4.4907873614283744 0 0 0 0 -39.270445880501029 55.973772447508964 0 55.973772447508964 13.309048994298792 0 0 0 0 -42.357366136377095 28.095108555913612 0 28.095108555913612 0.81396492277235666 0 0 0 0 -50.751927031418518 47.603413767619713 0 47.603413767619713 -20.218186456666444 0 0 0 0 -69.715560803201015 15.434479608351467 0 15.434479608351467 -5.5641702276698197 0 0 0 0 -0.92410571532752428 4.7550181029393652 0 4.7550181029393652 -10.254907564013706 0 0 0 0 -56.981516802868555 39.717497317624293 0 39.717497317624293 -3.6529073328420054 0 0 0 0 -60.130214284152316 29.930542590562254 0 29.930542590562254 -27.742887869811966 0 0 0 0 -80.770723940478547 40.985748087950924 0 40.985748087950924 -21.294010841957061 0 0 0 0 -52.783439288328736 29.701449764681456 0 29.701449764681456 -28.242298244258563 0 0 0 0 -47.048998629226389 109.92675366166077 0 109.92675366166077 -184.71591896488098 0 0 0 0 -154.48916879523676 36.377696650721191 0 36.377696650721191 -20.661431690783502 0 0 0 0 -300.09857384095221 140.25493456089316 0 140.25493456089316 -73.100798387327814 0 0 0 0 273.88374363897799 -13.673719760617132 0 -13.673719760617132 -342.62772700777714 0 0 0 0 -0.61240455458279364 1.4799420211521799 0 1.4799420211521799 -4.2732630293819227 0 0 0 0 242.29511081413034 -82.095650814930195 0 -82.095650814930195 -254.43962820644811 0 0 0 0 -627.35982411061104 43.933897939612507 0 43.933897939612507 245.1777518447816 0 0 0 0 -15.516305974053832 18.893011413707811 0 18.893011413707811 -18.346017944771333 0 0 0 0 318.68084194511857 -170.08075855561572 0 -170.08075855561572 -161.48085919120058 0 0 0 0 -126.1809332310122 245.38348956084519 0 245.38348956084519 196.38918179515713 0 0 0 0 74.99188258966683 -1.1828325738952117 0 -1.1828325738952117 -68.069445413202629 0 0 0 0 2.2366834488593668 47.63785165270383 0 47.63785165270383 -260.88318865813926 0 0 0 0 -26.696154419375716 17.653007903104481 0 17.653007903104481 -39.236753752178629 0 0 0 0 35.652421513028912 74.495378533298208 0 74.495378533298208 -5.3649680123708094 0 0 0 0 -21.108230751800875 87.548927599757008 0 87.548927599757008 -2.0202941342708414 0 0 0 0 -1.1793253295128086 3.1769095201420763 0 3.1769095201420763 3.1897360066212741 0 0 0 0 84.307486102903567 -8.888931783985754 0 -8.888931783985754 -50.118396375510201 0 0 0 0 -7.6509856966192258 12.63405989638288 0 12.63405989638288 -14.892737009140561 0 0 0 0 -13.885262402517583 9.9972893806880165 0 9.9972893806880165 60.244809942178108 0 0 0 0 25.690552371904232 0.26854075764822483 0 0.26854075764822483 -60.509344379366667 0 0 0 0 24.046837576969665 -50.968269446919294 0 -50.968269446919294 20.118737191123728 0 0 0 0 0.27999353404009586 1.3107959697573239 0 1.3107959697573239 0.55199683984403691 0 0 0 0 168.14436223207349 15.640866370527874 0 15.640866370527874 -49.820729733044573 0 0 0 0 57.831757187296944 -28.767752817781002 0 -28.767752817781002 -3.4971005598272313 0 0 0 0 38.810742600497633 54.843433840051148 0 54.843433840051148 49.457871512364363 0 0 0 0 16.793839728932653 -36.238102034989424 0 -36.238102034989424 40.754084878529284 0 0 0 0 -18.913372681125225 20.263492178813976 0 20.263492178813976 -9.6648251162769157 0 0 0 0 -72.674669762675876 94.010321131667297 0 94.010321131667297 -62.221759813117387 0 0 0 0 -49.486459180093334 93.692299540100066 0 93.692299540100066 -65.752422872767056 0 0 0 0 -84.050385198123422 100.52505972052131 0 100.52505972052131 -55.418476065526193 0 0 0 0 -68.205695667638793 108.129919830586 0 108.129919830586 -63.759061823962838 0 0 0 0 0.084470991864846467 0.99431862771617396 0 0.99431862771617396 -0.22637868705172082 0 0 0 0 195.74451878423497 52.430301574568148 0 52.430301574568148 -66.566176128333609 0 0 0 0 -24.021525908567128 31.398220211838634 0 31.398220211838634 -22.672006415973556 0 0 0 0 0.68397935342818528 115.44461774112824 0 115.44461774112824 827.35085500193236 0 0 0 0 20.406865913824731 165.622829744103 0 165.622829744103 -251.86947905807392 0 0 0 0 3.9042271188999038 16.739798768016627 0 16.739798768016627 -22.706362981524421 0 0 0 0 32.295225655779632 344.39749524058107 0 344.39749524058107 239.41000356533186 0 0 0 0 -182.38595680078288 95.544793871933507 0 95.544793871933507 -26.357537442025205 0 0 0 0 -9.2716573834706377 7.5747258349404021 0 7.5747258349404021 -8.9054989837659946 0 0 0 0 490.72390345196254 206.9884927849198 0 206.9884927849198 -186.96521772724373 0 0 0 0 437.79204995662531 346.11119453891297 0 346.11119453891297 -435.5959313261701 0 0 0 0 -26.005776122129944 38.489708925157302 0 38.489708925157302 -29.751379175882107 0 0 0 0 17.64430042374164 -42.40062972044916 0 -42.40062972044916 -27.716894512006547 0 0 0 0 34.219578853410439 32.895544663264445 0 32.895544663264445 -54.576039999847126 0 0 0 0 -21.892490328874484 24.55779358556714 0 24.55779358556714 -24.156864165378181 0 0 0 0 -2.1472066857786558 40.854650200555625 0 40.854650200555625 -21.667550408339594 0 0 0 0 -60.549106545589893 64.012350018991128 0 64.012350018991128 135.5370443447755 0 0 0 0 15.684344732639147 115.67802663886596 0 115.67802663886596 200.44949140859535 0 0 0 0 68.834924598450016 -122.59603978989253 0 -122.59603978989253 371.27538085895139 0 0 0 0 -6.0719215860221993 8.2367954197740687 0 8.2367954197740687 -4.3932072643694866 0 0 0 0 63.099442838822142 8.1844941908639157 0 8.1844941908639157 39.33745018037007 0 0 0 0 -43.990310725726886 -3.508237327227107 0 -3.508237327227107 166.11086333814455 0 0 0 0 -1.3562219949439687 2.5916652684995896 0 2.5916652684995896 2.3149088121693921 0 0 0 0 -3.8231919409684991 10.077321020170096 0 10.077321020170096 19.441847894273081 0 0 0 0 -60.048169032002534 61.066320804664429 0 61.066320804664429 120.74091803796182 0 0 0 0 198.78519422262252 -61.811616949922609 0 -61.811616949922609 -491.11484737105638 0 0 0 0 -42.109549492779479 -34.241472863021045 0 -34.241472863021045 27.915178355004173 0 0 0 0 -45.16043770367105 10.03379764332567 0 10.03379764332567 40.350746635838732 0 0 0 0 479.11013165525219 77.085661335206169 0 77.085661335206169 -3.3226612557082262 0 0 0 0 1.1022000747930498 1.0796534483583002 0 1.0796534483583002 7.6972714375839359 0 0 0 0 92.764610987724154 -137.06667246043071 0 -137.06667246043071 -29.801923369799624 0 0 0 0 -28.156496957738909 -208.98829711439453 0 -208.98829711439453 8.8528993723448366 0 0 0 0 -132.20223912117217 -3.9462296957426588 0 -3.9462296957426588 -27.941176030377392 0 0 0 0 -58.965780914642892 -3.6581740847163928 0 -3.6581740847163928 -5.4629309324591304 0 0 0 0 -60.709442894352833 -48.562775432445051 0 -48.562775432445051 25.521151150409423 0 0 0 0 -7.4630179815576412 -11.314070158825416 0 -11.314070158825416 51.24847063083871 0 0 0 0 -98.956530296394703 60.093055951540919 0 60.093055951540919 23.6421230084743 0 0 0 0 5.2426565516143455 52.222664812830772 0 52.222664812830772 -60.344756761227472 0 0 0 0 -189.73338114770741 198.93553912300194 0 198.93553912300194 -143.95748422685574 0 0 0 0 -177.38087182217714 -27.183521071539872 0 -27.183521071539872 8.1116578165310784 0 0 0 0 -64.942078070729622 225.87907484919015 0 225.87907484919015 -251.44560305718915 0 0 0 0 -7.5159423718141625 134.33603082525224 0 134.33603082525224 -207.149675310764 0 0 0 0 57.295068763974996 12.579151900961733 0 12.579151900961733 -1.7628058090631384 0 0 0 0 -44.952264005201869 149.56815466709668 0 149.56815466709668 -81.240167448704597 0 0 0 0 -44.125293064898869 177.01101919371195 0 177.01101919371195 -203.57708012600051 0 0 0 0 -242.96944239622098 371.77387589244972 0 371.77387589244972 -340.46135723558109 0 0 0 0 -16.877662199949555 131.37498774172127 0 131.37498774172127 -456.89567392296249 0 0 0 0 -4.5949979882593865 7.3213077799710824 0 7.3213077799710824 11.158187720224014 0 0 0 0 -364.69821693438439 89.246927958696347 0 89.246927958696347 40.475442056856991 0 0 0 0 -11.345660490267619 161.51070602786422 0 161.51070602786422 -539.23186397102836 0 0 0 0 -329.62733486368961 453.09394387957218 0 453.09394387957218 -130.98668346663544 0 0 0 0 -544.71056170259544 63.036886745432639 0 63.036886745432639 63.36625470672152 0 0 0 0 -256.55211673721715 -223.63326993128976 0 -223.63326993128976 94.754221527662594 0 0 0 0 71.394845436912874 417.91097686053035 0 417.91097686053035 115.72640601407272 0 0 0 0 4.5394975569561211 120.70335272972807 0 120.70335272972807 -66.616126646047633 0 0 0 0 -37.273965959450919 55.224031438601209 0 55.224031438601209 -51.439773495712885 0 0 0 0 -61.308873335612589 310.51393950959391 0 310.51393950959391 -79.370258052156714 0 0 0 0 -11.784804736851584 -48.192052381677968 0 -48.192052381677968 63.465616634268372 0 0 0 0 -2.7087740532551834 44.241921982698841 0 44.241921982698841 -7.8983053797273897 0 0 0 0 -18.071542699435824 35.157728468804748 0 35.157728468804748 23.057637405826668 0 0 0 0 -112.70231421345807 61.488857949476369 0 61.488857949476369 11.515843791130465 0 0 0 0 -1.5595959789240368 13.170466555882612 0 13.170466555882612 -8.2463292052619863 0 0 0 0 -70.565844797885802 51.042855900430368 0 51.042855900430368 -15.502580512027635 0 0 0 0 -31.504956210735145 55.7032999812036 0 55.7032999812036 -45.328550566751801 0 0 0 0 -93.283245294310291 125.69549510923935 0 125.69549510923935 -20.042125732186832 0 0 0 0 -6.8004987069406297 19.241826203994776 0 19.241826203994776 12.116893327274738 0 0 0 0 364.8401653480214 -571.0207111149839 0 -571.0207111149839 -61.726740894162504 0 0 0 0 -32.755822404124189 42.932557988523797 0 42.932557988523797 -51.590204286576224 0 0 0 0 -164.2189403037155 85.764287103338575 0 85.764287103338575 -62.347958551217744 0 0 0 0 -23.074033732552834 65.547135185664047 0 65.547135185664047 -71.617824054897937 0 0 0 0 -102.12614770370783 38.081381638248786 0 38.081381638248786 33.661235698680684 0 0 0 0 10.191904528926642 10.216133812836141 0 10.216133812836141 3.3420431965495538 0 0 0 0 4.7537056964698454 8.3223541006151081 0 8.3223541006151081 16.784436002404959 0 0 0 0 -26.307270526477623 38.353466009848489 0 38.353466009848489 -19.755765522451838 0 0 0 0 -314.92330042975573 268.31059245457072 0 268.31059245457072 -48.473646008162177 0 0 0 0 107.25335000763152 212.77736319448741 0 212.77736319448741 -217.48385651726494 0 0 0 0 81.15939735488621 -32.927448167862167 0 -32.927448167862167 -22.244057733216323 0 0 0 0 11.889072219832997 93.687218920047599 0 93.687218920047599 -137.84779608879035 0 0 0 0 -112.1019350929073 186.42145004224585 0 186.42145004224585 574.77961840752687 0 0 0 0 18.63661414751914 -94.933986532894778 0 -94.933986532894778 300.86620193903218 0 0 0 0 4.5651599822027009 3.3311039025000468 0 3.3311039025000468 4.577992724454532 0 0 0 0 -637.21719179871616 289.02246630242007 0 289.02246630242007 713.47064058473916 0 0 0 0 0.88351917259333312 7.6603148565189301 0 7.6603148565189301 13.451536559679795 0 0 0 0 -582.08686047633228 184.41228308286281 0 184.41228308286281 172.5869203068869 0 0 0 0 -22.561549199715955 35.796003575880604 0 35.796003575880604 -2.6088634475017898 0 0 0 0 -25.809832203118276 91.305365181349771 0 91.305365181349771 -29.216504825788434 0 0 0 0 -20.230237979991387 31.33865976022291 0 31.33865976022291 -25.75720503591937 0 0 0 0 -17.753582681645639 0.4780630550449132 0 0.4780630550449132 -36.105377685061285 0 0 0 0 24.872513395112037 49.731838226336549 0 49.731838226336549 -67.829085462353532 0 0 0 0 -88.200230053458654 87.025652085518232 0 87.025652085518232 -45.717114568295074 0 0 0 0 2.6089598980533175 22.563709328386061 0 22.563709328386061 0.33695289360787228 0 0 0 0 -29.875178907916279 57.206833445065058 0 57.206833445065058 -49.162164919413044 0 0 0 0 -0.47345318316739338 1.348865191816202 0 1.348865191816202 -0.095389098360193714 0 0 0 0 -8.9845714744787983 82.032966940339975 0 82.032966940339975 -199.05233063258493 0 0 0 0 -88.317455668151524 112.67218087687797 0 112.67218087687797 424.77153843618726 0 0 0 0 -68.68408878298942 117.01545730743965 0 117.01545730743965 -74.278624047765334 0 0 0 0 -76.158545056257026 177.50927788634363 0 177.50927788634363 310.84990433837811 0 0 0 0 -70.675688558170805 165.87234634151901 0 165.87234634151901 332.50621384155238 0 0 0 0 -35.951666848639434 123.59580586401717 0 123.59580586401717 322.86775832958301 0 0 0 0 -1.8434978481163853 22.471038571107783 0 22.471038571107783 -139.76096793072065 0 0 0 0 16.790845246962817 28.99638820938344 0 28.99638820938344 -45.666005247083376 0 0 0 0 27.121297940921636 116.07095832822449 0 116.07095832822449 185.72123305393325 0 0 0 0 -0.88572487999907423 4.3274476762433522 0 4.3274476762433522 -4.714931937642227 0 0 0 0 33.364590059791226 33.093377283126756 0 33.093377283126756 292.23528445806733 0 0 0 0 19.831327709534889 89.236457708873786 0 89.236457708873786 160.974888122415 0 0 0 0 11.088371752382955 111.71256965638895 0 111.71256965638895 149.57302718250139 0 0 0 0 59.485987836709683 121.91532170907522 0 121.91532170907522 22.478045527735958 0 0 0 0 37.00495190901529 158.74075955451553 0 158.74075955451553 35.872049585756031 0 0 0 0 4.6208510044889408 140.24844089545513 0 140.24844089545513 160.62477488356672 0 0 0 0 31.922867592771581 259.89670411845145 0 259.89670411845145 168.28829354811751 0 0 0 0 -46.526347925902883 145.92197676734213 0 145.92197676734213 276.52894069769536 0 0 0 0 28.141529766584426 112.86457611180231 0 112.86457611180231 -22.27977268241375 0 0 0 0 29.648942606543642 123.65622919274028 0 123.65622919274028 -44.004857758322032 0 0 0 0 -27.318096675511697 40.020977721818781 0 40.020977721818781 -112.89241358803702 0 0 0 0 5.3876042489550855 39.11128868043761 0 39.11128868043761 -146.15298847308441 0 0 0 0 15.969626166700436 102.66535470733788 0 102.66535470733788 -61.609094834173447 0 0 0 0 39.109735674719559 89.834819135743601 0 89.834819135743601 -54.67740786811919 0 0 0 0 24.047314556868514 106.15749530711764 0 106.15749530711764 -52.467999973894621 0 0 0 0 22.866406611827188 141.71192375990358 0 141.71192375990358 20.686089804799394 0 0 0 0 -613.62867857734636 -84.792221796153171 0 -84.792221796153171 -137.38153208172298 0 0 0 0 -585.20582615470698 55.644742955625134 0 55.644742955625134 33.182022735403734 0 0 0 0 -5.3876126835511968 17.238609933403495 0 17.238609933403495 -16.278971709572943 0 0 0 0 -526.80606628584178 -550.86233598540912 0 -550.86233598540912 -272.60264256061055 0 0 0 0 -2.5204187680394128 2.3960493558685414 0 2.3960493558685414 3.1824410394087579 0 0 0 0 -687.12625528192075 157.9178413667305 0 157.9178413667305 -72.827004225429846 0 0 0 0 381.48700151435514 -310.12504699642159 0 -310.12504699642159 63.677323897922179 0 0 0 0 116.76044981980431 508.79508596620781 0 508.79508596620781 304.27633129857713 0 0 0 0 67.065904022099858 190.78762031058432 0 190.78762031058432 -91.743144552237936 0 0 0 0 12.917625272235455 134.53429062473151 0 134.53429062473151 -50.766081386180304 0 0 0 0 -144.90048446422588 -214.05588619261107 0 -214.05588619261107 -361.57273476028058 0 0 0 0 99.06375986567582 80.792037324565172 0 80.792037324565172 -270.4602249358868 0 0 0 0 -196.69499251743764 -105.44755838962737 0 -105.44755838962737 -226.64334684179084 0 0 0 0 16.135625836395548 35.449698624454868 0 35.449698624454868 -198.10319361915754 0 0 0 0 -39.336755743592221 38.348381292908016 0 38.348381292908016 -142.6745008183716 0 0 0 0 -105.75839206530145 -41.47682955210621 0 -41.47682955210621 -164.33974598238819 0 0 0 0 -236.6591677986321 -14.623431665950193 0 -14.623431665950193 -83.74895509230555 0 0 0 0 -220.06092063138567 23.992606213440013 0 23.992606213440013 -58.833244652887515 0 0 0 0 -445.80135115310986 -66.385948370108963 0 -66.385948370108963 -88.562961953510239 0 0 0 0 -223.99548498530339 -28.988969377987814 0 -28.988969377987814 -231.31449768699531 0 0 0 0 -125.7455667082877 186.92756400189683 0 186.92756400189683 -166.69582341149362 0 0 0 0 0.23737489319960403 2.3439125631567777 0 2.3439125631567777 0.28674270139643454 0 0 0 0 -185.0959569750612 114.90133951952885 0 114.90133951952885 -60.284728414168057 0 0 0 0 -381.09829508574489 161.76572798103552 0 161.76572798103552 -62.411266715760576 0 0 0 0 39.496030570311774 36.512998015002537 0 36.512998015002537 -27.659229547454743 0 0 0 0 0.025416952893067446 1.4509450470378269 0 1.4509450470378269 1.4636912336329999 0 0 0 0 1.1694971041828113 1.2846253701472872 0 1.2846253701472872 -0.02044958927223206 0 0 0 0 -49.347460853264238 58.426974917221742 0 58.426974917221742 -132.27617723908043 0 0 0 0 7.0003377026332601 -1.0908124900088296 0 -1.0908124900088296 12.452665795659414 0 0 0 0 55.359162273334732 21.171907615382224 0 21.171907615382224 -28.209288324957015 0 0 0 0 -2.5192897564176011 7.5918438350367694 0 7.5918438350367694 7.5017113455635922 0 0 0 0 1.754001999924963 6.6331094520126896 0 6.6331094520126896 0.55889257039765994 0 0 0 0 4.136344633083354 10.877458832110278 0 10.877458832110278 2.439408802158141 0 0 0 0 -0.64194452220453968 8.453866661824577 0 8.453866661824577 0.4729650396402576 0 0 0 0 6.4099741498557705 14.364011982521333 0 14.364011982521333 7.5834416448924458 0 0 0 0 1.8843132824352333 7.8114767254078092 0 7.8114767254078092 2.0155329918601126 0 0 0 0 4.7516167434459931 16.125641261205601 0 16.125641261205601 9.5887930887711263 0 0 0 0 1.1139424341326958 13.009554241882142 0 13.009554241882142 9.4495449762762291 0 0 0 0 21.136613580084941 8.4809257995293592 0 8.4809257995293592 -28.820357739547035 0 0 0 0 68.733420428496174 -23.575509696387599 0 -23.575509696387599 -27.204009675657289 0 0 0 0 2.4515478438624134 4.1430475816418806 0 4.1430475816418806 0.41717454049002356 0 0 0 0 0.71119821126515603 16.290025999289355 0 16.290025999289355 0.54005884096841328 0 0 0 0 0.88739413767521169 9.8719980711997763 0 9.8719980711997763 1.2534515635095431 0 0 0 0 2.1109887139465116 10.144971304926912 0 10.144971304926912 -3.2547668956394773 0 0 0 0 -2.6324790922417378 -3.3393776704615448 0 -3.3393776704615448 14.276726558426162 0 0 0 0 8.988896561911158 11.05082643266644 0 11.05082643266644 3.8335099461743738 0 0 0 0 1.831128395300766 48.76059411501501 0 48.76059411501501 -11.505678230838384 0 0 0 0 -45.746929863262835 59.509334554973975 0 59.509334554973975 49.198306598889758 0 0 0 0 6.3662069378409809 10.527858499768953 0 10.527858499768953 12.951346959088028 0 0 0 0 27.069681177888924 35.523545235882921 0 35.523545235882921 -54.347930597927189 0 0 0 0 25.428653915955692 32.033779173158109 0 32.033779173158109 0.99256245474680327 0 0 0 0 44.702073693489638 103.44497259150376 0 103.44497259150376 33.416263793826147 0 0 0 0 284.05077677186136 11.68350289170121 0 11.68350289170121 -149.57935626282415 0 0 0 0 21.108755056514383 -93.47934549463389 0 -93.47934549463389 272.35039453518402 0 0 0 0 -79.568176856107129 -31.522127776935349 0 -31.522127776935349 5.5890175543972873 0 0 0 0 -60.091848120884606 88.067524505226174 0 88.067524505226174 31.930664341010925 0 0 0 0 45.246530106825958 1.8589852629884263 0 1.8589852629884263 14.30063816402253 0 0 0 0 -26.089746200813352 51.670261293562362 0 51.670261293562362 25.447511302103521 0 0 0 0 55.376372716995093 52.133663357522892 0 52.133663357522892 25.148294622900721 0 0 0 0 141.19268344658985 71.441526549902846 0 71.441526549902846 -8.7384143400850007 0 0 0 0 15.876119283886283 35.080727033186122 0 35.080727033186122 -8.4102269403222749 0 0 0 0 33.775593766186489 66.159358081731625 0 66.159358081731625 35.099488462008594 0 0 0 0 38.854498751249949 40.465136383823847 0 40.465136383823847 -24.77663847610529 0 0 0 0 16.976417129953461 -28.909172772277088 0 -28.909172772277088 -48.361948906931502 0 0 0 0 45.518636763886207 70.41321393661201 0 70.41321393661201 36.501067977593266 0 0 0 0 1.5010185457756071 1.1201159854208811 0 1.1201159854208811 -1.7078189250856042 0 0 0 0 36.239915639452711 79.582395386106668 0 79.582395386106668 10.995750314788893 0 0 0 0 0.25876037106001437 6.419151862563595 0 6.419151862563595 -8.1846888172545249 0 0 0 0 12.137575431001437 1.3668544217907765 0 1.3668544217907765 -43.664263925873456 0 0 0 0 10.296179151968545 19.077841575402999 0 19.077841575402999 -10.040664265196028 0 0 0 0 12.479189548922633 24.817199253281018 0 24.817199253281018 -8.11867087137216 0 0 0 0 -12.954105960966444 82.404452821938321 0 82.404452821938321 7.9678425249512657 0 0 0 0 -58.326906076745217 20.030244452525949 0 20.030244452525949 21.122001445917704 0 0 0 0 -43.544349340059853 22.383049205222051 0 22.383049205222051 -19.225987427180371 0 0 0 0 78.325146429398956 130.03179499915859 0 130.03179499915859 19.22581549903407 0 0 0 0 2.1991940805175503 0.79781562528654604 0 0.79781562528654604 -1.8532343240071043 0 0 0 0 2.2262384182236583 7.8507335138991632 0 7.8507335138991632 -8.2861798008264032 0 0 0 0 6.2543662623633391 15.959474846897578 0 15.959474846897578 7.8464805324665861 0 0 0 0 -21.250675015989145 19.974304753641263 0 19.974304753641263 3.9830756615192513 0 0 0 0 -7.881831167055168 12.581056218032558 0 12.581056218032558 5.7588426290458301 0 0 0 0 11.397191065436346 11.949857401079498 0 11.949857401079498 5.9799567647278309 0 0 0 0 -4.0199633372388588 21.317773587213313 0 21.317773587213313 3.5929082417872849 0 0 0 0 1.3517502545949813 -0.91695163489634979 0 -0.91695163489634979 3.7395927573670633 0 0 0 0 -1.6377870598307709 15.66187001032813 0 15.66187001032813 21.921860593851306 0 0 0 0 11.417899096147607 42.314713651270722 0 42.314713651270722 15.418557700686506 0 0 0 0 0.94172856710110286 10.076422734107332 0 10.076422734107332 -9.0984584093508545 0 0 0 0 2.8334920971602742 21.772132726116979 0 21.772132726116979 14.327742585242959 0 0 0 0 5.3998916408936566 19.947354554315098 0 19.947354554315098 3.1255408933211584 0 0 0 0 12.126237602408764 22.911646548258432 0 22.911646548258432 -15.929120914341183 0 0 0 0 22.524750104560553 43.064987110410584 0 43.064987110410584 5.0249721652216977 0 0 0 0 21.087288242315907 20.209399579091652 0 20.209399579091652 9.6038632531630412 0 0 0 0 39.199368067085743 30.568222229912863 0 30.568222229912863 -59.150436771770956 0 0 0 0 -41.800859270486399 17.225307300934219 0 17.225307300934219 26.588519349954367 0 0 0 0 19.563275620937929 20.408614545213823 0 20.408614545213823 -45.354212560556334 0 0 0 0 1.3241875983901803 3.5489802968724078 0 3.5489802968724078 -3.9027274257573765 0 0 0 0 38.178904636226434 -9.9901800644138348 0 -9.9901800644138348 2.9852670039726945 0 0 0 0 62.165651465129486 10.439178610406998 0 10.439178610406998 -56.87346811482098 0 0 0 0 135.89444637849556 -24.3316336534117 0 -24.3316336534117 -57.039686459920631 0 0 0 0 94.79819854319976 182.81235564207691 0 182.81235564207691 36.859595040019485 0 0 0 0 -51.174243031464357 88.599171947853847 0 88.599171947853847 -61.315570970076806 0 0 0 0 -73.826761916946225 69.74688042599746 0 69.74688042599746 -65.314140270806092 0 0 0 0 46.95232701527857 9.1456997257891999 0 9.1456997257891999 19.671842346958329 0 0 0 0 -0.30325612781768019 -1.3034673720744081 0 -1.3034673720744081 -1.0644744762186775 0 0 0 0 -56.159262589208083 56.798232173482575 0 56.798232173482575 -67.871166664284829 0 0 0 0 -76.633697560759174 107.89644642605163 0 107.89644642605163 -90.348474359430838 0 0 0 0 -91.89464736473019 99.974185773024146 0 99.974185773024146 -63.228700275799156 0 0 0 0 -24.153469729681092 80.661112105637585 0 80.661112105637585 -84.919671235556052 0 0 0 0 -60.684525682940148 134.88805242461331 0 134.88805242461331 -155.24702659822651 0 0 0 0 -29.392383820122632 39.593786690982597 0 39.593786690982597 -87.884295705989643 0 0 0 0 54.19928087442895 50.775700371785206 0 50.775700371785206 -117.34894302067005 0 0 0 0 -2.595154955972248 -1.0057338763181178 0 -1.0057338763181178 -34.362245715257814 0 0 0 0 -52.33993600809481 48.105056391110338 0 48.105056391110338 124.74647488049413 0 0 0 0 -11.237980689536926 -105.70055758618764 0 -105.70055758618764 29.153673668416559 0 0 0 0 -27.423834951507487 27.952412650131741 0 27.952412650131741 -22.009636659254486 0 0 0 0 -143.47017060560756 254.1221552880761 0 254.1221552880761 334.06855901291783 0 0 0 0 -26.446980711232754 55.377048516396826 0 55.377048516396826 35.668328852072591 0 0 0 0 648.66457123029613 175.76157872860676 0 175.76157872860676 -1042.2036627864763 0 0 0 0 -872.90618902271308 -425.28831461801292 0 -425.28831461801292 91.228155672695721 0 0 0 0 -30.099322068126639 239.77550076911211 0 239.77550076911211 -375.73333745484524 0 0 0 0 -122.50620067179989 118.67100817991468 0 118.67100817991468 -25.24505878140917 0 0 0 0 -117.23778674272762 88.263804052843625 0 88.263804052843625 -42.404532366576859 0 0 0 0 -127.35495137760518 131.32102228884378 0 131.32102228884378 -56.663656615048239 0 0 0 0 -96.283454967282523 101.54663537937267 0 101.54663537937267 -50.438668592054455 0 0 0 0 -79.518104539620253 39.557798982762506 0 39.557798982762506 -2.611004197748116 0 0 0 0 -189.67793003738188 79.704205516232832 0 79.704205516232832 -11.675055222624906 0 0 0 0 -4.5234114427595671 5.5395243216430465 0 5.5395243216430465 -6.6552418375675799 0 0 0 0 -67.48604592004267 -28.642707086880364 0 -28.642707086880364 11.053609902330209 0 0 0 0 -324.02695216328721 231.89876507204463 0 231.89876507204463 -77.675896065509733 0 0 0 0 405.95416599010059 -267.10025581350055 0 -267.10025581350055 -655.21638069544133 0 0 0 0 -244.5703749496779 40.674528526946233 0 40.674528526946233 15.156925395407598 0 0 0 0 -53.250749248069042 -117.10754537623779 0 -117.10754537623779 -198.87214926650631 0 0 0 0 7.7177565997844795 -195.06006258688649 0 -195.06006258688649 -127.43053207801495 0 0 0 0 187.02318203817413 -248.58253746973423 0 -248.58253746973423 -217.63953992834831 0 0 0 0 -70.620397635226254 -45.68809525960387 0 -45.68809525960387 -317.43210497434848 0 0 0 0 -312.5698094151121 13.635666724703697 0 13.635666724703697 177.63038163468445 0 0 0 0 40.869827283771883 20.372893243684302 0 20.372893243684302 -41.005023939480452 0 0 0 0 -5.7507206686241261 -0.18006942258034542 0 -0.18006942258034542 -36.817656615345186 0 0 0 0 -154.0214803997078 255.40970216610731 0 255.40970216610731 69.582958401268115 0 0 0 0 -15.572117244117834 15.485129967851043 0 15.485129967851043 -12.824279562883234 0 0 0 0 30.537989384537468 46.7752692974816 0 46.7752692974816 -22.095193510896934 0 0 0 0 11.60877300932043 30.104941002518444 0 30.104941002518444 -17.502652720908372 0 0 0 0 80.666968728512188 104.27280070978622 0 104.27280070978622 72.229782091395464 0 0 0 0 -62.072311164432904 230.6233862501831 0 230.6233862501831 -26.186116561162635 0 0 0 0 67.596109760670515 172.47915540928807 0 172.47915540928807 -90.750758993788622 0 0 0 0 -93.162466317467988 212.61895452477165 0 212.61895452477165 -121.80055612133583 0 0 0 0 -86.916123289262032 137.91735564564124 0 137.91735564564124 -91.934853373430087 0 0 0 0 -50.828628090341226 203.20178489160753 0 203.20178489160753 -171.28855220185505 0 0 0 0 -174.31303392394329 216.26034135110967 0 216.26034135110967 -23.459572638554164 0 0 0 0 -191.411074002026 163.58875242395152 0 163.58875242395152 -93.76934085522953 0 0 0 0 -146.08749311044812 129.85191361862235 0 129.85191361862235 -200.79018900812662 0 0 0 0 -173.55325098543108 155.56577385151832 0 155.56577385151832 -442.65796078990388 0 0 0 0 -263.7323229858448 305.55260585938231 0 305.55260585938231 -267.5678021989479 0 0 0 0 -207.58181548592131 322.80313789134385 0 322.80313789134385 -552.83392974498565 0 0 0 0 -206.94039273492672 385.07419811133514 0 385.07419811133514 -440.81834928681582 0 0 0 0 -0.55614551441549054 1.3786125245983243 0 1.3786125245983243 -4.2030623861130181 0 0 0 0 -106.48200540692778 152.77716290215903 0 152.77716290215903 -216.60868445895903 0 0 0 0 -110.46766355865111 233.82473598948854 0 233.82473598948854 -352.83536250824545 0 0 0 0 -186.05037731119955 211.4431609145613 0 211.4431609145613 -256.90757502054475 0 0 0 0 -63.437042530873441 212.94133767065068 0 212.94133767065068 -290.72454365681915 0 0 0 0 -66.728675359641784 170.27830662843189 0 170.27830662843189 -194.96892341168314 0 0 0 0 -1.6322025630922212 19.560806131282881 0 19.560806131282881 21.95341273023616 0 0 0 0 -78.58494502697431 207.38592315038295 0 207.38592315038295 -274.44921551850712 0 0 0 0 -48.825826970005437 109.75891789236266 0 109.75891789236266 -231.11540201293246 0 0 0 0 -6.6397519029997056 31.90446908751619 0 31.90446908751619 21.153996688826737 0 0 0 0 -280.3018789360649 382.88009041898476 0 382.88009041898476 -94.597105612461746 0 0 0 0 -0.17461240624864161 0.55813899562080493 0 0.55813899562080493 2.0077995508217157 0 0 0 0 351.22237558864435 329.05394638035796 0 329.05394638035796 -40.467370102018322 0 0 0 0 -9.5036411016699276 39.868968898004823 0 39.868968898004823 20.788288131439913 0 0 0 0 -11.63858456804563 22.266676425858758 0 22.266676425858758 -16.0373029356073 0 0 0 0 -15.149161743756849 40.336181658454734 0 40.336181658454734 21.123072274681363 0 0 0 0 -19.585884542380626 21.34211902115991 0 21.34211902115991 -8.9326705516086378 0 0 0 0 -9.2223245363575188 58.138645667881974 0 58.138645667881974 4.6042476123475353 0 0 0 0 -14.856813328930002 32.995255923253353 0 32.995255923253353 21.106634339864286 0 0 0 0 -19.955353561290394 51.333816228317573 0 51.333816228317573 11.580229434883222 0 0 0 0 -15.680970584860916 14.059475028123416 0 14.059475028123416 -3.6218196475019795 0 0 0 0 -33.182160377982655 36.027471283685372 0 36.027471283685372 5.9058196700752887 0 0 0 0 5.6777515374074028 45.286610080973333 0 45.286610080973333 -10.998868909933663 0 0 0 0 -24.783364859093851 21.399151976320812 0 21.399151976320812 -14.038721724206738 0 0 0 0 -11.227590463017613 20.013423102926865 0 20.013423102926865 -13.790290634321224 0 0 0 0 -18.508811451996827 21.903548910048965 0 21.903548910048965 -22.818217206679904 0 0 0 0 62.63577148134209 130.77978117181647 0 130.77978117181647 -5.710365764942253 0 0 0 0 73.731301344007079 104.88498916977187 0 104.88498916977187 8.9256580605579074 0 0 0 0 45.571591081978113 129.21039961588394 0 129.21039961588394 26.555565748443769 0 0 0 0 6.630121695953676 186.00235917049486 0 186.00235917049486 -19.518797730110236 0 0 0 0 42.200025418929727 185.83126092697785 0 185.83126092697785 -37.087446950121375 0 0 0 0 53.137535851161374 154.20864059589803 0 154.20864059589803 -66.697834754228097 0 0 0 0 -62.176075759733067 133.61731177692127 0 133.61731177692127 -39.663812408216472 0 0 0 0 17.582788145366067 48.925603956256964 0 48.925603956256964 -198.51591291051591 0 0 0 0 -108.23437685823046 17.575410193239804 0 17.575410193239804 36.40454528612463 0 0 0 0 -1.8162921562487568 1.5957786806686869 0 1.5957786806686869 1.2407991789912387 0 0 0 0 28.334145722562425 170.28501682214119 0 170.28501682214119 -28.012731885639369 0 0 0 0 8.6756926269808901 148.64436347629817 0 148.64436347629817 31.001812009315472 0 0 0 0 12.938309076518635 31.700819788966328 0 31.700819788966328 -15.741330372831726 0 0 0 0 -18.322350043717762 16.751093436833706 0 16.751093436833706 4.3610454042925113 0 0 0 0 21.726979738356022 52.65060715720756 0 52.65060715720756 161.64519626619585 0 0 0 0 -1.4121350431301778 2.4040470724313252 0 2.4040470724313252 -1.4917699687663912 0 0 0 0 -14.077285971630772 15.083858683500878 0 15.083858683500878 -0.14837601165403669 0 0 0 0 -70.861266083498776 -77.899252846109448 0 -77.899252846109448 66.129749032996187 0 0 0 0 -149.93950220457191 33.275376792327734 0 33.275376792327734 -0.27807044723886065 0 0 0 0 -0.93497766693067064 0.05433390372490976 0 0.05433390372490976 2.3337054699789803 0 0 0 0 -4.749272900793585 40.890115305872314 0 40.890115305872314 -219.90769494103733 0 0 0 0 18.977842946316741 -9.8528013410068525 0 -9.8528013410068525 -135.51014022991876 0 0 0 0 38.842934430445894 87.352861901803408 0 87.352861901803408 -274.56925680406857 0 0 0 0 70.56366579697351 143.13705830421532 0 143.13705830421532 -200.28262463580177 0 0 0 0 -130.95443962022546 54.408994664438069 0 54.408994664438069 -221.09571608528495 0 0 0 0 40.75755794197903 95.253174840006977 0 95.253174840006977 -407.51254340659943 0 0 0 0 136.29621284698806 123.81608174031135 0 123.81608174031135 -182.73084713783464 0 0 0 0 135.54983554557475 58.543226178007899 0 58.543226178007899 -210.60901037740405 0 0 0 0 138.80293860729216 95.886406263212848 0 95.886406263212848 -244.50585938902805 0 0 0 0 56.687947088834335 118.28916275807569 0 118.28916275807569 -176.87001020062598 0 0 0 0 70.326392100156227 127.10063995028031 0 127.10063995028031 -248.66684772065128 0 0 0 0 30.728959170141025 195.49280960741453 0 195.49280960741453 -297.29401798278195 0 0 0 0 75.482743087559356 137.07280617011565 0 137.07280617011565 -229.42150131662493 0 0 0 0 7.3214144594041954 220.19485602515806 0 220.19485602515806 -366.36399468779564 0 0 0 0 17.750171280822542 182.71440174274903 0 182.71440174274903 -289.34474147198489 0 0 0 0 -18.877013654629991 270.983618062397 0 270.983618062397 -280.81304737570917 0 0 0 0 -9.7438369242154295 233.0070643224899 0 233.0070643224899 -190.63543080220188 0 0 0 0 -46.708457888038538 165.85284204148047 0 165.85284204148047 -16.196930045891349 0 0 0 0 -52.05375633472795 209.64975468770717 0 209.64975468770717 -82.499866174289764 0 0 0 0 4.0566452863931772 157.55014450604358 0 157.55014450604358 -85.575633341650246 0 0 0 0 -69.017585540451364 207.1464366779478 0 207.1464366779478 58.556489688555303 0 0 0 0 -70.208606528925884 200.50055371631606 0 200.50055371631606 -436.8955993654381 0 0 0 0 -2.0442868747678133 3.4257356398104335 0 3.4257356398104335 -4.321142183510247 0 0 0 0 -109.3591727498715 269.15826836855194 0 269.15826836855194 -77.689441634342074 0 0 0 0 -97.471591174860805 318.32124883739016 0 318.32124883739016 -261.04744903530809 0 0 0 0 5.8325752327707505 183.99537439336791 0 183.99537439336791 -638.32552499120357 0 0 0 0 -161.21152078811861 238.21386887470726 0 238.21386887470726 -238.89190584364405 0 0 0 0 -166.49259294153308 188.81735598975501 0 188.81735598975501 -137.22088458400685 0 0 0 0 -393.55324461092823 -261.55794843265903 0 -261.55794843265903 -507.72332605892007 0 0 0 0 -486.27641449909424 338.51211303527816 0 338.51211303527816 -249.40659082724596 0 0 0 0 -163.88129206680605 241.86079424832133 0 241.86079424832133 -261.85174687739163 0 0 0 0 -227.10241544169548 183.58056412501901 0 183.58056412501901 -130.01126893359469 0 0 0 0 -7.7980629202611453 14.640177067893092 0 14.640177067893092 -42.055873572033306 0 0 0 0 -74.654706327048189 160.69370951255405 0 160.69370951255405 -155.00458567039095 0 0 0 0 -140.15830639715568 186.4003061813346 0 186.4003061813346 -137.70267754896486 0 0 0 0 -138.0105934942294 170.0617647058607 0 170.0617647058607 -171.17006792906614 0 0 0 0 -158.61774161998619 58.170488000563637 0 58.170488000563637 38.583113663196855 0 0 0 0 -36.031504138944001 52.868381682570543 0 52.868381682570543 -2.5630002852121834 0 0 0 0 -24.31611268324923 61.495113559092715 0 61.495113559092715 -25.004236364278768 0 0 0 0 -1.4456248098114841 -2.7653611837586425 0 -2.7653611837586425 12.314401548072681 0 0 0 0 -22.658490119759811 25.632819049573897 0 25.632819049573897 26.023392874476244 0 0 0 0 -24.178115322564061 21.394561757989656 0 21.394561757989656 3.2731727818079825 0 0 0 0 -12.264193542257999 12.490162068424979 0 12.490162068424979 23.833723183975962 0 0 0 0 -25.593913653494383 35.097289978895787 0 35.097289978895787 -21.850367231429118 0 0 0 0 -11.230924365756437 34.989067862257798 0 34.989067862257798 5.9419864490191685 0 0 0 0 -25.819774403586052 34.985951679667778 0 34.985951679667778 10.958913865015347 0 0 0 0 -15.317500071465474 44.347969747969728 0 44.347969747969728 -10.837866210604261 0 0 0 0 -26.881619529645832 61.16941926995969 0 61.16941926995969 14.700778720574817 0 0 0 0 -35.381437344713987 31.889838831350751 0 31.889838831350751 -12.419773227063587 0 0 0 0 -15.169997623454734 38.340610185240152 0 38.340610185240152 16.548275490834271 0 0 0 0 -40.119058972019047 21.976611419930123 0 21.976611419930123 14.59168473941827 0 0 0 0 -33.923005965769335 123.03340231815855 0 123.03340231815855 -105.721889252658 0 0 0 0 -51.051310481649125 105.24693844328067 0 105.24693844328067 -104.02148816622503 0 0 0 0 15.816372998713632 92.639710621973791 0 92.639710621973791 -106.22143646983841 0 0 0 0 -2.8265948581265548 63.276422349266795 0 63.276422349266795 -85.114772632616223 0 0 0 0 -10.830781312353793 125.16628629533807 0 125.16628629533807 -133.64294807885017 0 0 0 0 -19.36683344127232 131.57696797138851 0 131.57696797138851 -140.64919658724102 0 0 0 0 -22.715049276444915 122.04355146900343 0 122.04355146900343 -105.82247292170723 0 0 0 0 -123.63562402946263 129.57331173290004 0 129.57331173290004 -149.87164531279996 0 0 0 0 5.3872439878723526 88.377973588681925 0 88.377973588681925 -185.25590966187883 0 0 0 0 -75.352806992606929 102.62128908265004 0 102.62128908265004 -137.22781176224817 0 0 0 0 -42.197297505765164 127.69971736455045 0 127.69971736455045 -211.23656519614451 0 0 0 0 -30.565640995344438 57.038442048840807 0 57.038442048840807 -189.26890886765614 0 0 0 0 -44.020673066501331 100.29904082699068 0 100.29904082699068 -320.18739712261959 0 0 0 0 -20.681970772409841 -22.786789755024074 0 -22.786789755024074 -339.33689351093562 0 0 0 0 2.7448040826529905 60.101252031396143 0 60.101252031396143 -209.12691716078552 0 0 0 0 -10.159839171516069 -69.320078183187434 0 -69.320078183187434 -165.6041285330939 0 0 0 0 -6.3135402340667497 -42.279930618158687 0 -42.279930618158687 -69.283847337212137 0 0 0 0 24.204537104735209 14.777536086005057 0 14.777536086005057 -117.65034544232185 0 0 0 0 69.791338383402035 36.972654743054591 0 36.972654743054591 -117.73964674118906 0 0 0 0 57.873930843004928 68.304735688388064 0 68.304735688388064 -34.58607814424613 0 0 0 0 10.790677183525958 15.791184293140674 0 15.791184293140674 -24.204186819290534 0 0 0 0 60.884754869922745 30.526821055995242 0 30.526821055995242 -115.56612143729581 0 0 0 0 12.561293473172555 110.7270045264886 0 110.7270045264886 -122.75296456066781 0 0 0 0 66.636891346952325 82.37832280954899 0 82.37832280954899 -127.9780078719923 0 0 0 0 -23.715345052012708 89.185747638757675 0 89.185747638757675 -26.260329542863474 0 0 0 0 -19.131351675052429 63.432529385790986 0 63.432529385790986 -73.299133851334773 0 0 0 0 -0.20263986583533899 35.195833361407523 0 35.195833361407523 -79.259128626389767 0 0 0 0 54.509907200084854 31.836442999025167 0 31.836442999025167 -105.47060179675464 0 0 0 0 8.2402663109878631 64.169825629367324 0 64.169825629367324 -86.720891108903743 0 0 0 0 9.7729769386278349 -1.0625440731928393 0 -1.0625440731928393 -44.730827627907274 0 0 0 0 14.056331396641326 26.056676707179577 0 26.056676707179577 -72.781439185004274 0 0 0 0 -6.3060814165192687 17.523131296565026 0 17.523131296565026 -28.973899271840935 0 0 0 0 -37.822953968538101 28.012582351100512 0 28.012582351100512 -20.940333805614934 0 0 0 0 31.436417691875249 -45.806371015369223 0 -45.806371015369223 36.71169169049972 0 0 0 0 454.35575040580443 168.41273367038229 0 168.41273367038229 -494.01947327592643 0 0 0 0 -18.110244978848641 102.43745499850229 0 102.43745499850229 -77.566209925735166 0 0 0 0 -31.153085975820431 36.177614474219808 0 36.177614474219808 -12.330324164682679 0 0 0 0 8.8433997319225455 73.394113909987936 0 73.394113909987936 -111.69655167655583 0 0 0 0 -42.95236618358831 84.366412919857794 0 84.366412919857794 -86.814078663235705 0 0 0 0 -10.585622467355279 55.88060153339211 0 55.88060153339211 -94.318576134894101 0 0 0 0 -5.1197316551988479 72.833212802823255 0 72.833212802823255 -105.47901719450601 0 0 0 0 3.493704729132026 37.719736393957078 0 37.719736393957078 -90.62225481864445 0 0 0 0 50.537316284913686 50.409648910892429 0 50.409648910892429 -109.9192796832067 0 0 0 0 50.57964875298785 51.904801162283547 0 51.904801162283547 -101.59351256666559 0 0 0 0 -34.094560744131741 61.629346133742729 0 61.629346133742729 -98.69472738285549 0 0 0 0 15.516753698451794 82.234800221041951 0 82.234800221041951 -94.778561683458975 0 0 0 0 20.59120152331684 14.40486255101192 0 14.40486255101192 -26.82740813722009 0 0 0 0 27.558296551840613 76.908810993394582 0 76.908810993394582 -93.719943078389406 0 0 0 0 27.222551580496656 80.321406738257792 0 80.321406738257792 -63.646069143163913 0 0 0 0 47.344167403076426 68.43751809992682 0 68.43751809992682 -63.900541979481204 0 0 0 0 32.510713060481066 96.033731397430529 0 96.033731397430529 -25.071945615927689 0 0 0 0 -7.1939372183041996 41.010102297204867 0 41.010102297204867 -14.700545421244897 0 0 0 0 -6.8115821673923138 41.357029298750938 0 41.357029298750938 -19.22546878875157 0 0 0 0 -26.183860112415303 54.531215294974629 0 54.531215294974629 -26.272702359893302 0 0 0 0 -16.071506934698817 34.236649025508292 0 34.236649025508292 -8.1139652226869785 0 0 0 0 -26.202323284451268 57.850436862561764 0 57.850436862561764 -52.140570625229884 0 0 0 0 -43.592635755853735 39.569287690655983 0 39.569287690655983 -68.244593215844361 0 0 0 0 -13.248398838375579 64.764822415170784 0 64.764822415170784 -99.91348362039389 0 0 0 0 -11.378126571682515 74.594178970837675 0 74.594178970837675 -62.546302529248351 0 0 0 0 44.702059728238964 54.734807929238741 0 54.734807929238741 -50.927647439712018 0 0 0 0 -28.451045918311138 0.051849886433046777 0 0.051849886433046777 -19.705455573253857 0 0 0 0 -26.184902325716394 52.914290227439778 0 52.914290227439778 -45.378525387270201 0 0 0 0 36.201359838429198 119.09788249094709 0 119.09788249094709 51.107596451479367 0 0 0 0 -3.1812695384796825 52.117847244819131 0 52.117847244819131 58.174359934986569 0 0 0 0 38.447521513990068 44.541030356587726 0 44.541030356587726 -50.401458675449248 0 0 0 0 -29.626431219465793 23.670457893949891 0 23.670457893949891 -14.659742018013134 0 0 0 0 56.745146617351566 69.986929390938712 0 69.986929390938712 29.450198620135779 0 0 0 0 -43.734572941386432 -72.371643123944523 0 -72.371643123944523 14.781888805110611 0 0 0 0 -40.382327041908866 13.004515573222307 0 13.004515573222307 -16.169428581082684 0 0 0 0 12.025550712492986 -10.411035650853592 0 -10.411035650853592 -26.929763278822065 0 0 0 0 -65.875829725806398 39.851998207459474 0 39.851998207459474 -7.4274500009632902 0 0 0 0 -56.778609306657017 0.010912494704825804 0 0.010912494704825804 -19.892703307891679 0 0 0 0 -258.77891398845895 88.048773923366753 0 88.048773923366753 -19.654060224755085 0 0 0 0 -5.5080549507154384 15.289196372237534 0 15.289196372237534 -16.101721023548066 0 0 0 0 1.2107088969642064 35.436818095171475 0 35.436818095171475 -32.421808771359792 0 0 0 0 -32.335593149116903 58.501502203231212 0 58.501502203231212 -37.147281134098193 0 0 0 0 -38.510144727399165 26.279536276673753 0 26.279536276673753 -8.628274730683188 0 0 0 0 -7.8767804199787861 41.400119633762642 0 41.400119633762642 -8.5124639776695403 0 0 0 0 28.581098007489345 80.050291598126933 0 80.050291598126933 92.239873861214164 0 0 0 0 80.412978834465321 64.315584465584834 0 64.315584465584834 5.6152086472939118 0 0 0 0 71.351974272893131 120.28863070034276 0 120.28863070034276 89.806127727903231 0 0 0 0 9.4207619977332797 9.6535026171331992 0 9.6535026171331992 -13.524105519980367 0 0 0 0 5.0744529056377132 7.0999659902640815 0 7.0999659902640815 -13.566596703632968 0 0 0 0 -4.2331833367647889 9.8384015104657436 0 9.8384015104657436 -12.746649294532901 0 0 0 0 9.7968031954806065 40.848786476970417 0 40.848786476970417 115.19396383443382 0 0 0 0 125.92436550755338 67.414575635400979 0 67.414575635400979 40.996832492972317 0 0 0 0 55.904651398162969 59.087019080932805 0 59.087019080932805 43.504724301390524 0 0 0 0 104.83030581976573 110.43806285989194 0 110.43806285989194 -0.90449847287527518 0 0 0 0 26.439315250121581 19.898783970580553 0 19.898783970580553 -12.110891675620223 0 0 0 0 21.155954323552578 94.211490764369955 0 94.211490764369955 13.655218426007195 0 0 0 0 58.527757199681218 -40.127633061059896 0 -40.127633061059896 -238.56425377045161 0 0 0 0 96.625119840657135 80.51529651652163 0 80.51529651652163 -102.59556464560592 0 0 0 0 55.089573585001745 118.56326527182318 0 118.56326527182318 30.9513940874931 0 0 0 0 27.868217205317706 53.746455686374247 0 53.746455686374247 -22.743752787623635 0 0 0 0 136.3788315220927 99.228726226663639 0 99.228726226663639 -7.6248324220323411 0 0 0 0 50.620700380186463 84.590517394717608 0 84.590517394717608 -11.190881820748473 0 0 0 0 -33.678858811785176 95.415828351498931 0 95.415828351498931 127.53024461179302 0 0 0 0 -0.31290086681633511 103.47491774374521 0 103.47491774374521 57.666264838495408 0 0 0 0 -98.857193235886371 176.15563805308557 0 176.15563805308557 57.710322144426755 0 0 0 0 10.633242435049397 159.75468958236161 0 159.75468958236161 4.7482193120522425 0 0 0 0 -25.142030245213391 149.51865522751541 0 149.51865522751541 1.8196291587955784 0 0 0 0 -35.795322572235818 127.279419976594 0 127.279419976594 45.828878847256419 0 0 0 0 66.321313401666885 114.46788791802919 0 114.46788791802919 34.279084285808494 0 0 0 0 -118.36533508645516 111.82180621698717 0 111.82180621698717 -13.816281533529036 0 0 0 0 24.375637175611473 134.51819335586833 0 134.51819335586833 -27.699219830748916 0 0 0 0 113.37148711074678 153.58233517008375 0 153.58233517008375 -29.001028971775668 0 0 0 0 -16.081982919262146 192.48355944434843 0 192.48355944434843 -16.631626410264289 0 0 0 0 -131.17060087220671 193.05716540440699 0 193.05716540440699 -35.956003131206671 0 0 0 0 -0.69066009208918899 -0.048576990966957112 0 -0.048576990966957112 1.0437606317660197 0 0 0 0 -0.40619433112271608 0.34732277878837436 0 0.34732277878837436 1.3810702424346175 0 0 0 0 -93.256533868519909 86.204097881121015 0 86.204097881121015 -33.915857223779312 0 0 0 0 -67.734498029238239 69.607407429712111 0 69.607407429712111 -40.428434773020854 0 0 0 0 -0.41180362779385682 -0.33999742757094253 0 -0.33999742757094253 0.64408079759817838 0 0 0 0 -101.37152194570444 61.922141501327133 0 61.922141501327133 -39.881738640084222 0 0 0 0 -206.78642220652728 91.949903242115397 0 91.949903242115397 -5.819446634803171 0 0 0 0 -120.38182044267342 65.237792916872422 0 65.237792916872422 -35.832800717449572 0 0 0 0 -47.78402709039392 85.347656938831278 0 85.347656938831278 3.0146923673673882 0 0 0 0 -0.31666507641038244 -0.0052840096657007507 0 -0.0052840096657007507 0.66835661057501738 0 0 0 0 -115.59912352261563 31.538937350320339 0 31.538937350320339 58.831976675668557 0 0 0 0 -1.599742881604346 0.49211479951148362 0 0.49211479951148362 1.5172411542504278 0 0 0 0 -127.47405354565035 166.81179476383477 0 166.81179476383477 -124.82597602120222 0 0 0 0 -175.34462038955826 124.02757037870651 0 124.02757037870651 -30.962593217853282 0 0 0 0 -112.34964471033163 32.28568958690812 0 32.28568958690812 -19.182549571164145 0 0 0 0 -71.053588191611198 23.871715951443548 0 23.871715951443548 -9.4430803964387451 0 0 0 0 -145.77786517879758 71.820998284980305 0 71.820998284980305 9.9407744734926382 0 0 0 0 -0.46104326348537761 -0.28410779622542748 0 -0.28410779622542748 0.57124901255795635 0 0 0 0 -24.641436416749002 42.662213448549664 0 42.662213448549664 -43.957555966400832 0 0 0 0 -73.919864015770145 15.456252006893919 0 15.456252006893919 11.619685858884623 0 0 0 0 -31.296924037120334 -5.6593369106849423 0 -5.6593369106849423 3.1648174223028036 0 0 0 0 -182.42071289513569 68.975542094996854 0 68.975542094996854 4.5080929304604069 0 0 0 0 -0.63792652228427471 -0.73558433612965501 0 -0.73558433612965501 0.62394691688820103 0 0 0 0 58.132245656072882 16.531343299970104 0 16.531343299970104 -27.841461266667466 0 0 0 0 -76.863807480024434 43.331533817569834 0 43.331533817569834 -0.00364472578803543 0 0 0 0 -73.570411727916053 51.309411132169771 0 51.309411132169771 4.1221588736516424 0 0 0 0 -97.256856497244371 67.545632073601155 0 67.545632073601155 -15.446280893374933 0 0 0 0 -87.660548064102841 25.868729611880553 0 25.868729611880553 -37.739380907238228 0 0 0 0 -64.956889207599943 68.899035012021159 0 68.899035012021159 -14.663697716547176 0 0 0 0 -3.7474149221561674 16.513915397285018 0 16.513915397285018 -4.5114643446941045 0 0 0 0 -65.859177029925377 25.726259197423133 0 25.726259197423133 -5.9996262918721186 0 0 0 0 -3.9586676746894227 64.328373198481131 0 64.328373198481131 0.0076486365360324271 0 0 0 0 47.142023830147082 43.602673973344281 0 43.602673973344281 -21.751393876929797 0 0 0 0 24.124105129987583 68.157351593207295 0 68.157351593207295 -1.5636410318220442 0 0 0 0 15.910175546748178 61.134118820359618 0 61.134118820359618 34.841611076582922 0 0 0 0 14.152481168022859 72.795896657000412 0 72.795896657000412 -26.210698384825264 0 0 0 0 118.2901233300563 82.055059221445845 0 82.055059221445845 -5.7421488054096699 0 0 0 0 75.125369320393474 91.677122779537967 0 91.677122779537967 103.48831659249481 0 0 0 0 78.154369447389399 70.074998749854785 0 70.074998749854785 22.334545726825127 0 0 0 0 130.96903253517178 213.41625436237223 0 213.41625436237223 199.01340661723953 0 0 0 0 1.651286021905058 1.7417847002355415 0 1.7417847002355415 -0.78817099147629222 0 0 0 0 123.60410852284986 67.410890997221941 0 67.410890997221941 -12.698867161016096 0 0 0 0 86.310315561730022 80.69778921591751 0 80.69778921591751 -0.046935323771322146 0 0 0 0 84.402788096329459 79.74861269583198 0 79.74861269583198 19.908842984186776 0 0 0 0 80.625469226573841 69.853677740302373 0 69.853677740302373 0.024134737795975525 0 0 0 0 79.732325701919763 68.778745107163559 0 68.778745107163559 10.373401180890141 0 0 0 0 60.424405462144932 59.532633187151077 0 59.532633187151077 16.033449082297011 0 0 0 0 75.206338151128875 76.274814833557684 0 76.274814833557684 34.418141463749635 0 0 0 0 11.133090523508145 19.617987616718892 0 19.617987616718892 16.936375446819511 0 0 0 0 3.0412380067817253 2.5039767675217348 0 2.5039767675217348 -1.2171005954885814 0 0 0 0 44.555722157234413 16.353311089449562 0 16.353311089449562 -150.50456098622817 0 0 0 0 33.788878842315171 65.445816220297274 0 65.445816220297274 91.826595949896728 0 0 0 0 -41.437277486393214 117.1526795081154 0 117.1526795081154 -82.554262489320536 0 0 0 0 -79.988086185577231 74.400297514457634 0 74.400297514457634 -49.035643130562676 0 0 0 0 -90.942081258865983 109.92387003581098 0 109.92387003581098 -74.723823068386992 0 0 0 0 -119.60535799099489 116.17665512645181 0 116.17665512645181 -55.312642924203828 0 0 0 0 -94.109286100006329 100.8165119035757 0 100.8165119035757 -51.508403241663473 0 0 0 0 -85.514038944298591 87.775908589275787 0 87.775908589275787 -57.231321384175317 0 0 0 0 -99.900787128108277 78.833928411830129 0 78.833928411830129 -41.310171589357196 0 0 0 0 -87.476611300417972 91.860203192556583 0 91.860203192556583 -64.582839117065305 0 0 0 0 -79.576355629075806 96.21722054505517 0 96.21722054505517 -67.535648824901727 0 0 0 0 -87.669812497602834 109.06827907235129 0 109.06827907235129 -84.81040034792386 0 0 0 0 -66.360102256880054 82.498538290165015 0 82.498538290165015 -77.046879453015208 0 0 0 0 -185.88809752978023 98.297203032183461 0 98.297203032183461 -52.934161061479244 0 0 0 0 -131.38628105680982 130.30749651147926 0 130.30749651147926 -86.042635250996682 0 0 0 0 -98.621308789471641 97.906309302128648 0 97.906309302128648 -75.706918148542172 0 0 0 0 3.0127661120078959 5.0911154538064949 0 5.0911154538064949 6.8914148685579448 0 0 0 0 -218.28357588162805 162.17116899951998 0 162.17116899951998 -81.549500582761539 0 0 0 0 161.21057144878228 35.856153829554387 0 35.856153829554387 223.05723984161159 0 0 0 0 242.29770837574119 -123.46964716577349 0 -123.46964716577349 -5.8241092629832565 0 0 0 0 138.54434243053845 -55.954366856476554 0 -55.954366856476554 -44.233064030915557 0 0 0 0 -126.71656446891484 87.006705161238642 0 87.006705161238642 -53.597170531062147 0 0 0 0 -134.13179140483271 98.463247545387276 0 98.463247545387276 -39.060215378147404 0 0 0 0 4.6484954425367171 7.3614541863287997 0 7.3614541863287997 9.6322314325704212 0 0 0 0 159.10095359811464 -92.936298940084271 0 -92.936298940084271 -31.990925283527758 0 0 0 0 -113.40205366656573 107.93294695850636 0 107.93294695850636 -69.207777557076042 0 0 0 0 3.5536038488180566 -3.3318077823787462 0 -3.3318077823787462 28.599397180290907 0 0 0 0 123.43662322154523 -87.143756641722575 0 -87.143756641722575 -1.6249922766000964 0 0 0 0 70.85199465463279 -50.162847927902476 0 -50.162847927902476 -17.078329202347959 0 0 0 0 134.518393292003 -29.101535008143401 0 -29.101535008143401 0.11489527525554877 0 0 0 0 5.8343600773473456 9.2840094325507962 0 9.2840094325507962 12.241788639683591 0 0 0 0 219.50501225032895 -83.497099161431834 0 -83.497099161431834 -30.674015482582035 0 0 0 0 1.0738318040984449 1.2966280300490212 0 1.2966280300490212 1.5239098526563453 0 0 0 0 119.47799967271317 42.941769624630979 0 42.941769624630979 -42.217359047601349 0 0 0 0 -2.557953712127528 -24.806156909122365 0 -24.806156909122365 0.25147300464959699 0 0 0 0 163.46637058967508 -26.447685345365244 0 -26.447685345365244 -45.066033633178449 0 0 0 0 -80.2520830112353 104.4851915746076 0 104.4851915746076 13.074497851863271 0 0 0 0 -0.50548211181603619 -13.996715684254013 0 -13.996715684254013 44.281943797410349 0 0 0 0 80.006304565896244 94.745884924977872 0 94.745884924977872 -51.684163814912608 0 0 0 0 -122.43597122668143 80.744371154754845 0 80.744371154754845 -25.609567862513359 0 0 0 0 -251.85601792213492 191.85370972933015 0 191.85370972933015 -59.949507152618025 0 0 0 0 -146.66180495756998 106.55235491713211 0 106.55235491713211 -55.277760273471358 0 0 0 0 -117.47535151022021 172.30656913666098 0 172.30656913666098 -97.950720728156739 0 0 0 0 -171.43066471772636 132.70650677453523 0 132.70650677453523 -77.9029107923634 0 0 0 0 -206.47923286907462 111.67529622701841 0 111.67529622701841 -25.69429019348172 0 0 0 0 -228.47066077482577 129.48662035060988 0 129.48662035060988 -39.704918693736545 0 0 0 0 -0.32867681995058895 -0.25729200242002292 0 -0.25729200242002292 0.72620614860397836 0 0 0 0 44.942855334100386 42.435413739127398 0 42.435413739127398 4.198309240382514 0 0 0 0 -194.3960948772019 80.721603811492969 0 80.721603811492969 -21.795064704667311 0 0 0 0 -264.80450817457677 114.08967542108439 0 114.08967542108439 -33.661104542763496 0 0 0 0 -206.53499107461403 112.756158255429 0 112.756158255429 -43.200620644900482 0 0 0 0 -199.35026784196089 105.62700153646438 0 105.62700153646438 -56.629984686449461 0 0 0 0 -201.76692146177447 54.482707614486571 0 54.482707614486571 -54.17986124077288 0 0 0 0 -176.41182072830816 51.391800216049887 0 51.391800216049887 -54.395935553828167 0 0 0 0 -261.73262941374071 30.213337131827984 0 30.213337131827984 -55.249415141253849 0 0 0 0 -152.48678351950912 -0.6036226427386282 0 -0.6036226427386282 -81.539117109630752 0 0 0 0 -118.09128910781692 32.477880831831499 0 32.477880831831499 -79.81532811037323 0 0 0 0 -80.644025783672987 50.907579440687186 0 50.907579440687186 -69.114298759603116 0 0 0 0 -137.20198410267813 66.104884771746583 0 66.104884771746583 -60.762996024044696 0 0 0 0 -118.57686324070255 25.226379067679773 0 25.226379067679773 -76.850118145608576 0 0 0 0 -138.83456382780696 93.787441631146066 0 93.787441631146066 -57.819247694744263 0 0 0 0 -131.0993828313085 55.683050237574207 0 55.683050237574207 -51.341996515366191 0 0 0 0 -161.88486295990447 89.733970185297949 0 89.733970185297949 -49.959561603114707 0 0 0 0 3.4625802211794507 116.56961599983697 0 116.56961599983697 -57.575777549041959 0 0 0 0 -76.653095661054294 71.354006855137413 0 71.354006855137413 -82.671250785831944 0 0 0 0 -17.476271921361331 48.070569507839537 0 48.070569507839537 -112.20795681202435 0 0 0 0 -37.387490008381974 50.967217418969085 0 50.967217418969085 -96.816297033285082 0 0 0 0 -69.516525657809325 -0.0062013229289732408 0 -0.0062013229289732408 -122.48435631553275 0 0 0 0 -76.266451219925329 40.322687679421506 0 40.322687679421506 -78.299878900161275 0 0 0 0 -45.155373229215911 46.129006911036413 0 46.129006911036413 -99.485104548934032 0 0 0 0 -79.257920659569209 76.241694497057324 0 76.241694497057324 -80.547893525472318 0 0 0 0 -50.583917658315841 67.823371047928958 0 67.823371047928958 -86.966358679586847 0 0 0 0 -72.475556472760218 60.096776821214007 0 60.096776821214007 -43.434858719527256 0 0 0 0 -73.403403854039425 35.993728704819659 0 35.993728704819659 -35.545305834664759 0 0 0 0 -66.59293725849966 54.286050051057828 0 54.286050051057828 -50.660583530974691 0 0 0 0 -52.271197774116445 41.319095548358746 0 41.319095548358746 -35.169184391401359 0 0 0 0 -57.707060635508242 27.738369007372967 0 27.738369007372967 -7.3134579939141986 0 0 0 0 -57.25600069498978 -40.218589954791241 0 -40.218589954791241 31.418510522657016 0 0 0 0 -120.87708868044501 82.43001374776577 0 82.43001374776577 -6.5270513178547844 0 0 0 0 -0.5191885356614776 0.24549727740411953 0 0.24549727740411953 1.5094040558394113 0 0 0 0 -5.817498568289011 3.210765184408956 0 3.210765184408956 -83.831069797084638 0 0 0 0 -130.6062515554836 79.277921394777877 0 79.277921394777877 -38.448661671427544 0 0 0 0 -109.31406961316679 69.60568460342256 0 69.60568460342256 -47.332955374862649 0 0 0 0 -101.51476367286341 46.969984837160155 0 46.969984837160155 -52.005987650925817 0 0 0 0 -93.576730548193154 60.827333719087619 0 60.827333719087619 -28.035590986604802 0 0 0 0 -91.652677771153321 62.526923657460429 0 62.526923657460429 -46.369705927541872 0 0 0 0 -51.235352105873972 69.448277670056996 0 69.448277670056996 -23.105192978699051 0 0 0 0 -78.777643770394207 53.083701568233664 0 53.083701568233664 -27.794870543481466 0 0 0 0 -85.070828508649129 75.153025680112478 0 75.153025680112478 -24.425032936647767 0 0 0 0 -101.53947878035797 64.001407980154909 0 64.001407980154909 -10.676983509212732 0 0 0 0 -110.15510179439934 67.307287118117529 0 67.307287118117529 -26.242415351858654 0 0 0 0 -105.67830239185969 84.586725893699622 0 84.586725893699622 -41.781991884556192 0 0 0 0 -97.822124590851672 70.468554436738486 0 70.468554436738486 -25.005440727516543 0 0 0 0 -101.92365962786789 63.95280469442514 0 63.95280469442514 -30.890282799831766 0 0 0 0 -92.233565021459071 51.278476612329541 0 51.278476612329541 -14.756874262209749 0 0 0 0 -110.20246138632592 45.96889953252321 0 45.96889953252321 -16.200730218712124 0 0 0 0 -108.9027094342182 51.66078371234471 0 51.66078371234471 -4.7457016349071637 0 0 0 0 -109.97827070656786 56.90165747350693 0 56.90165747350693 -13.609494249001727 0 0 0 0 -103.39707756952066 65.374437275047967 0 65.374437275047967 -7.2131637237616815 0 0 0 0 -90.984193478736415 65.716079687845195 0 65.716079687845195 -11.076288330550597 0 0 0 0 -57.59487741981593 57.512254292229045 0 57.512254292229045 -11.224734947885736 0 0 0 0 -80.630915754363741 84.695708339946577 0 84.695708339946577 2.140568352813716 0 0 0 0 -106.41992599265905 63.486633312662889 0 63.486633312662889 7.5657770773705124 0 0 0 0 -102.11156257280527 57.267712287364702 0 57.267712287364702 -13.151960573472024 0 0 0 0 -107.1300442676561 67.789336662415735 0 67.789336662415735 1.4286592475546058 0 0 0 0 -117.67803991487563 75.63979402253608 0 75.63979402253608 -27.270007065679238 0 0 0 0 -58.923199284899056 106.28163201388452 0 106.28163201388452 12.222967196677928 0 0 0 0 -116.06741225333099 34.838517811294878 0 34.838517811294878 -0.0139308198922663 0 0 0 0 -79.255358499525755 71.725066174156382 0 71.725066174156382 -126.13278007986082 0 0 0 0 -87.970902476430183 65.248822506593569 0 65.248822506593569 -41.955263071475201 0 0 0 0 -112.28683033545531 105.22964681413578 0 105.22964681413578 -88.461036841981695 0 0 0 0 -125.32598433397652 90.737341391730297 0 90.737341391730297 -13.713924607058289 0 0 0 0 -166.47931018095767 103.06676193050771 0 103.06676193050771 14.275439590375754 0 0 0 0 -136.68159232626394 80.533577868632506 0 80.533577868632506 -20.711922159258393 0 0 0 0 -135.44583986419701 39.234180596825865 0 39.234180596825865 43.048753074021079 0 0 0 0 -120.04331768239172 58.864463019679533 0 58.864463019679533 2.6590773921125219 0 0 0 0 -59.827154366375908 74.143179457456426 0 74.143179457456426 -140.34528827334998 0 0 0 0 -130.90783034450942 91.662402529662359 0 91.662402529662359 -10.018903725147538 0 0 0 0 19.17830329786193 27.00760901119429 0 27.00760901119429 -28.119900928821153 0 0 0 0 -0.84356271029035668 -0.22119794650560465 0 -0.22119794650560465 1.2636322635738395 0 0 0 0 9.5618830428411457 87.038683312137437 0 87.038683312137437 -25.241764320016955 0 0 0 0 -37.203844649455277 96.150630510179326 0 96.150630510179326 -32.868438656762009 0 0 0 0 -62.540923356300482 70.791111652360996 0 70.791111652360996 -88.1781055852598 0 0 0 0 -2.2384016313071839 0.90647808777423222 0 0.90647808777423222 2.4501080196907594 0 0 0 0 -88.39029374049278 109.88994192442988 0 109.88994192442988 -82.492083329168963 0 0 0 0 -111.88439715688583 75.20617469725039 0 75.20617469725039 -45.226777504649363 0 0 0 0 -65.033821383860413 64.210947971710993 0 64.210947971710993 -53.262838087806813 0 0 0 0 -82.790769306230914 65.809785844470298 0 65.809785844470298 -10.357234636147041 0 0 0 0 -61.375033027110476 41.705166415922577 0 41.705166415922577 6.970181186850823 0 0 0 0 -18.741114238739556 47.617674142939904 0 47.617674142939904 -26.152198556694202 0 0 0 0 -66.211081529179864 56.066680607487797 0 56.066680607487797 -10.133381757026655 0 0 0 0 -84.935884989785336 79.88289259211524 0 79.88289259211524 -29.433417484571692 0 0 0 0 -75.64504211615349 46.458889932189777 0 46.458889932189777 -19.859044790675398 0 0 0 0 -68.669931866597835 46.017497940483736 0 46.017497940483736 -47.202038282848662 0 0 0 0 -77.589041690749923 62.252748820347279 0 62.252748820347279 -32.937886070154491 0 0 0 0 -72.786054716918443 47.37006797248614 0 47.37006797248614 -13.369785255912575 0 0 0 0 -73.913337379595987 47.137762958204803 0 47.137762958204803 -13.386216265142139 0 0 0 0 -74.9595084058476 39.824677137818298 0 39.824677137818298 0.69689194099191809 0 0 0 0 -58.473263127159953 45.830171870878985 0 45.830171870878985 -0.0039366632054467741 0 0 0 0 -20.739072304611909 61.800454428062949 0 61.800454428062949 -1.0343627590627875 0 0 0 0 -218.49400015219999 202.08187248746617 0 202.08187248746617 -163.14966266419651 0 0 0 0 -69.419927019747774 88.620863492429635 0 88.620863492429635 -213.32311652506178 0 0 0 0 -158.92838893145745 151.96681713665021 0 151.96681713665021 -87.668150537843758 0 0 0 0 -101.81873226755124 119.60812171464204 0 119.60812171464204 -83.223875514042447 0 0 0 0 -78.477480665802432 86.481356890697498 0 86.481356890697498 -137.83017175775603 0 0 0 0 -103.51683082044838 138.38996950825094 0 138.38996950825094 -176.7835778024164 0 0 0 0 -2.2922045814067715 0.74803015865063571 0 0.74803015865063571 2.2478607905241859 0 0 0 0 -68.488148993912546 55.1318710653577 0 55.1318710653577 -36.253144923728541 0 0 0 0 -80.020352415693196 96.25896662397281 0 96.25896662397281 -111.65111790565788 0 0 0 0 -66.474977431676962 57.643301901138329 0 57.643301901138329 -34.96964336631936 0 0 0 0 -41.050140081348218 38.553981058652425 0 38.553981058652425 -30.710663349542301 0 0 0 0 -78.390207448486763 49.800950026517967 0 49.800950026517967 -12.764197482916643 0 0 0 0 -60.994035887833888 32.430567148177943 0 32.430567148177943 0.001552725621877471 0 0 0 0 -39.884563563142933 21.861245592941032 0 21.861245592941032 -0.057242287759436294 0 0 0 0 -48.271414920599454 41.500459072471131 0 41.500459072471131 -31.019876258971635 0 0 0 0 -2.1499600482003682 0.5013204597109393 0 0.5013204597109393 1.6469298416682534 0 0 0 0 -154.90633349301424 175.07349283718577 0 175.07349283718577 -169.37711132106779 0 0 0 0 -35.883649235468738 28.837357531183443 0 28.837357531183443 -0.4941536490987346 0 0 0 0 -143.58013884280626 189.42877018775471 0 189.42877018775471 -191.58067575943278 0 0 0 0 -1.6284225905162906 1.8840481639655451 0 1.8840481639655451 0.11545433348630496 0 0 0 0 -121.69461856497946 7.9405330530826177 0 7.9405330530826177 173.14337321734797 0 0 0 0 -148.59591289823584 197.28209871709987 0 197.28209871709987 -197.68263848349306 0 0 0 0 -74.862715259641845 17.069824546211748 0 17.069824546211748 6.7620317702676402 0 0 0 0 42.400402447889974 -16.124259171781887 0 -16.124259171781887 -4.1469730853823421 0 0 0 0 -63.954366939518877 54.102815469144844 0 54.102815469144844 -26.708625326307811 0 0 0 0 -46.92575220017261 46.107468161306315 0 46.107468161306315 -45.800579973350978 0 0 0 0 -28.106848247162816 84.307797872002993 0 84.307797872002993 -90.379241123941028 0 0 0 0 -72.260250084050767 79.903509329018561 0 79.903509329018561 -67.94286327942973 0 0 0 0 -65.843559224143064 69.051572615047917 0 69.051572615047917 -58.231240618459196 0 0 0 0 -80.844885560260082 60.756922619157194 0 60.756922619157194 -34.333999619855604 0 0 0 0 -80.368449424067876 61.586801482095325 0 61.586801482095325 -39.514129358739865 0 0 0 0 -51.425745449275382 45.757877891388489 0 45.757877891388489 -37.781835396468523 0 0 0 0 -256.8025718213546 95.665000702760153 0 95.665000702760153 -76.305888013128424 0 0 0 0 -159.49402842639995 119.09458120709132 0 119.09458120709132 -128.35805563604663 0 0 0 0 -151.74925938040474 138.72847815070236 0 138.72847815070236 -86.908097387800808 0 0 0 0 -101.47546991494528 100.9896614196623 0 100.9896614196623 -97.460352799398606 0 0 0 0 -94.471455182082536 112.33669955172627 0 112.33669955172627 -81.83214151217544 0 0 0 0 -91.643491755476134 114.20635717643745 0 114.20635717643745 -55.509165919713269 0 0 0 0 -104.63843234281194 90.491931825352367 0 90.491931825352367 -98.713300243383856 0 0 0 0 -7.0389411689295684 107.10976548605231 0 107.10976548605231 -23.00106576843973 0 0 0 0 -84.85796572775871 65.521722142169892 0 65.521722142169892 -45.190631026634946 0 0 0 0 -356.20030748802486 261.23220031930305 0 261.23220031930305 -32.247085181406874 0 0 0 0 -195.3012168383143 173.86265190691847 0 173.86265190691847 -75.290637466256157 0 0 0 0 -174.58097314982251 159.02064980064461 0 159.02064980064461 -78.682549646648113 0 0 0 0 -74.209002693037178 131.88940975596597 0 131.88940975596597 -86.100352628258406 0 0 0 0 -88.962070801364575 289.13411809480567 0 289.13411809480567 -57.945685693615815 0 0 0 0 54.606584098420569 159.41832445038381 0 159.41832445038381 -443.46025532654312 0 0 0 0 50.865060527352853 79.932321537446114 0 79.932321537446114 -104.95327917627037 0 0 0 0 -93.588900103427022 60.19371790689911 0 60.19371790689911 61.261132333773276 0 0 0 0 -2.8292203888236962 2.7209769574870961 0 2.7209769574870961 0.19864551185311186 0 0 0 0 -10.134083513074302 45.410050239035627 0 45.410050239035627 -0.77318235212874242 0 0 0 0 6.2343833412345759 28.238719070663137 0 28.238719070663137 0.14432040630708798 0 0 0 0 -36.164071333799484 37.245106356189353 0 37.245106356189353 87.617000077625562 0 0 0 0 -68.88162315460545 100.56381070927637 0 100.56381070927637 -34.857673177801189 0 0 0 0 -49.386681983313338 66.539476965059293 0 66.539476965059293 -0.009628666488424642 0 0 0 0 -12.591726976263999 56.135716237338784 0 56.135716237338784 -100.3280253011435 0 0 0 0 -102.47224302762424 74.874344423417824 0 74.874344423417824 -89.007702029921347 0 0 0 0 -124.00561547719263 171.53988896490409 0 171.53988896490409 -162.42047941174678 0 0 0 0 -1.2908623722431725 2.1403612638351461 0 2.1403612638351461 -0.041383768489271944 0 0 0 0 -26.87414795160123 77.111212775293097 0 77.111212775293097 -354.50907367610944 0 0 0 0 -18.489245212324022 46.970094398238871 0 46.970094398238871 -14.911058509565919 0 0 0 0 -22.298826633254976 35.112276220192143 0 35.112276220192143 -0.026471310331544373 0 0 0 0 -34.492031028418751 75.437892554054997 0 75.437892554054997 -55.551889140057028 0 0 0 0 15.999964022709264 41.166717138246895 0 41.166717138246895 -65.14198717893305 0 0 0 0 -12.89522247164011 50.63135108071549 0 50.63135108071549 -39.305054506970919 0 0 0 0 -9.4468723402815158 27.059316739814676 0 27.059316739814676 -43.490323757192527 0 0 0 0 13.148337590546419 16.304756387020234 0 16.304756387020234 -39.950403647584608 0 0 0 0 -19.201034590541894 1.0800149854294432 0 1.0800149854294432 -13.327019627931804 0 0 0 0 1.3914529672725031 1.9908327379164277 0 1.9908327379164277 2.3971943200278361 0 0 0 0 -9.5796280258637125 11.060744502410671 0 11.060744502410671 -7.7620578237983864 0 0 0 0 -8.1968310220145213 35.32752087764311 0 35.32752087764311 -5.0646421138253572 0 0 0 0 -2.2467218212609623 -47.745508068233903 0 -47.745508068233903 0.89564120293198357 0 0 0 0 -10.023054653409872 9.828504989080102 0 9.828504989080102 7.8904373637924436 0 0 0 0 2.6736351078995728 4.3204958470901147 0 4.3204958470901147 2.4115489197534856 0 0 0 0 -0.77708745357631415 10.470243188592576 0 10.470243188592576 -3.3109995742415776 0 0 0 0 -7.0054670988674843 9.553229031029332 0 9.553229031029332 -0.99979194211437061 0 0 0 0 -5.6164424711218999 5.5317303269875993 0 5.5317303269875993 -0.89526806226785993 0 0 0 0 -25.782529599578083 3.3502140231394151 0 3.3502140231394151 -1.479954340698896 0 0 0 0 -5.5967195483553951 8.4913662806502543 0 8.4913662806502543 -8.9593455103313318 0 0 0 0 -17.829347426244567 10.934289372962667 0 10.934289372962667 -2.301986261663842 0 0 0 0 0.15684251511533631 1.1224255605582698 0 1.1224255605582698 1.9609876906023231 0 0 0 0 33.293169809976462 -20.814971906405844 0 -20.814971906405844 -0.077999634020670783 0 0 0 0 -26.170291307707885 20.641192578656046 0 20.641192578656046 3.9182409330969676 0 0 0 0 5.9798150753849768 -0.48434153190646612 0 -0.48434153190646612 -8.427543033452821 0 0 0 0 -0.19710135866896028 -0.60257015153166371 0 -0.60257015153166371 0.14055452069092667 0 0 0 0 -138.30262670663703 60.705816197048989 0 60.705816197048989 314.84719660396149 0 0 0 0 304.46513912215846 540.9811138164514 0 540.9811138164514 -300.32413322557113 0 0 0 0 -59.694250982571702 109.58415480086842 0 109.58415480086842 -166.22615159468296 0 0 0 0 1.0167046832745683 1.9665705541300227 0 1.9665705541300227 -3.4565691715237961 0 0 0 0 12.741712626206208 -42.190792296823929 0 -42.190792296823929 -33.680567303168573 0 0 0 0 13.756875004922222 29.492556169607269 0 29.492556169607269 -100.94910088219331 0 0 0 0 -5.9939381119697828 22.898298750260437 0 22.898298750260437 -72.562546546017984 0 0 0 0 -9.0516547772240301 9.4395988968462916 0 9.4395988968462916 -97.343723793700519 0 0 0 0 253.61772253167771 -110.72919786060083 0 -110.72919786060083 -30.69257808695329 0 0 0 0 0.80266484298864194 1.6889109124692006 0 1.6889109124692006 2.9316621961557416 0 0 0 0 378.41808854916604 -91.250826767231047 0 -91.250826767231047 -44.744275629913318 0 0 0 0 369.23460390265109 -56.143280942902493 0 -56.143280942902493 -50.98009096088208 0 0 0 0 315.65631654677179 -42.689535478973994 0 -42.689535478973994 -54.248730329912178 0 0 0 0 2.3627263511950787 130.8078006828182 0 130.8078006828182 106.00562240766158 0 0 0 0 1.0600990462553455 63.587286545618554 0 63.587286545618554 81.456575216347119 0 0 0 0 1.1829652660683339 2.3012222889150991 0 2.3012222889150991 0.36316499267226732 0 0 0 0 -70.188424757930306 152.86634576169308 0 152.86634576169308 55.073085750501377 0 0 0 0 -63.845858430531507 8.4919786299906264 0 8.4919786299906264 -10.07784688335596 0 0 0 0 226.07554265608314 115.47452370519386 0 115.47452370519386 9.8968533497463795 0 0 0 0 1.8484147758695073 1.6247740402568667 0 1.6247740402568667 1.3438052362546955 0 0 0 0 -58.475829526303187 159.10677582129938 0 159.10677582129938 24.026482279123229 0 0 0 0 179.15965413616323 -95.310861303994898 0 -95.310861303994898 -15.805478086142102 0 0 0 0 -0.4342269135216501 4.5751139390598468 0 4.5751139390598468 -4.3733338781131863 0 0 0 0 -52.097755106468298 -58.291553398107681 0 -58.291553398107681 29.157194449828239 0 0 0 0 429.07699981857149 -120.99533692158002 0 -120.99533692158002 -74.21040522880503 0 0 0 0 -39.07277945425767 96.185313530993881 0 96.185313530993881 -1.9352341850171797 0 0 0 0 -45.451817553127512 86.656467401971895 0 86.656467401971895 68.910998442808705 0 0 0 0 3.0004270500394341 11.367992812432931 0 11.367992812432931 -7.0305326465604594 0 0 0 0 -14.511043500417145 -3.9114139887606143 0 -3.9114139887606143 -11.412476511424757 0 0 0 0 1.0023805153746252 2.8676657877695106 0 2.8676657877695106 -14.922052348469151 0 0 0 0 -2.7797287876474002 2.1474353175071883 0 2.1474353175071883 3.0146152346860617 0 0 0 0 -1.7645924194894178 1.5570942206904874 0 1.5570942206904874 0.31307909106544685 0 0 0 0 0.089257388384345937 0.48476953342510498 0 0.48476953342510498 0.1540944442116654 0 0 0 0 0.41890619989132816 1.5415247879492231 0 1.5415247879492231 -0.17268519207402733 0 0 0 0 -0.92569389654074641 1.2402122190763052 0 1.2402122190763052 1.1606135770461918 0 0 0 0 1.2818625788041422 1.6039187841921319 0 1.6039187841921319 -0.60545738412645278 0 0 0 0 -0.82800281188507796 3.3460161456391262 0 3.3460161456391262 0.86816974679057068 0 0 0 0 11.700339830367739 -6.6347544139280217 0 -6.6347544139280217 0.11926266689260956 0 0 0 0 10.068845636524202 -3.6585188708995702 0 -3.6585188708995702 11.925721723229799 0 0 0 0 19.439079581786245 5.1896052229385532 0 5.1896052229385532 3.1403329379973002 0 0 0 0 26.281378801268147 0.11527545944045414 0 0.11527545944045414 -4.9887232746114023 0 0 0 0 16.314471939902432 -0.44334726181114092 0 -0.44334726181114092 -6.7980019199312665 0 0 0 0 2.6447825756877137 4.7184422095015179 0 4.7184422095015179 -6.5630077428650111 0 0 0 0 11.966473314705581 5.3951167533705302 0 5.3951167533705302 -8.8305682402569801 0 0 0 0 7.7736501258650605 10.935683936302667 0 10.935683936302667 -12.455473129724851 0 0 0 0 2.0290096882454236 7.201888548603165 0 7.201888548603165 -9.6115783495042706 0 0 0 0 10.377436319261733 6.4836577163177935 0 6.4836577163177935 -12.945463687181473 0 0 0 0 10.369612899688946 6.0383300357061671 0 6.0383300357061671 -4.7075567270367173 0 0 0 0 8.302785691441386 8.4581107539706863 0 8.4581107539706863 -5.577688666380709 0 0 0 0 16.581814538130857 5.7463247039049747 0 5.7463247039049747 -9.5986500121216523 0 0 0 0 17.493809647623493 6.7696565070582437 0 6.7696565070582437 -6.1397428472846514 0 0 0 0 16.61655989078011 2.2213738155165856 0 2.2213738155165856 -1.0255624405690469 0 0 0 0 12.074707359661261 6.6647377414919902 0 6.6647377414919902 -2.760345305519877 0 0 0 0 14.776480908936719 4.4284280339925317 0 4.4284280339925317 -1.1886986431782134 0 0 0 0 10.99441036420103 10.577096143031667 0 10.577096143031667 -7.9198680505578523 0 0 0 0 5.6096772648807018 10.448523371331248 0 10.448523371331248 -3.3402824187214719 0 0 0 0 3.9899085991110042 13.573383648654271 0 13.573383648654271 -8.5633760037017055 0 0 0 0 -2.6656580819276314 14.179015896670535 0 14.179015896670535 -1.0461515949427849 0 0 0 0 402.65100537012631 309.42248461946656 0 309.42248461946656 -125.69902041267142 0 0 0 0 1.2850926276551036 2.6167833054496441 0 2.6167833054496441 -0.98555078740173485 0 0 0 0 -0.33551788817496053 3.3870148300815259 0 3.3870148300815259 -1.5931451813520425 0 0 0 0 2.3893593721186335 3.1451429285370978 0 3.1451429285370978 -1.3111378107350902 0 0 0 0 1.9604857366779527 3.17493476081777 0 3.17493476081777 -3.2767656441452573 0 0 0 0 7.7176823981799316 1.9097697287979827 0 1.9097697287979827 -2.9461901762406342 0 0 0 0 18.637598004534084 5.8175152052717749 0 5.8175152052717749 -5.7898434423550498 0 0 0 0 0.66543913017409917 1.279096748580919 0 1.279096748580919 -3.1493438506495863 0 0 0 0 2.0279572160755333 -0.44679170674777424 0 -0.44679170674777424 -5.4249284922055949 0 0 0 0 2.1546024905803263 4.5216912375298648 0 4.5216912375298648 2.781359964662812 0 0 0 0 -4.7001020930260893 3.6592734269906941 0 3.6592734269906941 3.7068538373787305 0 0 0 0 14.123233896193369 15.456944997569735 0 15.456944997569735 -12.851129638394923 0 0 0 0 11.819334415704361 -4.0856272004775747 0 -4.0856272004775747 -21.614352904587577 0 0 0 0 -0.20111011206419693 -0.076014336274342398 0 -0.076014336274342398 -0.16642525126334817 0 0 0 0 9.1618863418370893 -0.12071242413003347 0 -0.12071242413003347 -9.6737024127942277 0 0 0 0 0.1521400105134334 0.27218801107228785 0 0.27218801107228785 -5.1980352285688411 0 0 0 0 7.7364137529202708 10.524662009665917 0 10.524662009665917 -1.7516862056654645 0 0 0 0 0.68946905228040123 10.591644115575036 0 10.591644115575036 1.0947369093919406 0 0 0 0 5.1543206220922002 12.877037933332758 0 12.877037933332758 -3.778157521635876 0 0 0 0 7.7871457675992133 9.7538975004172244 0 9.7538975004172244 -2.0903359376789012 0 0 0 0 0.83291985528191681 -0.40809838204302906 0 -0.40809838204302906 -2.1257855663340592 0 0 0 0 4.2534895045173471 8.6364073703152826 0 8.6364073703152826 2.0887345538794762 0 0 0 0 -0.28821459372920799 8.9101163882587571 0 8.9101163882587571 3.3250961447120062 0 0 0 0 -4.0130193265067646 -18.725474827664584 0 -18.725474827664584 3.4281710566865513 0 0 0 0 0.21117984422765446 -0.037288953658851653 0 -0.037288953658851653 -0.5559772897652806 0 0 0 0 -25.010801263749272 2.9552084255046793 0 2.9552084255046793 11.454614279093221 0 0 0 0 -25.985983590715477 7.7985095615149476 0 7.7985095615149476 -2.2169436543208576 0 0 0 0 -0.39362900447991667 -0.79242474099132032 0 -0.79242474099132032 0.44544654669070383 0 0 0 0 -29.21026723888599 13.046188131547751 0 13.046188131547751 10.928862931232288 0 0 0 0 121.7109400104855 32.438130345650279 0 32.438130345650279 10.042091804592928 0 0 0 0 52.398113180137443 9.1874303473960026 0 9.1874303473960026 7.778108734790294 0 0 0 0 76.329477000535007 95.418470472173794 0 95.418470472173794 34.02664677707071 0 0 0 0 125.0649140830933 -57.99335662125668 0 -57.99335662125668 -64.12702284079387 0 0 0 0 208.79554819339273 77.484362003080605 0 77.484362003080605 -19.112783748583752 0 0 0 0 37.877485781797077 244.00887164276719 0 244.00887164276719 94.009796936488783 0 0 0 0 52.340278804684147 78.459942737432357 0 78.459942737432357 -93.154205475431809 0 0 0 0 3.2288417829332099 2.9972033804391103 0 2.9972033804391103 2.3744735233934193 0 0 0 0 113.07832166680623 -5.5233240761790512 0 -5.5233240761790512 -133.42431489768205 0 0 0 0 278.60488600251676 -301.34385201189707 0 -301.34385201189707 -88.245511357708892 0 0 0 0 -13.810539085787241 0.29177441878346144 0 0.29177441878346144 17.472919936379185 0 0 0 0 -4.0884043302512509 63.318539277417585 0 63.318539277417585 21.828626433562022 0 0 0 0 1.0369005873562855 1.0257651492901161 0 1.0257651492901161 1.6157624812227738 0 0 0 0 -2.0210478204764577 7.0416896526905077 0 7.0416896526905077 -8.4573641835859235 0 0 0 0 3.778982944634663 29.596882848487439 0 29.596882848487439 7.4704103596777713 0 0 0 0 -8.0542360590943645 24.643170004750573 0 24.643170004750573 28.812671938718267 0 0 0 0 3.9742986760716974 18.28660495112689 0 18.28660495112689 1.0550454101830837 0 0 0 0 4.8967864934875251 41.651332986173657 0 41.651332986173657 15.249894438231422 0 0 0 0 -3.0543595602820943 9.4348126588729428 0 9.4348126588729428 -6.9457154564065178 0 0 0 0 -17.534352435697656 26.990768439482054 0 26.990768439482054 16.13201067629052 0 0 0 0 3.3686577930366184 21.013438415586279 0 21.013438415586279 19.186067079488566 0 0 0 0 -4.7289826355903415 6.3049479133219393 0 6.3049479133219393 19.792723676422611 0 0 0 0 -26.226913635016899 5.2568899211109965 0 5.2568899211109965 23.757665382923733 0 0 0 0 -25.133829791385324 -9.7420252698975673 0 -9.7420252698975673 32.83930367710127 0 0 0 0 40.815592064635894 12.022294840367977 0 12.022294840367977 -7.9125289179210085 0 0 0 0 -0.15462005884077001 -0.67194099778392502 0 -0.67194099778392502 0.59893066393999561 0 0 0 0 -4.5834873090743713 -10.14529969850264 0 -10.14529969850264 21.668093468171719 0 0 0 0 3.3429473938704177 40.368642322078813 0 40.368642322078813 1.126374869601932 0 0 0 0 -2.6009839384578299 7.2066945846017916 0 7.2066945846017916 -2.5826762496144511 0 0 0 0 -0.46284300295443348 0.8553829081458737 0 0.8553829081458737 1.0548477492293671 0 0 0 0 0.030864055797451329 6.4948647397377499 0 6.4948647397377499 6.5558624783006962 0 0 0 0 -0.77831145886284503 12.890734645283374 0 12.890734645283374 -2.1854086769599235 0 0 0 0 -6.2209320913316333 10.30987760903372 0 10.30987760903372 4.8487185031444824 0 0 0 0 -5.9674870081871632 10.193542852946848 0 10.193542852946848 10.537240937579554 0 0 0 0 -7.1457861401786431 -1.0442641381596331 0 -1.0442641381596331 3.3792949468261213 0 0 0 0 13.795176379442637 13.165585167371319 0 13.165585167371319 -7.0323101120666252 0 0 0 0 17.358349897089283 12.368298404886445 0 12.368298404886445 -6.9863929467464914 0 0 0 0 -0.24381165588085096 5.5521084688616895 0 5.5521084688616895 -8.0261536624796577 0 0 0 0 -2.6167534931573755 11.267100906763517 0 11.267100906763517 -2.6162824791099411 0 0 0 0 0.21836596399953123 11.811119273348595 0 11.811119273348595 -7.6178107300511329 0 0 0 0 0.38206208705378231 10.715749174472876 0 10.715749174472876 -13.183642693737056 0 0 0 0 -7.9410349449499336 16.051604614112875 0 16.051604614112875 -6.587666903360514 0 0 0 0 -36.596328290601377 1.7597587893978925 0 1.7597587893978925 -0.34391026927914936 0 0 0 0 -27.692584678192361 17.439011645910796 0 17.439011645910796 -10.428671214607675 0 0 0 0 -18.04847698541198 -0.2061035259248456 0 -0.2061035259248456 -2.8510824130207766 0 0 0 0 -6.1727449027002876 11.999255117098073 0 11.999255117098073 -9.79301979590673 0 0 0 0 -21.304801802130896 1.0151216137455776 0 1.0151216137455776 -8.7612138809781754 0 0 0 0 -24.029452634436893 8.4187345379395992 0 8.4187345379395992 -19.116541991767008 0 0 0 0 1.0907230335144149 0.26101295398589741 0 0.26101295398589741 -1.8515568379541918 0 0 0 0 -7.9591494941851124 13.738127513395739 0 13.738127513395739 -29.10766523052007 0 0 0 0 -8.0276522391984599 13.62846208238534 0 13.62846208238534 -13.273468331521144 0 0 0 0 -10.295262936280778 1.0328175016038585 0 1.0328175016038585 -23.325135234401387 0 0 0 0 -10.927933114246343 7.0516929526711465 0 7.0516929526711465 -11.354977575247176 0 0 0 0 2.1192109774528944 7.6919371358671924 0 7.6919371358671924 -18.27540397530538 0 0 0 0 -32.492875799120156 14.940967023650956 0 14.940967023650956 -3.1469988909666426 0 0 0 0 2.5528263573432923 5.5828465101294569 0 5.5828465101294569 -12.686412781167746 0 0 0 0 -14.943228867909056 11.708627129912202 0 11.708627129912202 -6.9893744012952084 0 0 0 0 -4.1601670755317173 16.890894038919214 0 16.890894038919214 -28.971510196584859 0 0 0 0 -2.6792331788274169 4.0225391765052336 0 4.0225391765052336 -0.89726162786246277 0 0 0 0 9.0343418552265575 3.5614997848888379 0 3.5614997848888379 -11.467543965991354 0 0 0 0 20.955649943819481 10.539623081062018 0 10.539623081062018 -9.9985985186867765 0 0 0 0 25.660223823787646 9.6273814580995349 0 9.6273814580995349 -12.127145047204976 0 0 0 0 0.098015153220972984 -0.64922504279733939 0 -0.64922504279733939 -7.4161571112622084 0 0 0 0 33.889423195842028 25.38711506358959 0 25.38711506358959 -22.741188868152676 0 0 0 0 0.43013888705354475 27.514981704511229 0 27.514981704511229 -11.898881798464572 0 0 0 0 18.941688395904293 18.95438767516589 0 18.95438767516589 -8.8207500373682706 0 0 0 0 14.222855474255141 19.796451037849351 0 19.796451037849351 -8.834936262544943 0 0 0 0 1.4911712964080834 29.763116845363584 0 29.763116845363584 -9.1675743825180689 0 0 0 0 -4.7282057566335425 35.85324845960713 0 35.85324845960713 7.8867289623303805 0 0 0 0 23.881921870428414 13.013282003747008 0 13.013282003747008 -16.002133521598807 0 0 0 0 27.082009574474796 20.222249423641188 0 20.222249423641188 0.17048848688136786 0 0 0 0 101.59152286082917 20.506996890460869 0 20.506996890460869 -6.9816081145872886 0 0 0 0 0.63961303898463662 -1.0795352933132278 0 -1.0795352933132278 -0.50215584284114811 0 0 0 0 69.709891250586224 26.85554621229312 0 26.85554621229312 1.2023769624720444 0 0 0 0 17.334899388874874 44.564469018176169 0 44.564469018176169 11.262070024204149 0 0 0 0 -31.868320987558036 -15.611435998591332 0 -15.611435998591332 2.0713511115063739 0 0 0 0 -11.448192045502765 17.961328632336517 0 17.961328632336517 35.212314641743433 0 0 0 0 36.270095856282069 3.8156056534598974 0 3.8156056534598974 -16.367795735612162 0 0 0 0 51.280082462980317 4.0522494498400192 0 4.0522494498400192 -4.8189050662113004 0 0 0 0 -56.46617030201287 14.96167492706445 0 14.96167492706445 24.928958231801516 0 0 0 0 54.417757381243064 2.5068329013920447 0 2.5068329013920447 -10.664180141714041 0 0 0 0 -0.23120653874809882 -1.0584775671379987 0 -1.0584775671379987 -3.5194958814123254 0 0 0 0 43.892410301868949 -17.104051025115041 0 -17.104051025115041 -124.90158541683923 0 0 0 0 61.353744609057458 -4.2955249082760929 0 -4.2955249082760929 1.6699267212388804 0 0 0 0 85.975893923157855 0.80180886502785143 0 0.80180886502785143 2.3522132833604701 0 0 0 0 22.305447949966947 -54.684480292751687 0 -54.684480292751687 6.5492340366145072 0 0 0 0 -5.0782160555472728 21.474267949557543 0 21.474267949557543 -3.1934955978940707 0 0 0 0 -0.33961047683821377 0.1491651757570196 0 0.1491651757570196 1.0691720005512622 0 0 0 0 1.8555897244659718 17.656800990072952 0 17.656800990072952 -4.8712969896841969 0 0 0 0 -28.488120221480131 31.094903485896793 0 31.094903485896793 10.218887667007948 0 0 0 0 -0.32962677942724028 0.94692428420153618 0 0.94692428420153618 1.4609508127305446 0 0 0 0 -18.83798018300422 26.235060992508807 0 26.235060992508807 -15.836788328473631 0 0 0 0 4.4142167841919218 28.266488500651576 0 28.266488500651576 0.88927410723408684 0 0 0 0 -0.21332662878654673 -0.94464902402469164 0 -0.94464902402469164 -0.77175007198232493 0 0 0 0 90.956708401379728 -2.1500705392900272 0 -2.1500705392900272 -11.953700794474571 0 0 0 0 -76.376549999550662 9.458392558446576 0 9.458392558446576 104.0190161690407 0 0 0 0 34.22217445681963 -56.642288803966949 0 -56.642288803966949 -92.750911470357096 0 0 0 0 102.7912520508678 6.109822517356406 0 6.109822517356406 -83.290667838911759 0 0 0 0 69.217056916195361 27.790062969237624 0 27.790062969237624 -0.033392196717613842 0 0 0 0 73.972568399389274 85.406742573570227 0 85.406742573570227 113.20548415412486 0 0 0 0 169.11500711656663 85.418974184402032 0 85.418974184402032 -81.586740574173746 0 0 0 0 -14.771546995130848 35.197345736116404 0 35.197345736116404 -3.2395187271467876 0 0 0 0 -12.027736781865315 45.041639847644547 0 45.041639847644547 -0.43021726873666921 0 0 0 0 -8.4150466192641034 39.743481275283557 0 39.743481275283557 -14.252190943779169 0 0 0 0 106.9451834768588 94.676629871662954 0 94.676629871662954 59.802335411870445 0 0 0 0 17.927467376961431 26.281567045221891 0 26.281567045221891 38.199061177640942 0 0 0 0 84.662211680379187 4.7400464069523878 0 4.7400464069523878 -7.7061668493552133 0 0 0 0 105.02466276369819 23.739741888646677 0 23.739741888646677 3.04683219344588 0 0 0 0 108.36905705940671 87.245891933553139 0 87.245891933553139 27.352280386548955 0 0 0 0 0.763260411437237 -1.1348258415321126 0 -1.1348258415321126 -0.53346112927528111 0 0 0 0 57.783696517850331 41.068189992700354 0 41.068189992700354 13.2994900955091 0 0 0 0 126.09518519222183 112.65024954570617 0 112.65024954570617 29.361107130669552 0 0 0 0 126.39834014800363 97.019063289095357 0 97.019063289095357 0.013079374033124567 0 0 0 0 125.93678417747924 116.09124028826818 0 116.09124028826818 0.057553631660994142 0 0 0 0 3.6275851920654532 157.42917819976719 0 157.42917819976719 149.93669643772228 0 0 0 0 264.61835190960755 207.87933590374087 0 207.87933590374087 43.849366588940029 0 0 0 0 282.33213662932508 60.950309903047355 0 60.950309903047355 -45.762397907987179 0 0 0 0 0.43370568092987938 -1.0504459311369203 0 -1.0504459311369203 -1.0773429953715947 0 0 0 0 -61.275528493408274 23.005286414585498 0 23.005286414585498 69.557986860520032 0 0 0 0 122.68465373246727 116.93762029175923 0 116.93762029175923 -0.15554608339152765 0 0 0 0 46.744035140034612 18.437902992893214 0 18.437902992893214 -16.214425656311505 0 0 0 0 3.8953806172557961 28.943514944279741 0 28.943514944279741 0.00042932291762554087 0 0 0 0 -37.83153209188913 23.284249707308845 0 23.284249707308845 13.877037278660282 0 0 0 0 5.1577182532928418 -18.474681777293881 0 -18.474681777293881 -0.45252718622214161 0 0 0 0 130.67973883657851 -16.999836380560737 0 -16.999836380560737 35.277991242146527 0 0 0 0 286.05754519017501 255.49595401384067 0 255.49595401384067 154.90558240073005 0 0 0 0 96.794462983129506 54.722245655215374 0 54.722245655215374 53.01956570315815 0 0 0 0 2.7856402841771342 24.054311101539497 0 24.054311101539497 -0.4525271862111136 0 0 0 0 0.81205435287251504 0.25219489763094316 0 0.25219489763094316 -2.7268516626675137 0 0 0 0 -0.14203847250971435 1.8350057100135455 0 1.8350057100135455 5.8721588668918514 0 0 0 0 -64.556073804382322 138.09959198000797 0 138.09959198000797 2.9830193457237328 0 0 0 0 -149.09366922010668 4.4139719313170644 0 4.4139719313170644 -63.647230258779018 0 0 0 0 0.40546273925648002 0.5241929778782648 0 0.5241929778782648 1.0455157359946838 0 0 0 0 -288.07174578201739 -48.864722420104954 0 -48.864722420104954 113.44958047885302 0 0 0 0 347.35671589219419 229.39906624773721 0 229.39906624773721 148.47691058331111 0 0 0 0 -0.75313064437602861 -0.06289791143894341 0 -0.06289791143894341 0.59626295610718216 0 0 0 0 372.62855551592747 209.20202491204054 0 209.20202491204054 69.473617449169978 0 0 0 0 306.09936202433892 201.31130685108292 0 201.31130685108292 133.85418314721755 0 0 0 0 285.03370229323264 81.173035376534244 0 81.173035376534244 -13.395371213335238 0 0 0 0 5.5149394542931987 42.081854565294634 0 42.081854565294634 -33.124341457005357 0 0 0 0 -188.48498553549143 35.941558044555677 0 35.941558044555677 73.841630621318473 0 0 0 0 0.26690367088862388 0.37724857799498679 0 0.37724857799498679 2.7764785416290749 0 0 0 0 593.48727452516869 107.0229153290511 0 107.0229153290511 -19.218165250786114 0 0 0 0 0.41155550251668416 3.7606901488211122 0 3.7606901488211122 -7.4429858968054816 0 0 0 0 28.421768848838838 20.940717553839931 0 20.940717553839931 1.4984832641866888 0 0 0 0 440.84385790827673 331.00895061867004 0 331.00895061867004 67.333344099868555 0 0 0 0 570.79978493718954 212.67199168959633 0 212.67199168959633 103.09472243850541 0 0 0 0 484.75491062364745 321.98643055769571 0 321.98643055769571 0.049556858732103137 0 0 0 0 -312.80020058885339 216.47516850946613 0 216.47516850946613 100.62322233540181 0 0 0 0 -655.88689273046839 85.507744465181531 0 85.507744465181531 50.943916563453968 0 0 0 0 -0.84841705201594309 1.3914971700526095 0 1.3914971700526095 -0.11511413390917369 0 0 0 0 0.7241412155958713 1.6102140538632455 0 1.6102140538632455 0.62177189511344011 0 0 0 0 -0.80781381648012029 10.056490343540645 0 10.056490343540645 0.017270848766202107 0 0 0 0 -0.94574212847996009 1.0023334016696737 0 1.0023334016696737 7.797653341441162 0 0 0 0 -4.8714712751989282 27.380053215467342 0 27.380053215467342 2.113028979714727 0 0 0 0 -14.013401628657448 153.55426954762697 0 153.55426954762697 -49.075472537948372 0 0 0 0 -107.2910754428176 368.35865622254823 0 368.35865622254823 -0.084266976406070171 0 0 0 0 445.81994013558324 223.43636299697391 0 223.43636299697391 -105.38825573323084 0 0 0 0 0.08099421233994164 0.18938022779854791 0 0.18938022779854791 2.5040424791122291 0 0 0 0 28.163013548695744 238.33971366074547 0 238.33971366074547 -30.652956629235632 0 0 0 0 -61.871500098710385 104.95047622775564 0 104.95047622775564 30.814500195680012 0 0 0 0 -91.286283916837419 153.03825897288152 0 153.03825897288152 102.55939688756189 0 0 0 0 -88.004696330364823 119.24090590890592 0 119.24090590890592 102.41657227165706 0 0 0 0 64.657081566980196 -25.190067555049609 0 -25.190067555049609 114.19837828309028 0 0 0 0 -63.148852202922171 146.29926411839187 0 146.29926411839187 349.61891562366509 0 0 0 0 164.14982452513505 285.73327697278728 0 285.73327697278728 35.821686348055664 0 0 0 0 -0.27038279883314154 -0.38699148076250367 0 -0.38699148076250367 3.3595619914260908 0 0 0 0 -51.184811248243932 -42.45371385351973 0 -42.45371385351973 263.53014953161619 0 0 0 0 170.15468640688323 105.57224912145102 0 105.57224912145102 89.333704488104559 0 0 0 0 76.087859474660945 224.58274202673783 0 224.58274202673783 224.63035744684748 0 0 0 0 -33.069500507528574 129.31621597430058 0 129.31621597430058 353.14757644401834 0 0 0 0 -13.877134370832209 100.958948969831 0 100.958948969831 171.30024197789317 0 0 0 0 27.974505772485827 44.347229313093521 0 44.347229313093521 188.98785728043731 0 0 0 0 -0.16383995567452558 2.777720073889995 0 2.777720073889995 -5.457812998581943 0 0 0 0 -100.90801640012251 108.71504488663777 0 108.71504488663777 -123.18632045531558 0 0 0 0 -44.740319100526449 111.02022670518136 0 111.02022670518136 125.43618449878704 0 0 0 0 -66.51089627520696 222.98247942698845 0 222.98247942698845 137.28489981582243 0 0 0 0 -43.271276582441715 63.832895213623488 0 63.832895213623488 85.832484587968793 0 0 0 0 28.050133928343712 135.79786744055673 0 135.79786744055673 53.92622950146324 0 0 0 0 -139.29882429001373 92.760904019251029 0 92.760904019251029 44.038763375865528 0 0 0 0 -27.00978808193031 75.459587459918112 0 75.459587459918112 12.342603210960078 0 0 0 0 -90.446920220787433 14.269192506118998 0 14.269192506118998 118.88301466013218 0 0 0 0 -9.5161564576701494 14.557443876181424 0 14.557443876181424 62.576351477910066 0 0 0 0 -266.98179667628574 -2.2255185352369153 0 -2.2255185352369153 144.78676799621007 0 0 0 0 -101.60712912258691 75.501307211374296 0 75.501307211374296 107.04735891947348 0 0 0 0 75.53657694287358 103.46139755998229 0 103.46139755998229 4.9705569698126055 0 0 0 0 -21.585755844446112 105.32803183174701 0 105.32803183174701 109.25881505906 0 0 0 0 11.632084847259648 101.97905889662707 0 101.97905889662707 12.916867673578963 0 0 0 0 24.804365629977838 125.93106387452281 0 125.93106387452281 -46.243240135043379 0 0 0 0 27.409018248044958 127.18908424861365 0 127.18908424861365 -104.87581068718282 0 0 0 0 -27.084694336619577 152.22972242167089 0 152.22972242167089 -75.290377499052738 0 0 0 0 13.890241047249219 93.355614880241774 0 93.355614880241774 -88.930602366082894 0 0 0 0 -46.355197913850134 71.224622948393517 0 71.224622948393517 12.855669654723897 0 0 0 0 -158.04724653416997 97.261588477093028 0 97.261588477093028 -74.711518164587687 0 0 0 0 -34.825659236817501 119.17175666658159 0 119.17175666658159 -103.85840150528384 0 0 0 0 -143.30326263571442 195.60777901433539 0 195.60777901433539 -146.08525745148472 0 0 0 0 -239.11144440393036 245.21360502365224 0 245.21360502365224 -120.61643445203663 0 0 0 0 0.82970267517897156 2.9077789815393871 0 2.9077789815393871 4.1165933167890785 0 0 0 0 92.934212604610366 -6.4894339837246662 0 -6.4894339837246662 32.85121812603029 0 0 0 0 -45.53533082357535 30.080242712709151 0 30.080242712709151 1.1410632539045764 0 0 0 0 64.634702970810395 20.304463399752422 0 20.304463399752422 14.447739575400192 0 0 0 0 1.0362676336135461 2.9484096230107184 0 2.9484096230107184 9.8781812783869327 0 0 0 0 -97.442525203805417 43.752887806083891 0 43.752887806083891 -1.2159884626344137 0 0 0 0 0.71220430852801897 2.343261790531308 0 2.343261790531308 6.8471682080557059 0 0 0 0 170.11794707284344 67.621964538498105 0 67.621964538498105 59.617449879908236 0 0 0 0 211.79578721781581 34.155543921646313 0 34.155543921646313 10.508991891343612 0 0 0 0 183.03261602848943 115.43380822539257 0 115.43380822539257 121.76517654649069 0 0 0 0 270.13857578695752 104.59663693411858 0 104.59663693411858 90.726976233887399 0 0 0 0 332.95072815127696 246.80883880714919 0 246.80883880714919 128.88763599077356 0 0 0 0 73.122797226853436 86.490065596750355 0 86.490065596750355 88.245480363751994 0 0 0 0 159.15716260947011 174.42225635127397 0 174.42225635127397 174.86650048159572 0 0 0 0 162.19294311417616 16.010228501450911 0 16.010228501450911 -5.9576243637202424 0 0 0 0 137.35676458561647 69.877382726743235 0 69.877382726743235 48.361819166559144 0 0 0 0 202.87319573484092 66.986174363742066 0 66.986174363742066 38.846215864294209 0 0 0 0 152.39316299417078 62.882397301300443 0 62.882397301300443 -13.027302785398206 0 0 0 0 56.996384237465463 83.863976393622579 0 83.863976393622579 -14.895005931089145 0 0 0 0 81.097344780506319 103.02159890779876 0 103.02159890779876 -58.842428895630292 0 0 0 0 111.20060200023363 39.73941301791092 0 39.73941301791092 -15.421390342642553 0 0 0 0 27.917935572833812 73.563135994234472 0 73.563135994234472 -23.241065783037811 0 0 0 0 68.940464118239106 32.617837443020107 0 32.617837443020107 9.6691072003559384 0 0 0 0 93.332769621993066 -0.67137840745817812 0 -0.67137840745817812 -0.44110493601328926 0 0 0 0 85.047220350996213 28.811315026159718 0 28.811315026159718 -4.83289244070329 0 0 0 0 -1.1082957119440628 5.6892603513025097 0 5.6892603513025097 11.350167496102642 0 0 0 0 32.63872293737586 19.126204411171784 0 19.126204411171784 4.7600555020253523 0 0 0 0 -12.158558292960151 22.781086829221749 0 22.781086829221749 4.778481090979767 0 0 0 0 -5.6134303046944254 7.915835353803601 0 7.915835353803601 -4.282209709990326 0 0 0 0 -2.3312653783050603 2.3682284345869249 0 2.3682284345869249 5.023226923404053 0 0 0 0 -77.177524199412801 133.82901874713934 0 133.82901874713934 -158.11471009923844 0 0 0 0 6.6588895327877253 44.435422197189837 0 44.435422197189837 -228.84241683171422 0 0 0 0 -71.266109632435473 13.98453433794748 0 13.98453433794748 3.469361379640759 0 0 0 0 48.584388607006986 62.768055075830489 0 62.768055075830489 -260.05347674032078 0 0 0 0 36.079106478153335 16.655667841241666 0 16.655667841241666 -259.60483099430712 0 0 0 0 -48.684008049640397 141.38919948419789 0 141.38919948419789 68.430752310574462 0 0 0 0 68.674636516530427 31.204269744443991 0 31.204269744443991 20.36620578802831 0 0 0 0 25.209033811170229 144.75055141579287 0 144.75055141579287 -72.210647167594288 0 0 0 0 48.453491746931832 100.00337530306206 0 100.00337530306206 -16.397155581784318 0 0 0 0 -12.648469216081139 172.43925427177601 0 172.43925427177601 -19.595763457477915 0 0 0 0 -14.77310815253918 225.71303910609765 0 225.71303910609765 -114.61993905763666 0 0 0 0 -95.008441935417068 261.87515997120499 0 261.87515997120499 -114.84936953010038 0 0 0 0 112.47178563416674 -121.54583261098014 0 -121.54583261098014 -224.17653375535519 0 0 0 0 86.606274403642601 198.67712378671422 0 198.67712378671422 -408.18234223422769 0 0 0 0 103.85459529794934 113.54279969514027 0 113.54279969514027 -94.958172284692409 0 0 0 0 50.834056136871368 19.030865337488649 0 19.030865337488649 -386.22197651281749 0 0 0 0 -1.4667053526773515 2.7470352393758191 0 2.7470352393758191 -3.5406536732836145 0 0 0 0 -23.397553901559149 193.55522373436543 0 193.55522373436543 -374.1546169766325 0 0 0 0 129.45473634963491 155.78015744660297 0 155.78015744660297 -468.88875509922218 0 0 0 0 33.260372742159234 29.771588411018456 0 29.771588411018456 -184.23902853304025 0 0 0 0 -182.67491987449466 136.56670039716846 0 136.56670039716846 21.783408143768611 0 0 0 0 -3.8584635504772962 5.2047481449604334 0 5.2047481449604334 0.14367980484314913 0 0 0 0 205.52005630714848 58.673603444371111 0 58.673603444371111 -381.04237759148236 0 0 0 0 47.683506512094027 -127.86697581279805 0 -127.86697581279805 51.117417920235312 0 0 0 0 -212.30435352296627 283.97524303237151 0 283.97524303237151 -102.15532904767315 0 0 0 0 -87.59973784818385 147.66722097290585 0 147.66722097290585 -314.81296624195238 0 0 0 0 -123.35165020353361 -34.966484544242121 0 -34.966484544242121 -466.32381793843524 0 0 0 0 -22.257255838918354 105.80627201579046 0 105.80627201579046 -304.90975784993498 0 0 0 0 -26.704631438340584 161.1079306268075 0 161.1079306268075 -347.53768002899596 0 0 0 0 50.878418113054067 143.85922081722674 0 143.85922081722674 -149.24013788440061 0 0 0 0 -48.04869091836008 156.43923043990435 0 156.43923043990435 -143.75741161743645 0 0 0 0 -70.922941004577297 114.77780825296213 0 114.77780825296213 -141.32060659883427 0 0 0 0 245.14853325137119 146.99930319302075 0 146.99930319302075 -207.32912278903677 0 0 0 0 67.070861681804672 191.52062671361637 0 191.52062671361637 -196.12572075147182 0 0 0 0 86.147966611657466 145.59520555012568 0 145.59520555012568 -323.96632476753075 0 0 0 0 -2.1383645218169711 2.0720939059462822 0 2.0720939059462822 0.30905120307600953 0 0 0 0 275.04546098898936 -50.742279763373517 0 -50.742279763373517 -11.426761154056294 0 0 0 0 -169.25873613655494 387.16816024560831 0 387.16816024560831 -465.73372254700371 0 0 0 0 -26.133901365530619 376.96730708155519 0 376.96730708155519 -477.70941023704654 0 0 0 0 -233.21089632562507 252.57986809747672 0 252.57986809747672 -125.5243536450871 0 0 0 0 -240.74767138353127 301.8743066092793 0 301.8743066092793 -248.23575198579601 0 0 0 0 -506.34184393809483 404.19515630220849 0 404.19515630220849 -259.27176730500378 0 0 0 0 -183.28957515102593 309.20449562818976 0 309.20449562818976 -780.27342786072404 0 0 0 0 -167.98944942391608 146.58802952263795 0 146.58802952263795 -606.57060951560561 0 0 0 0 -141.60253115815976 250.32980709869662 0 250.32980709869662 -327.0721555728378 0 0 0 0 -486.30286368095858 109.35740982056268 0 109.35740982056268 -290.81963189793169 0 0 0 0 -26.508452965196739 79.935119104280602 0 79.935119104280602 -205.31674915444455 0 0 0 0 123.16159892335673 -139.86306308001235 0 -139.86306308001235 30.741905760529335 0 0 0 0 140.36453888695178 128.47001043197088 0 128.47001043197088 -153.34945798631088 0 0 0 0 -227.29229535867489 247.67351113974291 0 247.67351113974291 -217.85473635366361 0 0 0 0 -187.03118121055013 58.963282259981497 0 58.963282259981497 -147.97855079087458 0 0 0 0 -325.09000965183077 149.05452515951038 0 149.05452515951038 -38.971533335512504 0 0 0 0 -107.59205568126708 265.67553161259639 0 265.67553161259639 22.519138163799653 0 0 0 0 -178.11260699925822 -44.620821949276433 0 -44.620821949276433 -271.23323292036366 0 0 0 0 -166.90578299023218 87.255941688425082 0 87.255941688425082 -177.9261062522819 0 0 0 0 13.394994593066258 130.02523490749991 0 130.02523490749991 -359.82574227271107 0 0 0 0 -3.8570789347130798 5.1298441924277967 0 5.1298441924277967 0.33756371384401263 0 0 0 0 -261.639870927007 151.96098021574289 0 151.96098021574289 173.0309792890057 0 0 0 0 77.952059632378223 200.66501887624327 0 200.66501887624327 -342.92166992753482 0 0 0 0 -55.16968237196852 46.289910795618198 0 46.289910795618198 -78.78528263210319 0 0 0 0 -216.0350828849032 210.42884026279535 0 210.42884026279535 -118.79966635243909 0 0 0 0 -154.80436122542505 114.88188628269836 0 114.88188628269836 -113.93678269099473 0 0 0 0 0.56727152399594161 2.4067099426562528 0 2.4067099426562528 3.4066433904854136 0 0 0 0 -251.06625165483274 128.66738479167361 0 128.66738479167361 -213.60469570739951 0 0 0 0 -267.01364249684775 184.51186402302119 0 184.51186402302119 -103.11069579309151 0 0 0 0 32.119781703626359 165.63713202754298 0 165.63713202754298 -127.1170616646923 0 0 0 0 -0.36469325542437758 0.86104398807011862 0 0.86104398807011862 1.6938496336232447 0 0 0 0 25.319228985365044 189.02610153067508 0 189.02610153067508 -78.189919507101877 0 0 0 0 11.499462962641701 114.26179380410395 0 114.26179380410395 -157.4613585604111 0 0 0 0 9.013434914710615 152.09205845892143 0 152.09205845892143 -104.5484560305631 0 0 0 0 -90.481225830993026 91.193773121019149 0 91.193773121019149 -91.735236510510731 0 0 0 0 27.044531461697261 164.71619563749482 0 164.71619563749482 -104.33865355031594 0 0 0 0 31.019135254078719 167.28989452098904 0 167.28989452098904 -54.945676310679119 0 0 0 0 31.815285575197777 166.04373967713764 0 166.04373967713764 -114.74236515079974 0 0 0 0 75.518166395537264 182.17939097070484 0 182.17939097070484 -165.41438043821836 0 0 0 0 75.600327417480003 140.06079886412044 0 140.06079886412044 -90.378888819803251 0 0 0 0 41.635437692712003 140.87364954382792 0 140.87364954382792 -111.27526426620898 0 0 0 0 46.922631387285946 166.84548057807115 0 166.84548057807115 -115.10440258965536 0 0 0 0 13.813380036619492 175.69478379073553 0 175.69478379073553 -90.262301557482715 0 0 0 0 26.936805521570932 141.666812489515 0 141.666812489515 -3.6798361510009272 0 0 0 0 77.357074510466191 141.78324312482437 0 141.78324312482437 -89.513359510900045 0 0 0 0 62.283670275872282 156.07105194765609 0 156.07105194765609 -39.048599199697492 0 0 0 0 -73.007995700929314 73.851167155175062 0 73.851167155175062 301.06102795546758 0 0 0 0 71.631399502643035 133.42008349050593 0 133.42008349050593 -803.54546036626652 0 0 0 0 -1.6511669794065327 2.5140234348518931 0 2.5140234348518931 -0.1087725752229165 0 0 0 0 4.6960516422477667 243.96367757989356 0 243.96367757989356 32.898543561928818 0 0 0 0 -93.14065988854145 292.76625759562921 0 292.76625759562921 -511.65298811018874 0 0 0 0 -89.367851620554575 158.06699201790616 0 158.06699201790616 -283.44408909627964 0 0 0 0 -34.570785539355711 79.644543465881725 0 79.644543465881725 -478.24196750971714 0 0 0 0 -115.48785947873694 96.063009882127517 0 96.063009882127517 -309.5698541610036 0 0 0 0 -49.581784034229713 77.30816035602038 0 77.30816035602038 -198.53686931160337 0 0 0 0 -76.44056657510373 106.85043714849598 0 106.85043714849598 -99.760102452011779 0 0 0 0 -35.491608994358103 134.70709282874304 0 134.70709282874304 -182.22448098695531 0 0 0 0 -77.052746079850294 77.741698004070713 0 77.741698004070713 -121.66145415225765 0 0 0 0 -49.099297692962864 74.393569929612568 0 74.393569929612568 -143.55759405469871 0 0 0 0 -63.208683500473853 120.96162423491478 0 120.96162423491478 -191.2901293203613 0 0 0 0 -81.976012612856721 173.7725189511184 0 173.7725189511184 -346.73981886968249 0 0 0 0 -53.976326054619676 62.179956717260211 0 62.179956717260211 -239.4586336966313 0 0 0 0 -67.364232781924329 87.43722221548478 0 87.43722221548478 -223.18465931534593 0 0 0 0 -13.440580508446146 164.57522169186996 0 164.57522169186996 -326.59269415501331 0 0 0 0 -42.471867205389572 95.44700761905915 0 95.44700761905915 -221.48184979012876 0 0 0 0 -95.650916763970599 106.33768541830068 0 106.33768541830068 -95.551949831293314 0 0 0 0 -77.203461609300575 66.042687068562373 0 66.042687068562373 -69.09379038582847 0 0 0 0 -29.775393087136763 182.44017563761736 0 182.44017563761736 -306.35669858189067 0 0 0 0 76.27365593489958 235.04625741281052 0 235.04625741281052 -321.19244944742059 0 0 0 0 -26.585778193319129 278.10458407824626 0 278.10458407824626 -275.20083193886967 0 0 0 0 -165.0107965033676 181.97671895875101 0 181.97671895875101 -296.60450531386596 0 0 0 0 5.3080567408305797 277.67795392499318 0 277.67795392499318 -212.56295391384629 0 0 0 0 43.361594860343757 83.288704002414306 0 83.288704002414306 -321.82796302055067 0 0 0 0 -278.1545885609703 276.12986752028519 0 276.12986752028519 -175.58576755959803 0 0 0 0 -76.701703188162355 87.448159871979442 0 87.448159871979442 -101.71118667489645 0 0 0 0 -121.54553305246191 164.9801286224174 0 164.9801286224174 -96.76813871980994 0 0 0 0 -134.25558545137392 86.944493810085987 0 86.944493810085987 -38.630803239633678 0 0 0 0 -20.573917060100939 -27.556457531958586 0 -27.556457531958586 -19.761014691292075 0 0 0 0 -130.68648730139466 -10.000153191584104 0 -10.000153191584104 3.0644771070801653 0 0 0 0 -1.854101548914997 1.79354621240509 0 1.79354621240509 -1.358256438926901 0 0 0 0 -209.97979830850363 16.076660155571062 0 16.076660155571062 27.873266954564315 0 0 0 0 -63.275828754687609 170.60558853144539 0 170.60558853144539 -278.63916958293339 0 0 0 0 -9.8750677720081512 8.0666192072226295 0 8.0666192072226295 0.6863755842714454 0 0 0 0 0.08867275617559045 1.5123035036327259 0 1.5123035036327259 4.2429147104526237 0 0 0 0 -0.79333978148837758 44.762856554863674 0 44.762856554863674 40.060367727863195 0 0 0 0 -28.337020343282347 56.140959365258823 0 56.140959365258823 86.125131723631057 0 0 0 0 -27.334460610336464 -7.7015844901088713 0 -7.7015844901088713 -0.30910087232041406 0 0 0 0 -25.710582771107511 -6.9598522940032126 0 -6.9598522940032126 -4.3371655264782021 0 0 0 0 -85.892959569348022 18.036984444072004 0 18.036984444072004 45.678886856636382 0 0 0 0 -94.000472293817438 38.644535558269126 0 38.644535558269126 8.9001050297665643 0 0 0 0 -76.948243878838184 76.234074858029999 0 76.234074858029999 -63.401961211275193 0 0 0 0 -65.490553369814734 38.999700972541177 0 38.999700972541177 7.3684769413339382 0 0 0 0 -86.48100106304264 47.595514851804182 0 47.595514851804182 58.8265988316125 0 0 0 0 -66.1514352412687 63.894854930684232 0 63.894854930684232 97.719680197857087 0 0 0 0 -69.768901998002548 35.480002618904109 0 35.480002618904109 64.978108127426822 0 0 0 0 -38.219190019379312 36.782321313832654 0 36.782321313832654 50.488536586246482 0 0 0 0 -72.277079821782536 54.405849693306664 0 54.405849693306664 108.5649829939066 0 0 0 0 -35.985894237193861 90.382409729259962 0 90.382409729259962 141.76174040371552 0 0 0 0 -29.811383737665892 54.234370544560079 0 54.234370544560079 85.952295467548538 0 0 0 0 -72.787293404007869 74.008963636599219 0 74.008963636599219 151.27656032923551 0 0 0 0 -80.108451721236634 52.955547352670692 0 52.955547352670692 121.82858625911467 0 0 0 0 -61.245417313679354 60.828411147042061 0 60.828411147042061 107.50221853230323 0 0 0 0 -78.355626893211593 61.398526845441666 0 61.398526845441666 127.88451191614149 0 0 0 0 -77.392705717022181 50.570612802635878 0 50.570612802635878 160.94420839639497 0 0 0 0 -65.45599503692938 61.856379235978238 0 61.856379235978238 150.32414649936254 0 0 0 0 -65.558190965130052 56.729651923298661 0 56.729651923298661 178.85962212731829 0 0 0 0 -35.370601853173866 73.136918050280656 0 73.136918050280656 169.15843759611016 0 0 0 0 -15.730973391815496 60.001193755379063 0 60.001193755379063 174.27647734587663 0 0 0 0 -48.0997141858752 42.239539226895431 0 42.239539226895431 168.59189761532139 0 0 0 0 -62.884962269563403 35.965711307449965 0 35.965711307449965 124.79607578965079 0 0 0 0 -51.308954456602805 58.639380206594069 0 58.639380206594069 121.41744243196445 0 0 0 0 -29.660133180404955 29.259272668998165 0 29.259272668998165 131.75938344246242 0 0 0 0 -17.826773951223004 61.565973257289443 0 61.565973257289443 137.49856437623384 0 0 0 0 -34.706424896252429 51.44030168352765 0 51.44030168352765 75.273260203714017 0 0 0 0 -59.678297878414014 42.486344147298951 0 42.486344147298951 80.914677393942839 0 0 0 0 -71.540776406134682 32.886351468907378 0 32.886351468907378 115.25397209651419 0 0 0 0 -78.065630195844278 49.719815377335181 0 49.719815377335181 93.559553016428254 0 0 0 0 -66.815456674608868 29.394394997281779 0 29.394394997281779 48.002686279971385 0 0 0 0 -57.04404053784674 52.734493149819173 0 52.734493149819173 -3.9195880559418583 0 0 0 0 -63.628484256521915 57.636475602303108 0 57.636475602303108 67.389498657285003 0 0 0 0 -82.822920442529721 47.457234593202884 0 47.457234593202884 -4.8742588625755161 0 0 0 0 -79.959752221046074 70.574680260280729 0 70.574680260280729 -33.998423108889256 0 0 0 0 -45.730485769126972 55.243639814005292 0 55.243639814005292 -84.224289665646211 0 0 0 0 -28.786346730048535 40.390398626048409 0 40.390398626048409 -22.400378598365933 0 0 0 0 -60.445306304922269 67.107231679307006 0 67.107231679307006 23.192836605507182 0 0 0 0 -41.790381663988228 31.443199100045604 0 31.443199100045604 70.861973215680337 0 0 0 0 -21.044341710818117 44.537484228560061 0 44.537484228560061 77.760814678811585 0 0 0 0 -20.383789333534878 69.240733400365571 0 69.240733400365571 25.085128622653428 0 0 0 0 29.925789545777661 81.296532933309209 0 81.296532933309209 20.311559353314806 0 0 0 0 -24.664061260946255 95.836602273277094 0 95.836602273277094 -28.399915982794482 0 0 0 0 -10.406063538030139 60.375278442370472 0 60.375278442370472 11.832312006037682 0 0 0 0 -56.799109861291072 50.595847531891195 0 50.595847531891195 21.039247539858479 0 0 0 0 -46.564826891561097 67.53133391540905 0 67.53133391540905 -45.335155716515146 0 0 0 0 -59.939399009446788 102.45392658762648 0 102.45392658762648 -82.280002619605511 0 0 0 0 -36.439572062830848 65.473992534010904 0 65.473992534010904 -119.01263959902644 0 0 0 0 -28.192222591453174 99.588598393842403 0 99.588598393842403 -113.27411994441354 0 0 0 0 -14.899396869841439 101.61325034000038 0 101.61325034000038 -99.706743423681473 0 0 0 0 -46.786147024373349 129.10665908032752 0 129.10665908032752 -44.801731769635808 0 0 0 0 13.229097850977269 104.0269065968605 0 104.0269065968605 -34.352742007846246 0 0 0 0 -27.325884126054007 97.270301853779529 0 97.270301853779529 42.744507647730643 0 0 0 0 6.2561521809693659 115.64798952679848 0 115.64798952679848 49.929996616549033 0 0 0 0 15.955410205582666 152.23560071465909 0 152.23560071465909 97.570209308993071 0 0 0 0 75.779038355365628 115.52873858373641 0 115.52873858373641 114.61169336161402 0 0 0 0 27.122355994935788 108.59536632323579 0 108.59536632323579 130.68045335300849 0 0 0 0 54.338450679040761 76.619849653194251 0 76.619849653194251 78.461023423355073 0 0 0 0 2.0582885677722516 73.245202604433871 0 73.245202604433871 91.365583819388121 0 0 0 0 36.570092538386234 32.458548573762528 0 32.458548573762528 130.11139626881049 0 0 0 0 21.856638966652099 89.771392297043349 0 89.771392297043349 239.94923363762791 0 0 0 0 53.329998509945653 45.572710952561465 0 45.572710952561465 180.35946957953274 0 0 0 0 46.085564475134561 77.445134127356141 0 77.445134127356141 246.15246786631178 0 0 0 0 23.026481116845389 74.891706674272427 0 74.891706674272427 155.75259111747437 0 0 0 0 18.916460656066192 64.331958646609564 0 64.331958646609564 180.6009031696376 0 0 0 0 -17.051948978230939 47.207822330725321 0 47.207822330725321 191.38730235758703 0 0 0 0 -10.78149160205794 86.230529902531998 0 86.230529902531998 220.59248901496176 0 0 0 0 64.270771138741111 118.23553610852105 0 118.23553610852105 297.4557332402328 0 0 0 0 56.190688668255461 82.416678429057356 0 82.416678429057356 228.13251855774433 0 0 0 0 59.80563601529866 150.35352248477284 0 150.35352248477284 284.40432389179477 0 0 0 0 80.200514522060985 88.122988715680549 0 88.122988715680549 350.24051090569992 0 0 0 0 87.712103003024822 162.63814268505666 0 162.63814268505666 553.63752478759125 0 0 0 0 121.73845495704882 93.175656864958 0 93.175656864958 275.59315191366477 0 0 0 0 110.78469130673329 116.44276991412335 0 116.44276991412335 240.38889099968947 0 0 0 0 124.4777231752887 55.951561978654354 0 55.951561978654354 253.81816429708852 0 0 0 0 60.556133048099582 142.41298792360612 0 142.41298792360612 195.74098641678574 0 0 0 0 117.97833706161327 64.278454785744543 0 64.278454785744543 151.08246600102575 0 0 0 0 -8.528435659456413 1.4959965799251194 0 1.4959965799251194 7.587675787333211 0 0 0 0 352.17913337501523 441.40710251091514 0 441.40710251091514 429.90186356203776 0 0 0 0 238.92702748309966 244.61550987226656 0 244.61550987226656 211.68564817140577 0 0 0 0 168.30883447587257 173.46188467068714 0 173.46188467068714 164.93591029121308 0 0 0 0 90.667847350385273 202.66497094841907 0 202.66497094841907 376.68690325051284 0 0 0 0 118.17722922943358 157.48750002919405 0 157.48750002919405 172.43726900829643 0 0 0 0 68.965684465707454 149.76013538788538 0 149.76013538788538 249.38718219939619 0 0 0 0 36.898401604295941 116.50924708605453 0 116.50924708605453 234.63761023525149 0 0 0 0 96.699417663390022 173.21485693057775 0 173.21485693057775 214.56403035623953 0 0 0 0 96.994047645595856 185.75441673325258 0 185.75441673325258 242.31103475120472 0 0 0 0 40.733878703837036 105.66051039901868 0 105.66051039901868 189.10137940989807 0 0 0 0 65.869054611335741 148.22347330016783 0 148.22347330016783 196.37284794094739 0 0 0 0 75.228383044333896 126.2035557581803 0 126.2035557581803 161.78137075097766 0 0 0 0 17.035707471382921 111.88618912405218 0 111.88618912405218 202.6607236439304 0 0 0 0 100.55006505160782 148.13496031150862 0 148.13496031150862 166.07585149485385 0 0 0 0 88.834177519544028 166.52907176641747 0 166.52907176641747 186.52821429818869 0 0 0 0 -14.758285481925725 19.686842124034662 0 19.686842124034662 -20.817126870663969 0 0 0 0 151.93417531428713 179.98669137696561 0 179.98669137696561 133.59898861039255 0 0 0 0 -26.911295866215369 36.746272969437996 0 36.746272969437996 -1.844710070596193 0 0 0 0 -28.942945786352993 32.316008804990815 0 32.316008804990815 35.631107205466833 0 0 0 0 -3.1849711584691249 48.717050820836448 0 48.717050820836448 -36.043395662254625 0 0 0 0 -16.237541728072756 56.27200622843884 0 56.27200622843884 -32.53638726448844 0 0 0 0 -8.5123689778447442 43.471421211143024 0 43.471421211143024 -34.069969012210095 0 0 0 0 -10.822516211228503 42.178423725999892 0 42.178423725999892 -0.68840489429203444 0 0 0 0 -18.490797782863648 27.666835795830472 0 27.666835795830472 -21.171143256924381 0 0 0 0 2.9995898702063641 40.588299932202062 0 40.588299932202062 -33.10198944118747 0 0 0 0 -44.302908683657733 172.62605668854667 0 172.62605668854667 19.775127110808171 0 0 0 0 11.765564023007755 32.541735834427527 0 32.541735834427527 54.152062888024375 0 0 0 0 -16.6400463435657 4.7389362504218298 0 4.7389362504218298 51.853947508265264 0 0 0 0 -11.943194830677903 22.813783987165216 0 22.813783987165216 17.980183276007466 0 0 0 0 -11.68261684619938 19.846214857214363 0 19.846214857214363 16.733413908004877 0 0 0 0 -18.880165565249822 13.420041194233534 0 13.420041194233534 44.384881260375366 0 0 0 0 -25.11424620073722 34.149253571262093 0 34.149253571262093 12.883427322219489 0 0 0 0 6.093766844154743 67.234725472942955 0 67.234725472942955 -13.919962305168156 0 0 0 0 -3.6322018058272079 67.341752520864247 0 67.341752520864247 -12.841169987768808 0 0 0 0 -6.8257693600356042 15.672602955341652 0 15.672602955341652 7.2457124456024644 0 0 0 0 -66.462611686358287 129.66726293154716 0 129.66726293154716 27.141373499965994 0 0 0 0 20.368943698980729 4.809211221509031 0 4.809211221509031 48.063013550039614 0 0 0 0 -106.56708492521648 99.822320957122429 0 99.822320957122429 153.74275488147396 0 0 0 0 162.9770791325227 117.92666865190586 0 117.92666865190586 92.438962883170461 0 0 0 0 -22.382758117437334 79.407601500310193 0 79.407601500310193 135.0236617513583 0 0 0 0 -18.650075072066102 99.146354374111979 0 99.146354374111979 173.43989742948906 0 0 0 0 51.051656635230756 77.612137822608929 0 77.612137822608929 109.76660626851663 0 0 0 0 11.619580796002992 83.108881520252908 0 83.108881520252908 166.31743457930861 0 0 0 0 -35.9540471661021 82.224236040638061 0 82.224236040638061 195.24289452553785 0 0 0 0 -34.248831225844697 72.472864101955565 0 72.472864101955565 162.915931726282 0 0 0 0 -74.205601336703694 63.362838694280072 0 63.362838694280072 168.58982598253351 0 0 0 0 -82.854606779857932 76.449083142935706 0 76.449083142935706 133.51018823283084 0 0 0 0 -85.651396115834359 78.820666569117748 0 78.820666569117748 166.59355497040815 0 0 0 0 -77.042323293633672 76.038970585897914 0 76.038970585897914 169.99129179518786 0 0 0 0 -80.893013222943409 67.901510488372878 0 67.901510488372878 152.99899550952614 0 0 0 0 -50.002629716938827 18.697809214347217 0 18.697809214347217 128.07937121380382 0 0 0 0 -19.019064356136369 13.190387899187044 0 13.190387899187044 52.060915458987438 0 0 0 0 -51.962611467162787 68.255572088390181 0 68.255572088390181 75.993961997679435 0 0 0 0 -54.010730735491961 67.462702244622051 0 67.462702244622051 129.2275655099038 0 0 0 0 2.6636523146880791 20.295944544570375 0 20.295944544570375 71.795703063779001 0 0 0 0 -2.9913344325468643 61.210570925260981 0 61.210570925260981 -11.660125153430272 0 0 0 0 -5.7049487941081267 37.748366186930014 0 37.748366186930014 38.186798346322611 0 0 0 0 -10.02526303373088 59.231416516726313 0 59.231416516726313 -11.54562128908583 0 0 0 0 -5.4077232664567418 25.915942559942778 0 25.915942559942778 70.942832689745046 0 0 0 0 0.84682708879699931 32.592621275653073 0 32.592621275653073 62.591019846677227 0 0 0 0 7.7688958573717173 28.519463153828838 0 28.519463153828838 61.516019019465602 0 0 0 0 -27.742574665677239 37.459378916459173 0 37.459378916459173 68.012280334896786 0 0 0 0 -37.30273453891823 29.66290582160218 0 29.66290582160218 81.419944668297831 0 0 0 0 -24.412978107578965 0.63185873124893988 0 0.63185873124893988 75.01024221476564 0 0 0 0 -52.60530733448104 45.224153040384408 0 45.224153040384408 204.8442160644554 0 0 0 0 1.1401254493189299 41.517032059519593 0 41.517032059519593 33.675329570888721 0 0 0 0 -41.220588637064793 288.72938541568874 0 288.72938541568874 -149.9118265166544 0 0 0 0 -42.130089971484267 91.279222705343273 0 91.279222705343273 16.083735774460365 0 0 0 0 -0.17985240928429391 3.0891463000101282 0 3.0891463000101282 18.330405625890748 0 0 0 0 30.874365265372035 91.632440942776157 0 91.632440942776157 -41.005845809893799 0 0 0 0 294.75580943406385 -101.17984648176935 0 -101.17984648176935 -91.990966531629965 0 0 0 0 -35.148524163570983 -31.274050707872448 0 -31.274050707872448 280.52911002983456 0 0 0 0 -0.70144538143722457 113.27620686604496 0 113.27620686604496 180.23906751505274 0 0 0 0 -16.40987057030361 5.8934991981259373 0 5.8934991981259373 9.6142771564045688 0 0 0 0 -4.5981351317781289 11.115743729083228 0 11.115743729083228 -6.7597349477403839 0 0 0 0 -8.537073433714113 15.208335542283749 0 15.208335542283749 10.512994347373024 0 0 0 0 -19.501963213107956 4.7458490081335185 0 4.7458490081335185 12.976417379439226 0 0 0 0 -8.3326233967061398 13.793253890768938 0 13.793253890768938 2.7459453976334771 0 0 0 0 -14.176166542605642 2.2771617306570988 0 2.2771617306570988 1.0737399850549991 0 0 0 0 -7.0359546137171201 -0.70202879758589631 0 -0.70202879758589631 0.98579867721494452 0 0 0 0 -216.224512420059 299.7185100126153 0 299.7185100126153 -308.09635335744679 0 0 0 0 -12.000416502713961 8.7550972958742932 0 8.7550972958742932 -5.9769748797007196 0 0 0 0 -217.01296467088741 297.93514694180158 0 297.93514694180158 -311.91783433510864 0 0 0 0 -602.75891669242992 531.61627219672664 0 531.61627219672664 -407.01023382780113 0 0 0 0 -12.989838743557812 5.5741539521877712 0 5.5741539521877712 -5.4499733476914116 0 0 0 0 -0.91469791426016656 0.33526137793000998 0 0.33526137793000998 -0.71460705784610923 0 0 0 0 77.513253420876026 48.894724991596377 0 48.894724991596377 -35.067562475262093 0 0 0 0 -4.5627604313242305 6.5544308463262411 0 6.5544308463262411 -7.5884972785332252 0 0 0 0 113.37206677975155 91.867277665398433 0 91.867277665398433 14.62074022879824 0 0 0 0 57.696890220864589 115.56632301372156 0 115.56632301372156 -33.801918933881097 0 0 0 0 33.242955939924286 159.39671167096822 0 159.39671167096822 -36.911977588484206 0 0 0 0 -28.809171581109695 154.9793451712103 0 154.9793451712103 -116.85766217864875 0 0 0 0 -4.6903799824649468 116.07567121593456 0 116.07567121593456 -66.720657123732963 0 0 0 0 -14.849640163578442 174.81500728079845 0 174.81500728079845 -38.374582245276542 0 0 0 0 28.918235000688583 127.33958603823703 0 127.33958603823703 6.8076635059478576 0 0 0 0 34.32964864942187 119.70906586192723 0 119.70906586192723 33.846909043902997 0 0 0 0 -23.972516222398554 150.57863357121823 0 150.57863357121823 18.97355318441987 0 0 0 0 4.0437024378588831 133.7685423762523 0 133.7685423762523 191.63823365661665 0 0 0 0 16.692547937534982 134.68509420783994 0 134.68509420783994 81.241508154518669 0 0 0 0 -9.1745388269300747 164.14120330176593 0 164.14120330176593 71.388095960297505 0 0 0 0 15.303588873179251 111.92841969946312 0 111.92841969946312 122.8867610538291 0 0 0 0 -23.038450404965261 39.223893325950485 0 39.223893325950485 111.63366950675299 0 0 0 0 -11.664877139541204 99.575385953765363 0 99.575385953765363 258.27984484254557 0 0 0 0 71.438741940786713 140.01416794716351 0 140.01416794716351 192.14734039927134 0 0 0 0 31.275769820611458 59.671016425374546 0 59.671016425374546 44.430574364159838 0 0 0 0 15.844062264197419 90.762322234302701 0 90.762322234302701 14.828146917429876 0 0 0 0 5.9866116324810719 59.644534998886229 0 59.644534998886229 59.317871287523303 0 0 0 0 -2.3737569933873601 29.927094334285357 0 29.927094334285357 3.4253187163194525 0 0 0 0 0.97311525687837275 11.182141234537994 0 11.182141234537994 26.162973433740262 0 0 0 0 -6.6409285255561041 10.737321928544112 0 10.737321928544112 10.541484699224668 0 0 0 0 -2.8152135259297211 17.105918407811259 0 17.105918407811259 4.6809460020449478 0 0 0 0 -2.370925821919549 15.466046153835606 0 15.466046153835606 -1.5321006172745588 0 0 0 0 -15.350604211908475 12.17395793297058 0 12.17395793297058 -1.6509070510905701 0 0 0 0 -17.845451822100586 -27.363278812350472 0 -27.363278812350472 198.72910198134196 0 0 0 0 21.966544689385046 7.4254875516999164 0 7.4254875516999164 -20.88371766357659 0 0 0 0 -31.214126146904164 25.315070774780907 0 25.315070774780907 58.099779899479472 0 0 0 0 -12.923979488619807 -4.9285229794986662 0 -4.9285229794986662 61.950530818518018 0 0 0 0 0.39086561470791992 0.41330266582764352 0 0.41330266582764352 -0.70249738913892656 0 0 0 0 -92.004563114822304 39.479399738687789 0 39.479399738687789 -10.015101587623576 0 0 0 0 -0.062911882120246787 2.3216108041663901 0 2.3216108041663901 1.5022681121833159 0 0 0 0 -17.044763790346224 17.076144904133798 0 17.076144904133798 -3.3595566768344725 0 0 0 0 -33.820433863280414 59.298928201795206 0 59.298928201795206 3.1651640717900591 0 0 0 0 -6.7326915302392081 17.676377388719629 0 17.676377388719629 9.0530403723096242 0 0 0 0 18.692551164334873 18.764461003473116 0 18.764461003473116 22.825127733238332 0 0 0 0 6.1049478061154687 14.471506173011171 0 14.471506173011171 8.2499495832302472 0 0 0 0 -24.678876469462381 20.102049894313041 0 20.102049894313041 23.271455441463331 0 0 0 0 -45.78396645180851 45.666427069976635 0 45.666427069976635 5.0303239350505464 0 0 0 0 -20.560777312030584 2.2938664629680403 0 2.2938664629680403 1.8073196069641568 0 0 0 0 -3.6161757088262836 16.39182741214622 0 16.39182741214622 8.6547262757229078 0 0 0 0 4.5060827283959952 21.129614271194441 0 21.129614271194441 -0.30486682927585207 0 0 0 0 3.0526521398015127 18.496753937197923 0 18.496753937197923 0.23443059936585531 0 0 0 0 -2.7350496306802259 2.1175256736467603 0 2.1175256736467603 0.59100456036665605 0 0 0 0 -31.135774138908346 18.695256227150821 0 18.695256227150821 27.943364489941928 0 0 0 0 -22.723117941029614 0.13328426469888655 0 0.13328426469888655 46.084328807271959 0 0 0 0 -40.259969893213793 18.764050601461349 0 18.764050601461349 30.780028669902094 0 0 0 0 -27.196663572579382 18.624330022619688 0 18.624330022619688 29.112834350380581 0 0 0 0 -35.311284964364404 9.2927481814440398 0 9.2927481814440398 77.769704119506059 0 0 0 0 -21.216761187837164 3.2017435033649235 0 3.2017435033649235 75.99389258158044 0 0 0 0 -29.311109719469641 0.42267232551967027 0 0.42267232551967027 96.592504206539445 0 0 0 0 -6.7489253953682713 -2.9629733333608854 0 -2.9629733333608854 -1.2312701191942352 0 0 0 0 -9.4881058860898975 -35.523246216811458 0 -35.523246216811458 96.174130494291603 0 0 0 0 -267.46905355382114 362.15232930125057 0 362.15232930125057 -299.69569022775613 0 0 0 0 -204.66517170458246 241.9218217509042 0 241.9218217509042 -373.69585553555225 0 0 0 0 -215.7350712846528 257.01745945417497 0 257.01745945417497 -340.82882365085243 0 0 0 0 -1.2596732620895637 -18.856643521448859 0 -18.856643521448859 54.212702717097272 0 0 0 0 -11.850753560931071 -0.74237446140676866 0 -0.74237446140676866 -0.48858454386706773 0 0 0 0 -20.054522155872746 -1.9196760440499929 0 -1.9196760440499929 39.434079080929223 0 0 0 0 -275.03107180933694 290.49222569184349 0 290.49222569184349 -283.35591387744353 0 0 0 0 -14.211860451944858 2.4427705357584273 0 2.4427705357584273 0.34700812379014678 0 0 0 0 -6.4860919276239883 -1.2889636589892248 0 -1.2889636589892248 -0.0071289317994001067 0 0 0 0 -182.51002132697249 234.64991358337284 0 234.64991358337284 -313.52813733892071 0 0 0 0 -208.26450050891071 188.93151865639084 0 188.93151865639084 -262.85109043807097 0 0 0 0 -252.35077890290268 185.23999194719363 0 185.23999194719363 -340.72713989673503 0 0 0 0 -276.31119378904344 190.63335772116318 0 190.63335772116318 -266.47231737931725 0 0 0 0 -244.47201653606317 230.4078694840282 0 230.4078694840282 -253.55016860205797 0 0 0 0 -249.16704772189496 236.82717810042232 0 236.82717810042232 -233.21221459443041 0 0 0 0 -220.75508794454731 129.73823148217889 0 129.73823148217889 -147.4325596918643 0 0 0 0 -143.07763672636975 111.78589204141099 0 111.78589204141099 -192.8728289581486 0 0 0 0 -149.30346829420705 120.66606158223294 0 120.66606158223294 -212.45928726874445 0 0 0 0 -261.81837384650589 211.40754437671421 0 211.40754437671421 -240.42300025864097 0 0 0 0 -106.03451774325367 56.159633264509466 0 56.159633264509466 -151.92732532548689 0 0 0 0 -192.55022450191063 112.44039883187725 0 112.44039883187725 -123.83974438907171 0 0 0 0 -122.41310527225232 123.04231688637083 0 123.04231688637083 -221.38543084408593 0 0 0 0 -68.220798468775683 47.952621541560802 0 47.952621541560802 -37.67179155247959 0 0 0 0 -46.492482779709462 -18.405990351493529 0 -18.405990351493529 -47.335338202035018 0 0 0 0 -124.81400016519183 24.976731816863321 0 24.976731816863321 -69.734012427681591 0 0 0 0 -67.694767845554452 42.650731403435202 0 42.650731403435202 -125.60626296100963 0 0 0 0 -151.64067889610669 75.299198634973436 0 75.299198634973436 -76.242502371875162 0 0 0 0 -110.55647589208093 135.00301831860634 0 135.00301831860634 -174.5828253892978 0 0 0 0 -102.70346507039994 88.174506584364281 0 88.174506584364281 -10.361242082137323 0 0 0 0 6.526447882189359 66.533631634950325 0 66.533631634950325 130.14744600378617 0 0 0 0 194.46113792718916 284.2359773152275 0 284.2359773152275 -51.750350280490238 0 0 0 0 22.477431898656505 50.849714289888652 0 50.849714289888652 -94.300156320830865 0 0 0 0 151.56139722529565 148.40055420804765 0 148.40055420804765 -195.94859177031321 0 0 0 0 -341.76236622123724 291.18301494722255 0 291.18301494722255 -179.6571223571591 0 0 0 0 -127.88493798351919 86.838531393808807 0 86.838531393808807 -153.54330442785067 0 0 0 0 -196.29261430924089 137.40633578390589 0 137.40633578390589 -104.93218149499444 0 0 0 0 -1.5225100873541173 -0.80600627471304165 0 -0.80600627471304165 -0.67706742632366002 0 0 0 0 13.150385741478658 -106.00284465316872 0 -106.00284465316872 288.09449145754479 0 0 0 0 -166.82085736956742 367.4284003354951 0 367.4284003354951 -254.59248601487707 0 0 0 0 -123.34304455768597 224.9359174438323 0 224.9359174438323 198.5994260082698 0 0 0 0 -15.559179858650172 19.664534648106056 0 19.664534648106056 -19.592445789414114 0 0 0 0 73.595928441308857 23.576115981937619 0 23.576115981937619 -146.74338777992307 0 0 0 0 115.68946137218609 281.33690834041772 0 281.33690834041772 109.63997147568443 0 0 0 0 1.6300008602242109 0.88476204000266989 0 0.88476204000266989 -1.5473366737698626 0 0 0 0 91.051931052136752 -242.13711452423013 0 -242.13711452423013 -400.83880215547833 0 0 0 0 -0.74022354425590198 1.3850585315503103 0 1.3850585315503103 -4.0650235874588674 0 0 0 0 -289.48747852362283 -194.95491655766909 0 -194.95491655766909 -59.509588732500561 0 0 0 0 -18.286102918867073 -182.39000428133295 0 -182.39000428133295 -148.38359736448911 0 0 0 0 30.971893430523778 252.44497081694135 0 252.44497081694135 2.5260061580065667 0 0 0 0 -263.80816934795121 111.87731201118004 0 111.87731201118004 55.980742544397799 0 0 0 0 178.69781208963968 -36.915192217791628 0 -36.915192217791628 -189.91724160218291 0 0 0 0 127.15219952692314 9.9046905994327972 0 9.9046905994327972 -146.27779986145015 0 0 0 0 14.624801077946813 -54.564623603982909 0 -54.564623603982909 -105.03850502169371 0 0 0 0 147.40393429646701 -166.51429312582377 0 -166.51429312582377 -235.48849760714074 0 0 0 0 320.43383425601894 -76.619348270568992 0 -76.619348270568992 -281.58967126363859 0 0 0 0 -188.06898600350814 284.12993083382389 0 284.12993083382389 108.70025504462683 0 0 0 0 -18.027257834360412 21.878878553627032 0 21.878878553627032 -21.340508415930387 0 0 0 0 72.228725229342672 165.20665154796006 0 165.20665154796006 26.952638838389248 0 0 0 0 61.039452635757456 -126.66174295118958 0 -126.66174295118958 -262.71468182618992 0 0 0 0 115.39666462706782 72.931048816870316 0 72.931048816870316 18.100675225978193 0 0 0 0 32.267674806044603 -47.509421805377826 0 -47.509421805377826 -126.27890044708329 0 0 0 0 2.721715849185701 4.8411341226037194 0 4.8411341226037194 -6.7327957726891725 0 0 0 0 111.60173324736252 111.3027365081216 0 111.3027365081216 51.518629166424944 0 0 0 0 146.43917445487432 88.070071555495815 0 88.070071555495815 23.321513031372888 0 0 0 0 97.495374283669662 295.03041780956664 0 295.03041780956664 422.91470854220097 0 0 0 0 141.2774194544977 209.66228967727875 0 209.66228967727875 161.97938074120975 0 0 0 0 3.4251034931875353 2.7282735940172245 0 2.7282735940172245 -4.4695761390022994 0 0 0 0 154.31623552074552 102.71827547388602 0 102.71827547388602 -23.251869391198852 0 0 0 0 -15.992111095896689 33.717398417215009 0 33.717398417215009 -8.1918530862640182 0 0 0 0 113.27889107628334 79.90713641538423 0 79.90713641538423 11.365759569736838 0 0 0 0 124.40584231533808 73.087126563040329 0 73.087126563040329 -134.17364593541424 0 0 0 0 6.0451627250936326 43.219673038423025 0 43.219673038423025 -65.330094901917619 0 0 0 0 0.20968305963958844 -0.48025448346600186 0 -0.48025448346600186 -1.5337343589030183 0 0 0 0 12.708811872478691 -45.347538841899222 0 -45.347538841899222 -63.726406661377041 0 0 0 0 1.2808569790946578 0.91475091947995679 0 0.91475091947995679 -0.98173685180920245 0 0 0 0 26.52452568582811 -62.325835467460593 0 -62.325835467460593 -101.77336794430448 0 0 0 0 80.484039974751795 15.501321464245848 0 15.501321464245848 -9.5045907887360954 0 0 0 0 151.84756191397628 40.066836422418419 0 40.066836422418419 -63.303813696376892 0 0 0 0 77.078522124840447 50.372012765124964 0 50.372012765124964 16.561045162325172 0 0 0 0 136.12753734024818 133.51942769473317 0 133.51942769473317 108.70113606982341 0 0 0 0 45.353491641359142 40.878767226764467 0 40.878767226764467 15.536377713699039 0 0 0 0 98.637372585224512 41.087723574077245 0 41.087723574077245 -1.4546892282014596 0 0 0 0 80.485368813963305 7.1898294858438021 0 7.1898294858438021 -14.231673115871672 0 0 0 0 109.54634846116642 28.053946790481859 0 28.053946790481859 -24.804479280210217 0 0 0 0 133.56876170615305 32.799685966403558 0 32.799685966403558 -45.550991243093449 0 0 0 0 101.2529561432134 13.868926704963087 0 13.868926704963087 -35.365016164083499 0 0 0 0 88.85273581486581 26.450725073154899 0 26.450725073154899 -7.0934398475310445 0 0 0 0 -5.6276660877429094 -12.415508997994039 0 -12.415508997994039 24.556155373509682 0 0 0 0 81.160414492961536 13.713609195805475 0 13.713609195805475 -20.542691866270616 0 0 0 0 81.83658704825757 6.005912905518926 0 6.005912905518926 -23.540731331057032 0 0 0 0 28.369888261984215 12.738181327675193 0 12.738181327675193 -15.173089161340613 0 0 0 0 24.253468763195769 -12.296205900884161 0 -12.296205900884161 -9.9541586436098441 0 0 0 0 0.23843146567179208 -0.32649286064495442 0 -0.32649286064495442 -3.8279756984280766 0 0 0 0 -31.898116652983845 -14.692817384329828 0 -14.692817384329828 6.2817793418798828 0 0 0 0 33.712814453866486 -9.7586041594586277 0 -9.7586041594586277 5.4550389037540299 0 0 0 0 -7.5601186770290951 -36.208025489890133 0 -36.208025489890133 27.19817265643178 0 0 0 0 -8.5052185613011488 7.5143002414533839 0 7.5143002414533839 -38.884469140502915 0 0 0 0 -18.318102608408481 -10.130617186478048 0 -10.130617186478048 -61.581947699851298 0 0 0 0 -55.385514647067794 -15.813317364616523 0 -15.813317364616523 -33.339304926288605 0 0 0 0 -23.880276835963741 15.784838406605559 0 15.784838406605559 -95.835766187185072 0 0 0 0 -37.223094884341663 -4.5608573780955339 0 -4.5608573780955339 15.063069427611481 0 0 0 0 -16.056273695512573 12.350090057141642 0 12.350090057141642 -17.568868021146045 0 0 0 0 -36.274445937699028 29.371299882398091 0 29.371299882398091 22.208504912799981 0 0 0 0 -22.882847545850382 16.38052221203543 0 16.38052221203543 -1.7483786012744531 0 0 0 0 67.198477137455484 39.002200535931479 0 39.002200535931479 3.9962235982166021 0 0 0 0 -13.199593542311504 67.775888971833865 0 67.775888971833865 12.200650163940736 0 0 0 0 190.42120635799802 1.5983476293622516 0 1.5983476293622516 -143.48966609138006 0 0 0 0 -0.30914265311362588 -1.0696475493810258 0 -1.0696475493810258 2.0359448962921647 0 0 0 0 -51.347141556987481 51.003076005152252 0 51.003076005152252 13.607803156781301 0 0 0 0 -45.345041323036867 21.135164581012759 0 21.135164581012759 -80.339831273900927 0 0 0 0 -72.254408926482938 0.11055504115938675 0 0.11055504115938675 1.0855831889821275 0 0 0 0 -169.57663374815638 9.1334178809593141 0 9.1334178809593141 -78.473360747022525 0 0 0 0 -55.34663380314214 -2.8193934190858272 0 -2.8193934190858272 -167.91007373659522 0 0 0 0 -148.36686203538557 -48.152281159549602 0 -48.152281159549602 383.83696256161238 0 0 0 0 -1.6326824948424132 2.2910056082695576 0 2.2910056082695576 0.053240447945794855 0 0 0 0 298.43029762601509 47.771246343298117 0 47.771246343298117 -680.00755653060332 0 0 0 0 -143.75700754011336 250.48044013771323 0 250.48044013771323 -315.69790533455671 0 0 0 0 -86.602116076600396 156.25726193289574 0 156.25726193289574 -190.58802272407047 0 0 0 0 -50.822343325216934 122.95493976735452 0 122.95493976735452 -134.11950553412316 0 0 0 0 -109.97005784107751 143.51058686211036 0 143.51058686211036 154.16440705416608 0 0 0 0 -11.878371578197402 -19.486264662453323 0 -19.486264662453323 -21.50273137185286 0 0 0 0 -80.301218381030594 65.215176640023856 0 65.215176640023856 -139.57059770947671 0 0 0 0 -56.089689637185984 114.19150526151861 0 114.19150526151861 -40.537419197142299 0 0 0 0 -124.08651423215269 41.859271539005022 0 41.859271539005022 -81.254775919616804 0 0 0 0 -60.796955120624261 32.322236943698954 0 32.322236943698954 -93.075825316082046 0 0 0 0 -69.418082673373647 27.523487270831538 0 27.523487270831538 -90.120188331027748 0 0 0 0 31.937162901177544 -10.338496027392466 0 -10.338496027392466 -121.63194259269949 0 0 0 0 16.522632283139046 42.080013884315122 0 42.080013884315122 -110.69356714328023 0 0 0 0 -7.6162145717680687 12.958245649297169 0 12.958245649297169 -132.49949163601013 0 0 0 0 -6.233493294519235 22.502571876876573 0 22.502571876876573 -135.83010611378995 0 0 0 0 -53.455082260332347 13.196938053995837 0 13.196938053995837 -90.003871496770444 0 0 0 0 -341.84871311511597 183.63153237804727 0 183.63153237804727 1121.4087590047857 0 0 0 0 -126.25193560686603 635.03857710682496 0 635.03857710682496 1303.1971903857411 0 0 0 0 -1.0200269236593158 876.64213758579353 0 876.64213758579353 1215.9787236881566 0 0 0 0 0.0043852956223418005 239.41980135917947 0 239.41980135917947 -277.16000291374257 0 0 0 0 3.8683077287589924 4.0057082156617128 0 4.0057082156617128 3.8770578183320907 0 0 0 0 -319.14557672522278 416.36197095536954 0 416.36197095536954 1959.8268909839371 0 0 0 0 -67.627197572976002 736.97571381479611 0 736.97571381479611 -90.389857823431157 0 0 0 0 -165.39727254731406 85.190217666382523 0 85.190217666382523 426.28594264784806 0 0 0 0 -189.88754436057934 81.574494511227385 0 81.574494511227385 75.214461448477778 0 0 0 0 499.53166959423834 574.50106067358684 0 574.50106067358684 299.41177928385514 0 0 0 0 -338.77926364140512 334.30064830268475 0 334.30064830268475 1417.6499539718425 0 0 0 0 -300.86907958282245 315.66557899526015 0 315.66557899526015 1147.4070795700209 0 0 0 0 -303.91735694389354 472.85283351877297 0 472.85283351877297 939.70366657235718 0 0 0 0 -176.65410107979915 210.44334066479792 0 210.44334066479792 1068.3997463383785 0 0 0 0 -196.05442009296348 114.41158290430917 0 114.41158290430917 1277.7093585030816 0 0 0 0 -119.4587286650567 151.2217942859279 0 151.2217942859279 1196.0577236968638 0 0 0 0 171.39103826392966 92.611929656079155 0 92.611929656079155 312.45564122750147 0 0 0 0 -208.76988407785393 -284.29641913743035 0 -284.29641913743035 926.73535911543877 0 0 0 0 239.94730316760251 280.53477362476042 0 280.53477362476042 775.49212295812686 0 0 0 0 160.30193189603597 143.03726574689063 0 143.03726574689063 668.24794407276386 0 0 0 0 281.09409263148154 672.79405434398382 0 672.79405434398382 763.14317987725371 0 0 0 0 4.0366120918988599 882.05649236074532 0 882.05649236074532 1219.8030631673282 0 0 0 0 46.589314122553333 811.35404961271706 0 811.35404961271706 898.26423679117761 0 0 0 0 -0.96635806994729023 3.0742083296177611 0 3.0742083296177611 1.3882421746572504 0 0 0 0 1099.1669270997591 776.812614407816 0 776.812614407816 589.88215571312139 0 0 0 0 1069.3693301701169 756.64501787230438 0 756.64501787230438 0.17042687877255958 0 0 0 0 -0.48115171179597382 471.0330949834588 0 471.0330949834588 636.72924675428658 0 0 0 0 894.31912176151673 665.24810008741406 0 665.24810008741406 305.73556190528689 0 0 0 0 465.39761797729443 427.5756740925608 0 427.5756740925608 444.46621217474967 0 0 0 0 -2.5309107383496325 4.872229527878531 0 4.872229527878531 1.2807164180402424 0 0 0 0 192.7148235818895 930.17874743446191 0 930.17874743446191 787.66516905938261 0 0 0 0 1018.9122498425204 1375.1179001007422 0 1375.1179001007422 419.29242577979312 0 0 0 0 -0.77758592646102898 2.9683921231726771 0 2.9683921231726771 0.94616474805991402 0 0 0 0 199.17820941687387 169.85881295716172 0 169.85881295716172 335.58492789393131 0 0 0 0 650.20677854083897 1377.4698661724683 0 1377.4698661724683 1339.9374857582516 0 0 0 0 332.20010936248582 231.46153478675114 0 231.46153478675114 1326.3512786621723 0 0 0 0 8.4270388955443138 2.9961845285048412 0 2.9961845285048412 0.82562039334848336 0 0 0 0 642.7041420668902 109.30879891661607 0 109.30879891661607 -586.47111137721367 0 0 0 0 -91.470664071970532 95.830713485129309 0 95.830713485129309 56.773868478914665 0 0 0 0 711.02389568370563 342.37691958610594 0 342.37691958610594 -66.154232197084639 0 0 0 0 926.88257787812108 594.4383098281487 0 594.4383098281487 37.022482489406684 0 0 0 0 510.15645613939159 331.20473033357985 0 331.20473033357985 329.71573288985383 0 0 0 0 331.48239545436809 297.52164793198972 0 297.52164793198972 326.07375975989999 0 0 0 0 304.21147690602993 174.91562909076492 0 174.91562909076492 64.504933855878335 0 0 0 0 -42.931249364810355 15.967656375560182 0 15.967656375560182 319.10524768782852 0 0 0 0 -459.8764545590675 308.78796793181391 0 308.78796793181391 -0.11354633783460114 0 0 0 0 -85.57216998180229 129.51132827591027 0 129.51132827591027 29.709300679336593 0 0 0 0 373.09149734530547 507.00697918092465 0 507.00697918092465 533.88735506112062 0 0 0 0 -8.5213703956582094 4.6655452815868159 0 4.6655452815868159 1.5674776723578248 0 0 0 0 -198.80087287324568 38.131243708568945 0 38.131243708568945 65.889759891804033 0 0 0 0 -36.423716433077061 72.493767345928063 0 72.493767345928063 67.742227459735091 0 0 0 0 -29.787508172226808 186.02623106794044 0 186.02623106794044 -199.86287721148619 0 0 0 0 23.00876927241714 7.0325280905272862 0 7.0325280905272862 1.6282659430786133 0 0 0 0 62.861480537801981 215.84853221997764 0 215.84853221997764 364.98372542231346 0 0 0 0 80.073224280109571 24.873994781635702 0 24.873994781635702 -84.62812469247001 0 0 0 0 -0.46547597015697306 1.5194778016656443 0 1.5194778016656443 -1.8597895492861909 0 0 0 0 69.845540650880139 65.946405574246455 0 65.946405574246455 -36.427747701731278 0 0 0 0 84.062090541194721 105.2016706172808 0 105.2016706172808 43.41085865952482 0 0 0 0 33.830929189572245 11.81778443789193 0 11.81778443789193 -0.43814770575885476 0 0 0 0 -136.34974226130726 177.51784664316256 0 177.51784664316256 -142.85364263371594 0 0 0 0 12.323139973300272 12.406803571200314 0 12.406803571200314 1.1912757145208861 0 0 0 0 4.9396797176806615 8.3743448594018872 0 8.3743448594018872 -1.4114961908580739 0 0 0 0 177.68508696282152 357.08898655322992 0 357.08898655322992 700.52554807581328 0 0 0 0 101.90084373428181 250.80417372390002 0 250.80417372390002 556.30415320703469 0 0 0 0 -8.1034601985356858 88.705783282815901 0 88.705783282815901 -34.208320581874432 0 0 0 0 -9.3185701177604159 14.412972051401212 0 14.412972051401212 -2.0037677214485541 0 0 0 0 219.6773036239465 390.72330504006095 0 390.72330504006095 459.48800007134196 0 0 0 0 504.62583591949078 663.55032670888977 0 663.55032670888977 592.0505915712547 0 0 0 0 158.58922282081767 539.17329120792783 0 539.17329120792783 912.68690450635768 0 0 0 0 150.21964890710296 691.45705341055145 0 691.45705341055145 888.20586762011953 0 0 0 0 147.502692558739 670.53411692228292 0 670.53411692228292 807.78305631309922 0 0 0 0 227.8959194874551 689.77603940798508 0 689.77603940798508 812.38843228671976 0 0 0 0 -10.862847999767837 522.45484874122121 0 522.45484874122121 1121.6697517224093 0 0 0 0 130.18025161023979 579.19805967750654 0 579.19805967750654 1238.4042413700224 0 0 0 0 82.850617485706607 620.09347478200834 0 620.09347478200834 1218.3466438913092 0 0 0 0 305.02323277110918 871.29811627027448 0 871.29811627027448 1234.1025603069647 0 0 0 0 1034.8634868418885 788.37260765982137 0 788.37260765982137 517.62301636303982 0 0 0 0 -2.1046940166966692 1.1509331936637182 0 1.1509331936637182 2.1680612601884235 0 0 0 0 -235.15554819031968 -451.32315450869646 0 -451.32315450869646 123.93357434647623 0 0 0 0 478.37372230818073 625.71930905668523 0 625.71930905668523 1310.5574044751775 0 0 0 0 1859.2478650378034 240.16687764757808 0 240.16687764757808 1395.2936680588318 0 0 0 0 495.04479506136704 1188.5293158127315 0 1188.5293158127315 2228.3504927052054 0 0 0 0 -5.7105393312667729 33.967368754278141 0 33.967368754278141 2341.1262505289851 0 0 0 0 1291.4897915645033 127.46201453761569 0 127.46201453761569 -319.29087227839409 0 0 0 0 12.476652194939817 10.710403864624961 0 10.710403864624961 10.746096622761598 0 0 0 0 -120.04538547883567 188.50562567247835 0 188.50562567247835 2191.0481392409674 0 0 0 0 849.02555594487785 1161.4836944892122 0 1161.4836944892122 1283.7870840150408 0 0 0 0 162.72231892899072 68.650179477263009 0 68.650179477263009 -113.0442032082492 0 0 0 0 32.374605478944147 29.475519862134494 0 29.475519862134494 25.775981089867116 0 0 0 0 25.657439066089864 198.50392898290556 0 198.50392898290556 253.4364486288323 0 0 0 0 -77.689698899746872 -325.68042124813655 0 -325.68042124813655 817.61577958043199 0 0 0 0 97.186579372912092 116.93572851651334 0 116.93572851651334 125.18766235726798 0 0 0 0 0.2262887851902633 156.50120916512242 0 156.50120916512242 516.67886701346924 0 0 0 0 56.232560823103995 -45.164206977413414 0 -45.164206977413414 170.75385538418413 0 0 0 0 108.78502065517387 94.570680800414266 0 94.570680800414266 -70.708297529679839 0 0 0 0 82.165573666366981 109.69890907116132 0 109.69890907116132 136.43838272997527 0 0 0 0 -176.7144569754455 200.07882389970473 0 200.07882389970473 161.41443403549783 0 0 0 0 39.822391773559502 160.02758292533508 0 160.02758292533508 166.35108966627013 0 0 0 0 -19.453679094520339 261.61526848431458 0 261.61526848431458 348.89368664711219 0 0 0 0 99.262197260411995 253.72629083638822 0 253.72629083638822 335.24734828107466 0 0 0 0 35.626731969216053 347.22547469347046 0 347.22547469347046 502.21533679348067 0 0 0 0 -15.702661883649853 295.53212685498147 0 295.53212685498147 293.55400912651385 0 0 0 0 39.80250975792444 243.96239714968328 0 243.96239714968328 335.57329039272008 0 0 0 0 5.0222245206277876 363.68306209218645 0 363.68306209218645 468.66201899179214 0 0 0 0 143.87528920895784 321.65312103033648 0 321.65312103033648 489.50595733517184 0 0 0 0 139.23100074363265 460.44461946938645 0 460.44461946938645 704.63799216488405 0 0 0 0 189.54129960673163 485.25607373502862 0 485.25607373502862 568.19080750554042 0 0 0 0 26.880134476548847 311.96778365750924 0 311.96778365750924 572.96449241338269 0 0 0 0 120.43689147147961 343.29192014881119 0 343.29192014881119 457.98098455321178 0 0 0 0 -2.1662379942714551 336.31993883894972 0 336.31993883894972 630.52770626372512 0 0 0 0 222.55012744109627 641.51844687474477 0 641.51844687474477 862.11129842351511 0 0 0 0 385.22851763642029 872.92276378660245 0 872.92276378660245 985.86851299973387 0 0 0 0 4.5611446635743818 4.4553998833110526 0 4.4553998833110526 1.7088002773883932 0 0 0 0 -7.2719474082732631 374.18190004808275 0 374.18190004808275 757.06373185217308 0 0 0 0 16.23699720743025 545.39077423797244 0 545.39077423797244 1974.7684547288445 0 0 0 0 -158.42296934889237 222.0620816181472 0 222.0620816181472 -16.447847510913562 0 0 0 0 429.32598700653762 1073.8075381933177 0 1073.8075381933177 -58.839516497635486 0 0 0 0 -14.321314475826512 481.45620584102289 0 481.45620584102289 -837.85188450388796 0 0 0 0 -48.11440288666563 679.26593630641946 0 679.26593630641946 -177.10375050682342 0 0 0 0 56.282209788312684 556.08147487715723 0 556.08147487715723 -53.624899978458416 0 0 0 0 -868.3829559894657 442.15816510033255 0 442.15816510033255 -9.5839381371333729 0 0 0 0 328.56821783374471 712.98439323286857 0 712.98439323286857 0.035543252110073809 0 0 0 0 113.83335941870246 823.60217771436328 0 823.60217771436328 649.86843403028251 0 0 0 0 138.10326906620139 698.95860078750411 0 698.95860078750411 187.69098640669836 0 0 0 0 85.548266721312757 573.96169792482397 0 573.96169792482397 460.10962246227427 0 0 0 0 120.95360499691014 493.84566626717424 0 493.84566626717424 640.76371112941376 0 0 0 0 66.845439318771241 455.1063836502326 0 455.1063836502326 672.54459166926608 0 0 0 0 324.48014657580643 531.31398158770298 0 531.31398158770298 540.19919031542668 0 0 0 0 8.4791317788694869 397.44849375864032 0 397.44849375864032 508.30445491093269 0 0 0 0 82.645254438157281 394.88897404546515 0 394.88897404546515 424.66280177445515 0 0 0 0 -7.4695646873697115 377.4739365200694 0 377.4739365200694 308.16641267388331 0 0 0 0 15.522254929866904 425.67348067800958 0 425.67348067800958 392.90260150557879 0 0 0 0 -0.59421847982957843 358.67334979477528 0 358.67334979477528 283.71214777438945 0 0 0 0 48.517370309096435 425.68827870316306 0 425.68827870316306 218.7653076505303 0 0 0 0 48.629027786570077 479.41174639626479 0 479.41174639626479 370.67260588220233 0 0 0 0 48.357404183912877 500.74761929525812 0 500.74761929525812 330.45714688918088 0 0 0 0 154.98175060953417 492.64785857888046 0 492.64785857888046 190.28956744701645 0 0 0 0 185.0340026949425 596.27758307853583 0 596.27758307853583 231.60007910334389 0 0 0 0 195.99270415330102 603.0015650167843 0 603.0015650167843 160.58983004734182 0 0 0 0 145.3230608730446 633.18704924177655 0 633.18704924177655 342.1385273150081 0 0 0 0 294.49400893128404 423.79701773170382 0 423.79701773170382 0.55224528863254818 0 0 0 0 331.27022191933247 350.75454345150501 0 350.75454345150501 113.55450398228277 0 0 0 0 417.86418723721408 275.7307018602678 0 275.7307018602678 174.08835248928153 0 0 0 0 313.17071564995058 380.52559302025838 0 380.52559302025838 196.79498150190147 0 0 0 0 186.29722118037898 269.38437200464068 0 269.38437200464068 247.35128814027848 0 0 0 0 50.691435120017559 450.26025936233418 0 450.26025936233418 258.65491444622239 0 0 0 0 -141.36071456218633 302.61307359294733 0 302.61307359294733 246.21876132019315 0 0 0 0 2.556486339226467 407.82043030688692 0 407.82043030688692 13.181075965279888 0 0 0 0 144.81863623009122 313.36085630812795 0 313.36085630812795 62.702232430652657 0 0 0 0 118.44634796163518 150.32875580068867 0 150.32875580068867 165.82241110094765 0 0 0 0 0.3142572724653192 1.1539255497873455 0 1.1539255497873455 -2.2861407857265874 0 0 0 0 12.979898410940223 279.15050364597482 0 279.15050364597482 150.87328077178972 0 0 0 0 -67.217993952583129 396.53370008044112 0 396.53370008044112 43.420724096002232 0 0 0 0 -258.41899912422377 176.12257879740719 0 176.12257879740719 117.26867508711348 0 0 0 0 -0.28827415475787888 1.284805328577928 0 1.284805328577928 2.6248181286835575 0 0 0 0 -223.7354533657126 325.03480826905979 0 325.03480826905979 260.64517515564694 0 0 0 0 64.56854150797335 198.3469713810955 0 198.3469713810955 -140.49629362861742 0 0 0 0 52.038658842378936 298.75308495886929 0 298.75308495886929 134.89252842500355 0 0 0 0 -34.555369875957695 233.64668794901809 0 233.64668794901809 300.75942186617976 0 0 0 0 -97.308561262383591 442.18347458868084 0 442.18347458868084 142.75787035662142 0 0 0 0 -8.2224257713423867 157.43886745449072 0 157.43886745449072 184.31175894784246 0 0 0 0 -40.662657334120013 254.95414628191793 0 254.95414628191793 240.9514488563691 0 0 0 0 18.732430279702385 375.14119798002321 0 375.14119798002321 276.77987651724834 0 0 0 0 -8.1837143116608786 312.44506682008796 0 312.44506682008796 300.55803292158816 0 0 0 0 -16.724536148663901 290.31024204468849 0 290.31024204468849 356.35708809568496 0 0 0 0 -75.647568218286324 192.56637102319655 0 192.56637102319655 266.97451582411941 0 0 0 0 -17.257582761301819 197.1723911976087 0 197.1723911976087 115.50335448930127 0 0 0 0 -34.021967713761114 254.69506487558101 0 254.69506487558101 234.46857050702965 0 0 0 0 -16.096570133448949 205.25865874515694 0 205.25865874515694 171.74591046999558 0 0 0 0 40.486560170881603 205.14321423772162 0 205.14321423772162 -89.154111778909282 0 0 0 0 9.5626037585498125 241.61968376152799 0 241.61968376152799 124.72538296696803 0 0 0 0 7.8792333057026553 230.34388755707005 0 230.34388755707005 90.158373763595591 0 0 0 0 -2.6985223435294756 109.16115103172706 0 109.16115103172706 5.7362843152914138 0 0 0 0 22.992693848218551 135.57369565799672 0 135.57369565799672 -100.07570407681487 0 0 0 0 -75.571944354032894 176.10723211302684 0 176.10723211302684 -82.376579690597282 0 0 0 0 -4.5520966637923266 113.08042696210759 0 113.08042696210759 -122.73762707069545 0 0 0 0 31.532285892637447 146.20540328494099 0 146.20540328494099 -104.558895111124 0 0 0 0 0.91005176037651836 114.97616576235851 0 114.97616576235851 -63.034779857400281 0 0 0 0 -11.346312499274063 145.62432347256254 0 145.62432347256254 -136.47775361965614 0 0 0 0 -187.15916207128976 204.42048196268297 0 204.42048196268297 -137.52176201272141 0 0 0 0 -138.84002045339003 68.969322555594772 0 68.969322555594772 -69.273940773018694 0 0 0 0 -21.408415436962969 49.25654668383504 0 49.25654668383504 -24.77698682191658 0 0 0 0 -30.756769992687623 95.259105061595619 0 95.259105061595619 -139.44930263284186 0 0 0 0 -105.08777748063585 170.33775192573557 0 170.33775192573557 -101.1691259898289 0 0 0 0 -49.981195787851902 95.775779223080463 0 95.775779223080463 -122.52856198581503 0 0 0 0 14.040350648752792 149.48780927003281 0 149.48780927003281 -91.892510080149805 0 0 0 0 26.307358498797839 115.54810639581046 0 115.54810639581046 -132.30712098051299 0 0 0 0 -13.833163421993959 113.43144505422242 0 113.43144505422242 -74.864222881042224 0 0 0 0 -2.4603948989692981 127.83771905340654 0 127.83771905340654 -72.770145142814727 0 0 0 0 0.059658317577103048 0.33953532616489213 0 0.33953532616489213 -1.7216913807588696 0 0 0 0 4.0117429134843405 90.925206721887662 0 90.925206721887662 139.09680717566516 0 0 0 0 23.887250474373559 -43.97407686233953 0 -43.97407686233953 50.775549349455105 0 0 0 0 -13.304185264576518 12.07007680191964 0 12.07007680191964 172.38213919522968 0 0 0 0 40.476635948947887 191.4684319475715 0 191.4684319475715 -15.448296121234307 0 0 0 0 -9.6874067838543851 11.924309355301375 0 11.924309355301375 11.363035670543468 0 0 0 0 108.7046824619465 20.156990215255064 0 20.156990215255064 -14.469865980317991 0 0 0 0 -0.38787518341321459 0.55645683996705131 0 0.55645683996705131 1.904184566278559 0 0 0 0 92.188963625889301 109.38380734598832 0 109.38380734598832 72.504824292824196 0 0 0 0 42.706840975195519 62.83038505301738 0 62.83038505301738 28.881750743144949 0 0 0 0 24.648741518190945 37.568097867646429 0 37.568097867646429 22.384238616963557 0 0 0 0 12.819901709051464 38.329013187063765 0 38.329013187063765 34.848188349329575 0 0 0 0 2.5964512255955441 6.8117538815314447 0 6.8117538815314447 -2.8280288933103535 0 0 0 0 18.524411283002109 -1.7772676165088797 0 -1.7772676165088797 -1.3706748942859122 0 0 0 0 -0.37271790817742811 3.2210149797896683 0 3.2210149797896683 2.1624202637954113 0 0 0 0 -23.119438014445223 54.852646604105757 0 54.852646604105757 -12.959687379734532 0 0 0 0 -33.980977679553689 42.476433256651944 0 42.476433256651944 -11.932668720080983 0 0 0 0 -1.2350807866023388 -5.0805989872260398 0 -5.0805989872260398 27.034702160352026 0 0 0 0 -26.08172019003905 24.015538621930318 0 24.015538621930318 -41.224639476502489 0 0 0 0 2.6573193590411393 26.032328376313671 0 26.032328376313671 16.669702597140713 0 0 0 0 -4.9792918490344249 4.4954896245327944 0 4.4954896245327944 0.067064818065972531 0 0 0 0 17.163847810597872 13.731149356171954 0 13.731149356171954 -10.644015286219656 0 0 0 0 -3.5470977641816717 8.6079396703644306 0 8.6079396703644306 6.4329504904198984 0 0 0 0 -3.3046430219219474 -10.344558190281532 0 -10.344558190281532 -19.857991758392018 0 0 0 0 2.0908689631221193 6.210960963983748 0 6.210960963983748 7.8217162929502138 0 0 0 0 -0.76360446246690117 27.742003840303369 0 27.742003840303369 16.929290837681037 0 0 0 0 23.016758680099883 -3.9194586003613949 0 -3.9194586003613949 8.4950505244205488 0 0 0 0 -5.1123424087936655 -14.895385488225656 0 -14.895385488225656 85.147778584607295 0 0 0 0 -12.735847779418691 -30.587084982682427 0 -30.587084982682427 138.72996597539168 0 0 0 0 1.1162840485012566 37.477783953494509 0 37.477783953494509 37.499397972751467 0 0 0 0 -17.66583108510531 35.904295376070877 0 35.904295376070877 77.869856597018952 0 0 0 0 0.93708269793873455 22.305011628273064 0 22.305011628273064 2.4477195617280643 0 0 0 0 6.7478915313641181 25.818071838565068 0 25.818071838565068 16.463354538989641 0 0 0 0 9.7768013155846347 14.814209860085157 0 14.814209860085157 20.826073518619523 0 0 0 0 -76.219372837771516 -38.938272111037804 0 -38.938272111037804 354.91508077439175 0 0 0 0 107.93995442265805 371.92316831352582 0 371.92316831352582 199.54152298741155 0 0 0 0 11.647463275618065 -35.983960828019917 0 -35.983960828019917 37.035184634572943 0 0 0 0 0.29401323730234807 -0.020566907670044543 0 -0.020566907670044543 1.4627838884056814 0 0 0 0 -13.81376829792498 -37.663032669694076 0 -37.663032669694076 105.92785881267628 0 0 0 0 -43.341785417745996 19.161864269572106 0 19.161864269572106 167.34115491564444 0 0 0 0 222.74716772898682 51.990081314608688 0 51.990081314608688 103.35230298802344 0 0 0 0 -87.202614096931939 17.453012070265686 0 17.453012070265686 29.66249421066459 0 0 0 0 0.913750874990086 3.3944040556894493 0 3.3944040556894493 5.911221382991215 0 0 0 0 -120.52575422409427 62.648907867085654 0 62.648907867085654 22.099995646063689 0 0 0 0 -844.26903593971656 389.7259357711373 0 389.7259357711373 226.79547850476229 0 0 0 0 -129.46785851679306 -230.7735688417597 0 -230.7735688417597 82.404543987504439 0 0 0 0 3.8038496101483332 1.4803348852467799 0 1.4803348852467799 -4.5969330420005434 0 0 0 0 136.02799928518652 462.363444606548 0 462.363444606548 31.084670404809003 0 0 0 0 -298.90311271512473 299.33317028848251 0 299.33317028848251 88.0862287585187 0 0 0 0 -4.0522108119475888 29.543968026966468 0 29.543968026966468 44.101199910384821 0 0 0 0 357.93253664852818 2.3522793691372499 0 2.3522793691372499 292.17686904380389 0 0 0 0 184.39708568423248 -22.434333211785997 0 -22.434333211785997 -3.4797627126499719 0 0 0 0 1.1283398952889598 4.0905621656046556 0 4.0905621656046556 1.3218321638955999 0 0 0 0 351.71768328581675 270.96309688918336 0 270.96309688918336 -107.8273835160071 0 0 0 0 8.5247520573352205 18.071265739784948 0 18.071265739784948 -7.529075702048587 0 0 0 0 9.8681539680401329 23.906471280595724 0 23.906471280595724 22.852560355066089 0 0 0 0 -4.4945789332587083 19.153017678727792 0 19.153017678727792 22.104307653207798 0 0 0 0 5.492038956258213 15.682615614636443 0 15.682615614636443 26.99617645672474 0 0 0 0 -2.087301499734167 27.918887275072848 0 27.918887275072848 6.6249470135335287 0 0 0 0 2.5357046530172909 22.009242790786061 0 22.009242790786061 20.899331565947485 0 0 0 0 2.7127578179934062 35.653172919814097 0 35.653172919814097 7.1178692147059337 0 0 0 0 3.4188018482473126 -15.555041210523996 0 -15.555041210523996 71.00539037152339 0 0 0 0 17.945130980158865 19.65766048245132 0 19.65766048245132 24.651439285054948 0 0 0 0 7.6541364538934431 -1.372865119647031 0 -1.372865119647031 3.3005334055160347 0 0 0 0 -1.6946324853416712 20.279198430978305 0 20.279198430978305 17.592322436221458 0 0 0 0 2.3469000458790106 -11.170408062184833 0 -11.170408062184833 38.808103272524022 0 0 0 0 21.40129376254481 18.529148191315471 0 18.529148191315471 15.662864733909373 0 0 0 0 7.6437844737821337 3.8909959384243678 0 3.8909959384243678 1.3467313599141306 0 0 0 0 17.31330694189819 1.8366701744671445 0 1.8366701744671445 19.520964963827282 0 0 0 0 0.27017916689587196 17.015296717125146 0 17.015296717125146 4.6307177124554926 0 0 0 0 -7.2922228723982698 30.090573980709451 0 30.090573980709451 2.3761544221379154 0 0 0 0 3.2047214980649841 23.430997299640133 0 23.430997299640133 33.572886608163294 0 0 0 0 -13.844959946141898 37.261464439982774 0 37.261464439982774 1.7823848629668646 0 0 0 0 -27.889837588416412 73.828526833829528 0 73.828526833829528 -16.663496534001752 0 0 0 0 3.0829974041766377 16.420097076546849 0 16.420097076546849 20.619899063478456 0 0 0 0 -3.1943655355116789 34.255772823757525 0 34.255772823757525 -45.251103922681068 0 0 0 0 4.646497919761714 12.973090320018033 0 12.973090320018033 28.745401168586028 0 0 0 0 -51.534485092804971 139.03963455524899 0 139.03963455524899 13.195841672419192 0 0 0 0 -3.6142802342801588 22.769077879058386 0 22.769077879058386 11.701082076706371 0 0 0 0 -4.2963744850130752 -9.2839139917450666 0 -9.2839139917450666 52.713215360852701 0 0 0 0 28.943366367300769 66.86911281634093 0 66.86911281634093 12.714460430019244 0 0 0 0 0.92769314058386954 37.337273858560366 0 37.337273858560366 7.2271743290993982 0 0 0 0 -87.911233129823813 47.758270008891486 0 47.758270008891486 33.666286727155239 0 0 0 0 -20.409228133810807 18.872253984671474 0 18.872253984671474 24.927842182903319 0 0 0 0 -13.8915007666983 47.59779497834279 0 47.59779497834279 25.377849404483641 0 0 0 0 -13.013023422412516 58.881619117610171 0 58.881619117610171 79.475845437355019 0 0 0 0 -28.899428784345218 21.8479397609226 0 21.8479397609226 8.1095378178724786 0 0 0 0 -71.641756469900429 -3.9345900474836526 0 -3.9345900474836526 41.697733501910989 0 0 0 0 -59.137728161254927 -7.5279197682721133 0 -7.5279197682721133 49.48841937819634 0 0 0 0 -22.763148212620827 23.959195732504483 0 23.959195732504483 15.186250101249826 0 0 0 0 -111.75786370324931 36.493141797252974 0 36.493141797252974 6.8619952715635009 0 0 0 0 -9.1188032133530896 4.9453393393229703 0 4.9453393393229703 3.8342702440716323 0 0 0 0 -13.403845764878497 28.684284107897838 0 28.684284107897838 6.4985586584625707 0 0 0 0 -51.168311588546203 9.8256848569544673 0 9.8256848569544673 66.110263570188181 0 0 0 0 -12.624406391001685 59.424719693901352 0 59.424719693901352 -22.989203787015867 0 0 0 0 -27.722071846670588 28.023435602462996 0 28.023435602462996 10.680502449162304 0 0 0 0 -24.637217216557474 83.939241125405715 0 83.939241125405715 7.4854221923123987 0 0 0 0 -20.476358282203343 32.753877618933956 0 32.753877618933956 6.688178029220154 0 0 0 0 -139.23452150391677 95.885690456174416 0 95.885690456174416 11.8930098384335 0 0 0 0 -8.9475394984861367 6.9646799880380712 0 6.9646799880380712 4.2038299235967358 0 0 0 0 -151.0884268563932 -69.545564952657514 0 -69.545564952657514 144.86631637491519 0 0 0 0 64.510122285078978 79.040432995127048 0 79.040432995127048 -51.4146012513811 0 0 0 0 -330.08155684974918 147.19502452174129 0 147.19502452174129 140.31595421176098 0 0 0 0 -0.13471398025097869 2.3085297968939216 0 2.3085297968939216 3.4725706349313086 0 0 0 0 -352.74547185895972 62.083379595525003 0 62.083379595525003 4.2910017198955757 0 0 0 0 -2.4875021431974176 0.98575319231701997 0 0.98575319231701997 3.7430326540744758 0 0 0 0 -8.9744550466130022 13.929670543839165 0 13.929670543839165 124.40154816268114 0 0 0 0 -100.41559194965521 78.242858742953104 0 78.242858742953104 38.832104780900409 0 0 0 0 -87.206260899882182 107.99747135849975 0 107.99747135849975 127.78018270864777 0 0 0 0 -298.67975770085468 117.00850076001734 0 117.00850076001734 215.55307295191596 0 0 0 0 -141.61208294182143 90.438623112913774 0 90.438623112913774 218.84436644147809 0 0 0 0 -141.51964405247418 -6.7490115260807215 0 -6.7490115260807215 142.68617901098332 0 0 0 0 -146.09365590806192 70.987319737059806 0 70.987319737059806 160.95265882357489 0 0 0 0 -42.941673155350145 82.710786560979614 0 82.710786560979614 119.61917918311519 0 0 0 0 11.569595041422872 109.01935445431445 0 109.01935445431445 -14.606081541445747 0 0 0 0 -54.509535478282487 136.68666118499095 0 136.68666118499095 59.910020123716095 0 0 0 0 -27.443294315366074 76.519589833871578 0 76.519589833871578 112.40669608438748 0 0 0 0 -65.641513547001523 90.543580577577814 0 90.543580577577814 120.69949791247927 0 0 0 0 15.688014619747264 99.812987975992201 0 99.812987975992201 121.2738708001707 0 0 0 0 -35.183712866491987 15.522023009416444 0 15.522023009416444 240.695461172043 0 0 0 0 2.1539714681857731 -18.115575240299222 0 -18.115575240299222 212.31555103651772 0 0 0 0 -51.999049862701213 94.471484005829552 0 94.471484005829552 248.7532473595129 0 0 0 0 -12.295970392687678 -1.5334436243961065 0 -1.5334436243961065 9.3574096031004075 0 0 0 0 -47.064769898825034 54.358369378434872 0 54.358369378434872 118.23543226857873 0 0 0 0 -20.628195833087304 17.008086990608717 0 17.008086990608717 37.088189246250018 0 0 0 0 -3.2337507433439896 22.442294222204509 0 22.442294222204509 33.024693533392565 0 0 0 0 18.493582612500177 26.462560614330869 0 26.462560614330869 16.761118214111775 0 0 0 0 -24.313798420840399 11.164477949987546 0 11.164477949987546 28.305229634045304 0 0 0 0 -27.613212901254883 18.754511541963439 0 18.754511541963439 27.939181257017481 0 0 0 0 47.342442783337901 78.827108518558816 0 78.827108518558816 62.699083641404286 0 0 0 0 -9.987923947366653 0.57822183721145848 0 0.57822183721145848 29.918465436847328 0 0 0 0 -8.0138242660967762 10.088470233482056 0 10.088470233482056 15.675938421632281 0 0 0 0 3.616867443609749 28.927625885548917 0 28.927625885548917 18.379680992673798 0 0 0 0 -27.670911667693872 18.978498337324709 0 18.978498337324709 28.047641239492805 0 0 0 0 -38.364482598437462 34.117382477801584 0 34.117382477801584 15.126000553718768 0 0 0 0 7.9666109141433594 49.169673718582516 0 49.169673718582516 29.422573905081777 0 0 0 0 -14.873175604925066 41.138895388870601 0 41.138895388870601 40.681716837690743 0 0 0 0 -34.393316158261271 23.960406981999974 0 23.960406981999974 47.472028724338315 0 0 0 0 15.393678369946429 42.883125846332405 0 42.883125846332405 57.243570436909067 0 0 0 0 11.02569840769138 40.482110206496145 0 40.482110206496145 58.319281881165807 0 0 0 0 4.6282954144116957 45.858231174272078 0 45.858231174272078 72.403155599567981 0 0 0 0 16.797269325994421 31.53597519451796 0 31.53597519451796 80.384443609975278 0 0 0 0 -16.21988823996999 14.774165072946161 0 14.774165072946161 41.067829853854178 0 0 0 0 14.442013046367833 49.036279921418895 0 49.036279921418895 62.936776980306604 0 0 0 0 14.535053625906585 48.271438526935526 0 48.271438526935526 63.424687846076267 0 0 0 0 21.496690340572968 41.694915094114549 0 41.694915094114549 66.884770862699952 0 0 0 0 24.006388824913302 57.039217150042532 0 57.039217150042532 71.514101711683907 0 0 0 0 20.556149230120354 43.668475302998559 0 43.668475302998559 46.883710941253412 0 0 0 0 0.79259595710936992 25.134535104491079 0 25.134535104491079 45.936827968180296 0 0 0 0 15.319917136563163 43.844933313817819 0 43.844933313817819 62.726649813150289 0 0 0 0 14.342150916789649 39.12486331314858 0 39.12486331314858 55.924855141754961 0 0 0 0 17.190332090860466 47.3084515529481 0 47.3084515529481 60.912883722179686 0 0 0 0 16.813198694107996 47.464015405486862 0 47.464015405486862 56.630240874364972 0 0 0 0 -1.5469907194456027 33.89353223809303 0 33.89353223809303 67.605169460821344 0 0 0 0 14.491160555415263 77.566333684851998 0 77.566333684851998 95.718734710389981 0 0 0 0 15.035785925298114 48.984715968908858 0 48.984715968908858 62.597108425024544 0 0 0 0 -1.117670108564198 60.204667016376334 0 60.204667016376334 79.641501627062098 0 0 0 0 7.8136945765945711 47.05674006092886 0 47.05674006092886 98.316838235361502 0 0 0 0 15.043625625541836 49.475740133451382 0 49.475740133451382 76.609831786394352 0 0 0 0 -20.175810286425985 57.596730479839607 0 57.596730479839607 99.799909079440113 0 0 0 0 6.1125534783332114 53.62366629814278 0 53.62366629814278 78.382722970825853 0 0 0 0 -25.209223303769249 -2.3450977064494509 0 -2.3450977064494509 53.85020206450281 0 0 0 0 10.049636075273156 58.924445244003437 0 58.924445244003437 85.468950500944629 0 0 0 0 11.091593501492753 55.020421852401341 0 55.020421852401341 76.732055156913702 0 0 0 0 40.023187386599602 36.470400482125115 0 36.470400482125115 83.283183962746989 0 0 0 0 47.902052309475039 77.911391265297425 0 77.911391265297425 89.26634276859113 0 0 0 0 -10.436144887402335 2.5659086777608167 0 2.5659086777608167 11.265545585642116 0 0 0 0 49.157174988111365 85.539745887275785 0 85.539745887275785 72.249450932045875 0 0 0 0 -13.995051566409529 39.489174030328286 0 39.489174030328286 153.04429620238079 0 0 0 0 38.756588092554011 39.430714294347126 0 39.430714294347126 7.9835808623683988 0 0 0 0 0.085271251873507481 22.642790374935615 0 22.642790374935615 29.27479999743997 0 0 0 0 6.7241351102711633 17.006393292263965 0 17.006393292263965 16.716868327202974 0 0 0 0 -15.009849207730554 22.36230319592606 0 22.36230319592606 47.100880621701648 0 0 0 0 -12.003081470725618 27.979127444803598 0 27.979127444803598 37.041151798801849 0 0 0 0 25.352632412745152 42.969307187908271 0 42.969307187908271 23.549482098344015 0 0 0 0 22.445012683347159 23.759852476083324 0 23.759852476083324 58.875219225461478 0 0 0 0 9.1223026157239602 9.3664875139374715 0 9.3664875139374715 -1.299969242449464 0 0 0 0 60.434862223281016 61.026821121985449 0 61.026821121985449 -22.19263270238298 0 0 0 0 2.6178866792903221 5.755303297539399 0 5.755303297539399 3.0291086257978748 0 0 0 0 27.675728749702103 33.986975815252663 0 33.986975815252663 60.742848440393573 0 0 0 0 21.921067050214333 25.313344966769364 0 25.313344966769364 67.288999262906145 0 0 0 0 -0.073140174783993928 -1.3671040676298816 0 -1.3671040676298816 -3.7458984541938207 0 0 0 0 81.104178970412249 25.118287873447116 0 25.118287873447116 22.365422357557691 0 0 0 0 -133.87493002996052 62.534438917897205 0 62.534438917897205 -29.542947210953571 0 0 0 0 42.077980028949241 -0.67331419954280136 0 -0.67331419954280136 -6.9102532483011601 0 0 0 0 94.593298047075223 22.412736390502687 0 22.412736390502687 6.5787993657322659 0 0 0 0 84.936461872966902 56.182117009165268 0 56.182117009165268 -41.115949163140613 0 0 0 0 82.23834820634147 17.638288151811139 0 17.638288151811139 29.712880338185641 0 0 0 0 59.151666888823456 156.15455692666842 0 156.15455692666842 -21.820943603510386 0 0 0 0 47.906774171401537 41.144027488134363 0 41.144027488134363 34.61439809387474 0 0 0 0 -132.51065341191133 287.54260763825914 0 287.54260763825914 -78.791123119832264 0 0 0 0 -105.06724953163211 69.289768440387888 0 69.289768440387888 106.68547670107 0 0 0 0 52.927139290123975 53.162772296989729 0 53.162772296989729 45.98066493781289 0 0 0 0 71.859536046509675 80.461958623340252 0 80.461958623340252 -41.99814573518961 0 0 0 0 -152.79804126297677 128.81119395030328 0 128.81119395030328 106.58109666496603 0 0 0 0 -56.664800979473512 183.67176362497776 0 183.67176362497776 15.065312749453369 0 0 0 0 97.52268207672023 178.97480625453318 0 178.97480625453318 114.57214807946366 0 0 0 0 -109.98568847291563 83.247840021470552 0 83.247840021470552 85.581004263603973 0 0 0 0 152.8442582040625 352.51326596714898 0 352.51326596714898 -272.45558027321749 0 0 0 0 692.46453523905438 319.39427975257058 0 319.39427975257058 -21.477398510038256 0 0 0 0 710.72964571645707 393.9959127773011 0 393.9959127773011 -738.18343775874746 0 0 0 0 5.982656108830156 3.7184829252542055 0 3.7184829252542055 1.7603578706142855 0 0 0 0 77.737822340401181 102.3987797947957 0 102.3987797947957 347.21036747417565 0 0 0 0 325.51148317039042 -36.685545107796315 0 -36.685545107796315 247.17619726283738 0 0 0 0 587.74161570177239 122.38257788872761 0 122.38257788872761 66.380299752374412 0 0 0 0 313.32014327237812 592.91506061912105 0 592.91506061912105 521.55878052193293 0 0 0 0 249.35236061509568 223.2120500617566 0 223.2120500617566 62.698220194499299 0 0 0 0 118.89748662012425 14.612755855387149 0 14.612755855387149 161.3449805917553 0 0 0 0 -1.6809320169486455 147.70321039725422 0 147.70321039725422 23.928736738987936 0 0 0 0 75.455806176512851 42.027741593639803 0 42.027741593639803 174.61775757541182 0 0 0 0 91.085565138120728 74.40729710171945 0 74.40729710171945 208.28664784240573 0 0 0 0 -81.305488715452157 141.03987907198007 0 141.03987907198007 260.17494876207638 0 0 0 0 10.319629718200304 192.91224144637999 0 192.91224144637999 -126.00708717630914 0 0 0 0 98.146132096226211 -203.31863769970732 0 -203.31863769970732 283.37738798095052 0 0 0 0 -25.944337196153356 -46.860392162641801 0 -46.860392162641801 362.9288240613605 0 0 0 0 3.1326208555112487 -0.21138180517791483 0 -0.21138180517791483 -1.0824734029515639 0 0 0 0 -114.7683426857111 55.479864888277007 0 55.479864888277007 258.69975409300241 0 0 0 0 190.46982493183168 -122.78442252359673 0 -122.78442252359673 7.9182278030239104 0 0 0 0 -125.88505136573804 26.530853851687425 0 26.530853851687425 23.903219765274116 0 0 0 0 257.7688776699797 152.62197901669788 0 152.62197901669788 -8.1925874800890597 0 0 0 0 6.3652485848724609 17.051171359320506 0 17.051171359320506 127.49547049897228 0 0 0 0 -35.510014345491072 109.65658346424425 0 109.65658346424425 192.74733636730889 0 0 0 0 -40.297592905102647 63.336720304112532 0 63.336720304112532 35.365530471106467 0 0 0 0 -104.54909446057718 3.6042369006027002 0 3.6042369006027002 107.26996361505007 0 0 0 0 -108.13394339592924 -42.716535226178166 0 -42.716535226178166 1.6785756632416451 0 0 0 0 -149.14068076791591 -31.574273290416386 0 -31.574273290416386 100.70459085871335 0 0 0 0 -69.18123643250874 -9.9825288157571777 0 -9.9825288157571777 70.351554192686308 0 0 0 0 -83.826971126303761 37.978323291472861 0 37.978323291472861 143.64407416126778 0 0 0 0 -6.0734863184334245 -33.616653160763235 0 -33.616653160763235 87.363136904383282 0 0 0 0 16.080636150953069 20.321326287254124 0 20.321326287254124 44.171071723103523 0 0 0 0 -95.780340687582793 49.299425485452957 0 49.299425485452957 10.966430236589076 0 0 0 0 7.6628231038448575 6.7245031447450856 0 6.7245031447450856 -22.3309811538129 0 0 0 0 8.5284924957595649 3.1714158008308004 0 3.1714158008308004 -15.633590414872742 0 0 0 0 -1.573400464480585 0.21383087186404737 0 0.21383087186404737 0.55467577784806821 0 0 0 0 -60.896910703144385 16.810258537379923 0 16.810258537379923 -30.238749534295494 0 0 0 0 -130.9832285852608 -66.93153456923028 0 -66.93153456923028 -9.7048348586013162 0 0 0 0 77.804954942745098 16.073469238135658 0 16.073469238135658 50.379645783797059 0 0 0 0 160.9031785905463 95.918172240211788 0 95.918172240211788 38.350462180147133 0 0 0 0 -4.2442754471153989 1.1282563441137086 0 1.1282563441137086 3.234658951369866 0 0 0 0 -9.0609549849468749 1.3939660355645174 0 1.3939660355645174 4.7256924184475793 0 0 0 0 -10.479573662407347 25.728452315699542 0 25.728452315699542 -42.190366433234885 0 0 0 0 -33.642451319276006 -0.18871166373719461 0 -0.18871166373719461 6.9665381178056123 0 0 0 0 -1.4391470427820252 0.43296501406092602 0 0.43296501406092602 1.9778096472104068 0 0 0 0 -0.35453735183869028 1.5218704990000447 0 1.5218704990000447 2.5585390093105218 0 0 0 0 -20.014273595181294 32.092717787385482 0 32.092717787385482 -72.652036861793022 0 0 0 0 -0.86814474755374249 -21.262452312816094 0 -21.262452312816094 69.715693313628435 0 0 0 0 32.343818183493568 -26.181969562378072 0 -26.181969562378072 -33.383374386480682 0 0 0 0 -12.586953692517454 -50.130269494703498 0 -50.130269494703498 54.641205461870413 0 0 0 0 -48.923578445806925 -26.049400929803596 0 -26.049400929803596 214.99375476318164 0 0 0 0 -9.2500123540812638 31.427150755182083 0 31.427150755182083 121.49842539487145 0 0 0 0 270.30774024724815 229.36821974791201 0 229.36821974791201 180.39871639052399 0 0 0 0 106.42013688858879 196.13690355297535 0 196.13690355297535 360.72953698983474 0 0 0 0 113.36005039214797 171.84106495932792 0 171.84106495932792 314.28099275953355 0 0 0 0 124.01208410185791 147.42591145188635 0 147.42591145188635 368.78551069207606 0 0 0 0 301.29062131138926 202.25221326755491 0 202.25221326755491 255.43823692637989 0 0 0 0 67.037450970685313 205.52804502697563 0 205.52804502697563 371.01359489867173 0 0 0 0 -0.19566859031789363 0.14508279394623003 0 0.14508279394623003 0.37687986577680732 0 0 0 0 249.31853512817668 338.04513244023235 0 338.04513244023235 280.23562349236818 0 0 0 0 98.536216367378074 -31.429651420230584 0 -31.429651420230584 -170.74570799119829 0 0 0 0 139.77516713894556 220.19413544110421 0 220.19413544110421 111.38205482302874 0 0 0 0 35.349001237627817 250.48596001369333 0 250.48596001369333 204.38032858602492 0 0 0 0 13.055770323240722 47.86960969356187 0 47.86960969356187 43.675644198210648 0 0 0 0 -8.7701976265016128 91.280045134684769 0 91.280045134684769 238.90131753256674 0 0 0 0 -0.020513104466829191 1.5331392750672563 0 1.5331392750672563 -1.3177028422062733 0 0 0 0 32.10361351863321 14.060379613267287 0 14.060379613267287 -71.883687817180544 0 0 0 0 96.841142619938182 159.7918041852372 0 159.7918041852372 248.82094021056946 0 0 0 0 104.57263417613694 211.80779525072694 0 211.80779525072694 306.57006393642587 0 0 0 0 32.369661015160091 -6.8505702547445253 0 -6.8505702547445253 12.358267663614242 0 0 0 0 110.64456136983972 211.86667058282319 0 211.86667058282319 252.85020366282697 0 0 0 0 -1.1183757515727279 3.5004213524974119 0 3.5004213524974119 -3.5330966435182205 0 0 0 0 61.575333795037295 135.55981753320521 0 135.55981753320521 217.30147904192927 0 0 0 0 105.37787165620102 153.7184414415533 0 153.7184414415533 128.71254830608632 0 0 0 0 47.407572532159975 102.50956841939478 0 102.50956841939478 130.44154483039256 0 0 0 0 150.53908879052824 198.84408829755682 0 198.84408829755682 163.92676643535015 0 0 0 0 0.12793410706217401 0.83239126547050546 0 0.83239126547050546 7.0994416970625025 0 0 0 0 -0.87043652814597294 0.92134774979466272 0 0.92134774979466272 5.2106494228022058 0 0 0 0 122.75615273279254 177.2856015075904 0 177.2856015075904 189.21657263682255 0 0 0 0 127.90885236313261 172.42080060078433 0 172.42080060078433 181.85003074496126 0 0 0 0 -2.4980459535069315 5.6208936964727343 0 5.6208936964727343 -4.0333672905678384 0 0 0 0 25.661839485008386 32.09996096021132 0 32.09996096021132 -14.534546945615148 0 0 0 0 -35.079083622178587 28.8354083788563 0 28.8354083788563 18.379214342812702 0 0 0 0 -0.96362789217156575 0.090720697578362319 0 0.090720697578362319 10.834252558610601 0 0 0 0 -1.3292222355667036 -0.08693482140370179 0 -0.08693482140370179 25.893760473947623 0 0 0 0 0.10543449954275275 165.54125798402674 0 165.54125798402674 452.29147108079997 0 0 0 0 209.32567751585884 122.97549891836752 0 122.97549891836752 6.0976191636923431 0 0 0 0 270.60402700364466 293.81058855226456 0 293.81058855226456 389.72303100620047 0 0 0 0 -0.30386795975729086 0.32534377432867245 0 0.32534377432867245 4.3320321467707714 0 0 0 0 -63.652154270312167 -65.999688969082854 0 -65.999688969082854 97.55572481449417 0 0 0 0 -54.061569827495987 27.424609036780566 0 27.424609036780566 429.51793853142954 0 0 0 0 4.638509610624169 334.06346085013683 0 334.06346085013683 512.64013172593195 0 0 0 0 67.664757538113918 271.25221075459922 0 271.25221075459922 612.04842635308523 0 0 0 0 37.663047762762289 125.4658249797958 0 125.4658249797958 590.21265318113819 0 0 0 0 0.036922652554494562 228.27319478056052 0 228.27319478056052 405.97358828600045 0 0 0 0 68.667048928171425 178.37588491489623 0 178.37588491489623 232.03115156079548 0 0 0 0 -62.545004772942775 236.87122057041415 0 236.87122057041415 349.08798938419932 0 0 0 0 175.11133424858417 214.86862935724002 0 214.86862935724002 351.00603921898073 0 0 0 0 -24.664242070688488 264.18769261213765 0 264.18769261213765 350.40440785163082 0 0 0 0 28.154939550488052 240.60212940589736 0 240.60212940589736 216.16346943910685 0 0 0 0 93.589562802815635 328.37396925456778 0 328.37396925456778 224.74270099901014 0 0 0 0 -43.802133004443021 349.93087970842248 0 349.93087970842248 338.27134041219688 0 0 0 0 15.175994338973396 392.56523937723614 0 392.56523937723614 365.3664432887781 0 0 0 0 -29.345376104003662 262.66603060853095 0 262.66603060853095 -71.905716296307219 0 0 0 0 -157.13620499908575 71.52301105092738 0 71.52301105092738 347.38627110115044 0 0 0 0 -83.235111826441425 273.62382621716097 0 273.62382621716097 794.63988188588155 0 0 0 0 9.1958105086696946 8.423441973999779 0 8.423441973999779 5.3188252828267863 0 0 0 0 -57.022389506445734 71.870997676403476 0 71.870997676403476 -69.538532734408363 0 0 0 0 -0.10363862825033721 274.57814527719529 0 274.57814527719529 176.52111214656452 0 0 0 0 25.357701272369013 -1.7144268533002105 0 -1.7144268533002105 0.26620359398293658 0 0 0 0 38.649330974214536 9.1940487964093336 0 9.1940487964093336 -29.996428419894073 0 0 0 0 7.9733173989970965 12.046624362202465 0 12.046624362202465 9.7735000731208856 0 0 0 0 0.65096232673997889 1.5869789697419776 0 1.5869789697419776 -2.3199170336731783 0 0 0 0 -25.31983743080491 24.828221014500286 0 24.828221014500286 -19.91989416405977 0 0 0 0 -0.10479598935853573 26.302813375004007 0 26.302813375004007 -29.973578788364648 0 0 0 0 11.505043322285928 50.32741101101692 0 50.32741101101692 30.254810033704416 0 0 0 0 12.956137987388502 1.0691348796003695 0 1.0691348796003695 -38.852971575495758 0 0 0 0 24.895919713482726 -23.22431187690745 0 -23.22431187690745 10.575424745543842 0 0 0 0 -16.912798644145369 6.7403694641252514 0 6.7403694641252514 -16.951425833096437 0 0 0 0 0.035398932521076176 -0.77331212896675616 0 -0.77331212896675616 -0.15148200106011256 0 0 0 0 7.720826493758068 17.603049005781031 0 17.603049005781031 -23.947467662057534 0 0 0 0 10.235392063885229 -3.5017840872897068 0 -3.5017840872897068 -31.991551955899922 0 0 0 0 -25.575163752379012 14.71785320431627 0 14.71785320431627 -24.109535655181389 0 0 0 0 7.7134509827228612 4.397494538268802 0 4.397494538268802 -0.16582493037867607 0 0 0 0 -2.1291948352009058 39.242779990176132 0 39.242779990176132 1.3460006785389851 0 0 0 0 20.899006287407246 -6.709491478097334 0 -6.709491478097334 -10.526977886253917 0 0 0 0 6.7282315746403185 3.8210461103271705 0 3.8210461103271705 2.1444822658991356 0 0 0 0 8.5039274205482798 34.472847234977962 0 34.472847234977962 -24.293845135962329 0 0 0 0 9.7705201706587985 6.9981795109196057 0 6.9981795109196057 2.2715730010070203 0 0 0 0 19.747061095622485 3.7296593417468102 0 3.7296593417468102 -38.401461688673407 0 0 0 0 -3.6509344930382213 8.0937212217177148 0 8.0937212217177148 11.140156977595325 0 0 0 0 6.6699898387378198 7.7841380607032988 0 7.7841380607032988 4.1553548507945379 0 0 0 0 4.7468180574126677 5.0691617802467022 0 5.0691617802467022 1.5820397603558689 0 0 0 0 5.9349212999211289 6.0310039902723531 0 6.0310039902723531 2.0757871373784056 0 0 0 0 6.0415727722793235 2.1575092597613548 0 2.1575092597613548 -2.9780910656081687 0 0 0 0 -12.96691414730185 102.45047707901631 0 102.45047707901631 13.865703339833999 0 0 0 0 1.3910733125085244 -8.2875828911155622 0 -8.2875828911155622 -8.5499962288049574 0 0 0 0 1.2260317285254132 -14.029321176716621 0 -14.029321176716621 100.07833022614341 0 0 0 0 21.441342650272418 -10.154658704539543 0 -10.154658704539543 -49.902764030943217 0 0 0 0 1.6027267020851639 -0.47105519048483124 0 -0.47105519048483124 -0.56499669893074156 0 0 0 0 29.780220038155676 27.50049334576579 0 27.50049334576579 5.8979028286630637 0 0 0 0 27.592855410854099 49.835437706669836 0 49.835437706669836 73.518635250316038 0 0 0 0 76.165116797295923 29.555290538211921 0 29.555290538211921 4.4672165044976282 0 0 0 0 16.140078671160154 22.912105156326106 0 22.912105156326106 17.466085526561073 0 0 0 0 16.629409781344293 38.21275806419726 0 38.21275806419726 14.164499790702394 0 0 0 0 -56.560246662691497 11.03105737076703 0 11.03105737076703 10.972693553960198 0 0 0 0 11.378478092512523 -53.942212640989965 0 -53.942212640989965 3.7226762230050099 0 0 0 0 5.593542760987475 3.2124544322668953 0 3.2124544322668953 -0.75747861310446751 0 0 0 0 4.9452917391317897 8.4967976430752969 0 8.4967976430752969 -1.4773128636761612 0 0 0 0 2.3442236562987091 4.408880119339301 0 4.408880119339301 -1.6955364071181975 0 0 0 0 2.3184816891352966 6.9903022848998262 0 6.9903022848998262 3.9354663515296124 0 0 0 0 3.8882250418919284 4.9341596282944309 0 4.9341596282944309 1.0089457376788218 0 0 0 0 4.3857409364513842 5.0151902225407738 0 5.0151902225407738 -0.1177614119938184 0 0 0 0 9.9320056803480838 2.9149801520852634 0 2.9149801520852634 5.2526510438929108 0 0 0 0 12.114646342321066 4.4091113335098271 0 4.4091113335098271 -7.6826025531408959 0 0 0 0 0.012306673834245885 6.3527522119729838 0 6.3527522119729838 -7.0186260169475645 0 0 0 0 11.190733256305975 4.0530287555598079 0 4.0530287555598079 -3.5311722128808469 0 0 0 0 -2.0030811791948508 5.1439609310764354 0 5.1439609310764354 -6.8538086863372882 0 0 0 0 0.8948406153632078 1.8396208529381823 0 1.8396208529381823 -2.5304676613004702 0 0 0 0 0.00042296023457311094 2.7713407738428941 0 2.7713407738428941 0.63067001124545641 0 0 0 0 -0.96635767199148859 -0.073833388228763397 0 -0.073833388228763397 1.2625039552686275 0 0 0 0 1.1076615916735477 1.2809159234077754 0 1.2809159234077754 -0.42672643143664146 0 0 0 0 0.19552524913888192 2.8008033846062972 0 2.8008033846062972 0.48580666628913605 0 0 0 0 0.97395632409170219 2.6898652245647696 0 2.6898652245647696 0.021635351551175575 0 0 0 0 0.0012611243336647035 3.2722404904879392 0 3.2722404904879392 -0.098653703607851639 0 0 0 0 1.0232476859346207 3.3636636364190053 0 3.3636636364190053 -0.22903500912798336 0 0 0 0 0.27737217681715265 3.2847445980478369 0 3.2847445980478369 -0.13663660812017042 0 0 0 0 0.72479875024873763 3.5957288775116467 0 3.5957288775116467 0.08689599005447235 0 0 0 0 1.9609138447412988 4.0332980596685957 0 4.0332980596685957 -1.9957173254260852 0 0 0 0 1.9284738752085175 2.8891805424518182 0 2.8891805424518182 -1.7220555026989928 0 0 0 0 3.5487176396939617 4.7857796524966716 0 4.7857796524966716 0.69228141141962851 0 0 0 0 -1.4448009919342439 4.3314993260630814 0 4.3314993260630814 -0.29229951743892713 0 0 0 0 0.40342619965667836 3.854609326353966 0 3.854609326353966 -1.5988046910715639 0 0 0 0 -0.16666907932994945 2.4668329345481652 0 2.4668329345481652 -1.770310724619776 0 0 0 0 -0.19533157868136186 2.6816491857425717 0 2.6816491857425717 -1.1901797629398061 0 0 0 0 0.28826174058688991 2.786257995648441 0 2.786257995648441 0.12350686556106893 0 0 0 0 0.23807058925980584 2.9374724608196985 0 2.9374724608196985 -0.0046802166211676877 0 0 0 0 -1.2436843186795983 2.9978485960454861 0 2.9978485960454861 -1.331172033571832 0 0 0 0 -0.82183100219117478 4.3177860846353724 0 4.3177860846353724 0.54451225575030548 0 0 0 0 4.8620118526960141 39.329202602930309 0 39.329202602930309 45.092439101645141 0 0 0 0 -1.6529634922344769 2.6658841850365604 0 2.6658841850365604 0.50039386514548312 0 0 0 0 2.5476587810844649 7.5567012625215284 0 7.5567012625215284 -32.816288387144596 0 0 0 0 -2.3960225457451827 1.5312503676803999 0 1.5312503676803999 -0.31753454578527318 0 0 0 0 -0.35254366081790067 2.2604502775539004 0 2.2604502775539004 0.61384081393771339 0 0 0 0 -0.90769212038551927 1.5383697757581061 0 1.5383697757581061 -0.064270756055489819 0 0 0 0 -17.973491973782075 2.1958401781521388 0 2.1958401781521388 42.461548665789792 0 0 0 0 -14.376822688445827 34.831138797643689 0 34.831138797643689 41.180401404846634 0 0 0 0 0.2702429477258903 0.76911281889094596 0 0.76911281889094596 -1.0684440380263283 0 0 0 0 31.073996077244374 -44.816493852649728 0 -44.816493852649728 45.809233808839053 0 0 0 0 4.706125098222401 1.3789469935709349 0 1.3789469935709349 -4.0626643991258788 0 0 0 0 -0.0021369451569626108 2.2988963722327753 0 2.2988963722327753 1.4009347852334031 0 0 0 0 18.165906842454206 -77.652850845774083 0 -77.652850845774083 343.25446850307344 0 0 0 0 0.11681333953228901 1.6137515941249205 0 1.6137515941249205 2.0432868858275484 0 0 0 0 -0.032669469850787891 0.005888792611841609 0 0.005888792611841609 2.8657989687397176 0 0 0 0 0.088142046678996167 0.75270979059141752 0 0.75270979059141752 -1.3888671486757005 0 0 0 0 43.131744669895852 -4.1499349870537117 0 -4.1499349870537117 -3.1383583646852458 0 0 0 0 -0.50370547821700029 2.0822798026173359 0 2.0822798026173359 1.2175950782423364 0 0 0 0 -82.369000322112697 326.60381056885308 0 326.60381056885308 613.8811740963356 0 0 0 0 2.7574623441178119 429.55670620895398 0 429.55670620895398 338.13760265179008 0 0 0 0 -83.222419920060929 298.74782122595116 0 298.74782122595116 338.59584065094532 0 0 0 0 23.688172434383887 379.26665097011573 0 379.26665097011573 222.43523493927205 0 0 0 0 13.884057604496775 205.65520075562381 0 205.65520075562381 310.71972563229792 0 0 0 0 -67.024703262606636 16.646522184521018 0 16.646522184521018 354.81847169138928 0 0 0 0 47.75259162918519 122.51239258304304 0 122.51239258304304 181.31325828699482 0 0 0 0 20.928376485153422 80.702157635062576 0 80.702157635062576 149.35747951036319 0 0 0 0 -29.691714351658447 12.151225819916363 0 12.151225819916363 157.86418988202058 0 0 0 0 1.6085505086739431 175.77560129474568 0 175.77560129474568 246.28338094390347 0 0 0 0 93.343251819038159 143.17355272636686 0 143.17355272636686 173.66140943536084 0 0 0 0 93.884679362570921 206.02887823576233 0 206.02887823576233 215.21669474441296 0 0 0 0 193.28295341350895 172.14940831186686 0 172.14940831186686 186.26896690107969 0 0 0 0 324.81049121623437 286.15315870260656 0 286.15315870260656 152.45679650540842 0 0 0 0 -0.82648087164967166 2.5848465076332587 0 2.5848465076332587 0.95800809184933655 0 0 0 0 -0.0012017218032269739 1.9091422918154421 0 1.9091422918154421 5.8394247284686571 0 0 0 0 125.6428468877466 314.02493986512513 0 314.02493986512513 203.02768000945798 0 0 0 0 152.73715533674113 185.41933644768869 0 185.41933644768869 191.11110078492493 0 0 0 0 43.88293966384299 58.70067852324155 0 58.70067852324155 78.836465243097336 0 0 0 0 64.751713485271466 120.32916925918471 0 120.32916925918471 117.12463256846968 0 0 0 0 30.017500819216366 138.27505824388209 0 138.27505824388209 195.34329692565552 0 0 0 0 63.397300080308923 76.589884998473281 0 76.589884998473281 46.188787716471325 0 0 0 0 -4.9142439469116397 1.3302520988071933 0 1.3302520988071933 2.0574325542275673 0 0 0 0 -2.1044454128859797 -2.3034877727232583 0 -2.3034877727232583 4.5326547700497031 0 0 0 0 -4.689897738477157 10.299002820103851 0 10.299002820103851 5.4047793118729714 0 0 0 0 -7.0227599961268652 2.0706102128705908 0 2.0706102128705908 1.6032234279215487 0 0 0 0 -4.0291279771818722 2.5994120704862169 0 2.5994120704862169 -0.97669212924879467 0 0 0 0 4.1544449931097915 6.1585540346213747 0 6.1585540346213747 -13.928968742160578 0 0 0 0 -4.0793094818145619 7.3034710145111603 0 7.3034710145111603 5.999578664074761 0 0 0 0 -2.8217374418236432 11.889362253707077 0 11.889362253707077 2.4777322043992172 0 0 0 0 -0.66819589823094816 2.7232212864661136 0 2.7232212864661136 -1.2023950728055146 0 0 0 0 -6.0477838220148641 2.4812396328481157 0 2.4812396328481157 1.5994872675986755 0 0 0 0 7.568611871437497 -5.3818653934888516 0 -5.3818653934888516 56.876264449514565 0 0 0 0 -4.6062339189369368 3.9655991024540072 0 3.9655991024540072 -0.55576360535170011 0 0 0 0 -1.0368011821346954 5.2770480377625972 0 5.2770480377625972 2.5602618734956195 0 0 0 0 -6.7455165340034 -5.9158677136583719 0 -5.9158677136583719 -6.0120243259716517 0 0 0 0 -7.4817897220436862 2.9462350963376593 0 2.9462350963376593 -5.2997638717824884 0 0 0 0 26.404035567946266 -1.6134782090921362 0 -1.6134782090921362 -12.070348815223042 0 0 0 0 -5.6827317647548625 19.841776361347002 0 19.841776361347002 1.4164449497770875 0 0 0 0 -5.6700012543369667 14.174043891773181 0 14.174043891773181 2.3318687074493027 0 0 0 0 -23.264763146522455 12.636790158006988 0 12.636790158006988 10.966113740179026 0 0 0 0 -6.1899814767763814 9.5294755841767085 0 9.5294755841767085 11.236326339590924 0 0 0 0 -17.478155032928044 12.423394758475297 0 12.423394758475297 10.551629284775117 0 0 0 0 -25.057814357439554 19.649445166793669 0 19.649445166793669 13.065318871438649 0 0 0 0 -9.849787870713044 9.6216401586898428 0 9.6216401586898428 3.7500247491298069 0 0 0 0 -8.0806476498983102 2.8617470924726689 0 2.8617470924726689 0.53112520803530039 0 0 0 0 -4.2243153442759649 2.693971633885667 0 2.693971633885667 -0.68943526001339706 0 0 0 0 -6.8750176983598692 2.0600906425005832 0 2.0600906425005832 2.101766266451051 0 0 0 0 -12.871214431768749 5.6835052411051947 0 5.6835052411051947 5.7402984783075226 0 0 0 0 -4.4427312801296992 0.20239473085068482 0 0.20239473085068482 4.9001029104985179 0 0 0 0 -39.015827250223992 -3.0575819572659384 0 -3.0575819572659384 10.396507883640879 0 0 0 0 -1.4194964247647408 0.32739738092588766 0 0.32739738092588766 4.3999896722531986 0 0 0 0 -69.623547409835737 -21.555867523778943 0 -21.555867523778943 0.67831625406870444 0 0 0 0 -16.274104292235279 7.5708637226898645 0 7.5708637226898645 13.078354061244681 0 0 0 0 -3.8212376870816058 0.97845362788811485 0 0.97845362788811485 1.3763353721708711 0 0 0 0 -5.3719128068985356 2.7117356711043783 0 2.7117356711043783 6.5135680734165362 0 0 0 0 -4.6481994011919596 -1.0525757544091903 0 -1.0525757544091903 5.2062467142204696 0 0 0 0 -65.857254379574442 -7.9293826952598465 0 -7.9293826952598465 27.55013919250996 0 0 0 0 -59.349942772707436 4.2730118257995855 0 4.2730118257995855 19.953110960201229 0 0 0 0 -14.26252161474622 31.464345545285141 0 31.464345545285141 67.904758558277535 0 0 0 0 -24.404246219724691 15.24588461482584 0 15.24588461482584 37.305849695679669 0 0 0 0 -65.702451257624489 -1.4076244023781328 0 -1.4076244023781328 21.451473676104797 0 0 0 0 -3.5723248207330869 28.754396298359943 0 28.754396298359943 -3.3242119733035427 0 0 0 0 -6.7543773138113465 41.098573916913665 0 41.098573916913665 21.966305132855268 0 0 0 0 -1.8893407394316455 38.866695361209167 0 38.866695361209167 8.2753077720226429 0 0 0 0 -54.60925094698905 26.238201983132967 0 26.238201983132967 26.117723073435627 0 0 0 0 -39.964820139804374 8.3581570905339788 0 8.3581570905339788 7.6402799453579355 0 0 0 0 -8.2548672635643285 5.6795651121938491 0 5.6795651121938491 6.2870891169914884 0 0 0 0 -21.808429003460333 16.392155926032501 0 16.392155926032501 15.53319956381165 0 0 0 0 -30.773467962160794 32.042579264311826 0 32.042579264311826 9.0345782079857599 0 0 0 0 -2.8293441870719107 35.189375545697658 0 35.189375545697658 -2.4716151138054556 0 0 0 0 -15.119902566388191 45.194310812465119 0 45.194310812465119 8.2950398077524952 0 0 0 0 -11.318719324150152 24.740400707352478 0 24.740400707352478 -2.2062248303736851 0 0 0 0 -67.552375851431862 -4.0860510143447755 0 -4.0860510143447755 14.618483228094192 0 0 0 0 10.811949683080456 -7.2809070424336824 0 -7.2809070424336824 -30.497304679514855 0 0 0 0 -1.4528484997426858 26.115530563667562 0 26.115530563667562 1.8432344871944224 0 0 0 0 -10.66563048675016 18.649048117564234 0 18.649048117564234 3.886793671777923 0 0 0 0 3.5787433293953654 29.064672704033001 0 29.064672704033001 -4.1449376365999342 0 0 0 0 -7.2850411990710029 13.097276012735776 0 13.097276012735776 7.5579192065884833 0 0 0 0 -11.082371009197232 20.274292955649628 0 20.274292955649628 14.845558954057196 0 0 0 0 -15.816315058305918 18.494788336060992 0 18.494788336060992 18.403472226607846 0 0 0 0 -30.896764266741002 12.8295771141822 0 12.8295771141822 24.394403007609071 0 0 0 0 -3.1476059590359022 10.409767378753955 0 10.409767378753955 18.569233635269377 0 0 0 0 -7.0326917399179365 18.677881892836012 0 18.677881892836012 12.60911589601892 0 0 0 0 -21.138217133295257 17.236804180158288 0 17.236804180158288 12.068910229852918 0 0 0 0 -18.159630202615972 6.1005318045490835 0 6.1005318045490835 11.72620644286053 0 0 0 0 -36.870342658367008 17.127563934525824 0 17.127563934525824 24.129648854113384 0 0 0 0 -12.229742569670634 26.375917380074497 0 26.375917380074497 23.586042131377326 0 0 0 0 -27.234717635510606 7.418776824066299 0 7.418776824066299 26.292144261635258 0 0 0 0 -50.458144579417421 18.534771872848069 0 18.534771872848069 30.198828063788824 0 0 0 0 -34.026370028353995 56.544012214893883 0 56.544012214893883 -39.868225841964886 0 0 0 0 -36.344105645926902 6.5646695249088225 0 6.5646695249088225 35.273911201935334 0 0 0 0 -1.7358615903643226 2.8987499941376385 0 2.8987499941376385 1.8234831399283351 0 0 0 0 -8.7304161756474059 -14.863049902676721 0 -14.863049902676721 29.606729733502107 0 0 0 0 -14.075568276857666 44.426689589501621 0 44.426689589501621 20.718583920948731 0 0 0 0 -30.110491608036682 66.652024232989788 0 66.652024232989788 -23.150681414816063 0 0 0 0 -29.477864709610003 6.0532889366368181 0 6.0532889366368181 32.920577158714877 0 0 0 0 -0.7879443689064658 3.833182822004594 0 3.833182822004594 -0.14189365488561023 0 0 0 0 27.006557990782312 -23.28090384517418 0 -23.28090384517418 13.118789804233529 0 0 0 0 -53.604842423286755 8.774780088049738 0 8.774780088049738 27.223503386740049 0 0 0 0 19.063302624581411 7.0245856777873996 0 7.0245856777873996 10.93016173459182 0 0 0 0 -25.618583721749019 19.850841499348462 0 19.850841499348462 30.65193423305027 0 0 0 0 -62.275227985810488 48.536926048981513 0 48.536926048981513 0.28760956390760839 0 0 0 0 -40.318925257553929 12.277385148536268 0 12.277385148536268 27.489738731372199 0 0 0 0 -26.989685727603501 30.604745570206433 0 30.604745570206433 -16.694649212120567 0 0 0 0 -23.75671770995541 12.376646389973757 0 12.376646389973757 8.8834659388485306 0 0 0 0 35.294280809757765 -138.17530337399512 0 -138.17530337399512 93.171370461619517 0 0 0 0 -92.512434885342373 108.20258235123765 0 108.20258235123765 133.02848317171447 0 0 0 0 -13.878112916050895 14.686193654118398 0 14.686193654118398 -0.8249445026194735 0 0 0 0 -12.485933646326885 11.505429552635178 0 11.505429552635178 3.2224966115836651 0 0 0 0 3.6971196755696756 9.8984960716961368 0 9.8984960716961368 -3.2201858753997215 0 0 0 0 -19.232226806074323 15.539938635243743 0 15.539938635243743 12.309767578197352 0 0 0 0 -1.077338958867827 8.391704054161103 0 8.391704054161103 2.5674829529444025 0 0 0 0 -0.5278447576565668 3.5241925254777016 0 3.5241925254777016 -0.9388649844295287 0 0 0 0 6.8282738711216329 10.414188772230389 0 10.414188772230389 -1.8272441022687076 0 0 0 0 -17.846763104735146 10.979914578029707 0 10.979914578029707 0.59623980330070481 0 0 0 0 -6.1586164781390309 8.3874551714912826 0 8.3874551714912826 4.7229419903090317 0 0 0 0 -18.256386793024745 16.162265548964047 0 16.162265548964047 5.2536102254114923 0 0 0 0 -13.650440989738854 14.377322574811842 0 14.377322574811842 -0.79487568011609255 0 0 0 0 -9.4063758688716916 16.577614293506485 0 16.577614293506485 -7.7577183769039948 0 0 0 0 -14.479198148081196 13.810142587845803 0 13.810142587845803 -12.730577449143311 0 0 0 0 -17.015354384551756 16.214322573805475 0 16.214322573805475 5.7160160762650776 0 0 0 0 -7.2751669387289439 18.120055532593824 0 18.120055532593824 -3.3316072964698833 0 0 0 0 -6.3960571714960679 12.767889042160277 0 12.767889042160277 -2.6154155443537093 0 0 0 0 -0.43572990560259228 10.33800810241587 0 10.33800810241587 -0.095622661615792026 0 0 0 0 2.8012978776444988 11.049879159386151 0 11.049879159386151 -3.8891362869376422 0 0 0 0 -1.8891117520163903 3.8558249651512284 0 3.8558249651512284 0.16494551373312305 0 0 0 0 12.694261323991668 13.817416882512248 0 13.817416882512248 -11.108429400719615 0 0 0 0 55.969905936530267 -6.8711799541279106 0 -6.8711799541279106 -12.962627232867817 0 0 0 0 0.9185890624739983 0.79387472987912133 0 0.79387472987912133 -0.003775398083263326 0 0 0 0 -17.180083210740122 22.67909103121201 0 22.67909103121201 -28.171593505915325 0 0 0 0 16.640626390275116 9.6486256565508484 0 9.6486256565508484 0.017823951057446052 0 0 0 0 3.7127653483476024 14.154985272225531 0 14.154985272225531 -9.0447702984820353 0 0 0 0 39.738319484720705 17.965161361247738 0 17.965161361247738 -4.1034894193121545 0 0 0 0 10.709984680728667 13.985055134536196 0 13.985055134536196 -9.1271928109617875 0 0 0 0 4.6203608995033676 1.2791442294320134 0 1.2791442294320134 -3.7094135737384022 0 0 0 0 3.4635082804816193 14.691953643728084 0 14.691953643728084 -3.132017304567853 0 0 0 0 0.1716628078959701 17.367855938734323 0 17.367855938734323 0.039617717904953054 0 0 0 0 -4.0949763737549176 16.086579200060619 0 16.086579200060619 -4.2077458086746446 0 0 0 0 7.1923576722782805 10.036139403638785 0 10.036139403638785 -7.1318889359451774 0 0 0 0 6.7196687756154461 12.731385709413075 0 12.731385709413075 -2.8605758469057037 0 0 0 0 12.607050190222907 20.170839802082469 0 20.170839802082469 4.0339747406846271 0 0 0 0 -28.698078787496542 19.616911703173784 0 19.616911703173784 6.5379438784323574 0 0 0 0 -7.8469034887893088 13.750207265463182 0 13.750207265463182 2.7016180609291389 0 0 0 0 -6.1897711366618751 18.885563627160082 0 18.885563627160082 1.8640806902221811 0 0 0 0 -9.8704840442951536 18.748164456549603 0 18.748164456549603 0.47008043761888985 0 0 0 0 -1.8943081936593984 5.0966092351455412 0 5.0966092351455412 0.7219425437751692 0 0 0 0 2.7452449398246586 12.87654882359633 0 12.87654882359633 2.0983806673277456 0 0 0 0 -24.295831879215257 27.917221905947372 0 27.917221905947372 -14.196129938267404 0 0 0 0 -21.01320567510993 34.063783085262912 0 34.063783085262912 -13.804979963836558 0 0 0 0 -19.172426484132302 10.318466925406028 0 10.318466925406028 -5.494626372638777 0 0 0 0 -62.083665591035242 29.312310686000274 0 29.312310686000274 6.0909911937487777 0 0 0 0 -22.384664707751654 21.333279810041859 0 21.333279810041859 -17.403677801628874 0 0 0 0 -8.840213805033784 20.626311547713911 0 20.626311547713911 -4.4615501579533543 0 0 0 0 -33.477326937143516 10.889676407126899 0 10.889676407126899 -2.942340921579671 0 0 0 0 -18.475080636083476 3.837945117899153 0 3.837945117899153 -3.4856012145537534 0 0 0 0 -13.788129677122924 5.8190708656475181 0 5.8190708656475181 -4.120367872404131 0 0 0 0 -11.099548092897749 12.20551416600938 0 12.20551416600938 -1.9084699080785867 0 0 0 0 -10.013026797227212 11.10386917066171 0 11.10386917066171 -0.87403193007048685 0 0 0 0 -12.744662142038578 13.495328233693726 0 13.495328233693726 0.68587560417290661 0 0 0 0 -12.885463260274264 7.6925583714764798 0 7.6925583714764798 -3.9221207429236529 0 0 0 0 -21.231770376318309 34.442038755539215 0 34.442038755539215 17.644228224802646 0 0 0 0 -2.9297553746582707 13.29776252721058 0 13.29776252721058 -2.7956208100113145 0 0 0 0 -3.4031087169395278 29.678729248146624 0 29.678729248146624 10.522986156553088 0 0 0 0 7.7065280480019283 20.958443214924046 0 20.958443214924046 -27.36503345807796 0 0 0 0 -17.486644879238156 15.464800796487907 0 15.464800796487907 -13.822712233077254 0 0 0 0 -22.368445953343326 15.648584075461258 0 15.648584075461258 9.1856224363291403 0 0 0 0 -11.602604185954988 6.2320990272974086 0 6.2320990272974086 -6.4087462933457573 0 0 0 0 -2.3185775400265385 0.48169077871382626 0 0.48169077871382626 2.5616838631022816 0 0 0 0 -13.338978976215003 8.688982458825194 0 8.688982458825194 -7.0679238293960225 0 0 0 0 -17.353347907178431 10.999301189907783 0 10.999301189907783 -6.3694496921161772 0 0 0 0 -12.666504665821577 12.605992675214656 0 12.605992675214656 -0.94779187930303621 0 0 0 0 -6.3880952504259767 7.102713905103883 0 7.102713905103883 8.9370199875938852 0 0 0 0 -13.014010197225517 10.065527488061207 0 10.065527488061207 -1.3801159849658653 0 0 0 0 -10.774875035740195 10.262472093997276 0 10.262472093997276 -3.3309536226172973 0 0 0 0 -34.10043168496486 13.459786413661277 0 13.459786413661277 7.2079493984965666 0 0 0 0 -64.326235525833908 12.988848292695366 0 12.988848292695366 61.113519894614001 0 0 0 0 -0.83582733959676148 0.94553691969830567 0 0.94553691969830567 2.6002769573365399 0 0 0 0 -30.115392723404511 -22.183537166205497 0 -22.183537166205497 9.9413404516271839 0 0 0 0 -13.31016929600446 17.404332067028008 0 17.404332067028008 2.7525466793777014 0 0 0 0 -5.526650973218608 8.6537317965589668 0 8.6537317965589668 5.6028675875752398 0 0 0 0 -7.719073125779687 9.0824691578654893 0 9.0824691578654893 14.266285156405502 0 0 0 0 -13.034531223751756 7.4712684014238668 0 7.4712684014238668 0.25200414855444464 0 0 0 0 0.81818601765553467 25.402264896771158 0 25.402264896771158 -8.8707753318324194 0 0 0 0 -11.814455424772177 4.2060074992289955 0 4.2060074992289955 5.7473540201376601 0 0 0 0 -10.012170814690066 11.12542605012063 0 11.12542605012063 -2.8305462919011006 0 0 0 0 -3.294231658011995 22.569055834278515 0 22.569055834278515 -12.736458503550239 0 0 0 0 -8.3618761589459609 15.372685268490386 0 15.372685268490386 -0.36514574460306903 0 0 0 0 -32.35042607136711 19.244610908256618 0 19.244610908256618 20.216854960954151 0 0 0 0 -13.368125881599198 8.1706980127021112 0 8.1706980127021112 0.26236265386156532 0 0 0 0 5.1615453036247345 63.459278048309898 0 63.459278048309898 2.4695239780812699 0 0 0 0 -16.495472975671873 11.107419276984729 0 11.107419276984729 13.210225740567694 0 0 0 0 -9.8318781679324161 6.1874059459199628 0 6.1874059459199628 3.0558519463776932 0 0 0 0 -11.562393272759678 6.9837876996143322 0 6.9837876996143322 1.3248576832965213 0 0 0 0 -10.653517432473521 10.901032437325341 0 10.901032437325341 -5.7148343701144046 0 0 0 0 -5.4906565872806823 21.059210213474671 0 21.059210213474671 -30.028260465224776 0 0 0 0 -14.6195372636721 8.1660821541836413 0 8.1660821541836413 31.329625492146079 0 0 0 0 -0.18274386743296134 2.3674506099262764 0 2.3674506099262764 -0.19915955429351051 0 0 0 0 -4.5711192264061538 6.4060855491406983 0 6.4060855491406983 15.551484023191733 0 0 0 0 -24.860371218848741 21.264340900086609 0 21.264340900086609 28.111668923190336 0 0 0 0 -16.87538077843783 15.634041888886713 0 15.634041888886713 30.750427230459763 0 0 0 0 -22.200484772634809 28.153881526633995 0 28.153881526633995 -9.7086893367281846 0 0 0 0 -16.483919201758454 0.22387586166667006 0 0.22387586166667006 -49.493954546187524 0 0 0 0 3.6054334339169145 52.150438078030675 0 52.150438078030675 -72.302017192243056 0 0 0 0 0.024773489144877203 0.59650716810850746 0 0.59650716810850746 0.8070209424219037 0 0 0 0 -25.749469612695975 55.50094921899472 0 55.50094921899472 -28.743882233684644 0 0 0 0 0.5496208516342449 24.72205255258632 0 24.72205255258632 -32.764835151630905 0 0 0 0 -12.674830593896331 20.242446480119497 0 20.242446480119497 2.2747522672325431 0 0 0 0 -8.5370549315557582 30.648182821165392 0 30.648182821165392 -10.912634850932591 0 0 0 0 -27.680523411792819 46.951680889260388 0 46.951680889260388 0.59256023886246112 0 0 0 0 -33.676148954582459 29.663460596733785 0 29.663460596733785 -12.936401311961163 0 0 0 0 -15.627602946191473 8.57091706763822 0 8.57091706763822 11.455090955019841 0 0 0 0 -40.666750211086764 46.124400808561404 0 46.124400808561404 18.205259649195341 0 0 0 0 -58.220793557869911 12.575479731332962 0 12.575479731332962 13.517052017461538 0 0 0 0 -22.757841308837669 -4.1563682129171866 0 -4.1563682129171866 47.067614427116496 0 0 0 0 -1.4053525024028204 21.457459505726092 0 21.457459505726092 -56.879245748618814 0 0 0 0 -0.52592787578736022 1.6062278447838203 0 1.6062278447838203 -2.0033819396367836 0 0 0 0 -10.102826864163944 45.605318901346436 0 45.605318901346436 -33.762405880996084 0 0 0 0 -47.233239499269985 22.58304389967725 0 22.58304389967725 42.139027346512194 0 0 0 0 -18.334440812221146 15.993674809466029 0 15.993674809466029 1.214503708317352 0 0 0 0 28.042981511818653 34.746762832641252 0 34.746762832641252 7.1424963561421464 0 0 0 0 -15.258552296973946 10.858581066982971 0 10.858581066982971 2.824200557297651 0 0 0 0 -10.533219000852853 12.990613165146598 0 12.990613165146598 -8.8512015802530968 0 0 0 0 -28.337448601399956 -4.6121757944802084 0 -4.6121757944802084 20.437454626906401 0 0 0 0 -7.1379589529533405 9.1920406320004986 0 9.1920406320004986 11.11362488415034 0 0 0 0 -14.224535698516192 11.947495264587083 0 11.947495264587083 -2.4583682793170638 0 0 0 0 -3.2005861508579869 1.1410831310517295 0 1.1410831310517295 3.5628119598883252 0 0 0 0 1.9967955948286544 46.505032774612118 0 46.505032774612118 16.611499201897459 0 0 0 0 -27.722398242338386 25.829993321325674 0 25.829993321325674 14.734152273694235 0 0 0 0 -9.9042057230214056 9.9984113577209399 0 9.9984113577209399 -7.9006270812208399 0 0 0 0 -8.3481748748599784 12.711362954003562 0 12.711362954003562 -2.4720049703491895 0 0 0 0 -9.9500958925316354 10.295780448830747 0 10.295780448830747 -8.0191502958419072 0 0 0 0 -9.3362587234660168 9.5626022471042234 0 9.5626022471042234 -8.702640378025535 0 0 0 0 39.252691955036425 -27.649443976735711 0 -27.649443976735711 4.2394553177505259 0 0 0 0 -32.165985961262777 40.237849926696072 0 40.237849926696072 28.229318863488515 0 0 0 0 11.697633295567357 9.5569663746300648 0 9.5569663746300648 -10.111866860334885 0 0 0 0 -7.4352769203323987 10.41497115375023 0 10.41497115375023 -9.4805622204794417 0 0 0 0 -21.586274102483003 9.6603830420901886 0 9.6603830420901886 5.5062916506722104 0 0 0 0 -4.4538942626133888 5.3562536848427698 0 5.3562536848427698 -3.4173574294162918 0 0 0 0 -50.639379220858245 -0.49675813913199818 0 -0.49675813913199818 15.935639476270808 0 0 0 0 -10.455728278613364 11.53310818123566 0 11.53310818123566 5.5129715164734776 0 0 0 0 -9.1811610875447514 19.111774270835667 0 19.111774270835667 -3.0947683449048782 0 0 0 0 -3.3441012764815241 20.677568531160432 0 20.677568531160432 -4.8935818910395028 0 0 0 0 0.10925116295402404 21.279234661093142 0 21.279234661093142 -8.0994815730682603 0 0 0 0 9.3867558566671505 38.619063745280982 0 38.619063745280982 -23.656247146020178 0 0 0 0 -1.3680121709330706 60.236420195702522 0 60.236420195702522 67.434257218981656 0 0 0 0 4.3035862302949681 44.11426770182652 0 44.11426770182652 8.6406889471418253 0 0 0 0 -2.5522318670191453 28.652561937358769 0 28.652561937358769 38.667713298193121 0 0 0 0 -6.6406099810605497 26.351146859881212 0 26.351146859881212 -5.8574756906737431 0 0 0 0 -8.4569205728134875 42.025279131177967 0 42.025279131177967 74.421281482715131 0 0 0 0 -5.8339491726183041 37.742436911721597 0 37.742436911721597 34.564036845789815 0 0 0 0 0.83135071134165628 22.429665449564709 0 22.429665449564709 41.291481262125671 0 0 0 0 -33.707702149597026 19.757034016603939 0 19.757034016603939 37.049892595190613 0 0 0 0 -19.925451015824365 6.9406996960224205 0 6.9406996960224205 2.9250648505731078 0 0 0 0 -84.175245845453901 56.523273473798326 0 56.523273473798326 47.562146086325811 0 0 0 0 -3.343861291592475 35.342651284185195 0 35.342651284185195 29.476496858922474 0 0 0 0 6.7133361498381419 34.092891643475014 0 34.092891643475014 27.11479680037155 0 0 0 0 -84.780396951806324 47.69929835120638 0 47.69929835120638 176.98133672464064 0 0 0 0 -7.6050596895465787 26.380554089441503 0 26.380554089441503 -4.7100508099774192 0 0 0 0 -29.518605560080687 48.908707597429384 0 48.908707597429384 80.242299143999844 0 0 0 0 -23.225332713780517 31.886241263706324 0 31.886241263706324 51.474409501679474 0 0 0 0 -147.3717718925036 -27.699831320871453 0 -27.699831320871453 123.05493306158314 0 0 0 0 -25.432746121266973 -90.851879708846354 0 -90.851879708846354 -55.00995359056833 0 0 0 0 22.631587905143533 88.825212873332021 0 88.825212873332021 -95.035198580366341 0 0 0 0 -0.30226073290866395 1.1798616762988985 0 1.1798616762988985 -2.9898114142658159 0 0 0 0 -0.1841917375822959 -17.301726286404119 0 -17.301726286404119 -67.687768481640887 0 0 0 0 -186.58243602736184 8.6159153081389377 0 8.6159153081389377 7.8454407599238039 0 0 0 0 24.970369590799237 131.00057744410879 0 131.00057744410879 -30.603226401261054 0 0 0 0 87.374133858516871 -38.987545003727064 0 -38.987545003727064 -125.43812350244025 0 0 0 0 26.972241135514196 31.481730174478798 0 31.481730174478798 -15.860190820736534 0 0 0 0 -6.3866462207824064 13.427173039175635 0 13.427173039175635 -15.472272868010712 0 0 0 0 28.726838433976809 22.16223271286799 0 22.16223271286799 -58.157333158957044 0 0 0 0 -207.78989040230954 -138.73525077062368 0 -138.73525077062368 247.78276660113625 0 0 0 0 -1.8183735050360426 1.9037194024757511 0 1.9037194024757511 -2.1267416120830731 0 0 0 0 184.2975794397953 122.18490149901118 0 122.18490149901118 -456.12658023248514 0 0 0 0 87.723339444331941 -34.338054168796589 0 -34.338054168796589 -63.562964874392492 0 0 0 0 102.73525337081446 -24.433509220338237 0 -24.433509220338237 -70.115089942691156 0 0 0 0 119.65067719857325 29.268984837102835 0 29.268984837102835 3.7689576947723253 0 0 0 0 -4.3692566605532193 69.74823565362567 0 69.74823565362567 0.78163338673766702 0 0 0 0 -132.42196258500553 116.33898129732734 0 116.33898129732734 160.41115150572477 0 0 0 0 -1.8490623489706195 37.760641977976775 0 37.760641977976775 -34.280835860654406 0 0 0 0 10.529870902002585 66.622334172123374 0 66.622334172123374 -11.217631615614664 0 0 0 0 -5.477443026955882 27.193953191059279 0 27.193953191059279 -9.7736870228854542 0 0 0 0 -4.9011359026044374 11.31301997992523 0 11.31301997992523 -8.6269274816513644 0 0 0 0 113.33952076833521 78.139318464163807 0 78.139318464163807 -56.777958671265878 0 0 0 0 24.072760767183354 159.41306013236135 0 159.41306013236135 -16.417941511354002 0 0 0 0 99.822286266651645 214.0363405172393 0 214.0363405172393 0.079691848070069682 0 0 0 0 -47.341578119441692 90.560978303277807 0 90.560978303277807 32.745497721978609 0 0 0 0 -42.892146299021988 94.000379682869607 0 94.000379682869607 18.274839281555614 0 0 0 0 -6.9289986933066103 11.318657276136662 0 11.318657276136662 9.0905663428224841 0 0 0 0 9.6606329572496179 16.338458356956835 0 16.338458356956835 3.8240838538549724 0 0 0 0 -2.2047480069413723 22.645194251006615 0 22.645194251006615 -12.150255833103074 0 0 0 0 -3.311951708747074 3.6517815279621573 0 3.6517815279621573 1.8832011683116434 0 0 0 0 -21.809644821016263 15.483971213339828 0 15.483971213339828 52.633333558183949 0 0 0 0 -8.5369756084910478 20.74585369084889 0 20.74585369084889 -21.111991165329528 0 0 0 0 -3.9495383043640402 11.994462964744244 0 11.994462964744244 -8.5618094571927372 0 0 0 0 -9.7153260438662983 18.592940708704191 0 18.592940708704191 2.8053624716048944 0 0 0 0 -3.504201379626096 4.8802899660838328 0 4.8802899660838328 -7.0919218713160035 0 0 0 0 7.7640591187082464 16.766841870972712 0 16.766841870972712 1.4749311886553187 0 0 0 0 -10.083489847631427 27.70386458633584 0 27.70386458633584 -46.15578473021742 0 0 0 0 -5.6846340680203866 22.560756372549804 0 22.560756372549804 -0.84270382378599606 0 0 0 0 -16.335956691906489 25.905955096368569 0 25.905955096368569 5.3831433260700869 0 0 0 0 -6.8963467247095167 26.982638507189595 0 26.982638507189595 -11.187720793723216 0 0 0 0 -3.9646373550129539 32.809450091310062 0 32.809450091310062 -14.652191343537552 0 0 0 0 -19.766523110069102 23.384256448916858 0 23.384256448916858 -31.414840448225277 0 0 0 0 -4.5459754620642343 26.318649178811029 0 26.318649178811029 3.8065536500157577 0 0 0 0 -5.7859709511784132 13.808809319021528 0 13.808809319021528 2.3396096652319471 0 0 0 0 -11.625186264351214 18.582133951980722 0 18.582133951980722 16.726371918888617 0 0 0 0 -2.7926031210587539 15.674513494890586 0 15.674513494890586 15.348200738693691 0 0 0 0 -26.503635016339103 67.391295139264912 0 67.391295139264912 -23.035117153189276 0 0 0 0 8.4066587284723937 58.830635312846425 0 58.830635312846425 -29.064156934116909 0 0 0 0 0.056872279579692986 25.81932774838242 0 25.81932774838242 -1.8757211754418677 0 0 0 0 -9.1673218434698356 42.34326511015297 0 42.34326511015297 -23.386701236580848 0 0 0 0 -10.203153893189224 18.834820759222374 0 18.834820759222374 -11.174920409164862 0 0 0 0 -23.134109540047575 52.25887498657994 0 52.25887498657994 -3.5499235877769024 0 0 0 0 -33.283957852033382 72.825918847722278 0 72.825918847722278 30.36609493299693 0 0 0 0 -51.450122777109755 96.129771679733267 0 96.129771679733267 90.397184128210938 0 0 0 0 -41.375508318325046 71.081253627478873 0 71.081253627478873 50.798993843138305 0 0 0 0 -157.30199226572222 55.665054186932139 0 55.665054186932139 64.218987523647229 0 0 0 0 -28.652879151421075 106.36215237019314 0 106.36215237019314 -38.369502339010069 0 0 0 0 144.21041231426352 109.20398999205645 0 109.20398999205645 17.472057317601866 0 0 0 0 52.258733270431549 17.3404280849918 0 17.3404280849918 46.714454455466694 0 0 0 0 58.053780082675075 106.99311552126801 0 106.99311552126801 29.046649444950162 0 0 0 0 72.73936608963345 28.489964088888541 0 28.489964088888541 -23.905756943537199 0 0 0 0 -8.8859402111460071 15.232528330512629 0 15.232528330512629 -12.271402006575528 0 0 0 0 26.955804687055206 6.8852963737717801 0 6.8852963737717801 -23.590204646394341 0 0 0 0 -10.646526700944378 33.301338226448934 0 33.301338226448934 -5.212160332397616 0 0 0 0 -54.81077012527021 -1.8042012799960503 0 -1.8042012799960503 -1.2185797163983807 0 0 0 0 -6.2641712533577447 160.58343292210429 0 160.58343292210429 -49.807703550064616 0 0 0 0 -4.5741616428631744 5.6350164258536353 0 5.6350164258536353 -6.8625847103481448 0 0 0 0 -56.186450966652046 34.541350681060067 0 34.541350681060067 10.445702599354263 0 0 0 0 -19.958045916566334 8.643415655795252 0 8.643415655795252 -6.0388237129473055 0 0 0 0 -49.8090863687612 11.314915234576802 0 11.314915234576802 20.302327172470996 0 0 0 0 -18.667939794460835 14.744330819449715 0 14.744330819449715 -6.2102900132849754 0 0 0 0 -14.80631289772613 11.510744282509076 0 11.510744282509076 -4.7250980537432401 0 0 0 0 -27.59064827740076 15.285208591736591 0 15.285208591736591 -3.8105638969282154 0 0 0 0 2.2633183902278518 1.6338319567744541 0 1.6338319567744541 -1.2093292252243675 0 0 0 0 94.591639108279196 134.98208015259115 0 134.98208015259115 127.91203488656629 0 0 0 0 102.26071645748016 81.51615306860549 0 81.51615306860549 65.750400312466809 0 0 0 0 97.063236755529942 95.324762532757632 0 95.324762532757632 44.037198536827418 0 0 0 0 -2.3224165555156269 1.4749423740299719 0 1.4749423740299719 4.0759788892368576 0 0 0 0 -43.524746005736233 9.0613187150102021 0 9.0613187150102021 9.45603096132254 0 0 0 0 113.86651660972257 94.425453570632271 0 94.425453570632271 48.755647496929669 0 0 0 0 -150.68812727286786 -19.66133053982594 0 -19.66133053982594 47.373539503620123 0 0 0 0 -9.948197428653657 40.774676302111402 0 40.774676302111402 -28.886924187292607 0 0 0 0 -34.636780143944634 3.0734837045383756 0 3.0734837045383756 -28.444467262219405 0 0 0 0 84.20273680237824 57.121386478052273 0 57.121386478052273 20.014877024470479 0 0 0 0 91.325015527003416 83.997185382181669 0 83.997185382181669 71.424162254094881 0 0 0 0 182.0093837777822 47.922471368373408 0 47.922471368373408 27.022382636007933 0 0 0 0 33.817454005344189 69.003104032402007 0 69.003104032402007 47.578664892966572 0 0 0 0 -17.417755311764267 4.7421519804702257 0 4.7421519804702257 19.602243402057866 0 0 0 0 -58.860548696791739 38.583485061245028 0 38.583485061245028 4.0751526124295196 0 0 0 0 -56.89027748787521 -17.074883754891744 0 -17.074883754891744 -9.4006422037746233 0 0 0 0 23.78380264984844 51.883233848582677 0 51.883233848582677 20.657547300725128 0 0 0 0 57.725646693565068 31.236641240584504 0 31.236641240584504 11.039936489727211 0 0 0 0 -19.938595815445296 2.7721481797334491 0 2.7721481797334491 -0.97628375459078143 0 0 0 0 0.41587193106595777 -0.51262871851162828 0 -0.51262871851162828 -0.60135546699325459 0 0 0 0 -29.889534419051415 20.323452799420465 0 20.323452799420465 -20.18961494217001 0 0 0 0 -41.359111652079264 -4.6445197457444465 0 -4.6445197457444465 2.2958358797914116 0 0 0 0 -86.785763217058047 7.2855530552897108 0 7.2855530552897108 12.17200115995638 0 0 0 0 -19.657923574286542 28.234313602648854 0 28.234313602648854 2.2252990590877744 0 0 0 0 -5.0181208350149973 10.494818834425132 0 10.494818834425132 23.187381960668517 0 0 0 0 33.296945543528636 115.15033264033673 0 115.15033264033673 57.542135773775954 0 0 0 0 118.8034467267571 74.935726904775947 0 74.935726904775947 -22.344017959097982 0 0 0 0 0.32885292469044103 -0.059073157566629675 0 -0.059073157566629675 0.88583374302365314 0 0 0 0 288.48346575602045 181.88281836160877 0 181.88281836160877 17.177246469726015 0 0 0 0 92.578411650899398 153.4546273805006 0 153.4546273805006 127.51436224831923 0 0 0 0 69.655799645814113 66.915355189455568 0 66.915355189455568 6.0289242430972081 0 0 0 0 82.438265358854551 14.222312863194929 0 14.222312863194929 86.689189645283477 0 0 0 0 -41.622313337109517 42.580868316487795 0 42.580868316487795 -1.1917885402535831 0 0 0 0 49.493787547769898 -19.783473146602773 0 -19.783473146602773 17.708384235520498 0 0 0 0 10.044576536254681 3.5594734083551884 0 3.5594734083551884 -18.173994900424077 0 0 0 0 37.51474659489395 22.272435587429754 0 22.272435587429754 8.3011065286518715 0 0 0 0 37.344320435922782 32.408168797341659 0 32.408168797341659 -16.46971538424441 0 0 0 0 14.040131604615453 15.40757267441586 0 15.40757267441586 -13.430938576341759 0 0 0 0 25.38267113015263 18.309823857333413 0 18.309823857333413 -15.991742322661594 0 0 0 0 15.175850715830165 15.31564162323366 0 15.31564162323366 -21.78865964506258 0 0 0 0 -4.7782601018552668 6.2389111160018729 0 6.2389111160018729 -14.757267577717812 0 0 0 0 -29.720069744813372 25.393931908609375 0 25.393931908609375 -22.001098099613955 0 0 0 0 -59.419076573362872 43.618804445543901 0 43.618804445543901 -15.44428680296005 0 0 0 0 -35.069664849906985 7.1642182246723678 0 7.1642182246723678 -10.594461365239113 0 0 0 0 -7.0187449135574553 0.37778355976592337 0 0.37778355976592337 -1.2902847582127492 0 0 0 0 -8.7784664466978271 29.222068998121969 0 29.222068998121969 -2.3006797683359181 0 0 0 0 99.571574229735688 74.145444687340841 0 74.145444687340841 -47.609601767439017 0 0 0 0 -50.64565916351421 0.20871301482475246 0 0.20871301482475246 -2.7969025726429209 0 0 0 0 66.98921410069488 32.858397894975496 0 32.858397894975496 29.749906487797034 0 0 0 0 4.6671305715083378 -1.2518780025803622 0 -1.2518780025803622 -0.90726347407756691 0 0 0 0 -105.8060933566012 71.319904149382637 0 71.319904149382637 -31.004867403731623 0 0 0 0 77.335684265435702 -9.3584713855943846 0 -9.3584713855943846 12.732365507065879 0 0 0 0 -6.8264741935245183 40.848333003650623 0 40.848333003650623 -35.769940132991906 0 0 0 0 21.943874137535541 27.506969095910328 0 27.506969095910328 -6.321174927458955 0 0 0 0 -1.4716511594631925 28.486668925123489 0 28.486668925123489 -1.2062916354281268 0 0 0 0 -34.540409121451376 36.993539254975985 0 36.993539254975985 2.1195215765292232 0 0 0 0 17.961448498725076 61.180326621591121 0 61.180326621591121 -9.1560032244336753 0 0 0 0 -47.921196957937354 29.950065176593853 0 29.950065176593853 -1.5762140939423261 0 0 0 0 -0.39167933951102896 34.644384061608434 0 34.644384061608434 -23.451776329011409 0 0 0 0 8.2228516397949534 81.252455589109076 0 81.252455589109076 14.299780284262852 0 0 0 0 3.1637211951237987 54.918303541894602 0 54.918303541894602 44.205140248364387 0 0 0 0 2.8302458965238202 57.755065245388721 0 57.755065245388721 20.596169906631076 0 0 0 0 -3.7572165118926932 45.392741039924658 0 45.392741039924658 41.349736908926388 0 0 0 0 -1.8166845058385661 41.407057085577094 0 41.407057085577094 29.400537988520227 0 0 0 0 -0.47989616443010163 35.744114897395207 0 35.744114897395207 68.183931922002557 0 0 0 0 -8.3335253474215278 55.947618048291361 0 55.947618048291361 47.476455362190563 0 0 0 0 3.3493869135818386 28.574366084603298 0 28.574366084603298 52.699253145284274 0 0 0 0 22.706810620275064 22.465198972173766 0 22.465198972173766 52.483131220393716 0 0 0 0 3.2680953584967938 24.610380158270345 0 24.610380158270345 45.623110980284309 0 0 0 0 -2.6283639731736912 31.055346523428852 0 31.055346523428852 54.609865527329475 0 0 0 0 11.631336769652989 71.340091314322308 0 71.340091314322308 65.302739743740403 0 0 0 0 43.187793803106615 68.124486566025325 0 68.124486566025325 53.916290610642136 0 0 0 0 27.882264059571753 41.480811227041158 0 41.480811227041158 50.580197214188445 0 0 0 0 28.774979043819258 41.03056284978868 0 41.03056284978868 50.395140864978202 0 0 0 0 8.9667029660886328 14.478076876406703 0 14.478076876406703 103.07019802023842 0 0 0 0 103.63595639884988 37.909698215786875 0 37.909698215786875 49.201450642037344 0 0 0 0 -0.041598442876420449 54.400497494915726 0 54.400497494915726 100.42568409969067 0 0 0 0 0.73844886487692918 1.7341908984591008 0 1.7341908984591008 1.1424057732216628 0 0 0 0 49.867380005134692 85.14703709446394 0 85.14703709446394 70.110803009816664 0 0 0 0 -15.67602939939934 -22.883572836058477 0 -22.883572836058477 -20.186518038267877 0 0 0 0 30.902063270908911 17.248433188934186 0 17.248433188934186 -83.099619371919516 0 0 0 0 87.447652313350773 101.39498342531135 0 101.39498342531135 -6.244675808472266 0 0 0 0 5.5804211289650993 12.935454965158897 0 12.935454965158897 -10.581599291356724 0 0 0 0 2.2772198640095382 20.810670049679835 0 20.810670049679835 -5.5780508806669902 0 0 0 0 4.8376304901430558 14.58471439881032 0 14.58471439881032 -13.994422081482753 0 0 0 0 14.391493731645824 27.727498254697366 0 27.727498254697366 -14.430041440018613 0 0 0 0 1.5763553065080487 22.12212052884297 0 22.12212052884297 -15.707711233505506 0 0 0 0 -1.3371699470299063 64.604574319513631 0 64.604574319513631 -7.1283381101293344 0 0 0 0 -14.559842751928954 46.925614386245798 0 46.925614386245798 -1.5367227161768824 0 0 0 0 18.61726859016926 45.385969409280733 0 45.385969409280733 -41.917875194136286 0 0 0 0 5.6111450378048175 56.972677919384296 0 56.972677919384296 1.016216095402342 0 0 0 0 19.727455612766789 47.327075126781438 0 47.327075126781438 -70.677795827877048 0 0 0 0 3.5654613749429274 2.629723287554711 0 2.629723287554711 -1.2393770594165883 0 0 0 0 10.324244751269688 21.140434495326851 0 21.140434495326851 -2.8109868166213032 0 0 0 0 -6.772758451739719 -7.7641393221996395 0 -7.7641393221996395 -51.850595000742942 0 0 0 0 46.895366687575006 -118.20003859432109 0 -118.20003859432109 -65.491247998748804 0 0 0 0 7.0067144821453553 21.326203979495936 0 21.326203979495936 -5.538955704657889 0 0 0 0 35.2080016622931 13.321608783285228 0 13.321608783285228 -99.86902542822088 0 0 0 0 -1.2501560707169119 61.837353852564775 0 61.837353852564775 59.284399363994453 0 0 0 0 -26.802621669616201 8.3990744023003572 0 8.3990744023003572 21.715867757196975 0 0 0 0 18.215769079884922 10.307519597352439 0 10.307519597352439 -59.656535922174498 0 0 0 0 7.3500322364125168 49.658852443195428 0 49.658852443195428 -17.732333050465968 0 0 0 0 3.4307688073313329 41.873273632495511 0 41.873273632495511 10.424760851474275 0 0 0 0 11.355301537412743 39.54454407520916 0 39.54454407520916 -16.932603091017654 0 0 0 0 -18.649278797205625 38.529601350192934 0 38.529601350192934 36.188490452662336 0 0 0 0 8.3543219811763265 66.748908069927438 0 66.748908069927438 44.225109898732626 0 0 0 0 25.679435664926132 59.024490662183325 0 59.024490662183325 17.383394519310968 0 0 0 0 -2.9801564937006333 55.718780688733432 0 55.718780688733432 47.944881590694422 0 0 0 0 15.424823784269392 73.780210445765078 0 73.780210445765078 54.410780458010322 0 0 0 0 11.857233218829833 65.739575919410839 0 65.739575919410839 50.508967980375019 0 0 0 0 4.3937761013221461 69.386398150163586 0 69.386398150163586 64.648616464481393 0 0 0 0 0.92829973005427746 64.998984392028888 0 64.998984392028888 64.184586063336667 0 0 0 0 107.0503549263085 0.64042976807286323 0 0.64042976807286323 -6.0771270981981615 0 0 0 0 41.667791334839421 -3.7623749401027453 0 -3.7623749401027453 -1.9326052480882936 0 0 0 0 58.650819125519774 53.428014978424471 0 53.428014978424471 24.575482113981423 0 0 0 0 23.858924202148046 44.427019987085259 0 44.427019987085259 24.262349325364994 0 0 0 0 22.620530885935295 34.609095058025559 0 34.609095058025559 6.8634570806889315 0 0 0 0 25.344540752303146 15.906460372217225 0 15.906460372217225 -22.85895910518957 0 0 0 0 7.8172078649731702 43.641517438415121 0 43.641517438415121 4.0241422452263578 0 0 0 0 20.24605827717096 43.563231757231051 0 43.563231757231051 -22.634425454399207 0 0 0 0 -7.4201078472106019 48.99291654145236 0 48.99291654145236 -38.214235730747532 0 0 0 0 9.1632815062689588 31.073659835188238 0 31.073659835188238 -28.596134370895015 0 0 0 0 0.3357674077997217 12.135311069770978 0 12.135311069770978 -40.051704644481106 0 0 0 0 19.460119647854299 28.125682235527165 0 28.125682235527165 -31.312933702005466 0 0 0 0 28.495638026060988 7.2779400142800341 0 7.2779400142800341 -43.666774215532314 0 0 0 0 53.276343399014877 36.593952202636956 0 36.593952202636956 -7.5936428173217791 0 0 0 0 45.430587862737411 -3.6740464213261248 0 -3.6740464213261248 -5.7944380047083541 0 0 0 0 22.930754355227691 17.048682965330045 0 17.048682965330045 -21.280463718493593 0 0 0 0 3.3723575467301998 72.297584575429937 0 72.297584575429937 -12.568279559160146 0 0 0 0 30.950020702135589 32.927904184935528 0 32.927904184935528 -73.35625334119959 0 0 0 0 24.78175189009562 18.998715939249678 0 18.998715939249678 -73.302530641918565 0 0 0 0 31.160122150024108 22.014011986283776 0 22.014011986283776 -87.083703299138051 0 0 0 0 13.743016493280805 24.941547325373811 0 24.941547325373811 8.8056874215385363 0 0 0 0 28.817982878732437 24.327738517171383 0 24.327738517171383 -73.786942036691471 0 0 0 0 21.88376931307721 22.392148493678178 0 22.392148493678178 -43.296569687237366 0 0 0 0 11.409162124284194 25.942367065084454 0 25.942367065084454 -74.380661209562447 0 0 0 0 10.747650864010211 11.8017258697746 0 11.8017258697746 -60.849347788665455 0 0 0 0 -23.736928792975959 42.004369540068183 0 42.004369540068183 -40.706282007452728 0 0 0 0 14.408325008334941 3.5345841218208989 0 3.5345841218208989 -89.430984986620842 0 0 0 0 -28.985933006319101 6.6569676551252996 0 6.6569676551252996 -55.790847884249956 0 0 0 0 14.871205746541818 18.343594623923309 0 18.343594623923309 -53.099139404223024 0 0 0 0 1.5689320580568165 53.805118511219916 0 53.805118511219916 -106.14202478723837 0 0 0 0 -139.23179009067235 276.32906143721573 0 276.32906143721573 506.54222837740963 0 0 0 0 -76.103588637983194 -484.59573215958517 0 -484.59573215958517 710.83332746238011 0 0 0 0 -29.094851798756281 36.511705308803357 0 36.511705308803357 543.38548292655105 0 0 0 0 8.3863595143311471 -2.2557330678948357 0 -2.2557330678948357 -17.449688437646316 0 0 0 0 -22.746560163082904 -361.76749119455053 0 -361.76749119455053 258.05922155253938 0 0 0 0 7.1720628609546111 23.040089272622936 0 23.040089272622936 21.644321069867146 0 0 0 0 25.55289362561598 76.662747228969238 0 76.662747228969238 177.32332591909289 0 0 0 0 -16.675322063005297 38.175839418945543 0 38.175839418945543 145.7550652257014 0 0 0 0 83.403391324543918 129.52641344771109 0 129.52641344771109 186.3934470186723 0 0 0 0 69.101630405264586 57.390265037126483 0 57.390265037126483 17.139219641416275 0 0 0 0 52.903533690674521 78.619455851752718 0 78.619455851752718 25.341526969896222 0 0 0 0 24.554855725487869 82.723672286734654 0 82.723672286734654 30.200347112320287 0 0 0 0 53.785493114777637 68.156927375919622 0 68.156927375919622 -6.8335246805181669 0 0 0 0 72.3860476523937 64.862497261887825 0 64.862497261887825 18.387377130187815 0 0 0 0 0.67085017219419285 1.8320054868658495 0 1.8320054868658495 4.3746517142284773 0 0 0 0 -6.6112821528295171 -28.672954417557776 0 -28.672954417557776 60.058423525366379 0 0 0 0 -19.874917885310424 26.649872627209334 0 26.649872627209334 87.372207961097956 0 0 0 0 -6.5718201497293194 15.765316568809794 0 15.765316568809794 20.357254340953659 0 0 0 0 -24.54314241182874 92.614096482499008 0 92.614096482499008 18.855561118001788 0 0 0 0 66.473686225816891 34.612635145495915 0 34.612635145495915 -26.608544920829445 0 0 0 0 2.5217188251626794 -10.834495474024152 0 -10.834495474024152 42.657082881674796 0 0 0 0 2.411299282553955 1.2720452308503809 0 1.2720452308503809 4.307680701431309 0 0 0 0 -55.562805658720436 41.602639173061277 0 41.602639173061277 5.1807219287729822 0 0 0 0 16.816191779158544 14.780008852801984 0 14.780008852801984 -33.5515849546955 0 0 0 0 -2.5327479008992668 36.800254936320925 0 36.800254936320925 -4.5147029727850168 0 0 0 0 -52.418585561652435 8.2747938794400397 0 8.2747938794400397 -9.5873720650888572 0 0 0 0 -44.174119879242426 37.48339888761393 0 37.48339888761393 -1.4947356751654297 0 0 0 0 -38.58000570672084 45.525859708291136 0 45.525859708291136 4.1731454973087239 0 0 0 0 -19.451592936573434 30.302821217429482 0 30.302821217429482 -5.2770571612854837 0 0 0 0 -40.931193900105427 35.381403589548427 0 35.381403589548427 5.0719130346276415 0 0 0 0 -44.740549171710882 42.420221968305668 0 42.420221968305668 0.89239758337498643 0 0 0 0 0.50796838964015478 48.153741903179252 0 48.153741903179252 16.427614136504417 0 0 0 0 17.968008257030306 49.349635406360903 0 49.349635406360903 -1.8672226986491296 0 0 0 0 -1.7444382229077746 40.213316518029387 0 40.213316518029387 -4.0014382176022991 0 0 0 0 -1.530494476261083 47.410634347252198 0 47.410634347252198 -0.43175397490904288 0 0 0 0 4.0203778798750136 42.219664329924854 0 42.219664329924854 -5.4696182849220349 0 0 0 0 28.515085010836628 53.129212817061671 0 53.129212817061671 -11.650812157753535 0 0 0 0 23.516608890495263 57.151916184157017 0 57.151916184157017 -11.342652316861631 0 0 0 0 5.4816189341036079 31.369889471339775 0 31.369889471339775 -27.417243903546478 0 0 0 0 58.156515427748673 52.435254387763962 0 52.435254387763962 -24.961186644133704 0 0 0 0 34.309358240534493 66.23450615767797 0 66.23450615767797 -6.9311440879675956 0 0 0 0 32.90492325489322 63.454241238633585 0 63.454241238633585 -12.078939420865936 0 0 0 0 23.522942382151086 68.26892465601486 0 68.26892465601486 0.88112663347797593 0 0 0 0 21.918961349794699 49.677698113900078 0 49.677698113900078 -3.6630603997946309 0 0 0 0 13.60245107843366 60.245056611546715 0 60.245056611546715 -2.787351567973019 0 0 0 0 22.851648860571004 57.049271758864052 0 57.049271758864052 -2.2896985961669998 0 0 0 0 15.045648907071154 40.542013174721433 0 40.542013174721433 -6.4309108172767537 0 0 0 0 31.758101000851639 33.08974708936762 0 33.08974708936762 -14.956165796849746 0 0 0 0 27.506610269639168 57.723768939738875 0 57.723768939738875 16.297902268257531 0 0 0 0 52.948121323952364 49.072547393860987 0 49.072547393860987 -8.6295849917989926 0 0 0 0 28.164370494112518 57.230419744675601 0 57.230419744675601 -2.5200516644408708 0 0 0 0 17.868776101637195 50.078600000263577 0 50.078600000263577 17.036806121284826 0 0 0 0 9.8934065630473924 39.654651473774948 0 39.654651473774948 50.017857673934486 0 0 0 0 23.785511226207745 59.973777335903833 0 59.973777335903833 24.390907852693999 0 0 0 0 58.970445743241726 82.544018297379807 0 82.544018297379807 45.240541085180666 0 0 0 0 28.82132146888398 53.691002739664782 0 53.691002739664782 18.300673524283411 0 0 0 0 -115.15167057849612 49.884831292867602 0 49.884831292867602 111.20941067284366 0 0 0 0 4.2441076232644264 66.573787535888187 0 66.573787535888187 71.953014383609116 0 0 0 0 6.1077459707594244 52.708328681218518 0 52.708328681218518 56.890882345630871 0 0 0 0 -6.7015317235418479 41.108691023053325 0 41.108691023053325 89.219844458257285 0 0 0 0 -2.9611188439339458 -17.854452494912039 0 -17.854452494912039 110.01589417129799 0 0 0 0 -25.187867396154616 11.690414346247053 0 11.690414346247053 44.751572136696268 0 0 0 0 -3.964295560544997 30.678172618174358 0 30.678172618174358 28.289699954068965 0 0 0 0 -3.2080530520142077 7.7723952613227567 0 7.7723952613227567 33.385279644568072 0 0 0 0 -31.127551050885813 23.627298363100635 0 23.627298363100635 35.112914550082948 0 0 0 0 -19.226515742910124 14.822709259824478 0 14.822709259824478 35.042618302617484 0 0 0 0 -35.80218283395152 16.199877798864691 0 16.199877798864691 23.979290731062065 0 0 0 0 -25.189132353712921 26.535249058111731 0 26.535249058111731 5.3732855761190876 0 0 0 0 -56.912418508349219 33.678059735429997 0 33.678059735429997 22.982558726744173 0 0 0 0 -44.750271362301646 40.790162820916521 0 40.790162820916521 11.57030850749652 0 0 0 0 -51.381177624767588 29.3998398585627 0 29.3998398585627 1.8823628775789985 0 0 0 0 -22.517253061036172 38.622504151153407 0 38.622504151153407 -0.50170668385180761 0 0 0 0 -22.516541010917265 38.44676294169561 0 38.44676294169561 14.26868628968441 0 0 0 0 -4.5331266820139717 43.442237055462101 0 43.442237055462101 13.390819302248929 0 0 0 0 1.1284689009553404 34.245318540815788 0 34.245318540815788 17.234600798726888 0 0 0 0 -3.4274430007935734 16.569543732621241 0 16.569543732621241 51.150994223087764 0 0 0 0 7.1975619590284623 46.728720453750611 0 46.728720453750611 36.711845331199584 0 0 0 0 -25.607724008771584 26.644765065516367 0 26.644765065516367 29.878854995058646 0 0 0 0 -44.644343313208083 37.081374907023928 0 37.081374907023928 -21.927821498960839 0 0 0 0 12.840905525424674 13.047465826003659 0 13.047465826003659 2.1354354939755567 0 0 0 0 -43.412885338402702 33.286063922629182 0 33.286063922629182 0.59932471497131701 0 0 0 0 -1.8910056937972115 5.3131926495474744 0 5.3131926495474744 10.99692808020378 0 0 0 0 -41.799442644351984 24.07782970587931 0 24.07782970587931 -7.5027695626740751 0 0 0 0 -34.801778454391751 32.195851186151231 0 32.195851186151231 -8.0330661611633332 0 0 0 0 -42.065023183506128 34.839516337642408 0 34.839516337642408 27.171359589136046 0 0 0 0 -32.663455910427729 43.762806544779778 0 43.762806544779778 4.9475343036010599 0 0 0 0 6.2965422783478857 4.3680961030586332 0 4.3680961030586332 -4.4851952606685117 0 0 0 0 108.45592151588426 -28.247674782503964 0 -28.247674782503964 -3.0133213692188292 0 0 0 0 58.153312083286437 51.565823281832309 0 51.565823281832309 -46.167205256153466 0 0 0 0 -55.922018037694215 38.124518756105317 0 38.124518756105317 -13.84495849103223 0 0 0 0 -70.731057907883951 8.1856629379890364 0 8.1856629379890364 -4.4611308141170412 0 0 0 0 -136.73458082535626 34.115096803808456 0 34.115096803808456 40.717044606313721 0 0 0 0 0.050169380156672716 -0.84114803345872247 0 -0.84114803345872247 0.61120977059101023 0 0 0 0 -62.515927953616483 57.645553612244839 0 57.645553612244839 42.794855799638754 0 0 0 0 8.5856376502924832 55.178113128175028 0 55.178113128175028 31.302340743950481 0 0 0 0 35.475083237975923 22.806798544263984 0 22.806798544263984 -3.6773822357718018 0 0 0 0 11.439128126667129 99.179590301097051 0 99.179590301097051 27.855813858330293 0 0 0 0 -56.750917433426366 3.4403932513896507 0 3.4403932513896507 16.297150629023236 0 0 0 0 -9.9332576709603018 -13.775648753306086 0 -13.775648753306086 9.3884832237290539 0 0 0 0 -37.77807953908632 27.354734680579895 0 27.354734680579895 -0.65095347271562787 0 0 0 0 -3.0013683838294298 6.2288279588134472 0 6.2288279588134472 6.2524207904447557 0 0 0 0 -40.287865277612582 22.996097482244295 0 22.996097482244295 18.541741678673134 0 0 0 0 64.462749179037928 18.445109369669353 0 18.445109369669353 -21.305044531059139 0 0 0 0 -57.332788576713938 29.17433547046403 0 29.17433547046403 -5.645730430371259 0 0 0 0 -59.720507433878083 35.064747830824217 0 35.064747830824217 -6.7604035556780673 0 0 0 0 -0.95274162815747943 30.562517247389628 0 30.562517247389628 -4.9100178821683969 0 0 0 0 135.8436143900617 23.062406506007392 0 23.062406506007392 -26.424854196437082 0 0 0 0 -146.78074528518482 0.71319473020776059 0 0.71319473020776059 141.24780449319951 0 0 0 0 10.019256651024051 3.6323754441306235 0 3.6323754441306235 1.1329562225629459 0 0 0 0 34.89905194430321 -17.37903894306146 0 -17.37903894306146 -96.199640835344326 0 0 0 0 -1.1768605295115151 -0.92263865177040572 0 -0.92263865177040572 2.0353510378212611 0 0 0 0 24.03933635805879 -12.482411339823557 0 -12.482411339823557 -72.561641708991374 0 0 0 0 22.728474235918839 45.647812698617599 0 45.647812698617599 3.3333801028995822 0 0 0 0 24.178625302658929 -1.5147727419226769 0 -1.5147727419226769 -13.534425595647917 0 0 0 0 25.626491286893724 1.7844714932689385 0 1.7844714932689385 -39.910882644569938 0 0 0 0 22.419475435410277 42.750326535506247 0 42.750326535506247 -28.318082177299857 0 0 0 0 27.904945898750157 37.206965839323857 0 37.206965839323857 -23.732927855400703 0 0 0 0 -44.01114405456542 50.044481224340558 0 50.044481224340558 20.409188766955594 0 0 0 0 60.165117047774402 45.890203935275395 0 45.890203935275395 -12.527493262226017 0 0 0 0 1.2399132758747673 30.140158102125291 0 30.140158102125291 -1.3621416781451607 0 0 0 0 24.259413585107723 46.879389471406625 0 46.879389471406625 -4.8767026642253768 0 0 0 0 22.368576520284478 40.352476206555366 0 40.352476206555366 5.8401593807602694 0 0 0 0 -75.566500370907306 9.3663969251651906 0 9.3663969251651906 57.341636326390471 0 0 0 0 -15.450870527813095 0.66350575724482042 0 0.66350575724482042 37.138681345382793 0 0 0 0 -29.454038783282158 29.475049840467364 0 29.475049840467364 37.092948391233222 0 0 0 0 -46.379178553856036 16.827781524203601 0 16.827781524203601 29.145047855543453 0 0 0 0 -47.968806843768107 19.596977342295759 0 19.596977342295759 60.589513709409403 0 0 0 0 -44.813853549370833 38.047894815812469 0 38.047894815812469 49.441471869628003 0 0 0 0 -44.641714379053155 43.605623902739353 0 43.605623902739353 23.988626280990502 0 0 0 0 -23.199701451838337 46.396411176830725 0 46.396411176830725 15.560009912687747 0 0 0 0 -73.203452993460814 39.18183957689871 0 39.18183957689871 5.1601850412444037 0 0 0 0 -62.191200640805619 32.01765861326021 0 32.01765861326021 2.5144561112902011 0 0 0 0 5.7677940538114854 3.4845374356134471 0 3.4845374356134471 0.8706791066475148 0 0 0 0 -16.204862576236337 35.673670541093998 0 35.673670541093998 14.819482392169448 0 0 0 0 10.279045285114442 19.200634812828852 0 19.200634812828852 16.012799399542399 0 0 0 0 -7.0429911043684115 42.187559104427237 0 42.187559104427237 16.786162783402688 0 0 0 0 -28.105570968768916 32.701674964177869 0 32.701674964177869 15.637821584874473 0 0 0 0 7.3951123961205294 12.450282942336827 0 12.450282942336827 11.912397745029878 0 0 0 0 0.97379152773756772 6.1281748641519869 0 6.1281748641519869 11.948648989531026 0 0 0 0 -6.2282963988764095 22.744206051855144 0 22.744206051855144 7.6573896945847082 0 0 0 0 -29.315844493965415 31.165186018480654 0 31.165186018480654 21.831509339001059 0 0 0 0 -13.048017089757195 24.626199961360271 0 24.626199961360271 5.9306327040258111 0 0 0 0 0.39115189187581123 13.565501363754137 0 13.565501363754137 23.37762281934527 0 0 0 0 0.15450672739098081 7.502746692071014 0 7.502746692071014 27.832801070977439 0 0 0 0 -43.224825750043237 7.8270122733938479 0 7.8270122733938479 45.025315015242995 0 0 0 0 -9.6074527641575003 8.665371582009076 0 8.665371582009076 11.176814059156854 0 0 0 0 -1.4491791612412754 1.9354533352784244 0 1.9354533352784244 -0.51307136102756701 0 0 0 0 -15.26613892876594 2.736178188579629 0 2.736178188579629 3.3360377544922812 0 0 0 0 -13.996687276652665 3.6520063003717951 0 3.6520063003717951 18.261200085243217 0 0 0 0 -2.0205740946599633 0.16758364117680946 0 0.16758364117680946 -1.5676219617574763 0 0 0 0 -76.013433987136523 189.8111734630611 0 189.8111734630611 -192.06982565858198 0 0 0 0 -52.611121867314068 -15.281060135730058 0 -15.281060135730058 35.977793112969266 0 0 0 0 13.992286956268799 22.229709794124119 0 22.229709794124119 28.791496348798319 0 0 0 0 -37.085898131976137 1.8317065321398331 0 1.8317065321398331 46.665057093186988 0 0 0 0 -178.08193652509362 74.524133800549635 0 74.524133800549635 20.718228582073607 0 0 0 0 -109.80891981444029 -3.3087603512660735 0 -3.3087603512660735 83.338950575649505 0 0 0 0 -128.07449756425922 110.67380135800977 0 110.67380135800977 -141.54127328922823 0 0 0 0 -0.93912418786730711 0.29387333104242686 0 0.29387333104242686 -9.5891634014240203 0 0 0 0 38.480486427066353 6.9357595788824256 0 6.9357595788824256 -51.570632688773003 0 0 0 0 -7.2548689860559534 12.25721449880939 0 12.25721449880939 -73.855257095965499 0 0 0 0 -4.5662833762180526 20.06105407287032 0 20.06105407287032 18.64682120026805 0 0 0 0 2.8384551216780771 9.5048646165027222 0 9.5048646165027222 -1.640945930450445 0 0 0 0 8.2651371067404398 30.981719049915228 0 30.981719049915228 -20.563333200843772 0 0 0 0 53.813133875493804 -13.370281071841873 0 -13.370281071841873 -7.8830509344898019 0 0 0 0 25.01635037830647 -12.203686401362717 0 -12.203686401362717 6.7942790455044815 0 0 0 0 -78.443160765615175 77.344262755149884 0 77.344262755149884 62.420396761135635 0 0 0 0 -90.123403848221642 26.158362956888141 0 26.158362956888141 -59.811271557810869 0 0 0 0 -239.77271684859807 84.018354125482119 0 84.018354125482119 34.26058408879544 0 0 0 0 -83.749205759784672 8.0962565574818655 0 8.0962565574818655 -54.557801192096122 0 0 0 0 -0.2616254079141882 -0.82293181441403362 0 -0.82293181441403362 -4.4314933008876807 0 0 0 0 -34.438886490206642 37.397286549103029 0 37.397286549103029 25.88753746075642 0 0 0 0 0.99770965426092428 29.531812213653275 0 29.531812213653275 20.422936178756451 0 0 0 0 92.840525322688336 -8.7960184512644446 0 -8.7960184512644446 -33.745895175582291 0 0 0 0 1.3698996192251798 44.517472437727037 0 44.517472437727037 12.581091873341279 0 0 0 0 6.1822804077673936 43.333684051759064 0 43.333684051759064 6.3501951644357177 0 0 0 0 1.0535694148383432 29.668342008401787 0 29.668342008401787 10.060475188641451 0 0 0 0 124.43703821601594 -6.4234881440893332 0 -6.4234881440893332 -29.576467903655612 0 0 0 0 -11.478280444924167 40.335856017722335 0 40.335856017722335 13.631853657809643 0 0 0 0 18.460797829917283 45.303503849328536 0 45.303503849328536 3.0720547654331085 0 0 0 0 -279.050159931081 236.1834893568348 0 236.1834893568348 61.63001127519351 0 0 0 0 1.0364181855897043 30.371823162685914 0 30.371823162685914 2.8608037810609339 0 0 0 0 100.50669426499144 163.66841005418371 0 163.66841005418371 -197.4945333466967 0 0 0 0 17.272931676801818 45.747729256156845 0 45.747729256156845 6.5937486116599757 0 0 0 0 8.4592991365498165 42.66567603320982 0 42.66567603320982 13.358242248792521 0 0 0 0 10.021749852363428 52.087431643769378 0 52.087431643769378 7.8814067130542753 0 0 0 0 21.397739944717614 44.542441889198926 0 44.542441889198926 10.526315004492517 0 0 0 0 13.565547390940083 44.514673458126111 0 44.514673458126111 14.254650028199649 0 0 0 0 14.578966992448841 48.803246100235356 0 48.803246100235356 10.347155269249924 0 0 0 0 9.3423360022898123 49.074030846618143 0 49.074030846618143 12.211509355477574 0 0 0 0 1.6761055522765673 43.210019940700505 0 43.210019940700505 14.663253244745562 0 0 0 0 18.730495951413104 44.626542941332275 0 44.626542941332275 10.476193082666668 0 0 0 0 27.285028093203437 44.977754967891997 0 44.977754967891997 9.2143083770326939 0 0 0 0 19.820519217930268 52.193519721025524 0 52.193519721025524 16.948223869751118 0 0 0 0 19.768226812710054 50.571100972668575 0 50.571100972668575 16.367115472377819 0 0 0 0 13.758092949663478 52.645530901936695 0 52.645530901936695 17.36723353321571 0 0 0 0 4.1238099776164745 80.973373803727213 0 80.973373803727213 10.769988420364484 0 0 0 0 21.587838340630697 64.18280176412253 0 64.18280176412253 22.696619185605982 0 0 0 0 24.165101354636136 65.844146632060188 0 65.844146632060188 7.4172086840197338 0 0 0 0 31.206852438765054 54.140820469239998 0 54.140820469239998 15.527258784212165 0 0 0 0 43.473390769977414 60.973581509922496 0 60.973581509922496 6.1667778069522683 0 0 0 0 35.383319581509568 52.064341159798573 0 52.064341159798573 -2.4797702756086437 0 0 0 0 45.901410080710775 42.787885242580614 0 42.787885242580614 -0.47133304240117013 0 0 0 0 72.762793883346603 59.983518520121379 0 59.983518520121379 -25.807982928897729 0 0 0 0 -0.052853395704005379 103.74077181368136 0 103.74077181368136 -44.014698783626955 0 0 0 0 55.481173747495632 32.40633818940114 0 32.40633818940114 4.140215275011542 0 0 0 0 33.954463614998531 82.453652110484711 0 82.453652110484711 -27.549809491932137 0 0 0 0 -0.19910224350706507 1.4991558321813443 0 1.4991558321813443 0.020007829007919753 0 0 0 0 -22.160478859994328 30.557908150234084 0 30.557908150234084 -12.173952239218124 0 0 0 0 109.05058798953542 35.686977339603573 0 35.686977339603573 -20.736190353599795 0 0 0 0 -0.051349637342354981 -7.483540144121207 0 -7.483540144121207 2.5571169728991663 0 0 0 0 68.30299965897575 11.233163641989904 0 11.233163641989904 12.271926984243692 0 0 0 0 18.887656105536735 37.138473828492806 0 37.138473828492806 16.360499538981003 0 0 0 0 28.615912659384776 38.988955809820482 0 38.988955809820482 9.4716290633468816 0 0 0 0 41.600030844951107 35.214787193461689 0 35.214787193461689 9.5925199363014144 0 0 0 0 42.765998537841369 37.350696621919269 0 37.350696621919269 5.1582099946047606 0 0 0 0 34.59618578638765 30.514447245952852 0 30.514447245952852 9.9258596573527029 0 0 0 0 11.903660236654105 33.778020298855154 0 33.778020298855154 10.255368419619174 0 0 0 0 -0.28452407760484988 1.8888826740711124 0 1.8888826740711124 -0.24247112814551386 0 0 0 0 40.050906672775454 22.069680509999216 0 22.069680509999216 5.0209659237643791 0 0 0 0 3.6118869951205852 -0.47024984578183648 0 -0.47024984578183648 0.59118084182591701 0 0 0 0 30.969654795619135 22.188733303876234 0 22.188733303876234 14.818055104639825 0 0 0 0 -0.0024383129166380968 2.4191489787413047 0 2.4191489787413047 -0.13983422746241558 0 0 0 0 27.522586630177102 12.232787524804735 0 12.232787524804735 4.0343358779664413 0 0 0 0 -2.4280456898413831 12.030775742028709 0 12.030775742028709 4.4277162982552909 0 0 0 0 -4.5805943991581444 12.11319208083296 0 12.11319208083296 5.3553460526472918 0 0 0 0 3.3334444297397567 9.2334578860663896 0 9.2334578860663896 9.650564958630639 0 0 0 0 2.3308164418194792 6.4825017944181127 0 6.4825017944181127 -1.680279365640672 0 0 0 0 -0.34643590782418698 1.9522539756170119 0 1.9522539756170119 -0.38768764867668892 0 0 0 0 -8.5362711097113788 -4.3242087170865489 0 -4.3242087170865489 8.5701152887268108 0 0 0 0 -30.698502225772245 42.812724262692427 0 42.812724262692427 0.35851398756130948 0 0 0 0 -40.791921768221073 11.632221634629786 0 11.632221634629786 8.0704903817677405 0 0 0 0 -3.5261126927325677 14.420879109937005 0 14.420879109937005 5.0285219341240008 0 0 0 0 -32.56868476075033 43.100707913856354 0 43.100707913856354 1.176868339180146 0 0 0 0 -10.859353951716912 34.523956022017046 0 34.523956022017046 4.5586177717791543 0 0 0 0 8.7496361610083113 30.971297505170583 0 30.971297505170583 8.4857862497628957 0 0 0 0 -7.4155709283804754 37.037396190374238 0 37.037396190374238 6.2096328020516012 0 0 0 0 -0.42464363502222113 13.685252215924265 0 13.685252215924265 4.023020385297059 0 0 0 0 4.7032062801608845 47.853423730109228 0 47.853423730109228 8.4769670182959089 0 0 0 0 3.8464253588681458 55.749754103117539 0 55.749754103117539 -0.62852935941918986 0 0 0 0 -0.65283807845116826 44.309651242708242 0 44.309651242708242 6.1330363149518234 0 0 0 0 9.1427950192446588 51.357719217326121 0 51.357719217326121 3.1386254407334491 0 0 0 0 8.4840948705532355 49.98871891101453 0 49.98871891101453 6.1389333733072817 0 0 0 0 14.799900246674952 52.891037781850173 0 52.891037781850173 -7.8916176863058354 0 0 0 0 14.868661201646319 52.848508468974728 0 52.848508468974728 -16.644267839514214 0 0 0 0 9.5372363053320441 56.17237855352505 0 56.17237855352505 -18.645539065125377 0 0 0 0 19.818492171936668 37.539162315642898 0 37.539162315642898 -10.743099318423901 0 0 0 0 -12.130672372677509 52.709067077490573 0 52.709067077490573 -0.0090272437137173256 0 0 0 0 -7.7251964396709809 50.514388861332918 0 50.514388861332918 -4.4631562882241269 0 0 0 0 4.2000455408415291 51.04424690777978 0 51.04424690777978 -2.5473228778519115 0 0 0 0 -6.2689447383745573 61.30328905560873 0 61.30328905560873 -12.507833394016416 0 0 0 0 9.5322182400268503 55.958903758138149 0 55.958903758138149 -20.713129911104261 0 0 0 0 -30.29335769363388 64.362984680094087 0 64.362984680094087 -12.955452595237148 0 0 0 0 -8.177933710854802 57.14542891865387 0 57.14542891865387 -30.11578571732025 0 0 0 0 -34.640908267567283 74.666324492546664 0 74.666324492546664 -41.712355045210643 0 0 0 0 13.892686171922833 56.015292178828986 0 56.015292178828986 -16.265972009572579 0 0 0 0 12.954552173046977 50.263065580862531 0 50.263065580862531 -49.398717904654404 0 0 0 0 -8.1202051844591665 63.120111809187961 0 63.120111809187961 -23.046799519193883 0 0 0 0 10.06232886997168 37.723374175200661 0 37.723374175200661 -33.933479564193476 0 0 0 0 12.588653303857427 34.330539657196368 0 34.330539657196368 -45.338601997125807 0 0 0 0 12.802631172351539 30.238441693864843 0 30.238441693864843 -26.810959586455283 0 0 0 0 8.7226380864503881 48.494625870811092 0 48.494625870811092 -91.938372225537023 0 0 0 0 23.877805928386806 42.800263580460523 0 42.800263580460523 -30.434173294275752 0 0 0 0 27.950430943019455 50.897948823942897 0 50.897948823942897 -28.389467845455329 0 0 0 0 18.594366087854723 34.176868569074941 0 34.176868569074941 -28.403728203840728 0 0 0 0 18.947383536520647 26.90986926998994 0 26.90986926998994 76.786630155478633 0 0 0 0 39.847626974878949 56.770456875594391 0 56.770456875594391 -20.398999562703466 0 0 0 0 33.2818301791267 38.090125144432932 0 38.090125144432932 -73.14609282971287 0 0 0 0 40.052168033114867 8.5383156388297721 0 8.5383156388297721 -103.78064854272816 0 0 0 0 47.772099146190158 6.9475610300041808 0 6.9475610300041808 -8.9277648924944515 0 0 0 0 -22.483816541927808 53.910790713882307 0 53.910790713882307 -62.161778089612199 0 0 0 0 1.5846457052738003 0.64014580725741155 0 0.64014580725741155 -2.3689296713592896 0 0 0 0 146.67460543572088 150.98916057584029 0 150.98916057584029 -194.80655626538646 0 0 0 0 37.005099469039124 176.77112143527302 0 176.77112143527302 101.13009919261094 0 0 0 0 59.00334271126485 25.113511977764574 0 25.113511977764574 -121.04223364087011 0 0 0 0 18.092386391959735 4.6417462128083571 0 4.6417462128083571 -23.759703927072678 0 0 0 0 123.77381162804886 -58.931649447036193 0 -58.931649447036193 -34.330583530143485 0 0 0 0 38.290568627562607 34.334911237343476 0 34.334911237343476 -6.6053848002084123 0 0 0 0 34.531286229510442 40.506848248274764 0 40.506848248274764 35.578778086006423 0 0 0 0 -29.146650036178471 24.971096065988149 0 24.971096065988149 -37.13773282882903 0 0 0 0 12.343327478585707 8.5644447522404334 0 8.5644447522404334 -73.936332164288615 0 0 0 0 27.100185140239773 19.199615212590288 0 19.199615212590288 -66.271737430555731 0 0 0 0 12.441844961358584 9.7833747583426884 0 9.7833747583426884 -59.012225252867211 0 0 0 0 16.977547590373433 11.145995209823468 0 11.145995209823468 -60.987651150600868 0 0 0 0 8.8108776510634925 8.009015237003041 0 8.009015237003041 -47.257387508109105 0 0 0 0 2.7279469566947228 9.5557253960751041 0 9.5557253960751041 -54.449097298653214 0 0 0 0 -0.79379278389387764 26.43359263043385 0 26.43359263043385 -69.344163289955759 0 0 0 0 -2.9635403250576928 9.1944140840259934 0 9.1944140840259934 -52.5635284511809 0 0 0 0 -1.4201297162035189 1.5953912407549069 0 1.5953912407549069 -34.161076254778891 0 0 0 0 15.56114976007666 -5.6063980600683863 0 -5.6063980600683863 -57.126325602479483 0 0 0 0 64.255738705549447 -25.814354430360254 0 -25.814354430360254 -53.014178094585077 0 0 0 0 0.4984176342434985 1.3177588481997731 0 1.3177588481997731 -1.3135042877003542 0 0 0 0 15.972576105734333 -10.284907809311335 0 -10.284907809311335 -32.461324438098927 0 0 0 0 -87.992189060227247 104.81289410531053 0 104.81289410531053 -131.54322697048156 0 0 0 0 54.99829365160258 -3.3834200435021557 0 -3.3834200435021557 -95.43075003431295 0 0 0 0 18.01388530910117 56.384464166077578 0 56.384464166077578 -158.18144404812483 0 0 0 0 -102.24254677586578 112.39085885991699 0 112.39085885991699 -102.03678853825113 0 0 0 0 -0.33817904963283318 1.6165564058880335 0 1.6165564058880335 -0.11489703299532295 0 0 0 0 -135.3797141291443 65.237132496776667 0 65.237132496776667 -48.108982715173624 0 0 0 0 0.11491857133660233 8.5738835363963517 0 8.5738835363963517 11.721560362193941 0 0 0 0 39.471006894423226 45.448288017444838 0 45.448288017444838 -86.49451534621403 0 0 0 0 -92.103239392978139 2.2702209151138959 0 2.2702209151138959 24.458412632651743 0 0 0 0 -73.859144740443298 72.393430620368235 0 72.393430620368235 -17.238686768137995 0 0 0 0 -93.977380809912574 89.321002522184244 0 89.321002522184244 -152.38717900929259 0 0 0 0 -35.352190561621683 58.459262158071397 0 58.459262158071397 -47.356557759705538 0 0 0 0 -129.9770897332055 100.03577991471684 0 100.03577991471684 -63.733237252086838 0 0 0 0 -107.43951499613989 28.622403392281569 0 28.622403392281569 -72.074774484979571 0 0 0 0 -108.51113006268679 129.60150528959912 0 129.60150528959912 -130.76308138147033 0 0 0 0 -52.28557361977937 31.348748666051506 0 31.348748666051506 -58.312190056493819 0 0 0 0 -18.785924058111959 12.687011823987632 0 12.687011823987632 74.745433289303492 0 0 0 0 9.1763145660329428 77.872726746646094 0 77.872726746646094 -314.6668031216941 0 0 0 0 -1.5517094947291099 -0.57433947634057247 0 -0.57433947634057247 -0.041918177317297634 0 0 0 0 16.624949204795485 46.017962345711339 0 46.017962345711339 -181.03032769360289 0 0 0 0 -11.49545382124461 149.44536778794281 0 149.44536778794281 -81.805138121319487 0 0 0 0 -22.934657498823981 17.165984814644617 0 17.165984814644617 -116.82559961675088 0 0 0 0 32.718955625713534 138.58074496228528 0 138.58074496228528 9.9211436875903019 0 0 0 0 -36.916937490891996 55.906129355243593 0 55.906129355243593 34.98749524843879 0 0 0 0 -1.1893305685941868 39.811141748476985 0 39.811141748476985 -102.1186479377393 0 0 0 0 -9.4807028341510886 34.353397690718339 0 34.353397690718339 -97.383568242344154 0 0 0 0 -20.469578226070098 72.41982078617184 0 72.41982078617184 -50.203162954547224 0 0 0 0 -54.77276012300149 67.586354322074158 0 67.586354322074158 58.237958646644984 0 0 0 0 -50.294388094750047 50.226634071435001 0 50.226634071435001 104.61201175898532 0 0 0 0 44.419996833598134 120.9949512735775 0 120.9949512735775 -6.648627236700122 0 0 0 0 38.906890503483694 160.25175755754452 0 160.25175755754452 150.50079280785394 0 0 0 0 -21.549897327153758 92.854094008564971 0 92.854094008564971 196.02377799330679 0 0 0 0 -23.71953221075546 48.869900045429858 0 48.869900045429858 93.212616072287346 0 0 0 0 -61.948956357258339 34.242418820414059 0 34.242418820414059 92.74035888115759 0 0 0 0 -55.467116993023637 33.849608072828389 0 33.849608072828389 131.19960910982991 0 0 0 0 -55.510780389712636 31.485814300257516 0 31.485814300257516 86.66058923226592 0 0 0 0 -71.13401974146575 56.393670178699267 0 56.393670178699267 80.384826893081481 0 0 0 0 -36.273904336831947 46.80898766080827 0 46.80898766080827 81.808740150463564 0 0 0 0 -66.626774489241598 30.317220148331216 0 30.317220148331216 9.8560658005244477 0 0 0 0 -77.821321991205991 69.869775105508779 0 69.869775105508779 31.445563500728895 0 0 0 0 -49.278104951208661 42.212277870876278 0 42.212277870876278 51.165248738767332 0 0 0 0 -64.721163674618083 71.514593631080743 0 71.514593631080743 6.4964506582546164 0 0 0 0 -6.5506799447448429 47.148242781411682 0 47.148242781411682 16.472170004917643 0 0 0 0 -60.777082567595244 76.905772504717788 0 76.905772504717788 71.43866280311704 0 0 0 0 20.285987038161693 57.260444565092257 0 57.260444565092257 66.677902862998053 0 0 0 0 -43.799894021840828 60.527150729938512 0 60.527150729938512 82.250966205573604 0 0 0 0 -26.676070571495707 19.995827544547005 0 19.995827544547005 -10.751301977390362 0 0 0 0 50.009102545953283 161.31966680916776 0 161.31966680916776 92.795681650768529 0 0 0 0 35.306338595566558 102.95063892305279 0 102.95063892305279 8.5099884474717555 0 0 0 0 34.672476909491635 57.828022215095125 0 57.828022215095125 -15.970442352972896 0 0 0 0 24.758759020065554 26.154878039940741 0 26.154878039940741 39.661846684322882 0 0 0 0 -41.558130973705374 106.89019025682319 0 106.89019025682319 121.6253673089177 0 0 0 0 -44.374359320710937 84.120761371163098 0 84.120761371163098 -0.15862153158195724 0 0 0 0 -53.976510607406453 49.338528699154267 0 49.338528699154267 -1.9036917497433024 0 0 0 0 8.3021969358401861 108.93356370435801 0 108.93356370435801 -69.559106073093062 0 0 0 0 3.1031341950601927 51.491249048462123 0 51.491249048462123 89.716615979135895 0 0 0 0 8.8239741800025513 91.45896206983798 0 91.45896206983798 43.284212853275676 0 0 0 0 0.68485966950870036 0.85007780089726737 0 0.85007780089726737 0.14867605679317442 0 0 0 0 5.0372542053482903 42.395937569907801 0 42.395937569907801 -195.31707453361457 0 0 0 0 -66.429559533429256 27.614413900239924 0 27.614413900239924 -30.618477876259931 0 0 0 0 62.568785122818099 36.248169874586438 0 36.248169874586438 89.226938943385903 0 0 0 0 -48.345837715181915 184.57627503453477 0 184.57627503453477 330.1379745971704 0 0 0 0 21.392710389221975 -7.7280458370032648 0 -7.7280458370032648 117.4257665121695 0 0 0 0 69.001383617678812 78.618264405500895 0 78.618264405500895 -40.375829413062092 0 0 0 0 24.743142200101829 4.649158420466847 0 4.649158420466847 40.468931073140993 0 0 0 0 -6.5801126802307408 13.834725605192943 0 13.834725605192943 106.75848383962693 0 0 0 0 -24.899660082959141 21.128706997857414 0 21.128706997857414 -10.369418514650938 0 0 0 0 19.092435560648948 15.612465398431489 0 15.612465398431489 -10.021336862172337 0 0 0 0 -24.180280351996771 69.825501034507397 0 69.825501034507397 58.655755345265788 0 0 0 0 -41.702916062476561 4.7174757210050302 0 4.7174757210050302 -145.35085130472726 0 0 0 0 -73.589278488432683 89.451166056671354 0 89.451166056671354 -1.073638859375933 0 0 0 0 30.69836380455672 79.452747399968757 0 79.452747399968757 -232.81301204038027 0 0 0 0 -26.950591402748888 20.106188560036689 0 20.106188560036689 -11.684071656585495 0 0 0 0 94.20472696257184 186.67204427630168 0 186.67204427630168 36.197829798518796 0 0 0 0 128.19794898316331 103.45900439874731 0 103.45900439874731 -53.806988155763975 0 0 0 0 16.234068056463911 71.700391306407255 0 71.700391306407255 9.5457115308854554 0 0 0 0 14.642546344003827 13.110082943986253 0 13.110082943986253 -0.72374810096346209 0 0 0 0 24.166070952100199 -4.7330231698088028 0 -4.7330231698088028 -95.042669905753428 0 0 0 0 67.92741832731781 14.527781816730567 0 14.527781816730567 -138.03794042503432 0 0 0 0 -3.6613891291791063 2.495204245279794 0 2.495204245279794 3.9678439710263369 0 0 0 0 -55.047532378353935 82.898596743863891 0 82.898596743863891 -81.369918527392656 0 0 0 0 12.596299762665694 21.447159169478255 0 21.447159169478255 33.070922443948803 0 0 0 0 -46.101125973796115 -84.690978724611341 0 -84.690978724611341 -170.17915229510709 0 0 0 0 0.56946032770687172 4.1566257060028207 0 4.1566257060028207 2.8194120197908674 0 0 0 0 17.653381745472871 24.852816400793017 0 24.852816400793017 50.97489672401025 0 0 0 0 -7.701188790388187 20.007242014627082 0 20.007242014627082 55.521573189420451 0 0 0 0 11.412190052627125 16.174639458233287 0 16.174639458233287 21.493419799047842 0 0 0 0 -7.3600304807270787 5.3076581957738611 0 5.3076581957738611 17.170388912067374 0 0 0 0 14.338169212472501 21.74523782927281 0 21.74523782927281 28.487057414394258 0 0 0 0 6.7864918261316234 53.827256226153168 0 53.827256226153168 96.359989202581346 0 0 0 0 -8.4125248209299812 19.982973837476127 0 19.982973837476127 22.799969420473872 0 0 0 0 0.40194732461657168 37.478704928187653 0 37.478704928187653 8.811807566533389 0 0 0 0 12.869452965417553 51.024643927274241 0 51.024643927274241 -13.420341604247584 0 0 0 0 14.446511620878027 135.15981973627277 0 135.15981973627277 110.83760833462566 0 0 0 0 2.9453192925193434 34.430851061668363 0 34.430851061668363 5.4432457472785245 0 0 0 0 -13.648831125546167 46.540452725661453 0 46.540452725661453 -6.1308515769087535 0 0 0 0 10.164854841060389 37.141201659092985 0 37.141201659092985 -2.4215744343819097 0 0 0 0 -5.6476811618290412 29.256477774972154 0 29.256477774972154 -4.3224294476112846 0 0 0 0 11.353205926677674 36.391870959367225 0 36.391870959367225 -1.376408853164321 0 0 0 0 18.740171839603249 29.633939053548602 0 29.633939053548602 -4.722058000654215 0 0 0 0 12.065366208524551 43.494571093709055 0 43.494571093709055 -22.589552977275162 0 0 0 0 11.610306388354982 33.89472090367736 0 33.89472090367736 -10.665357464739733 0 0 0 0 9.8789829413819916 37.277318809467033 0 37.277318809467033 -3.9557443763862921 0 0 0 0 9.7437376346726978 35.935279794494591 0 35.935279794494591 -17.251691441277217 0 0 0 0 -18.828259433721541 52.753236173419282 0 52.753236173419282 6.6716837326966925 0 0 0 0 3.7702729909497261 28.894988105794631 0 28.894988105794631 -9.5666975851492246 0 0 0 0 -3.4475177982905509 13.123402093533651 0 13.123402093533651 7.2577826436771744 0 0 0 0 9.3442238810498566 24.525511976873531 0 24.525511976873531 -31.06239286445998 0 0 0 0 6.485540937163023 51.088357035994704 0 51.088357035994704 -36.838903190793644 0 0 0 0 0.69037010588985437 17.211383941689931 0 17.211383941689931 -18.079735692135941 0 0 0 0 25.66869761922203 35.641714073972253 0 35.641714073972253 -29.651093764994584 0 0 0 0 40.619197327170241 50.776367857724836 0 50.776367857724836 -26.257537408317148 0 0 0 0 -1.7974883664919501 23.203735033033201 0 23.203735033033201 -13.030195009191061 0 0 0 0 13.566142947778644 78.942767927763271 0 78.942767927763271 13.023623697976291 0 0 0 0 -6.9230135021512069 54.142433846744098 0 54.142433846744098 28.127796159053105 0 0 0 0 -134.06574319843594 -20.452512233783636 0 -20.452512233783636 33.090015132814187 0 0 0 0 147.73796303101608 70.193197921499632 0 70.193197921499632 -74.165527660530643 0 0 0 0 -2.4205870943949037 5.0129600414291957 0 5.0129600414291957 -14.276361578545391 0 0 0 0 68.060023208401731 18.305206665900187 0 18.305206665900187 -35.691988296013733 0 0 0 0 -21.565520688404149 261.17710371010253 0 261.17710371010253 328.674262810644 0 0 0 0 102.52515102627217 137.05123595008263 0 137.05123595008263 139.94339975910407 0 0 0 0 130.24587775980262 -2.1246235533508298 0 -2.1246235533508298 -26.608508177103886 0 0 0 0 246.99272707666569 -167.13758779852651 0 -167.13758779852651 -335.02612363737717 0 0 0 0 0.065492598777403543 3.3957476293386648 0 3.3957476293386648 -1.5016221967663483 0 0 0 0 407.16221258352743 383.23723056919698 0 383.23723056919698 103.80660601327691 0 0 0 0 95.045727100282207 170.58743135510952 0 170.58743135510952 -79.895755372206622 0 0 0 0 -6.7718834020242866 -13.441297830650001 0 -13.441297830650001 -129.56906333709776 0 0 0 0 -46.363998043138054 49.79767554049613 0 49.79767554049613 -218.34679542768572 0 0 0 0 108.75476874159835 137.16173670475109 0 137.16173670475109 -8.5921171775989933 0 0 0 0 100.88627828412655 105.25030647021049 0 105.25030647021049 -32.15074602572713 0 0 0 0 53.102206503090201 103.09789418007858 0 103.09789418007858 48.904797648719978 0 0 0 0 45.808738452645684 54.317478879718692 0 54.317478879718692 -29.451537021399645 0 0 0 0 48.329705833834851 85.612253248964407 0 85.612253248964407 -106.63543695084081 0 0 0 0 -2.6464871580033105 45.522932389041671 0 45.522932389041671 -68.414060258939571 0 0 0 0 -69.317514414232619 -81.662988782311004 0 -81.662988782311004 -112.90886467701785 0 0 0 0 98.541080317324543 -18.79025705854292 0 -18.79025705854292 -65.101206253864802 0 0 0 0 -12.169594411365779 -119.40196055424531 0 -119.40196055424531 -278.50050478785852 0 0 0 0 -10.628176695488074 13.486064729891183 0 13.486064729891183 -13.462091585209862 0 0 0 0 -353.06083257594037 143.11205613545098 0 143.11205613545098 545.50413881420536 0 0 0 0 -71.646519981678921 248.05255160753222 0 248.05255160753222 328.04860896159516 0 0 0 0 -130.65765790461501 114.46045659618903 0 114.46045659618903 227.59522361703421 0 0 0 0 -194.89634124978147 334.36094632495588 0 334.36094632495588 541.67195381599686 0 0 0 0 94.406844395422993 -27.127119031398699 0 -27.127119031398699 -228.11535596000613 0 0 0 0 -187.50387539718804 -77.717778250254923 0 -77.717778250254923 -128.47450951778592 0 0 0 0 20.86954387823971 -304.86941939566896 0 -304.86941939566896 -625.64357309779007 0 0 0 0 -4.1734910154980227 4.7046074501932367 0 4.7046074501932367 -4.6345037030476988 0 0 0 0 -36.437637878509122 43.226231863251087 0 43.226231863251087 157.76231328047106 0 0 0 0 -161.4445753390637 177.71477597558624 0 177.71477597558624 393.37139680973269 0 0 0 0 -0.89748430925732059 49.674989023111337 0 49.674989023111337 -10.54780721943597 0 0 0 0 66.808011735039145 463.53452323758393 0 463.53452323758393 -504.36301497565 0 0 0 0 -376.90767729299546 -259.86067270178592 0 -259.86067270178592 341.98675021697272 0 0 0 0 34.394287222434514 62.954998157328191 0 62.954998157328191 77.859831922696685 0 0 0 0 -145.8355615154378 104.07117721151917 0 104.07117721151917 75.665683510087547 0 0 0 0 -6.5577874374675957 21.737180194183566 0 21.737180194183566 70.584338537966687 0 0 0 0 20.648725790681311 54.535988305613841 0 54.535988305613841 73.723722215119778 0 0 0 0 43.536962119029681 106.93868061822013 0 106.93868061822013 -34.210779266551981 0 0 0 0 -3.2302306814924577 118.76716746288002 0 118.76716746288002 0.47184745246158855 0 0 0 0 -8.4736684668335052 48.811479693142303 0 48.811479693142303 -11.577194829961279 0 0 0 0 -79.163304875164158 116.13218229922313 0 116.13218229922313 137.10471114531174 0 0 0 0 -10.157491247561211 76.90288254141069 0 76.90288254141069 41.994448017632749 0 0 0 0 -7.0628897555040719 49.59806375203587 0 49.59806375203587 -10.594769431487361 0 0 0 0 51.082091696363932 -43.546030214358325 0 -43.546030214358325 445.84640248772848 0 0 0 0 -27.797377960796894 90.443648626662252 0 90.443648626662252 220.96424340737576 0 0 0 0 1.7833475233810532 -36.290272661772178 0 -36.290272661772178 250.90535082765473 0 0 0 0 -6.5245734286727384 42.674183243787411 0 42.674183243787411 160.29709645681942 0 0 0 0 5.232131483115154 67.155101852098596 0 67.155101852098596 -121.78762411819662 0 0 0 0 171.60044587421453 13.286811009922531 0 13.286811009922531 -108.15064108962542 0 0 0 0 2.0080327276925694 1.0570176332348566 0 1.0570176332348566 0.59588703251122865 0 0 0 0 196.25764012529726 128.78187711897408 0 128.78187711897408 -317.13310997347799 0 0 0 0 -2.4677346421894981 259.38227370663299 0 259.38227370663299 -153.40786934817152 0 0 0 0 43.904398189514723 166.53819451132586 0 166.53819451132586 32.458713317617367 0 0 0 0 -44.008782630577684 97.009562528741299 0 97.009562528741299 -23.727704359887866 0 0 0 0 -32.349566877417431 57.059327422683964 0 57.059327422683964 -24.943654400594824 0 0 0 0 -37.110509066135819 43.471401216083905 0 43.471401216083905 118.87794741142352 0 0 0 0 0.81067313089306481 9.8950346392848587 0 9.8950346392848587 51.401986554275936 0 0 0 0 -1.726153746820728 -10.493134979666138 0 -10.493134979666138 66.72216491017025 0 0 0 0 5.5336873480130455 2.9000812225808517 0 2.9000812225808517 1.4168012505051308 0 0 0 0 -18.17697844165923 48.312907358395023 0 48.312907358395023 51.6181646051391 0 0 0 0 0.026473702806612209 -4.7045864529525261 0 -4.7045864529525261 21.464082200247503 0 0 0 0 -24.825157346252354 7.5142862312532088 0 7.5142862312532088 15.982556282935548 0 0 0 0 1.818615036897274 7.1884817651362454 0 7.1884817651362454 6.2991237797923816 0 0 0 0 -0.84679634332039821 19.436555283905687 0 19.436555283905687 15.510963383447518 0 0 0 0 22.768733224631887 26.65210058923094 0 26.65210058923094 -83.260416368953884 0 0 0 0 -41.524904335219617 58.435773747040002 0 58.435773747040002 5.0760612495323585 0 0 0 0 6.0846600791810488 92.788354137883289 0 92.788354137883289 -86.706201866046968 0 0 0 0 -43.806604195960972 -41.558001610163046 0 -41.558001610163046 231.11740460173314 0 0 0 0 -76.41919931753182 43.549596465269133 0 43.549596465269133 -99.454335433671076 0 0 0 0 3.1055432192325299 -0.8207363270105219 0 -0.8207363270105219 -0.54416847935517154 0 0 0 0 -23.833071618082613 75.415588212803414 0 75.415588212803414 -98.755738561711041 0 0 0 0 28.515112079635401 56.205588462413289 0 56.205588462413289 -20.978679838997778 0 0 0 0 -6.4094622187767527 123.95519260824949 0 123.95519260824949 182.99874362662376 0 0 0 0 -26.112965039061237 72.725704783253605 0 72.725704783253605 144.99689687552018 0 0 0 0 -9.7782554790942413 135.12479222001002 0 135.12479222001002 185.60558798346028 0 0 0 0 138.9347666626154 60.700658650930563 0 60.700658650930563 -33.448059152549831 0 0 0 0 92.802619973452238 132.17556091629376 0 132.17556091629376 108.35227499845496 0 0 0 0 66.328891646571719 -21.275049216201296 0 -21.275049216201296 -26.911823668493071 0 0 0 0 -28.652197502593481 24.729765495787433 0 24.729765495787433 71.063097171740083 0 0 0 0 -28.214930333187162 23.011528940930418 0 23.011528940930418 -61.588114489604777 0 0 0 0 -75.329034391777896 0.22797116448964516 0 0.22797116448964516 -2.6385971704912663 0 0 0 0 -34.659955723471057 38.592239341616732 0 38.592239341616732 77.796238129405538 0 0 0 0 -9.9185172106135155 24.672225445212359 0 24.672225445212359 23.960552818920576 0 0 0 0 -28.879082704424111 13.110977166250365 0 13.110977166250365 31.767107085795679 0 0 0 0 -15.254119953075133 31.077250752599866 0 31.077250752599866 22.98364194610258 0 0 0 0 -3.3044902866989787 21.014149481540631 0 21.014149481540631 22.447668421665604 0 0 0 0 -28.39037519345888 100.00197927311585 0 100.00197927311585 -6.082414001943107 0 0 0 0 -16.29330768037541 22.069458703820757 0 22.069458703820757 1.2398463816572409 0 0 0 0 -19.161977558208605 37.314650792690372 0 37.314650792690372 -1.1020341011681012 0 0 0 0 -20.816731107528085 38.378194597163201 0 38.378194597163201 5.1107548745803797 0 0 0 0 -19.723256134236181 21.25174548216637 0 21.25174548216637 35.663087770812126 0 0 0 0 -5.5200486221947358 26.808939419042872 0 26.808939419042872 23.926762059905741 0 0 0 0 -18.756518243133129 7.1431840579424062 0 7.1431840579424062 18.178792050641121 0 0 0 0 -27.810029592653336 44.129420263321663 0 44.129420263321663 6.2218567380368768 0 0 0 0 24.215002129521963 39.183936000121321 0 39.183936000121321 39.408227591404284 0 0 0 0 -5.8559475464841011 17.757528691778489 0 17.757528691778489 4.5649904488283397 0 0 0 0 0.73292918765309878 39.980815593095031 0 39.980815593095031 -40.347376325373261 0 0 0 0 -9.8242170728044584 30.346600294986274 0 30.346600294986274 -10.756489935585705 0 0 0 0 -5.962616104411028 56.224917648533705 0 56.224917648533705 -19.376712306074111 0 0 0 0 -14.591577860330103 25.906584480574303 0 25.906584480574303 10.646344284545933 0 0 0 0 -28.710876428672286 53.442890559457261 0 53.442890559457261 17.247805255836397 0 0 0 0 -8.664958021036 20.835592486808309 0 20.835592486808309 26.125295964506222 0 0 0 0 -22.770397299015258 44.561550724862173 0 44.561550724862173 0.23937120477057761 0 0 0 0 -24.069639899209506 48.46123511310816 0 48.46123511310816 -9.1171192452020478 0 0 0 0 -21.247232046896897 51.434936878060398 0 51.434936878060398 -22.798389790928923 0 0 0 0 -19.596584889175858 47.664106027763523 0 47.664106027763523 -22.650743860125658 0 0 0 0 -19.533187894508956 46.842384337032854 0 46.842384337032854 -28.185142473041196 0 0 0 0 -21.691940306243396 51.020142311059317 0 51.020142311059317 -16.844053252018057 0 0 0 0 -28.82263893345862 47.894572366232751 0 47.894572366232751 104.46710345294741 0 0 0 0 -18.333880546699675 48.845303607188725 0 48.845303607188725 -23.182445453898254 0 0 0 0 1.3203288668270297 9.1940244070571744 0 9.1940244070571744 -16.452134724438068 0 0 0 0 -7.570160605023375 45.259769900272659 0 45.259769900272659 -85.399554618104958 0 0 0 0 -9.7896249977724068 50.388442753168775 0 50.388442753168775 -4.129347937564539 0 0 0 0 31.688003205760992 16.195784444555102 0 16.195784444555102 -73.921961885202109 0 0 0 0 76.015561472542458 122.95810611958404 0 122.95810611958404 -27.452844146117059 0 0 0 0 -8.4274443946969768 51.441569621700182 0 51.441569621700182 145.85907637617493 0 0 0 0 -13.879667143897791 29.307185562101949 0 29.307185562101949 80.73398515041481 0 0 0 0 -5.970116322463582 20.589384097590028 0 20.589384097590028 20.654920960463642 0 0 0 0 3.1433368791622343 24.518425315400236 0 24.518425315400236 17.343388527642674 0 0 0 0 -6.409992641767758 25.468072516765346 0 25.468072516765346 -0.20058792948839255 0 0 0 0 -1.9029867637036659 24.708505600929129 0 24.708505600929129 24.653129279395216 0 0 0 0 -1.463007652864377 13.795075355154921 0 13.795075355154921 2.2039924462686589 0 0 0 0 8.4307642971398309 18.637514185989858 0 18.637514185989858 23.08341009603464 0 0 0 0 -0.44967928668663149 14.539721969478087 0 14.539721969478087 4.3060672523538202 0 0 0 0 -9.7934570912675554 10.566940468901521 0 10.566940468901521 29.630208848648181 0 0 0 0 -0.47112090002701734 44.556179080245784 0 44.556179080245784 15.496651870733331 0 0 0 0 7.4928193282903521 24.544901168403157 0 24.544901168403157 -22.340654760511825 0 0 0 0 -5.5405644662084725 4.0372672536446927 0 4.0372672536446927 1.0887532030389764 0 0 0 0 1.0274435927713057 16.646189892744587 0 16.646189892744587 -14.456639532647387 0 0 0 0 4.3310867307354783 26.896765544894151 0 26.896765544894151 66.466461503587198 0 0 0 0 -11.075967870160071 11.759627815989347 0 11.759627815989347 62.370549970088177 0 0 0 0 -11.458647099767404 22.309322896093363 0 22.309322896093363 72.411020177696628 0 0 0 0 -3.1206223746885371 26.984001444328896 0 26.984001444328896 16.33398392838717 0 0 0 0 0.52630127329160814 19.342543643281587 0 19.342543643281587 -0.74946429634144351 0 0 0 0 -11.152405074041752 18.736730312009307 0 18.736730312009307 7.8537069057021043 0 0 0 0 -3.6314190862467512 25.50862320199667 0 25.50862320199667 13.387583430157974 0 0 0 0 31.525377359510458 33.654150059745007 0 33.654150059745007 -10.74710001211497 0 0 0 0 16.92297749694626 28.61914288501066 0 28.61914288501066 27.191746570752002 0 0 0 0 11.585728514710617 21.507415759915858 0 21.507415759915858 -5.0836392174335892 0 0 0 0 7.4650285473107942 33.650943924978492 0 33.650943924978492 54.774706135012821 0 0 0 0 -8.9176795709362722 21.13910416427797 0 21.13910416427797 7.7840619510137117 0 0 0 0 5.9689510056632571 13.949330278119305 0 13.949330278119305 -20.837706242629793 0 0 0 0 -0.66569070656883156 1.4056856836175484 0 1.4056856836175484 -2.4755030412515424 0 0 0 0 -2.2973602882233877 19.787859092466746 0 19.787859092466746 2.4864516829098378 0 0 0 0 -3.1470789041486569 11.888163232448278 0 11.888163232448278 9.9752098668650433 0 0 0 0 -0.45765955697171989 19.226272486497017 0 19.226272486497017 9.6158042271747064 0 0 0 0 2.2599525658843547 22.982932204527998 0 22.982932204527998 -5.0680303536378943 0 0 0 0 7.1731701468543179 30.084919041648391 0 30.084919041648391 31.497494800452841 0 0 0 0 16.17169863739764 37.486032404334765 0 37.486032404334765 23.170665592188016 0 0 0 0 -23.551601079173452 37.8824871642164 0 37.8824871642164 8.9365890292392578 0 0 0 0 -28.66764704754678 55.408465583237557 0 55.408465583237557 30.481350432648867 0 0 0 0 -26.315802542754227 45.840353320546456 0 45.840353320546456 2.911985899478168 0 0 0 0 -6.3522238838743945 19.100504591210033 0 19.100504591210033 25.230947293653571 0 0 0 0 -39.803350240257714 34.454508276012348 0 34.454508276012348 -5.9694440353414393 0 0 0 0 -51.821694872745866 12.940782558514911 0 12.940782558514911 6.9325553548405878 0 0 0 0 1.3623455061595529 6.403768368020053 0 6.403768368020053 -2.3902926484316822 0 0 0 0 -18.817694441391723 16.16753884893842 0 16.16753884893842 29.806879834352003 0 0 0 0 50.448286246944917 54.014001119678142 0 54.014001119678142 -71.125538490941835 0 0 0 0 5.1758297603256711 50.902553600117827 0 50.902553600117827 4.202486841803335 0 0 0 0 -4.9140160873466812 17.018922217157524 0 17.018922217157524 11.765039598332805 0 0 0 0 -21.144589090040427 11.641327509852999 0 11.641327509852999 38.177740172715858 0 0 0 0 -4.7441455102538832 11.055392303078094 0 11.055392303078094 17.919523513156236 0 0 0 0 -8.292567588525344 13.414281189518078 0 13.414281189518078 14.374481644408661 0 0 0 0 -9.7923095111502967 11.574625778562613 0 11.574625778562613 20.447928793132363 0 0 0 0 -13.455781521150129 1.7714781750128168 0 1.7714781750128168 42.286124770893366 0 0 0 0 -29.222791167849209 21.474448042179574 0 21.474448042179574 40.063086194248172 0 0 0 0 -30.248030165170348 1.7057447761981166 0 1.7057447761981166 62.055067040804715 0 0 0 0 2.0460815819298546 5.992829071202415 0 5.992829071202415 -2.0078022865777783 0 0 0 0 -37.202225915234521 16.445506682042833 0 16.445506682042833 62.008347984417924 0 0 0 0 56.175794839367882 -14.542843232331506 0 -14.542843232331506 61.199838447857474 0 0 0 0 -62.283961322451432 -1.0907996251553413 0 -1.0907996251553413 82.125654182444123 0 0 0 0 -15.862963062933886 29.482946305457972 0 29.482946305457972 20.148878241721832 0 0 0 0 -25.430242080679818 28.296613647415143 0 28.296613647415143 50.379849668912357 0 0 0 0 -22.539761486739657 21.523380977643292 0 21.523380977643292 -12.359041147845232 0 0 0 0 7.1073628482263302 65.235568717536808 0 65.235568717536808 -43.008859258659868 0 0 0 0 0.99768559041899607 5.4185764338874804 0 5.4185764338874804 -2.4327251640115044 0 0 0 0 -34.332322991114779 42.477176637312368 0 42.477176637312368 28.002122889345628 0 0 0 0 -21.401432905002366 47.566662908877333 0 47.566662908877333 3.2250958536328653 0 0 0 0 -12.88492415032124 19.43187134490654 0 19.43187134490654 -0.9196117405485893 0 0 0 0 -18.579800504843661 37.784935047571707 0 37.784935047571707 2.6265269504458502 0 0 0 0 -6.2496042521315758 30.252757022048172 0 30.252757022048172 16.042490713614825 0 0 0 0 -26.066083543688819 32.87785346479086 0 32.87785346479086 18.245054394486942 0 0 0 0 -5.544821251747635 23.756776872791306 0 23.756776872791306 10.057281005090772 0 0 0 0 17.219139079710658 37.217232829814748 0 37.217232829814748 11.315697750658728 0 0 0 0 10.316369864740409 29.274149268021574 0 29.274149268021574 3.5804423272420536 0 0 0 0 -5.7998141107436822 20.896542956143094 0 20.896542956143094 26.556616608435434 0 0 0 0 -5.0036764003259773 22.236620027957319 0 22.236620027957319 10.655741388584104 0 0 0 0 9.5935437113180342 42.242940263654418 0 42.242940263654418 14.503585715592635 0 0 0 0 -26.428645683376089 74.197738999836474 0 74.197738999836474 -18.312425825241007 0 0 0 0 -1.7404546653151556 30.872265644483377 0 30.872265644483377 14.242016996598977 0 0 0 0 -32.697079134057276 62.848229749073653 0 62.848229749073653 8.9787319598890463 0 0 0 0 13.933201779894766 22.923090880223306 0 22.923090880223306 14.867483455297737 0 0 0 0 -10.649922001869051 12.952673774083372 0 12.952673774083372 6.4922367014329865 0 0 0 0 6.3633487327174407 33.522578369160328 0 33.522578369160328 17.020090561985853 0 0 0 0 -2.7885520069823286 13.65865109778113 0 13.65865109778113 29.072995889778735 0 0 0 0 5.9471193306162604 37.096660652481205 0 37.096660652481205 11.823166251124348 0 0 0 0 6.4573175741534214 24.289446367773053 0 24.289446367773053 -8.8533557692135219 0 0 0 0 -14.523185329245198 20.308163425502077 0 20.308163425502077 10.383706354141452 0 0 0 0 -51.877384571584116 20.007892870082287 0 20.007892870082287 21.200874932539591 0 0 0 0 -85.340448704777373 -13.823097047285501 0 -13.823097047285501 -4.1203973644533107 0 0 0 0 -20.82619991912361 45.672956497338419 0 45.672956497338419 22.465516077634675 0 0 0 0 -67.961939699354843 51.526665152144233 0 51.526665152144233 42.105272266557222 0 0 0 0 -49.378390368154214 25.807731146388051 0 25.807731146388051 18.210494514813035 0 0 0 0 -5.6732601130116134 24.507565553002092 0 24.507565553002092 8.3418277665810194 0 0 0 0 -10.487213500366124 21.765527339667642 0 21.765527339667642 8.0936632086377358 0 0 0 0 -17.97948335738738 30.648415208497681 0 30.648415208497681 1.2444691786949988 0 0 0 0 0.61254681952539158 17.717028932174198 0 17.717028932174198 18.04710185839199 0 0 0 0 -10.873122827736552 23.751739296831602 0 23.751739296831602 15.175503820773883 0 0 0 0 -3.2336900743193837 24.79971253462918 0 24.79971253462918 9.0926148371363524 0 0 0 0 -11.234907549491254 22.078039452988378 0 22.078039452988378 9.0144261423392891 0 0 0 0 -11.666749383442186 8.7326311008851718 0 8.7326311008851718 -0.36406585270364644 0 0 0 0 -6.8557917423759136 9.7770105321917526 0 9.7770105321917526 3.1113002021829743 0 0 0 0 -13.874401735658466 26.211842259515834 0 26.211842259515834 7.126621043106752 0 0 0 0 -7.6702762286122379 26.669819709373769 0 26.669819709373769 9.1243433356212336 0 0 0 0 -14.477426888734044 26.099936183612954 0 26.099936183612954 10.597312710833648 0 0 0 0 2.2582053992107092 12.995042644544403 0 12.995042644544403 9.3448399201510739 0 0 0 0 -13.551429551617275 32.887874435001777 0 32.887874435001777 19.807586884366174 0 0 0 0 -5.1157061981037941 34.560927139947125 0 34.560927139947125 -10.69199689321249 0 0 0 0 -16.714847137457408 19.483668875096395 0 19.483668875096395 -10.74778067555286 0 0 0 0 -30.857083198094188 21.620363221611115 0 21.620363221611115 16.544252938223508 0 0 0 0 -15.106983416671255 31.053386215833598 0 31.053386215833598 -10.666864200247801 0 0 0 0 -3.0786360798192618 13.979731795452608 0 13.979731795452608 -6.7137850513336161 0 0 0 0 3.4068749732266523 9.3251353972727387 0 9.3251353972727387 2.110931962466033 0 0 0 0 -4.9573290500002258 13.678194471206552 0 13.678194471206552 4.2072517878295912 0 0 0 0 1.2052052348549296 4.9414563358841406 0 4.9414563358841406 17.172664963582065 0 0 0 0 -9.5195340661457521 13.401717054935943 0 13.401717054935943 12.170172049879511 0 0 0 0 -1.0700044186523883 5.6854188610541314 0 5.6854188610541314 10.918602017074591 0 0 0 0 -24.904021655219367 14.725721726739721 0 14.725721726739721 13.006486422893431 0 0 0 0 -10.308472505495956 11.077284901073654 0 11.077284901073654 12.985269500496543 0 0 0 0 -27.80711341884853 24.207563717174708 0 24.207563717174708 5.2598634524183581 0 0 0 0 -18.109417342363486 15.944635049909266 0 15.944635049909266 5.5205313069363342 0 0 0 0 -3.532020478655415 8.3239444865681484 0 8.3239444865681484 0.58081943240901523 0 0 0 0 -16.763814445181197 16.327514970726043 0 16.327514970726043 4.9556820839361535 0 0 0 0 -42.882439704308581 29.501853063318094 0 29.501853063318094 -6.4379993002057745 0 0 0 0 -47.725805971941099 27.208464627886315 0 27.208464627886315 -7.4879726977251266 0 0 0 0 -22.833270502527981 15.227119351674681 0 15.227119351674681 4.8021193443729295 0 0 0 0 -5.8046040105702765 1.4373427861954475 0 1.4373427861954475 6.7054200963848913 0 0 0 0 -42.522323605704059 26.308870997493614 0 26.308870997493614 11.267132125311036 0 0 0 0 -8.035999500332764 40.803549208829281 0 40.803549208829281 -29.352526985669101 0 0 0 0 -38.450693845017668 31.787240028007545 0 31.787240028007545 -0.87274137055919709 0 0 0 0 -41.995345655249366 36.249311450448204 0 36.249311450448204 24.675028835710691 0 0 0 0 -32.137833806463277 22.410000633811251 0 22.410000633811251 10.897696136205923 0 0 0 0 -46.661875607812362 29.602276104033081 0 29.602276104033081 15.55112150340301 0 0 0 0 -15.550818475020987 30.810248094285527 0 30.810248094285527 -4.0948446494301791 0 0 0 0 -50.303649510971354 26.141021516347791 0 26.141021516347791 7.9826043736807151 0 0 0 0 -75.380536733178815 33.905834052629416 0 33.905834052629416 15.585022462301822 0 0 0 0 -126.40126519528349 77.331533363805647 0 77.331533363805647 -18.627099728713802 0 0 0 0 -4.143617693166135 11.575709276353248 0 11.575709276353248 1.3490366230941468 0 0 0 0 1.1244755796944901 26.929731264986913 0 26.929731264986913 -73.111973505109063 0 0 0 0 14.451654196698428 75.023241225697348 0 75.023241225697348 -84.631101736301844 0 0 0 0 6.1551680693419257 73.327657009598624 0 73.327657009598624 -24.617961288015067 0 0 0 0 9.682132587553042 80.217035467252572 0 80.217035467252572 -11.18726607147255 0 0 0 0 3.0485773471232278 37.519858974683302 0 37.519858974683302 -43.80139290565694 0 0 0 0 43.534716375874495 -80.878741144260857 0 -80.878741144260857 -264.84462626318509 0 0 0 0 138.05204844384912 80.320822013851284 0 80.320822013851284 -211.20871571372481 0 0 0 0 44.410047270939344 161.85471162311524 0 161.85471162311524 45.004578251959174 0 0 0 0 0.71738762280711388 0.8505720731250932 0 0.8505720731250932 0.94613199131592296 0 0 0 0 -30.879938887809203 31.797502797569905 0 31.797502797569905 110.23862124418156 0 0 0 0 -6.6915991465325533 71.002033900083916 0 71.002033900083916 13.213705141391983 0 0 0 0 -25.677728119681433 49.164515580650914 0 49.164515580650914 12.610188761609606 0 0 0 0 -29.215545762502131 36.7033332801293 0 36.7033332801293 -5.5471437247579161 0 0 0 0 -18.353712247501335 44.780671998989419 0 44.780671998989419 -23.011553152956481 0 0 0 0 -18.37745202141695 42.457311077275179 0 42.457311077275179 -13.904533032284235 0 0 0 0 -21.956318640940481 44.463786485976016 0 44.463786485976016 -7.5309219754373089 0 0 0 0 -21.404070222501304 40.474599104210711 0 40.474599104210711 -6.1256425925312215 0 0 0 0 -19.482161158674899 40.117309347047922 0 40.117309347047922 -7.7956721915143135 0 0 0 0 -17.42583313044986 40.49994056077594 0 40.49994056077594 -7.9735790010236087 0 0 0 0 -11.474746068691729 38.536175309669488 0 38.536175309669488 -11.403368849507387 0 0 0 0 -19.958777271577674 42.853164882062629 0 42.853164882062629 -7.2011438864647062 0 0 0 0 -14.242539520630089 48.005225422934018 0 48.005225422934018 -8.1161259875802898 0 0 0 0 -18.715178248653956 43.534418147315591 0 43.534418147315591 -7.4986274816061496 0 0 0 0 -14.519921883795632 30.610064619047989 0 30.610064619047989 -4.0462980580996373 0 0 0 0 -17.54885485818977 37.146411727930172 0 37.146411727930172 -1.1423124361626833 0 0 0 0 -17.525005067092934 36.875406176463002 0 36.875406176463002 -3.1995653142457741 0 0 0 0 -13.357177189548111 35.604204186400239 0 35.604204186400239 -13.518319276256079 0 0 0 0 -8.7665507440935926 31.000603040536589 0 31.000603040536589 -15.47902488658292 0 0 0 0 -4.1229371536514918 36.553020539206045 0 36.553020539206045 -24.613351313128078 0 0 0 0 -2.8949414203189008 32.253864512775181 0 32.253864512775181 -28.354249610278202 0 0 0 0 -9.682550299378704 26.702719573024297 0 26.702719573024297 -24.453580067427538 0 0 0 0 -3.4842077819985207 31.272620317440669 0 31.272620317440669 -29.751685993674982 0 0 0 0 -17.61206140014724 53.092107787364512 0 53.092107787364512 -15.001513185328804 0 0 0 0 -13.545877585459266 43.398530368565844 0 43.398530368565844 -20.060294895400148 0 0 0 0 0.60400708005863635 47.278879812864034 0 47.278879812864034 -20.546998023346305 0 0 0 0 5.2705524479665655 36.197992811750737 0 36.197992811750737 -32.350992825075537 0 0 0 0 -3.2362729861554271 38.632646202043361 0 38.632646202043361 -32.793938043636444 0 0 0 0 0.80607455711242437 49.197959128179718 0 49.197959128179718 -48.49138720719202 0 0 0 0 3.5618664979169807 26.480284473596839 0 26.480284473596839 -38.215372940408997 0 0 0 0 4.244696833041985 39.339451769067182 0 39.339451769067182 -41.407490057419636 0 0 0 0 0.0758614694921107 32.489023828542486 0 32.489023828542486 -32.515209087949188 0 0 0 0 7.9461691772087306 32.484530235236889 0 32.484530235236889 -32.782772685823147 0 0 0 0 1.2098333046837979 16.392960688030144 0 16.392960688030144 3.2195323361393093 0 0 0 0 1.9970603799340552 6.161839459087787 0 6.161839459087787 -21.203146380466478 0 0 0 0 1.6903932071656982 32.175283027652767 0 32.175283027652767 -22.589255827733723 0 0 0 0 -3.117511446457911 13.566739101292114 0 13.566739101292114 -5.6998962564775866 0 0 0 0 1.502861637586193 8.9511575623946555 0 8.9511575623946555 14.536061257882466 0 0 0 0 -0.71564060569819432 8.0890851602080467 0 8.0890851602080467 4.2185565083958636 0 0 0 0 6.7956221822706224 3.8720942201022019 0 3.8720942201022019 0.11063948534515333 0 0 0 0 -5.0245923397578736 32.410695149977983 0 32.410695149977983 -29.010383812059445 0 0 0 0 -4.5103484073488289 19.703611965767777 0 19.703611965767777 -33.049205435687327 0 0 0 0 -0.82104037701311272 2.7709448450434095 0 2.7709448450434095 2.487918176279825 0 0 0 0 8.3002235920343992 9.7025749003760211 0 9.7025749003760211 10.392564682957527 0 0 0 0 5.6909084293038177 13.896408633806004 0 13.896408633806004 17.996545143378171 0 0 0 0 -3.9622400841121914 0.50331439136247624 0 0.50331439136247624 4.1526173183833137 0 0 0 0 3.944103915515452 9.49154987562153 0 9.49154987562153 8.3981577364342357 0 0 0 0 8.7530485978920751 15.750124925045384 0 15.750124925045384 443.04361832365794 0 0 0 0 195.01337518047649 83.608359841881793 0 83.608359841881793 35.462489665524117 0 0 0 0 0.28347590714202697 1.4293981035383325 0 1.4293981035383325 1.5196246560318585 0 0 0 0 -1.3468523069619529 3.4322120440180157 0 3.4322120440180157 -0.16011134278230088 0 0 0 0 6.3061142485661321 37.315074045065558 0 37.315074045065558 -54.348601734463955 0 0 0 0 2.5821975804684882 6.1635545201080504 0 6.1635545201080504 -56.665729750366154 0 0 0 0 6.7561504078945518 28.03336618963931 0 28.03336618963931 -61.129273002679838 0 0 0 0 -0.77450325950897181 0.57362310151358287 0 0.57362310151358287 -0.82406406913303698 0 0 0 0 88.20640450644828 180.94941905146743 0 180.94941905146743 235.61607183174783 0 0 0 0 46.789447419745329 101.20679909257524 0 101.20679909257524 118.42733172101134 0 0 0 0 -39.737311579971333 14.380414880884018 0 14.380414880884018 149.01290289553435 0 0 0 0 -14.133555634598906 36.429254746152765 0 36.429254746152765 347.223538201255 0 0 0 0 -16.074054359475667 72.676509378582523 0 72.676509378582523 226.47762298447196 0 0 0 0 65.420717508566668 -31.408157166210003 0 -31.408157166210003 112.85371944494182 0 0 0 0 -8.81712195109899 7.121261382028635 0 7.121261382028635 -1.5410254292375374 0 0 0 0 -54.069746290299918 -18.746574282296933 0 -18.746574282296933 92.624186809031926 0 0 0 0 -55.981357649576708 41.638096751226954 0 41.638096751226954 72.16079429419915 0 0 0 0 -0.3736767068110538 1.2696449612250582 0 1.2696449612250582 0.45473744208629174 0 0 0 0 135.79405624521542 -16.571118367693998 0 -16.571118367693998 -93.620858295495509 0 0 0 0 26.552183916173817 94.902338935680746 0 94.902338935680746 37.977580211259919 0 0 0 0 -72.610834302751073 -8.1125021470525098 0 -8.1125021470525098 125.07179099878522 0 0 0 0 -19.292848610391957 26.178157186906901 0 26.178157186906901 29.15892099010739 0 0 0 0 247.23919720839808 139.12218423284958 0 139.12218423284958 152.21304722323293 0 0 0 0 68.023050156608178 -63.721664912356573 0 -63.721664912356573 246.55423096408413 0 0 0 0 -2.4429498415620401 59.005539770360883 0 59.005539770360883 287.13038806817349 0 0 0 0 -12.011715162807377 137.09049838816281 0 137.09049838816281 417.520953798748 0 0 0 0 -2.4160528126879512 149.33598821972373 0 149.33598821972373 266.38598371879016 0 0 0 0 15.776965218926989 71.602995319844922 0 71.602995319844922 197.63608699807446 0 0 0 0 38.099307493717333 181.65540138849053 0 181.65540138849053 339.07810739120941 0 0 0 0 -3.5692895567934384 6.5333523250933467 0 6.5333523250933467 -1.5221492616511352 0 0 0 0 75.253608515655174 122.60022357110165 0 122.60022357110165 51.255034864785557 0 0 0 0 -8.3627930992333859 15.99312680816729 0 15.99312680816729 -172.78909723412494 0 0 0 0 -2.2684380268145929 41.575661878548999 0 41.575661878548999 -203.76567201165562 0 0 0 0 -1.1855539010917369 50.778086882270827 0 50.778086882270827 -132.67027213364963 0 0 0 0 -10.352259514874106 34.4873228312847 0 34.4873228312847 -270.296748672994 0 0 0 0 -18.95500796759643 20.240357044836855 0 20.240357044836855 -164.63065470095535 0 0 0 0 11.392325633352471 95.230546707670328 0 95.230546707670328 -322.67255732634021 0 0 0 0 7.7304364669189454 59.38881762627534 0 59.38881762627534 -262.04684024846574 0 0 0 0 -37.917116528433894 116.51254091697592 0 116.51254091697592 -180.33624950750163 0 0 0 0 -19.8818199118964 74.770860259427991 0 74.770860259427991 -87.440718885129172 0 0 0 0 19.520511508236268 62.366435557363729 0 62.366435557363729 -145.4436891716723 0 0 0 0 14.539383674300893 66.521138489973055 0 66.521138489973055 -99.897460941062945 0 0 0 0 18.65569448725762 62.413312723640956 0 62.413312723640956 -114.75114784940342 0 0 0 0 22.349049978482981 74.510533548190324 0 74.510533548190324 -92.124260071403114 0 0 0 0 7.3487073503042666 78.107960685480975 0 78.107960685480975 -93.431645463573659 0 0 0 0 2.6433181167790281 74.980611873646922 0 74.980611873646922 -92.041416517447715 0 0 0 0 9.6595126709557917 49.921639806641451 0 49.921639806641451 -136.1302703000747 0 0 0 0 -1.150439014880817 51.28847753502032 0 51.28847753502032 -115.01188688990624 0 0 0 0 5.1507370054232524 72.503460723879471 0 72.503460723879471 -147.68520129877288 0 0 0 0 -14.064894178059603 67.972835429827683 0 67.972835429827683 -97.434699870671466 0 0 0 0 -11.931675285337747 -5.2471013088488689 0 -5.2471013088488689 -113.90104607414469 0 0 0 0 17.23300130210373 42.511734390202037 0 42.511734390202037 -142.9727214843615 0 0 0 0 16.696634566373405 40.367321698764499 0 40.367321698764499 -109.25963898560485 0 0 0 0 -4.8506883601451136 66.770209741755707 0 66.770209741755707 27.94239312420541 0 0 0 0 -11.970581898385262 88.304460879951876 0 88.304460879951876 67.069740876022479 0 0 0 0 1.2572185935905509 57.98270441114164 0 57.98270441114164 34.761080874821346 0 0 0 0 -15.541047914070987 46.816511518733932 0 46.816511518733932 8.9021776749068522 0 0 0 0 -14.790823229931515 29.645434408311665 0 29.645434408311665 -3.0930416195136345 0 0 0 0 -61.249814837839949 39.15961805653933 0 39.15961805653933 26.390848365581405 0 0 0 0 -72.003114806814665 42.534087742797055 0 42.534087742797055 31.408593368834772 0 0 0 0 -76.904284368079061 40.446265256439801 0 40.446265256439801 52.59050822255449 0 0 0 0 -47.709107209311696 77.115303055564709 0 77.115303055564709 37.18203441238802 0 0 0 0 -33.601915015349732 62.786138046007181 0 62.786138046007181 36.980825516746222 0 0 0 0 -170.16361939903254 127.82454883988794 0 127.82454883988794 175.52337291606091 0 0 0 0 -216.70816985005786 1.1737215409430064 0 1.1737215409430064 86.800641566680497 0 0 0 0 -1.2793776948428643 0.32468034265192358 0 0.32468034265192358 0.94491270067003796 0 0 0 0 88.329016314382613 305.45732705933261 0 305.45732705933261 774.99989872509104 0 0 0 0 -131.20096051966902 -64.070225902573839 0 -64.070225902573839 0.30653675044891315 0 0 0 0 -95.406470125029955 18.560751799396712 0 18.560751799396712 35.188932263768947 0 0 0 0 0.12015248334091666 9.8715719986557815 0 9.8715719986557815 6.3536540828172292 0 0 0 0 -35.287968970448674 19.867577630243431 0 19.867577630243431 23.879636505180315 0 0 0 0 -61.819823785227726 17.221879077186856 0 17.221879077186856 31.10661027459355 0 0 0 0 -36.792691193963378 10.87002023920013 0 10.87002023920013 19.454186684502929 0 0 0 0 -42.343223778203082 -20.14041537945468 0 -20.14041537945468 3.6172802367309487 0 0 0 0 -3.7054109214936943 0.0069753762486897131 0 0.0069753762486897131 1.9342763929950593 0 0 0 0 -4.8605466164744939 21.404002343234424 0 21.404002343234424 26.36038210951665 0 0 0 0 115.30830336940198 118.95910471866137 0 118.95910471866137 258.41871362484017 0 0 0 0 6.980694378295766 43.694225857614583 0 43.694225857614583 -322.97617222311419 0 0 0 0 -0.28341132547682069 5.2941329923613836 0 5.2941329923613836 -1.2044166497915558 0 0 0 0 -24.915234127427539 54.798992973585882 0 54.798992973585882 -275.15289237867091 0 0 0 0 25.234289966209417 17.12939642969468 0 17.12939642969468 -249.25738838053985 0 0 0 0 -61.815574363261021 30.127254789896142 0 30.127254789896142 -36.338008200804325 0 0 0 0 -35.051809650674386 123.60017463351323 0 123.60017463351323 -191.50924422456956 0 0 0 0 -37.329704058827247 -30.299086348366473 0 -30.299086348366473 -263.30128811581426 0 0 0 0 -160.34186346385468 296.03595168445827 0 296.03595168445827 774.66273579872859 0 0 0 0 9.5422067033341591 32.921245076259765 0 32.921245076259765 -545.82903652735695 0 0 0 0 90.39400074598052 105.20511880321101 0 105.20511880321101 -655.03549362053491 0 0 0 0 0.57696981659394275 2.5698649969716314 0 2.5698649969716314 -0.45538970334949358 0 0 0 0 20.029238440768268 147.33229270936636 0 147.33229270936636 -54.728573699227127 0 0 0 0 138.33313627659845 411.92338285713231 0 411.92338285713231 397.74363918137533 0 0 0 0 -77.836715334129281 131.53928657588972 0 131.53928657588972 -94.204631744778453 0 0 0 0 -42.477061074261655 245.30881755317569 0 245.30881755317569 -459.43914012433561 0 0 0 0 40.47664067291953 33.715803107014835 0 33.715803107014835 -186.51871043474671 0 0 0 0 -14.461569237784715 -41.761349482044352 0 -41.761349482044352 -18.085636047118896 0 0 0 0 -51.405965929787726 74.69025449334913 0 74.69025449334913 -183.13843199123221 0 0 0 0 49.14736263926261 49.911127032741206 0 49.911127032741206 -168.37072503471791 0 0 0 0 55.43694546124334 22.618210290247589 0 22.618210290247589 -74.423284856289683 0 0 0 0 76.51396487187867 -3.9439914732338366 0 -3.9439914732338366 -12.327213338449383 0 0 0 0 63.805764827106032 46.339923229414126 0 46.339923229414126 -26.888851460062597 0 0 0 0 87.592604476830275 56.006785310241867 0 56.006785310241867 -36.97869355354851 0 0 0 0 4.9921463011951346 63.959321950029334 0 63.959321950029334 -48.257628222592757 0 0 0 0 55.182386850592593 102.76235041790642 0 102.76235041790642 -94.552408692151857 0 0 0 0 20.099130491474643 29.137286266537586 0 29.137286266537586 28.833361826766559 0 0 0 0 12.534595835539221 50.404183778802121 0 50.404183778802121 13.468049024338143 0 0 0 0 7.8586151893807266 7.8875647610597568 0 7.8875647610597568 1.8140790223106915 0 0 0 0 5.0899368634954953 14.293604129715732 0 14.293604129715732 47.097377530713857 0 0 0 0 -16.496169901245366 45.863436626674911 0 45.863436626674911 50.837512338676788 0 0 0 0 17.361220648871267 30.45014043234778 0 30.45014043234778 25.771945809712633 0 0 0 0 15.74296514011894 40.011704742508755 0 40.011704742508755 95.498314839656814 0 0 0 0 63.435461912260507 49.805300232169429 0 49.805300232169429 14.458658772626222 0 0 0 0 2.0796527086147343 1.5631247499544578 0 1.5631247499544578 -0.78871223163068294 0 0 0 0 40.955915222290514 64.422421484881852 0 64.422421484881852 116.23658865606353 0 0 0 0 85.909226638253131 19.6618761224031 0 19.6618761224031 105.61383585689327 0 0 0 0 73.685921693178159 3.6606765178248679 0 3.6606765178248679 186.28827914842259 0 0 0 0 62.954926047410481 28.30670497761912 0 28.30670497761912 -0.22934686137887184 0 0 0 0 84.938662943252893 75.290611022072881 0 75.290611022072881 61.070383506310463 0 0 0 0 -0.44284356322140406 0.71942061075387009 0 0.71942061075387009 -2.3287860796546695 0 0 0 0 45.81810700969163 25.466464980804631 0 25.466464980804631 6.1034133504017518 0 0 0 0 -70.90883996322566 -7.1343298409669842 0 -7.1343298409669842 11.864264844556601 0 0 0 0 -63.125194726174414 -17.573891005042242 0 -17.573891005042242 -7.5026580215198919 0 0 0 0 47.537206480289342 28.995970309907534 0 28.995970309907534 8.0964717135175306 0 0 0 0 0.22562587127655442 -0.36885295717063826 0 -0.36885295717063826 2.5295704293791914 0 0 0 0 -17.596310164069337 26.651529021179158 0 26.651529021179158 15.6043763900052 0 0 0 0 39.277110393888542 50.622196251883501 0 50.622196251883501 44.563592117759981 0 0 0 0 -20.427573451963326 34.99538937921443 0 34.99538937921443 5.6841538771623163 0 0 0 0 -48.821227823681511 -12.189683510658142 0 -12.189683510658142 4.6010358130661189 0 0 0 0 2.9984831987492271 8.1610446575632523 0 8.1610446575632523 11.353898458692129 0 0 0 0 -12.868879618258688 46.798282099015523 0 46.798282099015523 43.766718082784791 0 0 0 0 -6.0991200259340985 39.118792945126188 0 39.118792945126188 45.314888901680206 0 0 0 0 -22.783685775904587 48.468842162675173 0 48.468842162675173 67.512073042496922 0 0 0 0 -1.6421520932867679 47.363914406510958 0 47.363914406510958 56.033023255877197 0 0 0 0 26.509520843737846 50.565651731478283 0 50.565651731478283 56.394204226205147 0 0 0 0 39.191956505429062 36.156448066503799 0 36.156448066503799 23.778029007440637 0 0 0 0 0.89625462038140036 -0.021203228290438858 0 -0.021203228290438858 -0.90526824824532781 0 0 0 0 -13.546554983835449 18.876161391635833 0 18.876161391635833 0.81058621502961614 0 0 0 0 1.9366760060627719 6.3858785259830135 0 6.3858785259830135 -2.9651019491640938 0 0 0 0 28.015784288204486 27.247376220226215 0 27.247376220226215 11.537075002313941 0 0 0 0 21.016476006871699 44.804912218966138 0 44.804912218966138 8.0694922954098729 0 0 0 0 13.305362203385812 32.155111752332232 0 32.155111752332232 10.102590987876283 0 0 0 0 9.1143301327583686 45.704598883854487 0 45.704598883854487 10.124479004362001 0 0 0 0 30.17152621095147 38.85835336663763 0 38.85835336663763 10.808359046515761 0 0 0 0 29.45794616043986 37.384773459993085 0 37.384773459993085 10.156125940918173 0 0 0 0 20.045365866420045 25.69515872420212 0 25.69515872420212 32.193466971022929 0 0 0 0 -16.379877972796749 61.030886681337506 0 61.030886681337506 32.719458634777311 0 0 0 0 -15.206230033776592 41.52302317508429 0 41.52302317508429 38.600477203155606 0 0 0 0 13.867014933201583 26.505733548504413 0 26.505733548504413 31.957253584617639 0 0 0 0 -3.7918131984952197 31.493178263993741 0 31.493178263993741 28.780389983367058 0 0 0 0 -1.3868366137103294 35.539522367680547 0 35.539522367680547 33.857996452294174 0 0 0 0 -2.1382856782583985 28.184749625207132 0 28.184749625207132 42.870735833063918 0 0 0 0 -3.0438128888930578 36.809223400564122 0 36.809223400564122 31.708930794822663 0 0 0 0 -7.2751452047523344 41.212973986765974 0 41.212973986765974 36.35300869162802 0 0 0 0 -9.6364658399725158 50.258962978545469 0 50.258962978545469 20.544912619548995 0 0 0 0 13.806224894126217 39.636810242722277 0 39.636810242722277 0.60342372093850827 0 0 0 0 42.956294755608724 46.827083515050617 0 46.827083515050617 0.09195700045427202 0 0 0 0 41.501594378726395 21.206609444097921 0 21.206609444097921 4.7093102908620494 0 0 0 0 13.078796559105285 50.234363222878528 0 50.234363222878528 69.52777792240704 0 0 0 0 50.652541681273306 44.449834506878688 0 44.449834506878688 -76.473456626417828 0 0 0 0 18.775973409142466 79.086696598330946 0 79.086696598330946 -79.023560691304738 0 0 0 0 31.253759835619121 64.324495743426269 0 64.324495743426269 -99.613711164057577 0 0 0 0 26.402404493479082 38.589264662920868 0 38.589264662920868 -36.134593988772394 0 0 0 0 -1.3931111465671506 64.674625030717834 0 64.674625030717834 -38.172140608379777 0 0 0 0 58.726003631738649 167.14307969474612 0 167.14307969474612 79.555114856835644 0 0 0 0 -46.782975597600057 56.022342332183143 0 56.022342332183143 48.758266789963272 0 0 0 0 4.3783447314011141 69.380048634404375 0 69.380048634404375 -86.648554338086342 0 0 0 0 0.58792679121242841 2.1913076278961654 0 2.1913076278961654 -0.44787052422444695 0 0 0 0 -182.54299193412817 73.327614031370103 0 73.327614031370103 270.90094074726176 0 0 0 0 0.4549749857861618 -0.32846470914473969 0 -0.32846470914473969 -1.122283746834384 0 0 0 0 76.269546755580052 53.669080546880423 0 53.669080546880423 122.57363358244766 0 0 0 0 -140.42980538962448 -20.103666447971591 0 -20.103666447971591 22.027597625667113 0 0 0 0 -22.819316709009058 25.79733350652441 0 25.79733350652441 0.3770224532913744 0 0 0 0 9.4789662845314524 35.897328465754072 0 35.897328465754072 1.318526164861396 0 0 0 0 17.962402027231803 43.999950573925162 0 43.999950573925162 0.021450439025556989 0 0 0 0 6.9349068732226442 51.556015793101324 0 51.556015793101324 31.279409639244932 0 0 0 0 -29.473109264622053 26.680582705325833 0 26.680582705325833 37.59080340942819 0 0 0 0 -54.366167766591616 28.777240477365922 0 28.777240477365922 28.154236753611258 0 0 0 0 -15.475422235469978 33.261107681164503 0 33.261107681164503 14.475414336127869 0 0 0 0 -31.051213487770042 36.585134896752606 0 36.585134896752606 50.376182581490866 0 0 0 0 -18.529099583897533 32.309322125652216 0 32.309322125652216 50.540315164485946 0 0 0 0 -22.65734207429125 37.705602937151525 0 37.705602937151525 65.566979873387027 0 0 0 0 -6.8940152374052559 51.894357340939678 0 51.894357340939678 55.46432729361095 0 0 0 0 -23.137973808328297 42.809533066736549 0 42.809533066736549 49.251750398964759 0 0 0 0 31.468266491695545 80.901749101518362 0 80.901749101518362 67.747304475769852 0 0 0 0 6.3478803795258614 38.341462039914859 0 38.341462039914859 78.874720339541454 0 0 0 0 -1.953906218380145 2.9436288552995755 0 2.9436288552995755 -3.2091949917525824 0 0 0 0 65.616063938487287 45.310529367331583 0 45.310529367331583 28.434718756530856 0 0 0 0 12.477926131016261 41.227232396601721 0 41.227232396601721 35.352392787797726 0 0 0 0 -2.3704626298650933 3.1568118499856688 0 3.1568118499856688 -3.1557532172465592 0 0 0 0 49.314088792103746 93.048951342233295 0 93.048951342233295 64.103239398315054 0 0 0 0 -23.720799339219411 175.06453441445046 0 175.06453441445046 41.07189144900417 0 0 0 0 -27.805877519604564 -64.212937610138397 0 -64.212937610138397 -41.009718730590066 0 0 0 0 -62.689220382625535 48.858070589529234 0 48.858070589529234 -303.06986921456746 0 0 0 0 -1.3626950457560572 1.1877191100867357 0 1.1877191100867357 0.11328097393223313 0 0 0 0 -64.178717007016985 -37.500556846589916 0 -37.500556846589916 107.13370837526691 0 0 0 0 -230.54018951328544 152.0974674836034 0 152.0974674836034 -256.4774721939466 0 0 0 0 -134.79115228341243 51.483407387480383 0 51.483407387480383 51.986274817238126 0 0 0 0 -47.956440084368296 -26.90004644819328 0 -26.90004644819328 72.082382939534 0 0 0 0 -25.071570527783024 38.794412885616111 0 38.794412885616111 29.774970744655548 0 0 0 0 -2.1925163444296274 1.5998691958955575 0 1.5998691958955575 0.43512416947999366 0 0 0 0 -34.355038469639794 53.382248486631397 0 53.382248486631397 61.341839782960051 0 0 0 0 4.6528006447210828 -9.64042005308238 0 -9.64042005308238 49.084782951915258 0 0 0 0 -55.768751951967033 107.45242248539216 0 107.45242248539216 -53.695289808647431 0 0 0 0 13.699606194826103 61.513073336957987 0 61.513073336957987 -119.23605458037036 0 0 0 0 -46.660072286267678 -13.588408293033353 0 -13.588408293033353 -67.619056130898571 0 0 0 0 12.104594195125145 25.38718037579163 0 25.38718037579163 -58.284399835414661 0 0 0 0 -0.67783779043139702 1.3831452854082862 0 1.3831452854082862 -1.8121574832735945 0 0 0 0 56.770111176006367 74.878903629064553 0 74.878903629064553 -122.73608139115822 0 0 0 0 -110.96951147573827 -20.620741086926955 0 -20.620741086926955 90.470209024213091 0 0 0 0 -32.036829003867297 137.62582378925708 0 137.62582378925708 -100.52477823550089 0 0 0 0 24.546612056867673 98.337620709881548 0 98.337620709881548 -89.093038141018042 0 0 0 0 -31.38413849968174 88.405414998692322 0 88.405414998692322 -67.677650018427812 0 0 0 0 -9.6422696918043584 95.422938809138941 0 95.422938809138941 -89.315492743127379 0 0 0 0 -15.069151836849414 46.394344512959833 0 46.394344512959833 -99.322259697115214 0 0 0 0 -15.233498102696558 48.192967354731991 0 48.192967354731991 -50.015498969404234 0 0 0 0 -29.332723897017331 52.395973542881165 0 52.395973542881165 -19.896282523832269 0 0 0 0 -0.22910025202412498 1.8491630676252377 0 1.8491630676252377 0.70361614932002503 0 0 0 0 -41.509648040448155 16.957152329887322 0 16.957152329887322 43.532964507335237 0 0 0 0 -45.627404324455711 -14.461270648307618 0 -14.461270648307618 24.097497894117623 0 0 0 0 -25.449181673003295 68.540349531671382 0 68.540349531671382 -38.240125440546763 0 0 0 0 -4.2290690799784443 26.52511564111478 0 26.52511564111478 -36.047196155022903 0 0 0 0 -105.51411297639652 111.74459987026603 0 111.74459987026603 -49.657875571798286 0 0 0 0 -117.60951558923114 34.330393144624622 0 34.330393144624622 -14.071622245490289 0 0 0 0 -26.318444660504838 72.778271404505404 0 72.778271404505404 -31.089621415270813 0 0 0 0 7.6237495827689372 17.701725125273242 0 17.701725125273242 68.714621998171424 0 0 0 0 14.564960288489601 24.276846966002267 0 24.276846966002267 -45.596320764143002 0 0 0 0 64.949882862651975 19.744324760810741 0 19.744324760810741 -144.05680481395393 0 0 0 0 0.16285440156888953 0.99943829900258407 0 0.99943829900258407 0.31896919044247873 0 0 0 0 -72.53085216966474 31.086381051094577 0 31.086381051094577 50.854315017812041 0 0 0 0 -13.20850534772444 113.36979897510582 0 113.36979897510582 25.202330019083092 0 0 0 0 0.25380128349205222 1.713710547287782 0 1.713710547287782 0.60967602375253271 0 0 0 0 -40.857174857013206 2.9053699228895766 0 2.9053699228895766 51.613938341615722 0 0 0 0 67.947218414316012 33.687300259563926 0 33.687300259563926 -79.157915909086114 0 0 0 0 -31.06636728321746 24.179555051544412 0 24.179555051544412 40.421672113036948 0 0 0 0 -41.891992639895761 -2.3567105625434124 0 -2.3567105625434124 37.25571956798376 0 0 0 0 -24.958499953995123 10.261602729639963 0 10.261602729639963 -2.011902499188281 0 0 0 0 -47.779045345161649 -1.8070793726528791 0 -1.8070793726528791 38.119709281787436 0 0 0 0 36.683259467530661 106.52388135187448 0 106.52388135187448 26.050204017125907 0 0 0 0 -2.6411915342612637 -0.37127992639411556 0 -0.37127992639411556 2.2039572977710051 0 0 0 0 5.6027825118061472 3.7125189885837724 0 3.7125189885837724 -1.9192997570378654 0 0 0 0 -13.492796304469266 68.228892094597086 0 68.228892094597086 152.90728413472425 0 0 0 0 36.119777615894236 17.317044242616248 0 17.317044242616248 52.598081604765866 0 0 0 0 -27.22686861382364 18.076641552166649 0 18.076641552166649 -7.8360817591426795 0 0 0 0 -18.751142288496794 67.197289829447072 0 67.197289829447072 77.438696650122438 0 0 0 0 29.361014517140575 57.29582907825943 0 57.29582907825943 -40.558029976526086 0 0 0 0 -22.643340277543757 44.495545025616593 0 44.495545025616593 63.42129130615649 0 0 0 0 -52.429541444315561 39.215918497928612 0 39.215918497928612 78.337610011109064 0 0 0 0 -40.48388798870792 12.615882671317195 0 12.615882671317195 73.201376778345548 0 0 0 0 -40.393336837162678 13.131860088001304 0 13.131860088001304 72.04202967405763 0 0 0 0 -53.149574360777649 31.131627219857194 0 31.131627219857194 86.214306849240529 0 0 0 0 -47.925500681817994 -4.9784669301880058 0 -4.9784669301880058 93.724978288755665 0 0 0 0 -43.17976111973303 24.897840867952254 0 24.897840867952254 133.15368435395976 0 0 0 0 21.704369719560873 2.8928888818259111 0 2.8928888818259111 54.450000539090979 0 0 0 0 -19.195842195418891 -29.884563860651724 0 -29.884563860651724 2.9526366188783868 0 0 0 0 -16.636315376074144 7.1179674750738471 0 7.1179674750738471 -1.3506791389669894 0 0 0 0 -59.508110184833349 -53.078206452725738 0 -53.078206452725738 94.211543910791079 0 0 0 0 -9.9981423263607212 24.373665506385805 0 24.373665506385805 40.00999214123658 0 0 0 0 -130.90348567066576 18.694957699362021 0 18.694957699362021 103.15586099487882 0 0 0 0 103.84139003242399 96.390857505281929 0 96.390857505281929 -16.979221294071067 0 0 0 0 -54.823237719219833 12.413425960054155 0 12.413425960054155 9.5835523537359677 0 0 0 0 -56.006420546699701 83.128400526801897 0 83.128400526801897 108.12804266978401 0 0 0 0 37.400895808433233 68.178764519359902 0 68.178764519359902 -25.924634095930287 0 0 0 0 23.19017609603543 106.28789483162791 0 106.28789483162791 37.069460274111407 0 0 0 0 1.486783260199708 -0.05117193525792274 0 -0.05117193525792274 0.26099352713869894 0 0 0 0 45.642751706654508 28.030785785155331 0 28.030785785155331 -146.46021340740572 0 0 0 0 -9.0917068736880537 14.763690838891307 0 14.763690838891307 24.037047323511842 0 0 0 0 94.610815677016035 77.701389526423554 0 77.701389526423554 -9.9515755923730467 0 0 0 0 86.743162606902843 49.822503915375819 0 49.822503915375819 -15.795545063207101 0 0 0 0 6.7834941978771894 169.30586002783184 0 169.30586002783184 276.86178533850716 0 0 0 0 62.70355655943149 42.989115091482745 0 42.989115091482745 -16.973281086868838 0 0 0 0 62.507057058895953 69.302971576073105 0 69.302971576073105 -11.74958752684347 0 0 0 0 67.318623520802248 43.897276558195244 0 43.897276558195244 -52.353660975104503 0 0 0 0 58.296073529334535 43.000388410383948 0 43.000388410383948 -13.663910022639357 0 0 0 0 58.469276252965756 -42.208460180109796 0 -42.208460180109796 -137.67172816564016 0 0 0 0 -108.28976923472692 148.49805672382945 0 148.49805672382945 -13.516356751862986 0 0 0 0 -167.74174133715223 154.2714368264833 0 154.2714368264833 -26.505767394839495 0 0 0 0 42.411240713207803 -39.253652149408595 0 -39.253652149408595 -320.68047796857172 0 0 0 0 -1.2685000069915162 2.1026979089064826 0 2.1026979089064826 -3.9088513956735902 0 0 0 0 -228.51587608035425 -59.077314591593677 0 -59.077314591593677 15.2310299235927 0 0 0 0 4.4203063180383424 -267.89655643190707 0 -267.89655643190707 -286.14899862475249 0 0 0 0 -213.67737225582187 -119.0607369342315 0 -119.0607369342315 -24.821926292316675 0 0 0 0 -76.832126877427982 -15.709958190663201 0 -15.709958190663201 52.804076009964774 0 0 0 0 -46.971831527904214 -11.150504559291221 0 -11.150504559291221 51.248991950445543 0 0 0 0 -53.024946416392595 17.749715519707024 0 17.749715519707024 108.10732579115211 0 0 0 0 -78.964676602454347 -58.877011668480009 0 -58.877011668480009 -27.250151205882503 0 0 0 0 -39.549394144528378 -1.1629517326782661 0 -1.1629517326782661 23.371180196463683 0 0 0 0 -37.558961108162293 27.553086800666279 0 27.553086800666279 -25.485548925502371 0 0 0 0 -17.065296594100346 53.731978889236416 0 53.731978889236416 -4.4174024967987862 0 0 0 0 -74.274265587670016 12.883155240124324 0 12.883155240124324 29.647891769545822 0 0 0 0 -90.656438117205653 102.89231450521129 0 102.89231450521129 65.86485392169925 0 0 0 0 -40.84700552077129 95.891886653692382 0 95.891886653692382 -78.975767393343631 0 0 0 0 -0.94926067276878356 1.0873799309206831 0 1.0873799309206831 0.32366752170085267 0 0 0 0 -74.123232893513887 18.927181926013873 0 18.927181926013873 124.62165125588945 0 0 0 0 -43.960627637607104 97.219940664358546 0 97.219940664358546 114.37034213649247 0 0 0 0 -82.320993781319885 74.170421598851135 0 74.170421598851135 120.31623366892381 0 0 0 0 -48.197275089252798 97.823225592711424 0 97.823225592711424 188.15720857610177 0 0 0 0 56.768769049497678 216.80802126879189 0 216.80802126879189 164.73593830974551 0 0 0 0 -0.77046787334097644 158.33722755313647 0 158.33722755313647 110.08597500488213 0 0 0 0 -4.0659977751174665 164.13536534897003 0 164.13536534897003 109.19713102841706 0 0 0 0 -57.030448040684405 129.89183926139367 0 129.89183926139367 127.18215123218397 0 0 0 0 15.620418212429286 119.85326685015934 0 119.85326685015934 128.56663784190368 0 0 0 0 21.365090788566079 159.28266453263149 0 159.28266453263149 110.12367351390094 0 0 0 0 -30.020202123195304 71.032913065335379 0 71.032913065335379 249.0679557956048 0 0 0 0 13.577696890238258 46.093510216459435 0 46.093510216459435 124.83544863773568 0 0 0 0 28.477961989659207 90.968674386202792 0 90.968674386202792 110.15737329630247 0 0 0 0 23.299785955410698 102.01808120538817 0 102.01808120538817 94.330788108734851 0 0 0 0 44.544328577891065 100.72772565400192 0 100.72772565400192 93.617899672113253 0 0 0 0 55.709504854241914 99.170911558383523 0 99.170911558383523 81.761323437080137 0 0 0 0 41.975452672588744 103.52988886809885 0 103.52988886809885 94.471654910087636 0 0 0 0 72.086537602519456 158.39947152524201 0 158.39947152524201 60.017448004204198 0 0 0 0 59.260954923156532 97.232024280483529 0 97.232024280483529 52.811859594231123 0 0 0 0 9.8024356593041375 85.206146343420187 0 85.206146343420187 92.225752737072071 0 0 0 0 47.1612500444121 89.795465992896879 0 89.795465992896879 89.428496868114962 0 0 0 0 -0.34491953612479165 1.158798280198738 0 1.158798280198738 -0.84653692515655976 0 0 0 0 0.066899393290619003 0.76961727317783968 0 0.76961727317783968 -0.62147387923927511 0 0 0 0 18.875038906668124 111.15774345106001 0 111.15774345106001 18.458330041054069 0 0 0 0 36.364380244733184 88.326597151103215 0 88.326597151103215 128.68724038299661 0 0 0 0 28.423238109185149 107.15753300685083 0 107.15753300685083 108.41648145253748 0 0 0 0 83.71243430265713 143.35227482266055 0 143.35227482266055 90.24081167557415 0 0 0 0 30.012406869664801 116.35872529827611 0 116.35872529827611 76.790034490724793 0 0 0 0 110.41925875795641 145.39670119917901 0 145.39670119917901 86.218498647587694 0 0 0 0 15.768054212690913 202.03122843433539 0 202.03122843433539 131.3336939548899 0 0 0 0 -51.760946359058835 100.72359966881686 0 100.72359966881686 139.14111548734536 0 0 0 0 -49.572522604575468 85.104833768144942 0 85.104833768144942 10.899624686353491 0 0 0 0 -49.985471073441659 49.333744071589535 0 49.333744071589535 6.5215896032350429 0 0 0 0 -109.50160179201157 20.836138605009182 0 20.836138605009182 91.961243981857479 0 0 0 0 -0.26479576848300868 -0.84029897765681838 0 -0.84029897765681838 1.2062470894546991 0 0 0 0 -35.07868511074048 50.709342094336535 0 50.709342094336535 6.6113782852771692 0 0 0 0 0.1755196829283463 4.684589421315124 0 4.684589421315124 1.1988353299208754 0 0 0 0 -53.4517859815478 41.031570850180287 0 41.031570850180287 6.2985159440358984 0 0 0 0 -26.031520243128398 38.589852803595932 0 38.589852803595932 -4.1055379839417583 0 0 0 0 -15.433038590412252 46.067408295042696 0 46.067408295042696 -7.1205844050236919 0 0 0 0 -18.794760888212295 63.97585955804243 0 63.97585955804243 -12.981615818410319 0 0 0 0 13.551536629078328 24.522442615588226 0 24.522442615588226 -61.407927810741 0 0 0 0 3.994245584076566 104.73621785822453 0 104.73621785822453 -34.425539291931244 0 0 0 0 -24.935179443431181 37.083410046343758 0 37.083410046343758 -22.914501389920293 0 0 0 0 51.64964524066545 42.316018690435811 0 42.316018690435811 -65.287281122030578 0 0 0 0 30.799072477155278 81.932698747742819 0 81.932698747742819 75.756573886605366 0 0 0 0 58.483183328185987 129.80127355289613 0 129.80127355289613 43.114684188786519 0 0 0 0 56.497795812924778 76.614314317690443 0 76.614314317690443 20.92104114124453 0 0 0 0 113.63067303467915 96.225234921891754 0 96.225234921891754 20.464051554654318 0 0 0 0 114.08040027017341 140.29922182518479 0 140.29922182518479 29.958521804405791 0 0 0 0 -24.236943505112393 32.031170517707267 0 32.031170517707267 -32.591516350947479 0 0 0 0 43.276697279768996 171.41992703653798 0 171.41992703653798 142.74217824389069 0 0 0 0 -8.9962764732299547 26.261817476475699 0 26.261817476475699 -28.047090171212403 0 0 0 0 68.649921414728169 41.074790079365584 0 41.074790079365584 -22.095154519178323 0 0 0 0 -24.940732175480662 30.450976033076586 0 30.450976033076586 -23.193187328855856 0 0 0 0 -13.896037344645787 17.281228978741652 0 17.281228978741652 -6.0030465536875077 0 0 0 0 19.39184764014135 74.605928207540273 0 74.605928207540273 -10.768301214944131 0 0 0 0 231.4538037146358 152.38095845242242 0 152.38095845242242 11.165331280658393 0 0 0 0 223.30058146354028 325.74235883176209 0 325.74235883176209 207.71549330900962 0 0 0 0 12.190362434048438 63.331070399901819 0 63.331070399901819 95.198705458769837 0 0 0 0 -246.8297616218606 -13.091000278948741 0 -13.091000278948741 68.697406916311593 0 0 0 0 20.350850584174168 46.175268091943281 0 46.175268091943281 46.401076544694661 0 0 0 0 3.2140828644524184 2.6897215593058519 0 2.6897215593058519 2.8752319332075231 0 0 0 0 -386.88620773558978 -377.80682244650598 0 -377.80682244650598 277.91749045012693 0 0 0 0 185.53349843738533 218.53154944940343 0 218.53154944940343 -151.62899766308874 0 0 0 0 -126.14778414707689 -36.005573166539762 0 -36.005573166539762 10.2754772261178 0 0 0 0 343.4272425609297 443.74162878485549 0 443.74162878485549 153.74661959698437 0 0 0 0 290.41226166254273 540.74644305034599 0 540.74644305034599 136.18422585139888 0 0 0 0 -109.15906378423188 155.18778985176868 0 155.18778985176868 -135.19918237635284 0 0 0 0 35.186877330035713 230.51804573051231 0 230.51804573051231 544.48731420146578 0 0 0 0 2.4854980901738308 0.98711153327790413 0 0.98711153327790413 0.85649554562616537 0 0 0 0 -11.695834100022694 11.883660064209835 0 11.883660064209835 -59.488372976173196 0 0 0 0 25.686100427590304 50.688347962837383 0 50.688347962837383 60.491450447925672 0 0 0 0 6.7231876610892023 5.0267920895904794 0 5.0267920895904794 -2.5638439665110333 0 0 0 0 54.998751143470145 62.112057223132069 0 62.112057223132069 41.589781430701805 0 0 0 0 200.45508518974475 197.2144320736827 0 197.2144320736827 147.16654288976861 0 0 0 0 131.05990492698493 245.6938782825946 0 245.6938782825946 173.36500627684427 0 0 0 0 27.70330453014617 125.93649262509871 0 125.93649262509871 241.17258157076867 0 0 0 0 117.89953618379059 147.91526237290236 0 147.91526237290236 59.107594821985003 0 0 0 0 66.025083649918088 100.20151878429533 0 100.20151878429533 64.331236036609425 0 0 0 0 84.163910779038815 157.94775519267296 0 157.94775519267296 48.777146793823704 0 0 0 0 79.732832429398513 169.75545107897051 0 169.75545107897051 188.66202719297235 0 0 0 0 103.58454421812303 118.3479051362076 0 118.3479051362076 89.676870906227123 0 0 0 0 85.400521428438879 108.74054388930972 0 108.74054388930972 48.889102556244325 0 0 0 0 66.77342883890924 117.13261338051234 0 117.13261338051234 92.9107334389073 0 0 0 0 82.824602141697596 82.32404044197574 0 82.32404044197574 7.6890208809236356 0 0 0 0 -3.2755461599439286 50.072919631814784 0 50.072919631814784 -4.5546422341394646 0 0 0 0 13.316791621763514 3.0112044326078831 0 3.0112044326078831 -73.551888818881707 0 0 0 0 23.520675644990661 58.482972620304281 0 58.482972620304281 45.968171834130771 0 0 0 0 115.5875713043929 181.99643374427524 0 181.99643374427524 -20.799388269842893 0 0 0 0 -57.549851069984015 180.99722367880668 0 180.99722367880668 -109.4088249002416 0 0 0 0 -178.1965003078476 -123.39961285858226 0 -123.39961285858226 -172.50637296800346 0 0 0 0 -197.50337119009029 141.69504845046367 0 141.69504845046367 -36.194469783255045 0 0 0 0 -121.94938962385277 70.050605132139935 0 70.050605132139935 70.493187340658551 0 0 0 0 -72.637995921414131 -35.148030260792439 0 -35.148030260792439 -9.5654365011207574 0 0 0 0 -27.928063132316765 26.797152107553302 0 26.797152107553302 75.563266536762967 0 0 0 0 -38.030817092170764 19.866923079663138 0 19.866923079663138 74.388031087839408 0 0 0 0 -60.438039041698346 50.12689196719225 0 50.12689196719225 132.39398209514911 0 0 0 0 -67.803624255197064 11.404306572659152 0 11.404306572659152 120.90872742413922 0 0 0 0 37.269220338204832 71.214798599071401 0 71.214798599071401 45.870504800879871 0 0 0 0 -0.8539694805349427 7.0635924334574156 0 7.0635924334574156 3.6820876355385508 0 0 0 0 41.944803002209028 61.581482417088409 0 61.581482417088409 65.690900255156521 0 0 0 0 -7.241239476519695 41.133886949808584 0 41.133886949808584 65.818692456288915 0 0 0 0 -22.139960855395657 44.886199395100448 0 44.886199395100448 108.11873793615814 0 0 0 0 21.567532340515754 74.947110475073714 0 74.947110475073714 79.292061510492886 0 0 0 0 21.726379522264779 72.353767979937857 0 72.353767979937857 92.145893444150715 0 0 0 0 -4.4272664205936962 51.316371549643918 0 51.316371549643918 101.192769596174 0 0 0 0 -12.669724689140367 73.226303104126373 0 73.226303104126373 99.680852703044366 0 0 0 0 -65.753024772925528 48.104666183618974 0 48.104666183618974 108.23397610622351 0 0 0 0 81.438131832097497 50.952910268652886 0 50.952910268652886 17.86209425310517 0 0 0 0 -80.022530863872817 115.1340927469937 0 115.1340927469937 75.361990056009745 0 0 0 0 12.374923913494627 53.183499724127614 0 53.183499724127614 88.157480755804499 0 0 0 0 12.710667441018813 28.976421070559809 0 28.976421070559809 122.5777222214399 0 0 0 0 -69.800614183905054 38.897626540582223 0 38.897626540582223 170.06399176526975 0 0 0 0 -75.351397583161088 51.038871779601322 0 51.038871779601322 144.00448504833821 0 0 0 0 -62.883573562716265 36.830956013821378 0 36.830956013821378 150.54719587517866 0 0 0 0 -84.472895836818793 67.7183305962796 0 67.7183305962796 159.95552792449416 0 0 0 0 -5.6723644502399111 211.55199866133262 0 211.55199866133262 -267.74725177946607 0 0 0 0 -184.8686478283862 166.70922102338454 0 166.70922102338454 104.20881534119508 0 0 0 0 -0.82681519532915537 1.6879335618124109 0 1.6879335618124109 -1.1533354398487425 0 0 0 0 43.765484285383536 14.810200304636965 0 14.810200304636965 169.00793008319943 0 0 0 0 -105.96288261890345 67.25484121549016 0 67.25484121549016 211.27097461943958 0 0 0 0 103.01887499801683 -4.5465081415350141 0 -4.5465081415350141 -88.066719915990689 0 0 0 0 63.376275138815117 97.43039922779144 0 97.43039922779144 160.55076884660957 0 0 0 0 -16.271064046338324 62.641916692997256 0 62.641916692997256 180.78553520954256 0 0 0 0 14.039206138893405 16.923209953633886 0 16.923209953633886 142.11376321636726 0 0 0 0 13.800600424991217 87.902954016423791 0 87.902954016423791 145.7796159360405 0 0 0 0 9.555019190204348 114.50353797965636 0 114.50353797965636 242.86375567602954 0 0 0 0 11.985587091501657 55.78075895206166 0 55.78075895206166 209.6756543234178 0 0 0 0 60.921365516317564 77.497353702709006 0 77.497353702709006 146.96226887795274 0 0 0 0 89.143444265354674 -45.55898130042624 0 -45.55898130042624 -96.548881425129366 0 0 0 0 87.523243349407139 83.226677044848429 0 83.226677044848429 7.2166106480162853 0 0 0 0 -2.8250237977699602 3.9269895657355072 0 3.9269895657355072 -2.4072853395389231 0 0 0 0 -108.53837116471232 0.687935777777966 0 0.687935777777966 37.665858603327706 0 0 0 0 31.573456069929804 35.349343588904972 0 35.349343588904972 39.689144208161451 0 0 0 0 -25.814111208636859 4.6873498727945844 0 4.6873498727945844 38.623504544826574 0 0 0 0 -33.762828317504841 35.811522911344127 0 35.811522911344127 70.84046182144084 0 0 0 0 -37.802443668080286 44.726395990317542 0 44.726395990317542 79.22515637907054 0 0 0 0 1.7856570612464111 19.118303836547057 0 19.118303836547057 43.083727776691376 0 0 0 0 -32.342698878158899 34.729086526720494 0 34.729086526720494 64.944038482030919 0 0 0 0 -66.14935467470832 17.842072528987046 0 17.842072528987046 74.868199736772112 0 0 0 0 -53.073335896658818 47.07695888114813 0 47.07695888114813 94.62551485523727 0 0 0 0 -86.494754220568439 -16.506107556017014 0 -16.506107556017014 56.519260022810158 0 0 0 0 168.76149475973216 -64.178420598134835 0 -64.178420598134835 -24.126644534400839 0 0 0 0 -0.15937489489188295 1.1955623960487323 0 1.1955623960487323 -1.9424537487655513 0 0 0 0 4.4532382669431172 62.795107078942237 0 62.795107078942237 178.37282090232475 0 0 0 0 -4.5504701279205655 6.1386056839224743 0 6.1386056839224743 -3.5226938705979549 0 0 0 0 54.490528202318274 14.627811830451719 0 14.627811830451719 -57.669371492074788 0 0 0 0 9.779791692805702 112.09143641376795 0 112.09143641376795 196.96661518180372 0 0 0 0 47.305238498488507 114.17148775400346 0 114.17148775400346 159.44959978673796 0 0 0 0 28.928463660775833 108.30214338480982 0 108.30214338480982 129.03938328671029 0 0 0 0 11.793725919176723 96.990133827683167 0 96.990133827683167 156.64430909114162 0 0 0 0 28.892230519998066 92.709156512441041 0 92.709156512441041 126.05084696867561 0 0 0 0 13.019302545661958 106.42904754938172 0 106.42904754938172 118.91001061623956 0 0 0 0 24.334069481920324 88.297063586673175 0 88.297063586673175 104.51826430347865 0 0 0 0 25.360923959091679 105.76052525556315 0 105.76052525556315 101.93512688417832 0 0 0 0 20.658232653006166 55.154459502438385 0 55.154459502438385 133.69844919828029 0 0 0 0 29.161085160197217 86.537945903495711 0 86.537945903495711 85.296564096472139 0 0 0 0 20.786909072976414 89.325879016585532 0 89.325879016585532 153.16291107064535 0 0 0 0 17.473927221415806 113.7558920600859 0 113.7558920600859 95.836164905688292 0 0 0 0 1.8207030931259851 80.093243395815989 0 80.093243395815989 116.03253223362572 0 0 0 0 11.064190577938916 59.737720329773765 0 59.737720329773765 52.369887030221435 0 0 0 0 11.027552766147437 97.522704287086526 0 97.522704287086526 98.256484562847618 0 0 0 0 -7.458408532294925 94.185236644096221 0 94.185236644096221 57.89370507941203 0 0 0 0 15.769733421400758 69.268004409902005 0 69.268004409902005 80.74463301817741 0 0 0 0 -13.513647088932885 58.125590210680457 0 58.125590210680457 42.449048407712326 0 0 0 0 -38.383776226948612 24.455064525103808 0 24.455064525103808 95.241983980768055 0 0 0 0 -34.763655226388863 85.258617616815286 0 85.258617616815286 94.76874968318225 0 0 0 0 -5.9635421955372294 54.146224881744274 0 54.146224881744274 126.62952031817258 0 0 0 0 15.522293955533996 80.678789183026765 0 80.678789183026765 146.97699287731302 0 0 0 0 11.796309990089867 99.148158246232015 0 99.148158246232015 108.49511816797349 0 0 0 0 20.249454969110957 38.458676206429118 0 38.458676206429118 42.501084152411067 0 0 0 0 37.369152862389456 54.921814221323075 0 54.921814221323075 67.505400983081927 0 0 0 0 8.6357146490590821 26.273748631747367 0 26.273748631747367 50.573607501519291 0 0 0 0 11.515393309677165 30.667929960939091 0 30.667929960939091 44.806246695663503 0 0 0 0 12.168548083485803 29.914106801095386 0 29.914106801095386 45.273527964389359 0 0 0 0 0.37771808392790263 24.812127630688337 0 24.812127630688337 48.56533086597392 0 0 0 0 4.2088867691209089 23.532998170619464 0 23.532998170619464 45.044349779869663 0 0 0 0 1.3875236385065364 27.507208022104351 0 27.507208022104351 41.545488393829146 0 0 0 0 9.0560819630045444 33.273845354608056 0 33.273845354608056 40.329070879883147 0 0 0 0 3.5328907425091529 30.966466998935516 0 30.966466998935516 46.315468507618789 0 0 0 0 -22.675586636296543 11.043127908368845 0 11.043127908368845 20.957933319600087 0 0 0 0 6.6252642613417265 41.876324269451516 0 41.876324269451516 39.645908464595777 0 0 0 0 0.23152523059525265 45.188182197218111 0 45.188182197218111 38.707471607660409 0 0 0 0 12.435451079207269 29.974156198169112 0 29.974156198169112 43.384795257450605 0 0 0 0 -6.304882606229512 32.516996429081701 0 32.516996429081701 41.251284701539589 0 0 0 0 -32.19911160748461 18.900098649217398 0 18.900098649217398 66.811725257337457 0 0 0 0 26.352485142420846 56.791632392187239 0 56.791632392187239 51.350515041705876 0 0 0 0 -3.7951642143320896 35.909291343796895 0 35.909291343796895 57.599671591633523 0 0 0 0 -3.7813758990150674 -4.410662246534109 0 -4.410662246534109 -1.6657029504975966 0 0 0 0 97.019581453019782 40.255574557659202 0 40.255574557659202 27.568852423144133 0 0 0 0 44.628072364886066 48.723452590849774 0 48.723452590849774 142.94335498805594 0 0 0 0 71.055537182098305 138.7232934418862 0 138.7232934418862 188.06214347530658 0 0 0 0 -8.4400603556851905 -2.081004902621217 0 -2.081004902621217 5.6275856230379162 0 0 0 0 0.80847428055045789 -0.82738989282422537 0 -0.82738989282422537 0.10783188262911381 0 0 0 0 190.20813996715651 189.25922942862962 0 189.25922942862962 66.138290472084918 0 0 0 0 -47.681872779614423 -30.524241302511655 0 -30.524241302511655 51.427483268926153 0 0 0 0 -49.286154697693746 -26.004856788771576 0 -26.004856788771576 43.811038830099278 0 0 0 0 -29.187216058356171 -35.627713461659368 0 -35.627713461659368 10.740796028183922 0 0 0 0 180.46210775386697 97.630933852635735 0 97.630933852635735 37.186274485182366 0 0 0 0 68.173450151509769 27.57697618878592 0 27.57697618878592 67.958573265430459 0 0 0 0 25.39120611189901 46.569395084614371 0 46.569395084614371 67.994287720764987 0 0 0 0 -22.101007935993493 48.811103004134566 0 48.811103004134566 74.145734948244353 0 0 0 0 -16.600348769285119 47.721327039140306 0 47.721327039140306 66.882961379053086 0 0 0 0 -22.423351352144891 49.791771732525376 0 49.791771732525376 82.435534987048413 0 0 0 0 -8.7254271274973689 63.858554924299824 0 63.858554924299824 79.423778014948766 0 0 0 0 -26.400336854634588 59.344977082892001 0 59.344977082892001 91.09421208358458 0 0 0 0 31.952878696503376 88.889970051765886 0 88.889970051765886 89.220304879861942 0 0 0 0 -69.094789930813477 24.827697216285742 0 24.827697216285742 82.529554689645011 0 0 0 0 -143.71257175269011 48.428520886367551 0 48.428520886367551 92.673974990859278 0 0 0 0 -76.083668471869714 79.636066637899148 0 79.636066637899148 102.61869354551891 0 0 0 0 -39.243594775676684 56.798192613641731 0 56.798192613641731 81.860095647892194 0 0 0 0 -17.52190511272056 99.857956192090569 0 99.857956192090569 76.324324633882497 0 0 0 0 27.950367572260802 126.72020265655374 0 126.72020265655374 97.197796916967491 0 0 0 0 30.845722482178644 78.155949813648476 0 78.155949813648476 64.564693334054027 0 0 0 0 86.293109998216323 116.90536494340722 0 116.90536494340722 23.75281691908458 0 0 0 0 42.732717911643249 21.283637868161577 0 21.283637868161577 100.59632626648818 0 0 0 0 41.895615710880065 69.042809620161279 0 69.042809620161279 -50.586852311244002 0 0 0 0 17.915815248332819 94.513567662706919 0 94.513567662706919 -72.128462293243501 0 0 0 0 -103.35952242127951 127.87874356945576 0 127.87874356945576 4.3273369682319753 0 0 0 0 56.374963455301781 82.929650161663631 0 82.929650161663631 -15.784752051680698 0 0 0 0 46.592447911523266 161.11822883546029 0 161.11822883546029 7.7623197180582792 0 0 0 0 -7.4259791863040974 5.9225597084659611 0 5.9225597084659611 -5.1639342790043585 0 0 0 0 -259.42602485373936 60.361648382451676 0 60.361648382451676 -43.867434203677021 0 0 0 0 85.207401491031305 -2.8798212250658253 0 -2.8798212250658253 -56.937615529415325 0 0 0 0 19.163073845462122 65.842889894222935 0 65.842889894222935 77.552588653092243 0 0 0 0 16.814340480806102 126.85203317871094 0 126.85203317871094 47.988452084617165 0 0 0 0 -20.885330270937402 41.172475760018642 0 41.172475760018642 196.76524012408163 0 0 0 0 23.788657345901925 163.41630387382793 0 163.41630387382793 130.75457103232111 0 0 0 0 33.30907928729556 205.39946836469289 0 205.39946836469289 225.82260223806952 0 0 0 0 0.23745684138339129 22.015678811814723 0 22.015678811814723 27.57769023732774 0 0 0 0 -6.2963175097495263 14.361465955869015 0 14.361465955869015 2.7447272330898578 0 0 0 0 1.313231282867946 51.74934521160958 0 51.74934521160958 51.056455474027644 0 0 0 0 27.196403519566502 41.858598702283416 0 41.858598702283416 41.777405368882683 0 0 0 0 -227.91171189485232 -9.5465042648188501 0 -9.5465042648188501 265.27932147933461 0 0 0 0 212.37441391680426 -98.778991604241128 0 -98.778991604241128 -94.291271897897786 0 0 0 0 45.716895831594229 58.472201934032455 0 58.472201934032455 29.802477376217212 0 0 0 0 -14.193589891615627 29.165954761836613 0 29.165954761836613 51.428348591400571 0 0 0 0 17.294212192900886 74.132341423945817 0 74.132341423945817 71.477064486194422 0 0 0 0 13.338321561268828 27.284096582248907 0 27.284096582248907 -7.2512014095391732 0 0 0 0 -13.22928358851247 16.487745010937406 0 16.487745010937406 28.208105671959466 0 0 0 0 1.5958429615739078 37.685033807135596 0 37.685033807135596 29.861541272437535 0 0 0 0 3.0440644182172605 6.1944929830107611 0 6.1944929830107611 -1.0636662242187924 0 0 0 0 21.591903395663849 28.724472345733375 0 28.724472345733375 30.177435637418967 0 0 0 0 -75.096428464815915 115.21810958413153 0 115.21810958413153 41.448950271986178 0 0 0 0 -26.314706813107478 32.893905457686259 0 32.893905457686259 77.601566342045089 0 0 0 0 -11.25662220292087 31.418578220311179 0 31.418578220311179 44.802679825278872 0 0 0 0 71.007775048180406 210.90086409669766 0 210.90086409669766 102.74021756458569 0 0 0 0 69.883693220436612 129.44853995155336 0 129.44853995155336 -20.013926778001405 0 0 0 0 27.785902095441259 24.979828417203976 0 24.979828417203976 -28.957016795164236 0 0 0 0 33.444162833800078 20.136901122657036 0 20.136901122657036 -28.043887830586982 0 0 0 0 -39.799935180102693 36.174413671106777 0 36.174413671106777 373.08187475712657 0 0 0 0 246.74000881238067 33.989591181798914 0 33.989591181798914 -37.630019144189646 0 0 0 0 3.082773274667379 2.2826102900214664 0 2.2826102900214664 1.8125723918116883 0 0 0 0 27.443398416823555 37.276398689961795 0 37.276398689961795 -54.523916297224787 0 0 0 0 5.4867301896084193 34.794904530070482 0 34.794904530070482 -21.942693385163857 0 0 0 0 -25.928047239689846 52.917314279118315 0 52.917314279118315 33.369538786524572 0 0 0 0 5.1769976910757087 16.710078693690246 0 16.710078693690246 -0.49152140078565409 0 0 0 0 55.862669050457527 52.354509263378368 0 52.354509263378368 -16.312313348637872 0 0 0 0 2.5569275043071684 30.203839685088269 0 30.203839685088269 -18.845565830715714 0 0 0 0 24.28712909215028 49.016051149208124 0 49.016051149208124 -4.0942777867212499 0 0 0 0 30.002183292825066 57.518012313868894 0 57.518012313868894 -27.833515754025029 0 0 0 0 31.30585460089587 33.958039716111898 0 33.958039716111898 0.7154526243467445 0 0 0 0 37.641362914542697 50.583992435452728 0 50.583992435452728 -49.465517413112593 0 0 0 0 25.009951076214193 33.981142837510454 0 33.981142837510454 17.311289422784448 0 0 0 0 8.6099889426459413 56.937156842930108 0 56.937156842930108 -40.32732513750716 0 0 0 0 24.482089898270715 39.790788199539634 0 39.790788199539634 -22.517758679240615 0 0 0 0 -6.3144319252023706 54.835370061245158 0 54.835370061245158 8.2794659541741566 0 0 0 0 6.9460899387146497 22.651650901303061 0 22.651650901303061 13.582101368735829 0 0 0 0 29.912137387701009 24.090073626334117 0 24.090073626334117 10.945063856116438 0 0 0 0 27.849821636677007 19.869541978010147 0 19.869541978010147 8.2070619914829877 0 0 0 0 7.2204955115160061 20.331679643741303 0 20.331679643741303 15.002779554408466 0 0 0 0 -0.69311182269302662 24.718081952887587 0 24.718081952887587 7.4395262971814873 0 0 0 0 20.152598782323849 27.073932148185541 0 27.073932148185541 9.5967184356482598 0 0 0 0 30.319897054330795 57.435879184412443 0 57.435879184412443 -14.05008302432725 0 0 0 0 28.546303579131845 42.033448174526747 0 42.033448174526747 17.310481091176435 0 0 0 0 -1.9735591723219841 51.185494381606986 0 51.185494381606986 -39.206455525614729 0 0 0 0 21.216400512521858 23.430049151416217 0 23.430049151416217 8.7288769001666289 0 0 0 0 48.690878037881191 56.064610160452318 0 56.064610160452318 -9.6625750162737969 0 0 0 0 -16.646726790686444 48.614169793228399 0 48.614169793228399 2.063975538655086 0 0 0 0 12.385730758471254 19.191525083332635 0 19.191525083332635 -40.405037977991014 0 0 0 0 -175.60385255017536 -85.100671124788278 0 -85.100671124788278 -17.003564777342035 0 0 0 0 3.8417980765797211 15.528486448660829 0 15.528486448660829 -39.792687830213254 0 0 0 0 1.4120764137351216 42.86539858926335 0 42.86539858926335 -219.12256571665421 0 0 0 0 -2.0847652677003428 1.0022348723915755 0 1.0022348723915755 -0.88309934445161176 0 0 0 0 -56.756660807175649 84.051283588158185 0 84.051283588158185 28.251310026846113 0 0 0 0 -50.907839355014858 52.99690517988347 0 52.99690517988347 11.620900021378475 0 0 0 0 4.5809908748788075 74.296850548120347 0 74.296850548120347 -65.318248939080149 0 0 0 0 7.8716839257631364 51.826983890114207 0 51.826983890114207 14.743856595186116 0 0 0 0 9.9423772412708331 21.458068486766024 0 21.458068486766024 -14.309599001505376 0 0 0 0 17.24667743927273 69.668168037209398 0 69.668168037209398 32.111766619304035 0 0 0 0 1.3910561122905847 46.990984279624172 0 46.990984279624172 47.918654376400809 0 0 0 0 6.7524051104692262 48.806550397695901 0 48.806550397695901 45.401262796856827 0 0 0 0 9.4744537517521117 6.206443557438277 0 6.206443557438277 4.1660369743841699 0 0 0 0 12.5147309389356 24.370426467929974 0 24.370426467929974 -18.591507342123805 0 0 0 0 7.1473983993622028 39.645681781129497 0 39.645681781129497 -4.1356121166681987 0 0 0 0 -2.0925105089297515 13.021248526086826 0 13.021248526086826 16.863402446428481 0 0 0 0 14.116099055210224 10.550573562265974 0 10.550573562265974 6.0782334221194851 0 0 0 0 4.8547955645992715 29.858982292366818 0 29.858982292366818 -21.946848858949124 0 0 0 0 -3.9748161473289656 66.826411108084358 0 66.826411108084358 -115.88914573656075 0 0 0 0 -0.08766508294178621 2.0892555758896236 0 2.0892555758896236 -8.5183576031434054 0 0 0 0 14.662922529611706 61.683429531132276 0 61.683429531132276 8.4009687676502836 0 0 0 0 -0.96013513703064746 56.21849115694522 0 56.21849115694522 8.5952118944164795 0 0 0 0 16.457646198019511 34.396293317612546 0 34.396293317612546 11.744368864724926 0 0 0 0 -6.6798766893545043 40.890810779510808 0 40.890810779510808 -4.2249215846801746 0 0 0 0 39.790087885481626 74.635087438295159 0 74.635087438295159 -107.86338777994206 0 0 0 0 14.055995149981163 64.898407508501236 0 64.898407508501236 24.688064326884028 0 0 0 0 -3.1077100519828491 77.705439296661098 0 77.705439296661098 -61.40439480265195 0 0 0 0 16.746807912194299 30.836809732469192 0 30.836809732469192 102.86054074598724 0 0 0 0 -28.982503447632894 -16.505302789900725 0 -16.505302789900725 197.79445583062989 0 0 0 0 -1.5584045939024058 6.7097175235159021 0 6.7097175235159021 -0.57331484648665665 0 0 0 0 -20.134711617508401 18.776899840580882 0 18.776899840580882 2.920576456179333 0 0 0 0 -131.88717297044695 51.10888136378162 0 51.10888136378162 1.7087589917423998 0 0 0 0 8.3163059499489425 10.504489704642403 0 10.504489704642403 5.2116163701871692 0 0 0 0 289.59861258214369 38.978628664335702 0 38.978628664335702 139.11001163695164 0 0 0 0 26.028828705812384 66.99766846921456 0 66.99766846921456 34.898266180236774 0 0 0 0 60.251949936010988 116.74234452721157 0 116.74234452721157 -115.34704299240548 0 0 0 0 70.114702209685674 136.2212459320599 0 136.2212459320599 50.237478723051026 0 0 0 0 55.619376411625808 60.409874501685408 0 60.409874501685408 54.553022405052616 0 0 0 0 35.221469126613329 121.43076817520659 0 121.43076817520659 91.684599914180581 0 0 0 0 54.1202746804247 106.85954088640028 0 106.85954088640028 2.3554580898562563 0 0 0 0 58.262548904780289 43.181774417366682 0 43.181774417366682 -0.34908097915467806 0 0 0 0 2.3378865418176247 81.290950116399472 0 81.290950116399472 -9.8084516666494892 0 0 0 0 22.389562383719749 65.623504948260234 0 65.623504948260234 -12.272598500152526 0 0 0 0 26.000573732913381 44.397637808909167 0 44.397637808909167 -66.346384901633428 0 0 0 0 12.236901482332541 84.595889689568139 0 84.595889689568139 -58.583048279848299 0 0 0 0 18.245928269569049 58.434002212772157 0 58.434002212772157 16.410018884293095 0 0 0 0 10.131794833452659 37.669224927385585 0 37.669224927385585 4.7238090226419445 0 0 0 0 41.156844936678681 39.715163972603477 0 39.715163972603477 -21.742903395683243 0 0 0 0 -2.6388453159815981 46.529119052276656 0 46.529119052276656 46.689533146019585 0 0 0 0 -5.0585530139478578 31.139509620923491 0 31.139509620923491 23.937508751270798 0 0 0 0 8.8552340097667184 36.945298095623002 0 36.945298095623002 8.6909517265303293 0 0 0 0 9.5416342570997585 41.543919564024691 0 41.543919564024691 11.169750808359822 0 0 0 0 -8.1176591693501905 37.805561536026289 0 37.805561536026289 15.122816530411001 0 0 0 0 -15.053415356457663 61.503971729694968 0 61.503971729694968 -4.2800084160080587 0 0 0 0 -12.193996825418253 31.244596258025922 0 31.244596258025922 42.492562931314751 0 0 0 0 33.348109707095318 56.635276931718181 0 56.635276931718181 39.415468704864907 0 0 0 0 51.661685986875455 32.912669547793485 0 32.912669547793485 5.1571486624598037 0 0 0 0 123.54636080378259 89.046917691932322 0 89.046917691932322 29.015138860389925 0 0 0 0 60.340510902488177 11.031080973260941 0 11.031080973260941 27.529475641258614 0 0 0 0 148.84545396942121 180.95167061955726 0 180.95167061955726 75.23917631700715 0 0 0 0 -118.08115671433461 6.4755869162454474 0 6.4755869162454474 65.396744146553829 0 0 0 0 -12.844979089210074 7.7061391773765706 0 7.7061391773765706 7.030286148686919 0 0 0 0 -23.514305970582996 -29.307158814770901 0 -29.307158814770901 58.310959031103266 0 0 0 0 236.8567740773351 150.54010177495547 0 150.54010177495547 28.807829358511299 0 0 0 0 70.28849231597269 338.03612137003438 0 338.03612137003438 453.93886091858622 0 0 0 0 60.753947684131163 87.287113129965292 0 87.287113129965292 304.2800510369816 0 0 0 0 1.920514056721121 -1.4224165395093848 0 -1.4224165395093848 1.4592686095524101 0 0 0 0 -1.9641989724550513 25.055642014387558 0 25.055642014387558 -38.781889636637061 0 0 0 0 13.605116520524462 22.393510395146222 0 22.393510395146222 -40.899401558422142 0 0 0 0 72.131199315169852 178.03196549747918 0 178.03196549747918 270.67723019398545 0 0 0 0 10.778718250367135 -0.066437427923005998 0 -0.066437427923005998 -2.9520392369746382 0 0 0 0 103.00984051734122 141.63964871531061 0 141.63964871531061 250.57603232029396 0 0 0 0 69.122589509984437 90.816634871927818 0 90.816634871927818 243.94225974991787 0 0 0 0 125.15051206731641 172.28940708109258 0 172.28940708109258 197.85368613932224 0 0 0 0 68.701350576793629 150.76770947184605 0 150.76770947184605 150.32584239781863 0 0 0 0 83.967929017488132 100.45568009695489 0 100.45568009695489 96.024631048888295 0 0 0 0 60.884056327268809 142.37880690681231 0 142.37880690681231 192.76983052755168 0 0 0 0 61.593994532525357 92.023550116791739 0 92.023550116791739 154.65052132524579 0 0 0 0 94.705432126520463 118.23828660969775 0 118.23828660969775 86.659916785740279 0 0 0 0 157.02751449991683 138.28118247065595 0 138.28118247065595 169.09856993765061 0 0 0 0 13.333074008471158 136.98236331293811 0 136.98236331293811 -151.48060777289356 0 0 0 0 -0.31648642730715437 59.614844552664181 0 59.614844552664181 -47.82022031123779 0 0 0 0 -13.074152852119369 129.55271534425356 0 129.55271534425356 -125.47026033220754 0 0 0 0 31.762213986243296 -10.753212433892259 0 -10.753212433892259 -8.5707756873453036 0 0 0 0 20.543203874747633 5.6895291513783377 0 5.6895291513783377 62.081026431042119 0 0 0 0 10.835603674138838 28.216422580653671 0 28.216422580653671 95.889458175115578 0 0 0 0 40.242759185472096 31.418172425077501 0 31.418172425077501 40.018171497817093 0 0 0 0 41.244418911075627 43.452572798509209 0 43.452572798509209 -63.611456066275423 0 0 0 0 13.239593517042522 33.016982495959383 0 33.016982495959383 32.369059037474472 0 0 0 0 42.576975274641882 12.89016623104726 0 12.89016623104726 40.306345135519223 0 0 0 0 15.517706906641251 33.86250468538492 0 33.86250468538492 6.091937894145758 0 0 0 0 26.306714834283412 -5.7991325142088499 0 -5.7991325142088499 41.757154928942327 0 0 0 0 23.054616233013491 23.446965981495168 0 23.446965981495168 11.705945274763096 0 0 0 0 13.295951217776746 27.337781191643444 0 27.337781191643444 23.574817561966483 0 0 0 0 24.398598418192705 86.587953257032495 0 86.587953257032495 32.566808626541388 0 0 0 0 42.377798385338338 58.133057628585448 0 58.133057628585448 -97.920586264568556 0 0 0 0 3.419406181657763 4.5666689356950485 0 4.5666689356950485 5.5659984470953106 0 0 0 0 43.829849408786686 44.644358018669664 0 44.644358018669664 27.229820849715907 0 0 0 0 38.730333655934373 40.005317286922946 0 40.005317286922946 34.83360198065202 0 0 0 0 41.997457980192848 42.01018451669006 0 42.01018451669006 -0.13884365542071464 0 0 0 0 40.199332891817903 44.893637282424606 0 44.893637282424606 -0.67940321580181262 0 0 0 0 33.686934484226271 30.243605517761623 0 30.243605517761623 18.594537096702801 0 0 0 0 45.598006059728505 45.096055134701601 0 45.096055134701601 -3.1133798836708593 0 0 0 0 40.98569033201602 50.783409039515391 0 50.783409039515391 10.397858049844217 0 0 0 0 44.081468699372635 44.653598732518731 0 44.653598732518731 1.8465958305459935 0 0 0 0 43.172932273038896 41.454845316813589 0 41.454845316813589 -3.3357158200369668 0 0 0 0 12.454626688216656 0.47226708145502982 0 0.47226708145502982 -16.3706936061063 0 0 0 0 47.440219219568462 48.188311047646494 0 48.188311047646494 0.40729438581183786 0 0 0 0 17.282315541535141 24.576371527059429 0 24.576371527059429 -6.0344317595874912 0 0 0 0 -14.180041802983396 42.908629424147875 0 42.908629424147875 15.697449079356375 0 0 0 0 18.585679370873549 37.222027284053183 0 37.222027284053183 13.400502449789201 0 0 0 0 -6.9974753474347793 24.292296672336747 0 24.292296672336747 -1.3341663667178594 0 0 0 0 -5.2496366803515002 28.614837177761501 0 28.614837177761501 -9.0735102345934138 0 0 0 0 9.7717501476654434 30.607659209159465 0 30.607659209159465 -1.3719088570459235 0 0 0 0 4.276798843136131 34.867845455101545 0 34.867845455101545 8.9263359138011964 0 0 0 0 32.839737166727332 33.00028014395388 0 33.00028014395388 13.028097583256297 0 0 0 0 5.9887965443562647 27.767226070748205 0 27.767226070748205 6.6307246885042872 0 0 0 0 10.751000952161121 38.102881821230767 0 38.102881821230767 10.121215407996715 0 0 0 0 73.287879722134676 80.261580612243051 0 80.261580612243051 6.6622933218941398 0 0 0 0 7.4846300635689094 54.805086865760941 0 54.805086865760941 29.614302498240761 0 0 0 0 -17.66657835596925 101.04906738080172 0 101.04906738080172 33.104181326612888 0 0 0 0 10.588150324449089 137.10471264573607 0 137.10471264573607 43.552467183995759 0 0 0 0 70.160678406013176 63.190863566811458 0 63.190863566811458 -44.377202864285209 0 0 0 0 -18.359860271997604 130.67581592403803 0 130.67581592403803 -43.738769872243211 0 0 0 0 2.0268669522265554 149.15295031084679 0 149.15295031084679 -23.497007586156542 0 0 0 0 12.835707800841192 148.7076661099145 0 148.7076661099145 -68.159245485587235 0 0 0 0 15.464784881307423 146.39975208752003 0 146.39975208752003 -95.858796829837956 0 0 0 0 -73.019271074124845 166.35894004388683 0 166.35894004388683 -105.12800401808636 0 0 0 0 -32.628699207314639 131.66855006050901 0 131.66855006050901 -64.599259951297427 0 0 0 0 46.611841557418302 23.133107724062938 0 23.133107724062938 -7.7019309172756039 0 0 0 0 -45.6542877976608 82.637255986941454 0 82.637255986941454 -144.35625423396414 0 0 0 0 -25.132818707206752 98.701389236655814 0 98.701389236655814 -11.583053131689667 0 0 0 0 -136.40368100110027 121.06901739746718 0 121.06901739746718 -126.65836475438846 0 0 0 0 -157.0827185344715 35.057964056115452 0 35.057964056115452 23.173528345534578 0 0 0 0 0.002744971498174209 0.81844318075813405 0 0.81844318075813405 1.0505724199760351 0 0 0 0 -146.29098219702246 91.664763826917806 0 91.664763826917806 -72.292434463932295 0 0 0 0 -43.343869432916108 96.520990860655729 0 96.520990860655729 -83.963103747226342 0 0 0 0 -53.872586802928708 124.22324164731253 0 124.22324164731253 -63.184357116904721 0 0 0 0 -120.14034371246635 160.48602863352789 0 160.48602863352789 -79.494087616432807 0 0 0 0 422.49169122870808 105.24847304512423 0 105.24847304512423 -14.726621924994106 0 0 0 0 0.93755907850319176 1.4894625272620061 0 1.4894625272620061 1.7271382165767903 0 0 0 0 -50.497807034997095 -0.85252062098425085 0 -0.85252062098425085 47.260242717376968 0 0 0 0 1.3676525106040138 4.4381974710639156 0 4.4381974710639156 4.9677066787942721 0 0 0 0 46.273487106642278 93.653436391752621 0 93.653436391752621 -4.9055610254508792 0 0 0 0 4.7482508287284872 114.48861469615076 0 114.48861469615076 -4.0536536949148285 0 0 0 0 -79.330719502344436 232.72637849373496 0 232.72637849373496 121.27803066230626 0 0 0 0 86.09873913667434 194.44935144810097 0 194.44935144810097 -10.828957366975374 0 0 0 0 116.04621369702363 320.99413880089469 0 320.99413880089469 111.06693162074225 0 0 0 0 -67.773867544106906 84.712535754699275 0 84.712535754699275 40.881045184534742 0 0 0 0 -112.68168045665607 131.83049213588902 0 131.83049213588902 43.779688562943193 0 0 0 0 0.59952191258129983 54.75325427896334 0 54.75325427896334 29.57768010234129 0 0 0 0 -25.423108814935404 106.30280693237182 0 106.30280693237182 32.253716918759892 0 0 0 0 28.038628317064067 93.732081358891776 0 93.732081358891776 -19.272285354374617 0 0 0 0 -98.501939494934049 33.875940031315622 0 33.875940031315622 111.88906288398721 0 0 0 0 4.2221686559038307 55.969897293007506 0 55.969897293007506 27.272154191910516 0 0 0 0 2.4384617756757305 40.710642894064712 0 40.710642894064712 8.0390048929475881 0 0 0 0 -90.077612991913156 23.997294274182423 0 23.997294274182423 24.631837897184596 0 0 0 0 -156.56180031020267 91.615051303222572 0 91.615051303222572 11.96191848617309 0 0 0 0 -135.1014924661431 82.363044697711302 0 82.363044697711302 -4.542452683315787 0 0 0 0 -115.95320684464241 48.925740660521114 0 48.925740660521114 48.320263465582684 0 0 0 0 -134.97259152811603 95.103916710453632 0 95.103916710453632 20.782178396659219 0 0 0 0 -12.385772116553923 8.4632065186625312 0 8.4632065186625312 4.2938655336073666 0 0 0 0 -173.64015355262381 207.33665954647586 0 207.33665954647586 -67.77147822193001 0 0 0 0 -182.25207409134191 123.92063364847172 0 123.92063364847172 108.44440638196829 0 0 0 0 21.92791928292354 -5.2862954771153454 0 -5.2862954771153454 110.96705379117589 0 0 0 0 -118.89899301190871 6.3941319859136456 0 6.3941319859136456 118.19674454008054 0 0 0 0 -7.3430249907760299 17.471176886530884 0 17.471176886530884 34.930727432372805 0 0 0 0 50.282806187769893 77.219693626262597 0 77.219693626262597 79.472897103818468 0 0 0 0 -2.395939339978213 69.080617881578291 0 69.080617881578291 174.79478134690726 0 0 0 0 236.04119047539098 173.43999805787462 0 173.43999805787462 66.133481436507282 0 0 0 0 2.7743204268954287 8.0197577873295813 0 8.0197577873295813 -56.381840984911832 0 0 0 0 6.0001103079175664 -3.0341870811862464 0 -3.0341870811862464 -137.37020386622862 0 0 0 0 -9.9734096099746239 9.6117849298934743 0 9.6117849298934743 -112.75945402428442 0 0 0 0 31.361008680134546 32.479566036123288 0 32.479566036123288 -126.04354535876519 0 0 0 0 -6.1735606262791407 64.653652285658268 0 64.653652285658268 -72.677004554963787 0 0 0 0 26.849530264156556 16.293787135183948 0 16.293787135183948 -87.017528212556499 0 0 0 0 31.166859881324143 -6.1647263190105832 0 -6.1647263190105832 -169.11876746813869 0 0 0 0 103.17423656678147 52.20376806769309 0 52.20376806769309 -125.79094766588241 0 0 0 0 -167.9304421763789 100.69848905744618 0 100.69848905744618 183.67546719966776 0 0 0 0 141.57971708101832 150.43107053599124 0 150.43107053599124 -31.726803559273321 0 0 0 0 50.144206655519156 94.078245148608403 0 94.078245148608403 -61.284617887838976 0 0 0 0 76.063493159043446 65.330761323058141 0 65.330761323058141 -29.548148680929444 0 0 0 0 29.408092747808041 3.6397952735860599 0 3.6397952735860599 -86.639876944060234 0 0 0 0 55.800217911457366 22.451648467958876 0 22.451648467958876 -74.358716458435083 0 0 0 0 -1.8332079048460628 2.8624871859123786 0 2.8624871859123786 0.63425401816696336 0 0 0 0 13.579071909008235 21.594776251045914 0 21.594776251045914 -40.538148609470227 0 0 0 0 30.244053299183633 19.885223387936094 0 19.885223387936094 -43.613944507982524 0 0 0 0 21.37200040587777 45.781803996202143 0 45.781803996202143 34.69305151449953 0 0 0 0 5.9584541556053878 22.800449739563639 0 22.800449739563639 10.770350167003926 0 0 0 0 18.448515430975931 30.349698083540716 0 30.349698083540716 -36.723683388076097 0 0 0 0 -29.160101692479657 41.430867394708912 0 41.430867394708912 50.310470478842035 0 0 0 0 -67.484813033057435 37.352530495663814 0 37.352530495663814 4.6408803657177486 0 0 0 0 4.9104881448536339 6.1234513885401256 0 6.1234513885401256 3.238914487499656 0 0 0 0 19.810506930320116 14.525174152357067 0 14.525174152357067 -26.61828057555249 0 0 0 0 21.743609703644324 28.19427533900307 0 28.19427533900307 33.376683059159404 0 0 0 0 49.060180774629771 24.160104644990497 0 24.160104644990497 4.3270729116247821 0 0 0 0 13.793252500138291 5.2553339232029614 0 5.2553339232029614 0.86639926373494802 0 0 0 0 113.41566559382045 -65.549784160213676 0 -65.549784160213676 9.3608041234401753 0 0 0 0 55.627052582158967 -1.7208806842759259 0 -1.7208806842759259 -50.331300755453412 0 0 0 0 -2.3965407773023699 0.87427663094267416 0 0.87427663094267416 -0.45895244595875084 0 0 0 0 54.271304348874764 148.18073491337054 0 148.18073491337054 106.51899149821475 0 0 0 0 105.18845693834646 78.776614196898663 0 78.776614196898663 74.109624593664194 0 0 0 0 -3.6909097729803939 1.687348243338576 0 1.687348243338576 -1.7564630609047782 0 0 0 0 182.090596726478 404.94481731380802 0 404.94481731380802 188.58488989774196 0 0 0 0 74.928423383438712 183.63598707101846 0 183.63598707101846 -250.1458536690443 0 0 0 0 1.1699609278148273 59.628064895132411 0 59.628064895132411 87.692342856567848 0 0 0 0 -7.7307726209870502 26.072556996829867 0 26.072556996829867 -2.0299966409477577 0 0 0 0 -47.083778792505655 15.561779875073626 0 15.561779875073626 101.83764109155163 0 0 0 0 7.1223506345959322 31.869014998696002 0 31.869014998696002 -5.2718309716510703 0 0 0 0 -13.462315920368837 34.772520196434925 0 34.772520196434925 13.427082427602727 0 0 0 0 -12.306881567660184 15.793534831509533 0 15.793534831509533 -15.273484013087 0 0 0 0 -36.473487173067952 19.18015581779764 0 19.18015581779764 4.329406699485844 0 0 0 0 37.637347486625004 22.968933484367881 0 22.968933484367881 75.645704114376713 0 0 0 0 34.41512284389637 -54.633153383989793 0 -54.633153383989793 -354.97973493098107 0 0 0 0 70.624337150653446 208.24058527849047 0 208.24058527849047 195.87600764758645 0 0 0 0 -1.7664714517542848 -0.32772259052843111 0 -0.32772259052843111 0.72847000955362518 0 0 0 0 -17.768122935183101 41.760197009672083 0 41.760197009672083 -22.596964531363483 0 0 0 0 -3.4882990411479327 28.792342793420339 0 28.792342793420339 -17.131863198239458 0 0 0 0 -0.40583240093669914 8.0528733766880087 0 8.0528733766880087 4.6447491033574551 0 0 0 0 52.952905061573347 106.20955572502862 0 106.20955572502862 -109.80146871681791 0 0 0 0 55.933881257194116 1.1875260646411334 0 1.1875260646411334 -14.059377320853855 0 0 0 0 5.2276982684449713 -1.042723143711612 0 -1.042723143711612 -0.70343866199384308 0 0 0 0 -15.52951215801113 31.7939296837867 0 31.7939296837867 -74.379244773910614 0 0 0 0 -13.381435050714344 45.612723028367327 0 45.612723028367327 8.2970155861257808 0 0 0 0 71.819953079011611 15.622260398144135 0 15.622260398144135 -49.657345663086744 0 0 0 0 16.244637977943057 24.143483721563825 0 24.143483721563825 -35.162322732183384 0 0 0 0 50.44280681784403 9.5962126198210171 0 9.5962126198210171 -35.26822766949806 0 0 0 0 33.065119371878609 76.147168720865011 0 76.147168720865011 -59.684282662732585 0 0 0 0 30.429839736623411 24.803968785090188 0 24.803968785090188 -16.946068977404366 0 0 0 0 -5.0870731823579263 74.462748569739233 0 74.462748569739233 -44.503962476082961 0 0 0 0 -5.1333294417854631 53.753685008741741 0 53.753685008741741 -43.269798443157924 0 0 0 0 57.980993155051692 37.69235071483854 0 37.69235071483854 -43.973672065558276 0 0 0 0 35.18951040142565 144.01554378414221 0 144.01554378414221 -154.1278540540261 0 0 0 0 88.60061498612049 -51.487579666885722 0 -51.487579666885722 -24.324095287924138 0 0 0 0 44.721092228155612 59.840472662595857 0 59.840472662595857 -13.605024886957835 0 0 0 0 -1.9939250872591856 -7.8783384633596825 0 -7.8783384633596825 -92.323962319969723 0 0 0 0 -58.744402283820818 77.715398234191525 0 77.715398234191525 72.693891109476681 0 0 0 0 -122.62444087044787 99.011773684156651 0 99.011773684156651 -56.110075813701769 0 0 0 0 -125.33799225861458 98.701308715839332 0 98.701308715839332 -56.013043346932136 0 0 0 0 -114.69362891732635 162.54022148090053 0 162.54022148090053 -128.11010766145773 0 0 0 0 145.69991978825692 -17.197438505536411 0 -17.197438505536411 -53.157560154191742 0 0 0 0 68.030309224354255 -0.81530574357793739 0 -0.81530574357793739 -22.6711144320725 0 0 0 0 9.7833936400447783 97.494898781414122 0 97.494898781414122 -6.4091420662443852 0 0 0 0 55.817583386274237 -0.24074045453926374 0 -0.24074045453926374 -21.794343830169964 0 0 0 0 1.3581114948742465 1.4085055058082183 0 1.4085055058082183 -1.2835250821504616 0 0 0 0 -51.437887740956285 48.14532659179531 0 48.14532659179531 -97.776763639187266 0 0 0 0 23.967281393705889 67.701476683319925 0 67.701476683319925 -124.76318461262417 0 0 0 0 -106.3125615601657 155.83875267454732 0 155.83875267454732 -105.17210774838895 0 0 0 0 -73.454106665129075 168.82803138545751 0 168.82803138545751 17.825713653015555 0 0 0 0 180.52699777518592 -67.904546346946518 0 -67.904546346946518 -111.10126857237628 0 0 0 0 -160.29822665317079 6.2087390714659705 0 6.2087390714659705 79.225015884165259 0 0 0 0 28.12355049440248 -164.32294224032921 0 -164.32294224032921 -44.796676436966209 0 0 0 0 1.9984687602171718 1.206637514291117 0 1.206637514291117 2.1848671434470077 0 0 0 0 27.892287417224907 101.64044358716637 0 101.64044358716637 54.407281208517588 0 0 0 0 -46.582431840109848 47.986296712128024 0 47.986296712128024 52.181343266125623 0 0 0 0 0.5327986577990087 0.54200234764991606 0 0.54200234764991606 -0.47672260337711236 0 0 0 0 -23.496579196736832 294.20308527957263 0 294.20308527957263 138.7854408984058 0 0 0 0 152.68979909618429 -58.507670980281546 0 -58.507670980281546 -131.7531625205138 0 0 0 0 62.67684744223061 207.18715216023338 0 207.18715216023338 -142.44281800935278 0 0 0 0 -133.69330648891719 138.98378259284073 0 138.98378259284073 86.94994378361298 0 0 0 0 -115.06796880599177 167.43804917079615 0 167.43804917079615 -178.2991660499938 0 0 0 0 -451.80771517949324 356.47680169537125 0 356.47680169537125 -69.544782431431486 0 0 0 0 -181.81428084936979 125.89917705060994 0 125.89917705060994 -27.592908817438001 0 0 0 0 -181.45558392037947 178.93921577646324 0 178.93921577646324 -52.360687177155341 0 0 0 0 -168.25491176380274 187.34718605292437 0 187.34718605292437 -48.412070885860885 0 0 0 0 90.104223921330004 185.29397100616916 0 185.29397100616916 -53.099367563074338 0 0 0 0 0.20196791023019145 0.44943434738151389 0 0.44943434738151389 -0.84970394138370864 0 0 0 0 179.66070156996784 -106.70766021087547 0 -106.70766021087547 -136.69455126600951 0 0 0 0 1.6520338573568303 1.9656678047808072 0 1.9656678047808072 0.43758117117410222 0 0 0 0 -108.13003916377238 -13.527057304996561 0 -13.527057304996561 50.658834472036688 0 0 0 0 -77.178201367624297 45.957465830277215 0 45.957465830277215 120.1286306129914 0 0 0 0 -302.16450053558719 68.952101408245653 0 68.952101408245653 -27.965726243412064 0 0 0 0 -102.71734051502972 78.995203058009793 0 78.995203058009793 -143.58149595934901 0 0 0 0 1.1231574397240163 0.40388951556360553 0 0.40388951556360553 0.68981729100909206 0 0 0 0 147.2973174281201 77.487182283744005 0 77.487182283744005 23.309040977532277 0 0 0 0 138.40860101627004 58.028600265605746 0 58.028600265605746 17.458034284325549 0 0 0 0 9.0740114753016314 7.8888432070762065 0 7.8888432070762065 4.5056511372949899 0 0 0 0 -140.18926240500423 110.17109329164305 0 110.17109329164305 -1.0397360330462107 0 0 0 0 2.4248118023575129 4.2450647816461657 0 4.2450647816461657 4.7019422088691272 0 0 0 0 -160.6204978222882 92.754752958393851 0 92.754752958393851 -15.771588296775008 0 0 0 0 2.383424193259998 5.6156027906216242 0 5.6156027906216242 7.2522770910331218 0 0 0 0 -6.653441830666452 40.959831193442369 0 40.959831193442369 -59.52367648667132 0 0 0 0 -0.015795214816535008 8.4585264689212636 0 8.4585264689212636 8.7419111045528552 0 0 0 0 3.8768341347163187 4.715844153524813 0 4.715844153524813 7.0066633195965551 0 0 0 0 -60.329371159914444 58.40439244960362 0 58.40439244960362 -38.52153839917446 0 0 0 0 8.4647160697531945 4.8009969223130611 0 4.8009969223130611 6.3269723107659956 0 0 0 0 6.8879726436816782 8.4764058275486605 0 8.4764058275486605 11.463718387305562 0 0 0 0 -0.12770452010653166 0.088060108232191681 0 0.088060108232191681 0.33058317569134488 0 0 0 0 18.564011241332082 13.154906156982179 0 13.154906156982179 5.3431632501597051 0 0 0 0 4.4471673869456936 8.8793547303230298 0 8.8793547303230298 7.887861460338172 0 0 0 0 7.8920516518728618 8.7183342632961285 0 8.7183342632961285 2.6406315276944952 0 0 0 0 -0.92076439968514023 6.6870775871066144 0 6.6870775871066144 8.8428140983442063 0 0 0 0 4.7534638710167201 6.1070949959994323 0 6.1070949959994323 5.326582781781326 0 0 0 0 0.059271138758678177 3.5498705807551687 0 3.5498705807551687 3.4406708436661546 0 0 0 0 -4.4000037134187551 7.373733860305947 0 7.373733860305947 6.2736794767770334 0 0 0 0 0.88874644802300473 3.5846945124219189 0 3.5846945124219189 -0.42398036387751858 0 0 0 0 6.8781469229543291 11.767816745894379 0 11.767816745894379 7.4734695923616528 0 0 0 0 7.7196681988698401 8.3026549178266578 0 8.3026549178266578 4.5491669808689039 0 0 0 0 2.3698135802511224 5.9351854156063268 0 5.9351854156063268 -3.9890779346087086 0 0 0 0 -2.4018301718063189 4.1136491425283097 0 4.1136491425283097 1.8754693478969102 0 0 0 0 24.877235579706394 9.0804571895205299 0 9.0804571895205299 -1.0188757023388462 0 0 0 0 76.242578405261156 -1.5353341097434168 0 -1.5353341097434168 -47.368107445436181 0 0 0 0 -297.29845830693193 202.53767700315984 0 202.53767700315984 -90.680777445741114 0 0 0 0 0.94289556057834911 2.2447856825328998 0 2.2447856825328998 -3.4249492733620173 0 0 0 0 -291.57452497332815 250.57802794584131 0 250.57802794584131 -253.00918128120247 0 0 0 0 0.25178689432551948 0.57890419791502978 0 0.57890419791502978 -0.18870998761784108 0 0 0 0 -240.15064993513624 51.25710646877269 0 51.25710646877269 -178.11654579680908 0 0 0 0 -165.77650781485227 66.064006352753495 0 66.064006352753495 -96.17526156103122 0 0 0 0 -229.10823559313212 224.70553438084244 0 224.70553438084244 -104.29725930639052 0 0 0 0 34.36281784881794 96.251632450224861 0 96.251632450224861 30.241766293318506 0 0 0 0 -5.3982819544507947 48.209792048935924 0 48.209792048935924 -10.93480020736024 0 0 0 0 1.5888899817012412 4.8747495096435909 0 4.8747495096435909 4.5807602326088386 0 0 0 0 -3.1693323452582263 24.764971107479141 0 24.764971107479141 -30.341273186670151 0 0 0 0 5.3616358196231886 10.12507129284495 0 10.12507129284495 13.487343175489514 0 0 0 0 -1.5124217433385638 20.544306983512797 0 20.544306983512797 25.516814029550005 0 0 0 0 0.65307594057631491 1.704900229194422 0 1.704900229194422 2.3842539252853214 0 0 0 0 7.4296012534268812 12.664977871281735 0 12.664977871281735 6.706303345359629 0 0 0 0 -1.7657184395905965 8.5941085968766515 0 8.5941085968766515 0.81226116633494883 0 0 0 0 4.0271729314664162 9.9546202022303376 0 9.9546202022303376 6.6847740476934803 0 0 0 0 -11.475670012040609 10.467739400010032 0 10.467739400010032 8.212367572254152 0 0 0 0 -0.18558578940629733 2.4121183694738519 0 2.4121183694738519 2.9708103306485043 0 0 0 0 -155.83866437542383 96.972453005000716 0 96.972453005000716 -41.161992840239691 0 0 0 0 -7.0230062901700876 4.1051102892743074 0 4.1051102892743074 11.319692518416559 0 0 0 0 -6.98419294688847 6.6053582022632327 0 6.6053582022632327 6.7156227523955749 0 0 0 0 -7.5770487568215685 7.6365103717580496 0 7.6365103717580496 5.2006264114461374 0 0 0 0 -341.48245029161626 99.253949512843974 0 99.253949512843974 19.011155518572195 0 0 0 0 -14.985497372650116 6.0327283519909543 0 6.0327283519909543 14.755901658376388 0 0 0 0 -67.588341658025456 -6.9800092250261514 0 -6.9800092250261514 26.786137146300462 0 0 0 0 3.9509650433844135 2.7347373386802083 0 2.7347373386802083 -0.76834102851316288 0 0 0 0 -11.041308973273772 8.219035617676127 0 8.219035617676127 13.924049051318434 0 0 0 0 -13.384696884663299 9.2031154500527919 0 9.2031154500527919 13.871558691884275 0 0 0 0 4.9065974583159004 22.856472138168101 0 22.856472138168101 16.44858707383537 0 0 0 0 -1.6915764799705357 20.060159961947647 0 20.060159961947647 12.959455622651149 0 0 0 0 5.6047413297840993 11.695021882019979 0 11.695021882019979 15.814272424855659 0 0 0 0 5.364915071847463 20.870881456747156 0 20.870881456747156 16.708506122413382 0 0 0 0 -5.2013662336621564 28.72578524817709 0 28.72578524817709 11.633376271227462 0 0 0 0 -73.354849095221653 27.374743030095487 0 27.374743030095487 39.28147983555391 0 0 0 0 -69.224709877946225 64.348439037297794 0 64.348439037297794 90.235689608300163 0 0 0 0 3.6656896394874181 17.828095870695144 0 17.828095870695144 23.260174349270528 0 0 0 0 -48.47457703889296 59.614918600855162 0 59.614918600855162 49.010541583047598 0 0 0 0 -24.165292131311162 -20.848292678478174 0 -20.848292678478174 12.728492456371896 0 0 0 0 -29.299031598179681 -22.313621782653172 0 -22.313621782653172 109.51042379375576 0 0 0 0 -104.29650927275725 24.004898369865259 0 24.004898369865259 15.331755852173956 0 0 0 0 -4.338884292708217 -2.2663762730482553 0 -2.2663762730482553 2.4029093436033264 0 0 0 0 16.225144560192348 23.419316790899757 0 23.419316790899757 8.8782182568265853 0 0 0 0 5.5977516095504143 13.07629369198412 0 13.07629369198412 4.9894577045997721 0 0 0 0 8.2065847366975504 12.506445737861213 0 12.506445737861213 6.0852238162769936 0 0 0 0 -0.070803739832108192 3.9831398546708598 0 3.9831398546708598 -2.9860996224954874 0 0 0 0 1.7591561551053019 -0.039856387178588193 0 -0.039856387178588193 -4.3960995758934587 0 0 0 0 8.8343116199692773 3.6458668684291666 0 3.6458668684291666 -13.388416419530998 0 0 0 0 6.2943117954655463 21.261588912144362 0 21.261588912144362 14.184841102027349 0 0 0 0 -1.2305462474599089 8.2240342406815152 0 8.2240342406815152 7.9652545333839981 0 0 0 0 4.8219896662612882 25.854360041432301 0 25.854360041432301 19.493621977304429 0 0 0 0 15.081709454441807 26.536274211959608 0 26.536274211959608 15.999319020027542 0 0 0 0 15.437259893935334 26.119736465947426 0 26.119736465947426 4.6013170404221455 0 0 0 0 3.9873863810552095 12.072580864067803 0 12.072580864067803 -8.2889987783422896 0 0 0 0 -3.0887780207357185 12.430222843798788 0 12.430222843798788 5.3682097660203567 0 0 0 0 12.548300103319889 33.648077010675024 0 33.648077010675024 -14.47448557397729 0 0 0 0 1.4719612620629334 20.189412029546908 0 20.189412029546908 -10.920024989956666 0 0 0 0 6.5842086006932732 41.721941238339696 0 41.721941238339696 -24.234426345641623 0 0 0 0 11.794971593101739 25.126407132986017 0 25.126407132986017 7.4429943259884013 0 0 0 0 14.961336338434194 33.1660299069149 0 33.1660299069149 -25.193772597147017 0 0 0 0 22.359225390472901 23.858513114072288 0 23.858513114072288 -5.1924866014963218 0 0 0 0 95.597879763347009 46.941791102097369 0 46.941791102097369 -178.67401538773834 0 0 0 0 70.219519509380916 93.757955849585414 0 93.757955849585414 -191.09784469059608 0 0 0 0 22.843845423593464 20.199388494175036 0 20.199388494175036 4.4791064592615939 0 0 0 0 75.257724072016572 100.4566541882364 0 100.4566541882364 -114.89990493207814 0 0 0 0 56.450971392892825 41.659635287923344 0 41.659635287923344 -123.18092569959867 0 0 0 0 -0.4904834162607159 38.009153274979177 0 38.009153274979177 5.1913446917900217 0 0 0 0 -12.269130785291964 52.59338896438021 0 52.59338896438021 0.42682646570028737 0 0 0 0 0.066191116173285991 44.670884602847764 0 44.670884602847764 -4.0327417036114639 0 0 0 0 1.5067858594796775 22.572377457236264 0 22.572377457236264 17.799735159915578 0 0 0 0 5.7391784304068096 45.663713950179954 0 45.663713950179954 -28.28225438580921 0 0 0 0 8.4426228488664492 51.298100277188496 0 51.298100277188496 -30.184094712027218 0 0 0 0 6.1581417989880798 26.572735501507523 0 26.572735501507523 -37.107096642343407 0 0 0 0 -0.55700755463845653 33.313102861225836 0 33.313102861225836 -20.800103697708703 0 0 0 0 8.5613964582425979 31.895229171404026 0 31.895229171404026 -22.033913179509909 0 0 0 0 -2.1756858639167866 27.878728932780994 0 27.878728932780994 -16.626817543846975 0 0 0 0 5.6870182763959747 57.140401300071062 0 57.140401300071062 -21.097142567040464 0 0 0 0 -2.3963891708824079 38.517360966885718 0 38.517360966885718 -1.67447707850814 0 0 0 0 -2.1443303771931141 47.619108935470763 0 47.619108935470763 12.626373857967337 0 0 0 0 -1.0903089743953487 51.50258952063453 0 51.50258952063453 -15.53979190964834 0 0 0 0 35.406333109099478 39.444189289881479 0 39.444189289881479 -99.068659348838992 0 0 0 0 -12.787385675357655 -40.548556357016423 0 -40.548556357016423 -172.66524938747898 0 0 0 0 4.0574726204789044 105.77627040324398 0 105.77627040324398 -178.23728908690828 0 0 0 0 6.51790388214431 86.160623678038974 0 86.160623678038974 -69.759505780148174 0 0 0 0 35.846336945076928 21.940212385942232 0 21.940212385942232 102.53571683563496 0 0 0 0 16.991856951238788 99.18887563939461 0 99.18887563939461 73.872905802469177 0 0 0 0 26.921463627240882 123.2060791721924 0 123.2060791721924 83.966339386894106 0 0 0 0 -31.407458021197264 24.986103497818199 0 24.986103497818199 3.8466810669978528 0 0 0 0 21.92941112925655 121.74349359803455 0 121.74349359803455 84.630236579853772 0 0 0 0 -54.320497184630767 33.810666547917208 0 33.810666547917208 193.72496541879082 0 0 0 0 58.405923473172152 74.302203430059308 0 74.302203430059308 101.7016571397653 0 0 0 0 33.559893588709969 73.196675629093974 0 73.196675629093974 20.535637672851294 0 0 0 0 18.96023712695569 15.385960777866785 0 15.385960777866785 -375.16585696576112 0 0 0 0 -51.705043553967471 52.842022017250429 0 52.842022017250429 -45.809454480815475 0 0 0 0 -297.70715018506598 -200.68894202711817 0 -200.68894202711817 -203.11214858956737 0 0 0 0 33.949069219235142 69.213348019583592 0 69.213348019583592 36.520473285868164 0 0 0 0 57.294157998274386 122.4232711163786 0 122.4232711163786 -81.106614526721387 0 0 0 0 -593.20824386977961 205.13414345743558 0 205.13414345743558 463.35806586338731 0 0 0 0 904.20220708635316 634.80671527820959 0 634.80671527820959 548.50708326365566 0 0 0 0 7.8593390403023591 146.78751473215823 0 146.78751473215823 38.328929795952718 0 0 0 0 -0.26938467174568359 74.027684224241966 0 74.027684224241966 13.016039873040427 0 0 0 0 17.821384315209798 148.54566714516113 0 148.54566714516113 133.82235834422318 0 0 0 0 14.499227308963782 147.26484654350952 0 147.26484654350952 147.28872112043609 0 0 0 0 6.441524946852951 98.101962116354116 0 98.101962116354116 69.11194715275451 0 0 0 0 35.368288908730392 102.83514120772088 0 102.83514120772088 91.246715742036031 0 0 0 0 50.863790185165271 111.4424485181371 0 111.4424485181371 62.331850501506779 0 0 0 0 -9.684685253421776 70.346891785973639 0 70.346891785973639 56.205453829206817 0 0 0 0 -5.4909189138884358 119.87411216669898 0 119.87411216669898 142.19359647137753 0 0 0 0 2.5328964455493406 83.660517546384654 0 83.660517546384654 186.98271215660498 0 0 0 0 -32.941565691722886 18.449332153654936 0 18.449332153654936 -12.220529916069282 0 0 0 0 -0.44285729660259676 142.03438387966162 0 142.03438387966162 182.78938594321153 0 0 0 0 -7.8976643784353655 94.045111853876733 0 94.045111853876733 81.700957377834129 0 0 0 0 -73.13023675842669 85.648583254002006 0 85.648583254002006 95.566610489415325 0 0 0 0 -19.367096384172328 137.589606797741 0 137.589606797741 188.08668360064985 0 0 0 0 91.230979787782417 260.89830096332298 0 260.89830096332298 -230.38414705682953 0 0 0 0 -2.215677735386592 0.16071660030533508 0 0.16071660030533508 -0.079255736135657173 0 0 0 0 56.270174783938273 121.73237557870016 0 121.73237557870016 161.98922263087115 0 0 0 0 35.652375405568819 154.52775014513463 0 154.52775014513463 195.16870857261529 0 0 0 0 36.512740510414005 150.12383435722586 0 150.12383435722586 166.27217706773081 0 0 0 0 13.329840699338092 134.13377140321973 0 134.13377140321973 157.82981131205452 0 0 0 0 16.234416895378672 134.71592353269079 0 134.71592353269079 139.30409181475443 0 0 0 0 27.106019974558876 123.77042402553343 0 123.77042402553343 185.14638229289267 0 0 0 0 0.61426006073714134 8.375833326269003 0 8.375833326269003 -8.2496890466670507 0 0 0 0 -6.0017975767350435 66.461488391811145 0 66.461488391811145 13.765120737949474 0 0 0 0 27.421447932649244 120.76075867389227 0 120.76075867389227 213.69760032696649 0 0 0 0 11.900454685513978 107.41069146913651 0 107.41069146913651 219.51749255757022 0 0 0 0 -9.8495199739445525 148.62311124271946 0 148.62311124271946 327.47037513842463 0 0 0 0 12.291389110523596 -2.684758234754554 0 -2.684758234754554 108.03125499041198 0 0 0 0 1.5958009198251144 2.6594554084906008 0 2.6594554084906008 -4.1772969322405515 0 0 0 0 -26.229360322915454 8.9536136979731964 0 8.9536136979731964 329.58302966563531 0 0 0 0 29.368472790765274 21.444356990079275 0 21.444356990079275 -18.609591926009685 0 0 0 0 -4.3456586063966824 34.101521363365464 0 34.101521363365464 -51.792387571647851 0 0 0 0 -27.944670630821491 34.242548145569671 0 34.242548145569671 -13.903556639793372 0 0 0 0 -25.645516214490272 84.371950456770719 0 84.371950456770719 -16.235975308452907 0 0 0 0 -24.057150378404771 53.134587752592779 0 53.134587752592779 3.2903079321695259 0 0 0 0 47.681735676290373 -37.536157728056423 0 -37.536157728056423 -8.9080795142726856 0 0 0 0 132.41834070063555 49.232246503388978 0 49.232246503388978 -52.045950684638228 0 0 0 0 60.075974596682499 75.979255600097531 0 75.979255600097531 17.790513337135053 0 0 0 0 40.027197953750147 42.230277447946719 0 42.230277447946719 38.144855155558616 0 0 0 0 41.453940628143755 34.527704002182873 0 34.527704002182873 4.6852484793562326 0 0 0 0 55.393943860915897 38.351814608999121 0 38.351814608999121 -50.19865101059986 0 0 0 0 -48.425023595656057 146.44511060673176 0 146.44511060673176 -73.023792872085323 0 0 0 0 -182.83419210916554 172.59676523607413 0 172.59676523607413 -34.869112112966832 0 0 0 0 0.92455851754489871 1.0046692273747464 0 1.0046692273747464 -0.94845435383763288 0 0 0 0 0.41538048613006495 0.63483916548843666 0 0.63483916548843666 1.0277683543153415 0 0 0 0 -149.62807715293206 86.411390602914253 0 86.411390602914253 -31.294221744195966 0 0 0 0 -25.400354578689985 74.928752737419927 0 74.928752737419927 -41.414498253656348 0 0 0 0 34.110092941145922 -44.389399358652554 0 -44.389399358652554 26.351053465921723 0 0 0 0 -82.330823268895529 138.4371058902052 0 138.4371058902052 27.436181567136373 0 0 0 0 -49.593185645498465 50.377476424080896 0 50.377476424080896 143.07789440298075 0 0 0 0 -53.602040342324472 59.406439713093278 0 59.406439713093278 -0.86475283988693263 0 0 0 0 -31.08708823111192 5.1490332935063634 0 5.1490332935063634 100.65760932330522 0 0 0 0 1.1035902642834117 23.47613990418904 0 23.47613990418904 -217.86638757483888 0 0 0 0 -144.74976654644706 -94.284734609478619 0 -94.284734609478619 171.71341654092612 0 0 0 0 -66.321946247862343 -208.22521111659626 0 -208.22521111659626 -41.740820617284044 0 0 0 0 -97.252653780969467 160.57073170991316 0 160.57073170991316 -70.845915340956708 0 0 0 0 -5.83176750149687 45.644799211578857 0 45.644799211578857 -29.787664295725335 0 0 0 0 -7.0764499574579531 42.365271258364828 0 42.365271258364828 -34.462937514113946 0 0 0 0 -0.023397679120535031 44.68556058184231 0 44.68556058184231 -37.697168179163555 0 0 0 0 -0.001729381074255798 48.075450346218076 0 48.075450346218076 -30.366716162696775 0 0 0 0 -7.0035781969127129 43.651752678516459 0 43.651752678516459 -21.61416391780881 0 0 0 0 0.29330492146254983 41.760241316032534 0 41.760241316032534 -28.089760317256605 0 0 0 0 -7.0112157639459838 42.6590257775498 0 42.6590257775498 -25.40638931353169 0 0 0 0 -1.978875948509085 20.70289349548716 0 20.70289349548716 -35.074850147058328 0 0 0 0 -4.4359860807007863 32.783379758961246 0 32.783379758961246 -53.760162233212213 0 0 0 0 -2.049660769311231 37.619596267160887 0 37.619596267160887 -50.052587541812045 0 0 0 0 -9.8031497267802479 19.911696815054256 0 19.911696815054256 -51.065030453667916 0 0 0 0 -9.7540205077675637 35.707345684839765 0 35.707345684839765 -31.249057230180085 0 0 0 0 0.015117192407663248 39.42694125680179 0 39.42694125680179 -89.882505281370868 0 0 0 0 0.52882781326718487 -0.61337467694290737 0 -0.61337467694290737 -0.077786046035939194 0 0 0 0 -7.0519861455941282 10.437111862094412 0 10.437111862094412 208.93892734069851 0 0 0 0 0.058011247243072495 66.452235980087934 0 66.452235980087934 105.11872658789798 0 0 0 0 8.7166028326537344 45.006592043284797 0 45.006592043284797 91.896708998566595 0 0 0 0 22.060652619478788 61.475736639874853 0 61.475736639874853 36.288470595967624 0 0 0 0 20.45102124540972 53.963129447391879 0 53.963129447391879 34.932715914159246 0 0 0 0 0.030650965896263531 72.460712930332647 0 72.460712930332647 43.881395979656702 0 0 0 0 -7.7954534871532815 48.392192811574432 0 48.392192811574432 35.599730092200218 0 0 0 0 3.2615441737034416 49.873675078909116 0 49.873675078909116 78.801777810891053 0 0 0 0 2.6012053847734933 35.917134612919369 0 35.917134612919369 29.807979950455206 0 0 0 0 4.7119008642703193 24.525071853544716 0 24.525071853544716 73.445554530985873 0 0 0 0 -10.262620965277165 10.447673760710586 0 10.447673760710586 113.11093343181165 0 0 0 0 1.4737135770586178 -1.3113562987201313 0 -1.3113562987201313 -0.67241371464936162 0 0 0 0 -0.10253277814615558 5.8920557775878422 0 5.8920557775878422 3.7949750630148738 0 0 0 0 -46.455035546394356 21.452584455486885 0 21.452584455486885 60.08336728362292 0 0 0 0 -5.1494449762958538 16.827225744054317 0 16.827225744054317 41.338802605181627 0 0 0 0 -27.049258985724009 6.0130499421907189 0 6.0130499421907189 166.42420262218729 0 0 0 0 1.572590516315123 32.996533401060773 0 32.996533401060773 43.412609147144451 0 0 0 0 26.308277533553337 79.322814463873328 0 79.322814463873328 65.870574308788491 0 0 0 0 -24.845000121116755 48.737181608514845 0 48.737181608514845 49.759033969180336 0 0 0 0 18.760385611131483 -2.4976891645511614 0 -2.4976891645511614 35.228214600657338 0 0 0 0 0.7810888868723489 28.254688313775546 0 28.254688313775546 32.094173136270122 0 0 0 0 -56.322442498940291 24.861629959738877 0 24.861629959738877 36.008685314762488 0 0 0 0 -8.8237605366084608 45.211163640319626 0 45.211163640319626 25.841532921023031 0 0 0 0 -0.41072858430143455 -0.71117527241475642 0 -0.71117527241475642 -0.96928494301230472 0 0 0 0 -284.15249847876476 51.98348164316576 0 51.98348164316576 45.813552645041455 0 0 0 0 -62.855755026779661 59.306976681276865 0 59.306976681276865 21.567978219970428 0 0 0 0 -56.335783508438908 -29.974429684001734 0 -29.974429684001734 36.97797966092196 0 0 0 0 18.677263829464209 22.728066334627329 0 22.728066334627329 47.369495274590463 0 0 0 0 -83.546746674403494 93.51748395312876 0 93.51748395312876 11.290230265008177 0 0 0 0 23.171618269152532 78.271469357245223 0 78.271469357245223 82.75784530448982 0 0 0 0 -22.660198248027882 65.040687198818887 0 65.040687198818887 106.18451525906858 0 0 0 0 19.82621646365169 87.22127372644195 0 87.22127372644195 76.33615591501075 0 0 0 0 28.669993484712904 72.679297092077832 0 72.679297092077832 51.905233038341066 0 0 0 0 -20.483327067791834 13.132303782090275 0 13.132303782090275 30.973335324942127 0 0 0 0 -11.173557194466412 60.117849225717691 0 60.117849225717691 78.937130349657309 0 0 0 0 11.617221765620343 93.44296952002378 0 93.44296952002378 121.24613883567508 0 0 0 0 -16.807737328708754 13.957862861505419 0 13.957862861505419 33.73441463342715 0 0 0 0 3.1315006682943078 4.8023534535223007 0 4.8023534535223007 -13.021512143752636 0 0 0 0 -24.269383477738302 31.83270305361566 0 31.83270305361566 153.84973331525043 0 0 0 0 -11.697579797466346 72.608426746003374 0 72.608426746003374 93.722613600777549 0 0 0 0 20.148277821623196 63.795311325845432 0 63.795311325845432 95.885913160736891 0 0 0 0 29.51232757363141 51.892655713932527 0 51.892655713932527 73.642991978071223 0 0 0 0 4.7648099735524738 23.226177370920311 0 23.226177370920311 -10.016642061452558 0 0 0 0 33.584558837399527 56.019685918848154 0 56.019685918848154 -10.722601088510601 0 0 0 0 -3.7820896820630878 55.952158497841083 0 55.952158497841083 36.026898533137683 0 0 0 0 4.8101517725903733 18.29482627637082 0 18.29482627637082 5.6302737669733567 0 0 0 0 12.924091709577795 19.413427883860997 0 19.413427883860997 9.1250103350508773 0 0 0 0 -3.0285498341836501 19.780269759636212 0 19.780269759636212 -42.872714117989744 0 0 0 0 -0.12240309050606868 0.90945750128543779 0 0.90945750128543779 -1.1431683272802617 0 0 0 0 5.9544817353886543 19.887002915969624 0 19.887002915969624 -1.3453915997454189 0 0 0 0 7.8848579064651858 -28.43026199727683 0 -28.43026199727683 20.203932862761121 0 0 0 0 2.5633791225991445 53.432911874890124 0 53.432911874890124 32.734104218543052 0 0 0 0 -20.265684164085542 30.210093781783144 0 30.210093781783144 90.874166511566727 0 0 0 0 0.028527427695578922 0.18131111879791462 0 0.18131111879791462 1.5614529741336796 0 0 0 0 3.8846002035413818 14.202939925853848 0 14.202939925853848 11.627277766228318 0 0 0 0 0.53173326987266023 -0.12245249584714202 0 -0.12245249584714202 -0.38743102749766578 0 0 0 0 -59.498415304711671 66.613281779656973 0 66.613281779656973 -73.446305532725091 0 0 0 0 -5.4384489825006312 -2.1144402660563628 0 -2.1144402660563628 -31.424142227229822 0 0 0 0 -0.43622303213123814 13.253147387944864 0 13.253147387944864 -8.6680415460941731 0 0 0 0 -1.441149863180371 10.85447027948166 0 10.85447027948166 10.237389363476266 0 0 0 0 -4.3782266594898829 11.99478299914972 0 11.99478299914972 2.9062294810282765 0 0 0 0 1.555116495214989 9.868815241046164 0 9.868815241046164 2.1650187605348918 0 0 0 0 1.137600805843249 85.923560033221293 0 85.923560033221293 -26.47002108988363 0 0 0 0 -46.198178507635021 169.9067215116811 0 169.9067215116811 -105.48332906957057 0 0 0 0 -49.891121129898238 119.17297765683543 0 119.17297765683543 -30.067280404371559 0 0 0 0 -25.510943587541988 120.06095321907833 0 120.06095321907833 -68.082001560862409 0 0 0 0 -39.80762805181439 105.49500265761162 0 105.49500265761162 -35.914887999924758 0 0 0 0 -18.46246931103633 142.83711377931786 0 142.83711377931786 -113.64983538709203 0 0 0 0 -70.588316568784649 158.70785557350791 0 158.70785557350791 -85.132186600546447 0 0 0 0 -91.711369481010479 118.22076345059031 0 118.22076345059031 -63.644438828798229 0 0 0 0 -19.849779294705513 89.480955200015615 0 89.480955200015615 -81.580025771174405 0 0 0 0 -33.161893077369314 118.03357650034013 0 118.03357650034013 -68.488298127736925 0 0 0 0 -37.663999698470434 130.03489096680278 0 130.03489096680278 -23.891660121640598 0 0 0 0 -43.581160470232135 90.837032532737794 0 90.837032532737794 -0.26976074015510676 0 0 0 0 -12.843577631763765 68.801808577221891 0 68.801808577221891 79.925609166039976 0 0 0 0 6.1758878269320121 69.714077823037769 0 69.714077823037769 12.506548420702529 0 0 0 0 -9.2486821508409776 103.77625055544263 0 103.77625055544263 -62.798295919128577 0 0 0 0 -18.64505737995205 62.939607802627506 0 62.939607802627506 14.288747874761611 0 0 0 0 1.4426331042996026 51.606754965274376 0 51.606754965274376 -22.270010832736261 0 0 0 0 -8.1036301291114796 63.392116039171469 0 63.392116039171469 21.120410752057069 0 0 0 0 124.69965727055387 39.545928523210023 0 39.545928523210023 -130.17313322045447 0 0 0 0 -10.8423882395291 32.896189981605858 0 32.896189981605858 10.981593984880419 0 0 0 0 3.7361743898104578 39.528113838978953 0 39.528113838978953 19.509711984267597 0 0 0 0 15.329106052402494 62.539317855582794 0 62.539317855582794 -18.355747011835774 0 0 0 0 -0.98687770864012236 33.047826975423419 0 33.047826975423419 -4.7737787730370655 0 0 0 0 31.173579216523649 31.472547175197633 0 31.472547175197633 -20.588817101941913 0 0 0 0 1.0998818400927166 33.578410896164293 0 33.578410896164293 -12.135025435305131 0 0 0 0 2.9915998340366059 80.805762485825198 0 80.805762485825198 -21.285309490143845 0 0 0 0 -5.4407187152828556 96.821758365360438 0 96.821758365360438 -50.784901444305433 0 0 0 0 180.0946651064944 -9.8089466411776414 0 -9.8089466411776414 -19.557701091845956 0 0 0 0 1.1218256759426191 29.102299881877293 0 29.102299881877293 -16.745852684612721 0 0 0 0 0.32092615522719825 40.464394515731399 0 40.464394515731399 -13.687161409186047 0 0 0 0 19.084313668841787 38.107676004090081 0 38.107676004090081 -21.294099006615397 0 0 0 0 35.858489752532478 -0.57069792445781786 0 -0.57069792445781786 6.6217194028704398 0 0 0 0 2.9062841115245419 0.72498290510212371 0 0.72498290510212371 -3.6566312578559774 0 0 0 0 -102.30329907201667 90.917136796491832 0 90.917136796491832 -29.537202405699645 0 0 0 0 -57.429616934357909 63.135818037348145 0 63.135818037348145 -70.436166957353635 0 0 0 0 -37.344139123801142 99.739254998976321 0 99.739254998976321 -6.8895038718219439 0 0 0 0 -64.082825930730905 33.136734829648049 0 33.136734829648049 -101.1508607208707 0 0 0 0 -112.50222868661513 23.945424933277536 0 23.945424933277536 -46.829915005208022 0 0 0 0 -18.300123949287809 -4.1653263879852602 0 -4.1653263879852602 -14.31107798416997 0 0 0 0 -66.278423707612092 46.273993088565476 0 46.273993088565476 -65.786424712954613 0 0 0 0 5.1552480110694887 6.819621126027414 0 6.819621126027414 -162.44605290346954 0 0 0 0 0.7640258747551627 1.7732959445603171 0 1.7732959445603171 0.82262261805770009 0 0 0 0 -73.881592876525247 46.517711232338115 0 46.517711232338115 -114.85691499478344 0 0 0 0 -78.607470314804232 71.768460141112882 0 71.768460141112882 -78.592665869626217 0 0 0 0 -60.942505798451748 80.609204649915227 0 80.609204649915227 -79.89872918369656 0 0 0 0 -142.53515354666888 160.49401076976028 0 160.49401076976028 -72.73924889654154 0 0 0 0 -63.820746724086348 75.2718813673564 0 75.2718813673564 -86.13761558387705 0 0 0 0 2.2837393357747615 1.4746901781871387 0 1.4746901781871387 -2.6755529018579765 0 0 0 0 -69.293258274985419 80.792636139213755 0 80.792636139213755 -79.241155410836654 0 0 0 0 187.17699765610814 0.64957157651042507 0 0.64957157651042507 -4.416691347777487 0 0 0 0 -46.982738224542118 87.080228517679643 0 87.080228517679643 -83.03493145196262 0 0 0 0 -171.85406706841968 73.800490755007559 0 73.800490755007559 -61.604744672320521 0 0 0 0 5.5749229842285786 22.744721164971907 0 22.744721164971907 -5.5125579095201829 0 0 0 0 12.854122411016917 11.708312805674147 0 11.708312805674147 -1.9515752083232556 0 0 0 0 10.444398419844219 55.24698775466095 0 55.24698775466095 -53.020468999373406 0 0 0 0 6.3087413567707245 30.244824097479757 0 30.244824097479757 -9.8736763620863854 0 0 0 0 5.8124650528745434 13.186950426364561 0 13.186950426364561 -17.395689252282516 0 0 0 0 7.1822201068797682 19.539354620377743 0 19.539354620377743 -6.5681653485978302 0 0 0 0 7.6554182387772016 35.127142710414773 0 35.127142710414773 -11.924551365108528 0 0 0 0 8.9402836095700735 9.2889553999629868 0 9.2889553999629868 -2.3100258803870517 0 0 0 0 2.6271911239164183 27.69064878158315 0 27.69064878158315 -37.463401300909027 0 0 0 0 -12.260995376564097 87.570200318387833 0 87.570200318387833 36.91794215444861 0 0 0 0 12.600133951929578 3.3279177889422229 0 3.3279177889422229 -1.2380639055698168 0 0 0 0 18.098685886681778 31.456738318463977 0 31.456738318463977 -117.82999946108248 0 0 0 0 67.641752671028371 24.803409616892168 0 24.803409616892168 -118.01083795868544 0 0 0 0 30.897767165010009 32.146668596115887 0 32.146668596115887 -61.069802734480845 0 0 0 0 36.185032145011064 39.035572497556132 0 39.035572497556132 -63.437227071726738 0 0 0 0 0.14285885777567842 5.1951865357897447 0 5.1951865357897447 -10.408110268485684 0 0 0 0 64.605271083246407 90.160403845496148 0 90.160403845496148 -29.269729086045118 0 0 0 0 -19.688197259689332 63.177597148842324 0 63.177597148842324 2.2566275250719627 0 0 0 0 -8.4862441081839251 26.345787658847634 0 26.345787658847634 -47.733376422362369 0 0 0 0 18.894393186918023 44.515876116614891 0 44.515876116614891 -25.103401168198616 0 0 0 0 5.1338070394122042 20.453536393413742 0 20.453536393413742 -22.386417791880376 0 0 0 0 -2.5458445648618095 24.057613825356015 0 24.057613825356015 -8.583873474406003 0 0 0 0 -20.49571648559504 40.940148812842381 0 40.940148812842381 4.2626479000755353 0 0 0 0 -5.8796136036980897 38.157033851377491 0 38.157033851377491 -52.164297126015299 0 0 0 0 1.7264686611160869 31.805346761353576 0 31.805346761353576 -23.206817347902415 0 0 0 0 10.495267553412802 19.261542978880186 0 19.261542978880186 7.2908250681430928 0 0 0 0 -16.674541747273906 46.514144357779514 0 46.514144357779514 8.6987217260757461 0 0 0 0 -6.8420838269370705 20.279420465505115 0 20.279420465505115 16.068346492353012 0 0 0 0 7.2497912404925415 14.045010803590628 0 14.045010803590628 -3.8944508462291765 0 0 0 0 2.1320821283516125 16.816245952515601 0 16.816245952515601 -19.259936944356014 0 0 0 0 0.87309231609106064 33.276777313589264 0 33.276777313589264 -16.568695318332175 0 0 0 0 -1.8883552692553565 20.247901477210007 0 20.247901477210007 -0.73718906021035924 0 0 0 0 5.890900507743936 37.620147330802865 0 37.620147330802865 -21.526212277312879 0 0 0 0 7.1335812877354847 11.458393761974875 0 11.458393761974875 -14.658211832225177 0 0 0 0 9.2129310767486459 16.542929862342135 0 16.542929862342135 2.0925503632315667 0 0 0 0 8.1473832112955762 15.947264211867942 0 15.947264211867942 2.6451308720622677 0 0 0 0 -18.122694841644261 14.315521949451067 0 14.315521949451067 1.6021870845288504 0 0 0 0 -2.417379130317812 10.594827484966153 0 10.594827484966153 -3.6470566389569967 0 0 0 0 -0.27304685934066386 30.152936960923306 0 30.152936960923306 9.0093771922080066 0 0 0 0 -9.6394433277528151 32.7956140269348 0 32.7956140269348 9.5304911311623073 0 0 0 0 -1.1367810440948176 22.031212597769045 0 22.031212597769045 9.4080894890223981 0 0 0 0 -3.1244012518509408 32.513059983934909 0 32.513059983934909 5.3071498190856801 0 0 0 0 -4.1443142448697472 41.826568546073759 0 41.826568546073759 -10.861229414638728 0 0 0 0 54.451492324127685 49.950239299619625 0 49.950239299619625 21.092809233276057 0 0 0 0 -2.9379626517798911 8.224745264412249 0 8.224745264412249 1.6315361698414454 0 0 0 0 8.0260507087131856 23.170465316029052 0 23.170465316029052 3.9269563101393965 0 0 0 0 1.8177131256525172 30.64740458592496 0 30.64740458592496 -13.036535607081532 0 0 0 0 3.2786117863433901 32.434293930371496 0 32.434293930371496 -12.098850773215418 0 0 0 0 4.6810240442900977 32.687359480771192 0 32.687359480771192 -13.281744216779771 0 0 0 0 3.7699981022815336 33.285756369361479 0 33.285756369361479 -10.720506365909387 0 0 0 0 9.0927599082528729 16.618969187524129 0 16.618969187524129 -0.34010184375734553 0 0 0 0 17.273286000921871 35.613386850352185 0 35.613386850352185 3.2912609192544551 0 0 0 0 4.2354335376858216 23.623425967282856 0 23.623425967282856 27.210612312951525 0 0 0 0 -9.7023578327834912 2.9517934001085635 0 2.9517934001085635 -1.304454665254525 0 0 0 0 -13.406671449345595 36.667378045754958 0 36.667378045754958 39.694192514982205 0 0 0 0 2.9947908681206172 79.037093261890732 0 79.037093261890732 -42.960120043356255 0 0 0 0 4.8689189759243163 43.074170110107161 0 43.074170110107161 75.67891751888601 0 0 0 0 1.9461221744726718 22.912693682552412 0 22.912693682552412 -8.3471203311528832 0 0 0 0 6.1824216300119588 26.76517982593225 0 26.76517982593225 -24.614159990219605 0 0 0 0 -12.493585443749907 35.759654796783934 0 35.759654796783934 40.002529963407142 0 0 0 0 -132.09386602594805 493.90112630057143 0 493.90112630057143 438.38627992781403 0 0 0 0 10.591659995734517 32.498323650705174 0 32.498323650705174 -51.92536997087791 0 0 0 0 2.0091163646912094 3.6865673507081667 0 3.6865673507081667 2.1289130315624929 0 0 0 0 -8.3207756933458086 49.857103568873605 0 49.857103568873605 -20.815027386575821 0 0 0 0 -0.41334025477408431 42.074773840119633 0 42.074773840119633 14.407906625874375 0 0 0 0 0.12061302833838283 21.131723940504589 0 21.131723940504589 4.5655108842324914 0 0 0 0 4.8810847015047329 21.442054182105494 0 21.442054182105494 2.4948314230714459 0 0 0 0 2.8501644260786634 17.839355850822692 0 17.839355850822692 33.170861881312703 0 0 0 0 -8.1369245181633563 24.512040637995895 0 24.512040637995895 14.08454588164801 0 0 0 0 2.4434280336572556 32.819087861288267 0 32.819087861288267 -38.398985212564128 0 0 0 0 -1.1210742690767717 3.9185082117288914 0 3.9185082117288914 -1.1936898518885515 0 0 0 0 -0.7505288168632589 23.661548665862572 0 23.661548665862572 -7.1063871718991241 0 0 0 0 -7.4937073718974716 52.918637295784265 0 52.918637295784265 29.485000522956113 0 0 0 0 0.44854281066348278 16.849899878693783 0 16.849899878693783 1.0585628374090081 0 0 0 0 -0.7287515163061471 21.963475052580065 0 21.963475052580065 -5.2745152311495076 0 0 0 0 0.87492417797329836 20.535488936350703 0 20.535488936350703 -7.8419463305369845 0 0 0 0 4.6162883088980209 18.834092459725305 0 18.834092459725305 3.2993918548288348 0 0 0 0 2.1903611419086104 14.657796325239481 0 14.657796325239481 5.7201253666251217 0 0 0 0 0.62782840343788848 21.963748270037286 0 21.963748270037286 3.3120313604777039 0 0 0 0 0.26230844424571842 22.919604528679656 0 22.919604528679656 8.1886676087127626 0 0 0 0 -4.1300879781256725 14.348727880664725 0 14.348727880664725 9.4165884052309057 0 0 0 0 0.98915062132437015 24.593999455025369 0 24.593999455025369 6.5860911840620702 0 0 0 0 -2.2931631628598552 26.740741417183017 0 26.740741417183017 -20.753261525174821 0 0 0 0 3.7504759101138916 18.78106816867512 0 18.78106816867512 13.846639463292377 0 0 0 0 2.7098406145264704 14.801866348268483 0 14.801866348268483 10.392631780786804 0 0 0 0 1.4210112156714558 15.97412377879243 0 15.97412377879243 1.495504912875198 0 0 0 0 6.3905517647581291 29.385944161265343 0 29.385944161265343 -6.1251402641555615 0 0 0 0 1.6940333760465904 16.95930591770632 0 16.95930591770632 0.37233290105008976 0 0 0 0 1.0905305697378935 19.14365062268098 0 19.14365062268098 -9.131464314519917 0 0 0 0 3.5688894146187522 17.1036993108861 0 17.1036993108861 -12.485562648692394 0 0 0 0 2.6028040549717844 29.910576636445967 0 29.910576636445967 4.1341448953035069 0 0 0 0 5.8062386725922011 20.05809478112856 0 20.05809478112856 -9.0869647429711939 0 0 0 0 0.52254979991905159 0.13430515713563551 0 0.13430515713563551 6.1053093688286992 0 0 0 0 -37.808924247437972 14.668608060070255 0 14.668608060070255 19.084702746942639 0 0 0 0 70.339586129008239 82.122589545641404 0 82.122589545641404 70.748050260016498 0 0 0 0 -17.575192462441919 11.32416277448101 0 11.32416277448101 13.771033689987689 0 0 0 0 -23.611175538841053 30.730676885450521 0 30.730676885450521 10.865425581440832 0 0 0 0 6.4951150364031491 25.903121197075961 0 25.903121197075961 -1.473020593275578 0 0 0 0 1.7007300902514544 29.240598064213827 0 29.240598064213827 7.5650020595439855 0 0 0 0 -110.59420887567831 -15.036414538088138 0 -15.036414538088138 62.181933159664823 0 0 0 0 -5.4905256218041814 17.599613526613723 0 17.599613526613723 -5.942980244397404 0 0 0 0 -4.6430902160536789 29.912174172643802 0 29.912174172643802 23.633344511217729 0 0 0 0 0.8140915319145563 -1.3840546731410655 0 -1.3840546731410655 1.1675436815510807 0 0 0 0 293.54177313327455 183.71109056269552 0 183.71109056269552 66.298389056531505 0 0 0 0 -68.856015767310964 215.80946610513968 0 215.80946610513968 177.74019206885168 0 0 0 0 -35.189718714165792 68.987247323362681 0 68.987247323362681 155.358809410709 0 0 0 0 -20.010837372004062 31.146158906038409 0 31.146158906038409 55.359263685295446 0 0 0 0 41.872617180160887 147.16258014215782 0 147.16258014215782 143.78104259788768 0 0 0 0 188.62108987765532 72.780773165061873 0 72.780773165061873 47.734323913534354 0 0 0 0 9.5146699762954086 80.424847479793016 0 80.424847479793016 101.57651958281531 0 0 0 0 23.912839592416276 88.449339737315768 0 88.449339737315768 79.761262494948824 0 0 0 0 67.664341581799818 68.126373057657929 0 68.126373057657929 47.643264375276885 0 0 0 0 113.50112281180918 -4.4979057211294275 0 -4.4979057211294275 112.56795181670918 0 0 0 0 94.716536230892416 33.271467646435894 0 33.271467646435894 50.781403384997247 0 0 0 0 -2.3451695969051798 49.293180663094972 0 49.293180663094972 69.024027408169786 0 0 0 0 12.208231857026476 59.405676098046115 0 59.405676098046115 75.455086873269465 0 0 0 0 12.882020071272564 60.02386178252732 0 60.02386178252732 56.96514637301334 0 0 0 0 -0.71562270062349853 62.174161033751489 0 62.174161033751489 80.830097666812435 0 0 0 0 -3.334073928752332 64.517086470782488 0 64.517086470782488 82.639038329527011 0 0 0 0 -0.25081631079228828 72.761953374777477 0 72.761953374777477 96.625264832517132 0 0 0 0 -3.473887521562574 49.310784865916503 0 49.310784865916503 104.58624239779056 0 0 0 0 -30.158612970311879 48.958262677614925 0 48.958262677614925 111.62591817064094 0 0 0 0 -33.645410747398273 77.917860247271165 0 77.917860247271165 121.42302485003256 0 0 0 0 -99.238557445707556 100.98017087083463 0 100.98017087083463 76.75070144250094 0 0 0 0 -71.442027427361609 -24.020643130046665 0 -24.020643130046665 199.48433560986268 0 0 0 0 13.555108250995545 42.455840141173212 0 42.455840141173212 62.627456595757394 0 0 0 0 104.78179241367252 15.61531031472623 0 15.61531031472623 64.365091350820876 0 0 0 0 -0.12454313578011256 -1.9435025943115321 0 -1.9435025943115321 1.7329329633282171 0 0 0 0 225.52423154753706 147.709479794652 0 147.709479794652 -138.24352369750704 0 0 0 0 -121.4318878775739 26.942337638961646 0 26.942337638961646 49.360813939572836 0 0 0 0 -70.348684155795127 -45.568223822605887 0 -45.568223822605887 44.521659713873305 0 0 0 0 1.0039241577365949 -1.0925143526448551 0 -1.0925143526448551 -2.6490501261117458 0 0 0 0 33.25457365276452 15.273893885344478 0 15.273893885344478 9.7594852816509956 0 0 0 0 71.511894701183337 53.974911570865515 0 53.974911570865515 -1.4943534959684257 0 0 0 0 15.756340836196614 41.2586952920974 0 41.2586952920974 29.90857783498268 0 0 0 0 13.567578055270133 72.076979656985714 0 72.076979656985714 -4.6639820535265244 0 0 0 0 -0.39116930479755752 5.6837993266952722 0 5.6837993266952722 -1.5376708478755248 0 0 0 0 13.366984617456183 35.031013149035516 0 35.031013149035516 9.3723782781908085 0 0 0 0 -53.038577436989726 19.888583724093223 0 19.888583724093223 24.972089199491165 0 0 0 0 52.597764291185285 40.746715144534505 0 40.746715144534505 -6.4972124441446795 0 0 0 0 -46.704903801040928 33.413621932802016 0 33.413621932802016 22.545350679847616 0 0 0 0 0.0073230148916589854 4.8733125387497296 0 4.8733125387497296 4.4653979229909027 0 0 0 0 -1.2968370234593749 59.853545095555091 0 59.853545095555091 26.873693061264476 0 0 0 0 -39.625375774823624 4.0853702971471648 0 4.0853702971471648 -18.205516825587438 0 0 0 0 -27.679110555596708 43.00542278501598 0 43.00542278501598 6.8859521250024045 0 0 0 0 25.126868837556685 34.911349733972202 0 34.911349733972202 6.4565333648538399 0 0 0 0 13.745593345702218 21.857615920159333 0 21.857615920159333 9.4326098220562926 0 0 0 0 -8.4375273083751381 24.526082681369189 0 24.526082681369189 14.270828496988543 0 0 0 0 -0.53856453883599897 22.624316937763297 0 22.624316937763297 18.073110530631311 0 0 0 0 5.0817119561033905 33.190530282388863 0 33.190530282388863 15.754872155510384 0 0 0 0 -12.534634243309483 36.460936482089437 0 36.460936482089437 7.2251550631062855 0 0 0 0 -24.887434508564183 11.319420344854734 0 11.319420344854734 12.464579194347607 0 0 0 0 27.176576969693997 73.772355952611179 0 73.772355952611179 54.808251599968344 0 0 0 0 -58.182134636794217 67.308749461933985 0 67.308749461933985 55.565508895631865 0 0 0 0 -18.501923890093167 54.586082644409089 0 54.586082644409089 69.472854067431399 0 0 0 0 -0.258136892625771 35.420054498538775 0 35.420054498538775 40.861479213843722 0 0 0 0 -8.6635448745073518 33.238527574689215 0 33.238527574689215 42.023327248713031 0 0 0 0 1.0413781425777415 32.763124752244039 0 32.763124752244039 35.058911093632105 0 0 0 0 7.767678690404864 30.210314670453045 0 30.210314670453045 35.829883726370099 0 0 0 0 -1.9484079650319472 38.987994869047725 0 38.987994869047725 52.774993658365929 0 0 0 0 19.672498530148005 42.881999473286214 0 42.881999473286214 48.304173412688215 0 0 0 0 7.8649161376306438 37.608387887049503 0 37.608387887049503 51.477315104270247 0 0 0 0 16.411434667337744 61.694753963302901 0 61.694753963302901 52.458891258931089 0 0 0 0 11.271853919468413 59.490634184761802 0 59.490634184761802 57.532054273037829 0 0 0 0 26.311537082656287 51.06866371996648 0 51.06866371996648 62.110645179067433 0 0 0 0 19.254278543165128 63.25783361156914 0 63.25783361156914 57.188806824513449 0 0 0 0 0.62649927166057751 24.414524444539893 0 24.414524444539893 46.991484313322076 0 0 0 0 0.15549031888713216 25.498995502405819 0 25.498995502405819 46.871430088319357 0 0 0 0 15.518315992248972 30.978106682209273 0 30.978106682209273 46.03735134080307 0 0 0 0 0.41340285917976871 27.515751881951473 0 27.515751881951473 45.970496487055655 0 0 0 0 -0.86024299030032125 31.121037591654385 0 31.121037591654385 40.374625604574248 0 0 0 0 1.6560608011295699 26.348037307752747 0 26.348037307752747 39.361476034599036 0 0 0 0 0.9744487325042428 27.554947215418906 0 27.554947215418906 33.014074120903388 0 0 0 0 -6.8910816640491248 32.804927701228735 0 32.804927701228735 36.096216570143952 0 0 0 0 -2.8015646957574063 25.316246459185095 0 25.316246459185095 37.260741286287157 0 0 0 0 -1.3780663144389109 22.867167589064593 0 22.867167589064593 45.820218448759988 0 0 0 0 1.1653614527713216 23.214796672825287 0 23.214796672825287 41.830423986852111 0 0 0 0 -0.28279964030298288 27.975792071743854 0 27.975792071743854 39.98673535240232 0 0 0 0 1.0950678393382987 14.933268497851714 0 14.933268497851714 22.09327970744198 0 0 0 0 -13.219266603544384 32.923029743980351 0 32.923029743980351 33.415935480905318 0 0 0 0 -4.5494257707105135 33.399516806885003 0 33.399516806885003 25.7884537287282 0 0 0 0 -28.422856573713943 12.991566852010692 0 12.991566852010692 23.609380056278951 0 0 0 0 1.0807973900191428 31.592513461626368 0 31.592513461626368 24.436025015445921 0 0 0 0 -6.9530938099487685 39.432589536490923 0 39.432589536490923 23.567780017138375 0 0 0 0 10.511833857890451 39.700389462390376 0 39.700389462390376 15.381623045403103 0 0 0 0 7.9151665478093491 34.107702180766864 0 34.107702180766864 6.5283948905835132 0 0 0 0 4.0729554848415432 19.001914165473963 0 19.001914165473963 -16.645990237464861 0 0 0 0 14.014779907047341 50.632386486840005 0 50.632386486840005 8.9092129788186867 0 0 0 0 -200.42881284922805 -62.017146301684534 0 -62.017146301684534 174.6601752895358 0 0 0 0 -14.397925361379748 50.337713363064722 0 50.337713363064722 12.080625311558833 0 0 0 0 204.57441385363927 34.057844085946272 0 34.057844085946272 -188.86640274612 0 0 0 0 0.78982210113447593 0.63348493168250286 0 0.63348493168250286 -2.93603789543495 0 0 0 0 -35.429587538696069 39.226761048226763 0 39.226761048226763 25.021289623201483 0 0 0 0 -24.113289846574844 62.902300003285362 0 62.902300003285362 155.76064334433664 0 0 0 0 -25.531485407365835 47.103383612453456 0 47.103383612453456 56.871930131846625 0 0 0 0 -2.7552285287092673 6.4739924446633292 0 6.4739924446633292 56.171307892734781 0 0 0 0 -13.761555790791249 28.865382897864116 0 28.865382897864116 50.560855360316054 0 0 0 0 10.96393901521634 11.466516512730522 0 11.466516512730522 7.7592317276773812 0 0 0 0 -13.956769818956673 33.510943136001288 0 33.510943136001288 3.7743511736007349 0 0 0 0 -23.974708796174603 26.48060111549913 0 26.48060111549913 32.862256947795359 0 0 0 0 -11.832040951798263 30.881244050143778 0 30.881244050143778 -31.273083055328925 0 0 0 0 0.9810294301566671 1.3144039202559377 0 1.3144039202559377 2.1151897877170729 0 0 0 0 217.06921452864481 122.36873636419068 0 122.36873636419068 -20.523903301492737 0 0 0 0 -45.790756886126474 5.6980564554680768 0 5.6980564554680768 86.039908486207423 0 0 0 0 290.44775813435263 133.43653539212414 0 133.43653539212414 -19.122433093571999 0 0 0 0 133.06161878548846 44.718998064304913 0 44.718998064304913 -161.35613465693899 0 0 0 0 4.3047226741450544 3.5244042007586849 0 3.5244042007586849 3.0870968493115649 0 0 0 0 -7.781910256673882 -61.946352463078298 0 -61.946352463078298 380.40721261684519 0 0 0 0 465.59771212816122 929.88393225053142 0 929.88393225053142 284.58338636138211 0 0 0 0 -10.605220549012301 39.332515925393636 0 39.332515925393636 33.628411685359424 0 0 0 0 -109.37706675438676 -103.21736718124373 0 -103.21736718124373 -192.8625613575623 0 0 0 0 -568.64938651093325 -556.01199381334345 0 -556.01199381334345 772.19708107355234 0 0 0 0 -5.3821860429564481 22.483727936524126 0 22.483727936524126 -11.725183462078069 0 0 0 0 -172.04531728947768 186.81705152495988 0 186.81705152495988 83.471422792654721 0 0 0 0 -256.90953128079127 119.57256990428641 0 119.57256990428641 150.42830451315149 0 0 0 0 124.47646542706934 237.71928668105488 0 237.71928668105488 85.552541659935059 0 0 0 0 -7.748050489997695 32.446135361866254 0 32.446135361866254 9.0205112242219911 0 0 0 0 -25.766599659524218 20.288095674006399 0 20.288095674006399 26.093838086293545 0 0 0 0 -0.79549373595004624 2.2859652424905987 0 2.2859652424905987 -8.6324771880902382 0 0 0 0 -155.0655123010838 135.21993238248263 0 135.21993238248263 184.6535883135839 0 0 0 0 -114.63715753311408 75.349157880610164 0 75.349157880610164 -58.08209363097933 0 0 0 0 -15.228630723862004 14.984521897803443 0 14.984521897803443 3.6705644454072459 0 0 0 0 -2.8418402781699115 18.708044860023094 0 18.708044860023094 3.2601315939391498 0 0 0 0 171.40555600887456 -113.20618252890335 0 -113.20618252890335 -400.47095621852623 0 0 0 0 -3.9337386638681551 21.866175999121126 0 21.866175999121126 -4.4171895398414946 0 0 0 0 17.773985286348761 -27.687507330478638 0 -27.687507330478638 8.7661571641192495 0 0 0 0 -213.19940121250329 -67.780514490568748 0 -67.780514490568748 307.0531139685545 0 0 0 0 42.318541337022907 13.927383675136298 0 13.927383675136298 -4.9508171720826795 0 0 0 0 15.104621137565118 -39.152931451882296 0 -39.152931451882296 -38.430571377106389 0 0 0 0 7.0495743905802186 3.2676068392501882 0 3.2676068392501882 -9.4872723895651774 0 0 0 0 1286.7642441561038 718.69626675951895 0 718.69626675951895 -199.11794803431167 0 0 0 0 -11.577728488111461 -23.464363139933994 0 -23.464363139933994 127.37597704859763 0 0 0 0 75.673724388660048 155.90260944083184 0 155.90260944083184 -47.55622407301712 0 0 0 0 212.78932116136639 132.07739397793716 0 132.07739397793716 35.59169293843479 0 0 0 0 -70.411109090651735 67.586988544510859 0 67.586988544510859 45.802647902535682 0 0 0 0 62.619328444110579 219.42453312300813 0 219.42453312300813 47.897870140630403 0 0 0 0 -139.54219169401767 134.28169933004028 0 134.28169933004028 148.16083869781085 0 0 0 0 -214.4865011201473 64.91142028075592 0 64.91142028075592 46.94422853407923 0 0 0 0 -5.2097647450368214 5.8928432175870249 0 5.8928432175870249 10.778906321259186 0 0 0 0 17.160340720736961 29.525238357222239 0 29.525238357222239 24.226830950219661 0 0 0 0 7.2591913812611892 25.994322433354682 0 25.994322433354682 -94.897583594305615 0 0 0 0 45.940419910653873 49.500292414511932 0 49.500292414511932 -129.64021748176674 0 0 0 0 54.268992065663042 54.663564022193896 0 54.663564022193896 -54.817648402662599 0 0 0 0 4.5486111519513628 19.213605752219539 0 19.213605752219539 -32.906178184094117 0 0 0 0 7.7529599859135487 36.844333824470596 0 36.844333824470596 -60.258305620980536 0 0 0 0 80.727339369783294 52.482846084083576 0 52.482846084083576 -332.71789949958475 0 0 0 0 10.880999991019834 0.74544538486104273 0 0.74544538486104273 -11.771827245393013 0 0 0 0 37.900546281431161 67.142308781538304 0 67.142308781538304 70.097010617188062 0 0 0 0 85.735222048155265 98.73871500297173 0 98.73871500297173 46.345144508217345 0 0 0 0 121.72633658046107 102.74541082221913 0 102.74541082221913 10.605867212478188 0 0 0 0 -17.689379352473225 6.167757947937389 0 6.167757947937389 13.147284712613327 0 0 0 0 63.761630734414211 72.778971698855457 0 72.778971698855457 3.5738304393016733 0 0 0 0 64.025138859564322 77.23713718905492 0 77.23713718905492 11.981155231820594 0 0 0 0 66.880308849213179 84.003943747062294 0 84.003943747062294 17.699024254276992 0 0 0 0 61.602184898918495 72.97453528848564 0 72.97453528848564 19.053316136851208 0 0 0 0 57.975542711239541 77.180388408276485 0 77.180388408276485 12.943657845018606 0 0 0 0 0.22782718841166627 0.22763564852697726 0 0.22763564852697726 -1.8909261927409915 0 0 0 0 41.681257268239278 65.66558782676293 0 65.66558782676293 59.71757119630638 0 0 0 0 -0.27147561482701832 3.2575463287748647 0 3.2575463287748647 -0.33604995596675735 0 0 0 0 68.965114614082268 46.581149615245522 0 46.581149615245522 -92.978941547407885 0 0 0 0 3.494236662532785 33.06311195219314 0 33.06311195219314 40.49089984636521 0 0 0 0 3.611723440458448 -2.1632882986675526 0 -2.1632882986675526 0.072957278885198207 0 0 0 0 -328.07309341504151 167.51924447097554 0 167.51924447097554 595.05686027746924 0 0 0 0 55.294992696311965 4.2545731269710814 0 4.2545731269710814 -93.026302589376428 0 0 0 0 170.99639345688047 6.4648240080641699 0 6.4648240080641699 -19.995201092722709 0 0 0 0 -2.0404579497812847 -2.1530384418427815 0 -2.1530384418427815 -0.058023463696934341 0 0 0 0 458.88733184835291 222.7966847819589 0 222.7966847819589 220.41291942966927 0 0 0 0 -4.4970815104388748 290.2185245857745 0 290.2185245857745 272.10092074300701 0 0 0 0 122.52186122635612 28.595826572398437 0 28.595826572398437 -125.37544715723561 0 0 0 0 -38.386705626486219 214.092822341383 0 214.092822341383 189.44780577930942 0 0 0 0 -129.94663919759478 69.821817278330855 0 69.821817278330855 416.62850548029019 0 0 0 0 -145.38463007837254 -44.419190949183303 0 -44.419190949183303 47.502670207861229 0 0 0 0 -47.352153119387367 127.7186628992622 0 127.7186628992622 -11.959518935315828 0 0 0 0 -82.967529578585527 -34.364960927396169 0 -34.364960927396169 7.238081695715664 0 0 0 0 -7.3636148325924466 1.1275926166267709 0 1.1275926166267709 3.4547664413308126 0 0 0 0 16.584584400496809 33.225855439496208 0 33.225855439496208 32.219220022220803 0 0 0 0 -6.7732563147001201 10.261522708588018 0 10.261522708588018 32.402819250804896 0 0 0 0 3.822630222500667 30.252490576108528 0 30.252490576108528 28.763751942873654 0 0 0 0 11.573062057886577 30.082300364148178 0 30.082300364148178 -12.643745605604074 0 0 0 0 12.95449894486228 22.991190172453798 0 22.991190172453798 -30.184662007537099 0 0 0 0 14.504799573447144 59.153766292299224 0 59.153766292299224 -47.636461918699752 0 0 0 0 7.0284098969791273 31.348407558659993 0 31.348407558659993 6.8871455404764719 0 0 0 0 145.98084603007374 32.001071882923497 0 32.001071882923497 -40.716253808601323 0 0 0 0 79.702409797995642 18.281210529323289 0 18.281210529323289 -41.78043562793755 0 0 0 0 -541.54361740780587 244.57188342890731 0 244.57188342890731 -391.11568262352375 0 0 0 0 0.91388136732911462 2.0898953583696951 0 2.0898953583696951 -1.0069677257524887 0 0 0 0 240.1931602054774 69.886946970102144 0 69.886946970102144 -128.81921117283127 0 0 0 0 -489.32545239564934 453.05775292025282 0 453.05775292025282 -214.32324245707969 0 0 0 0 40.42281452367024 156.57272892602123 0 156.57272892602123 -313.5496704886591 0 0 0 0 -0.68121873536896516 4.8204912576963039 0 4.8204912576963039 -0.8453297268341089 0 0 0 0 -155.84080196552532 38.445830217115144 0 38.445830217115144 -51.726303450752653 0 0 0 0 42.422808368231927 2.3765951981113176 0 2.3765951981113176 -29.30795200666762 0 0 0 0 59.514132995343971 62.382035603874101 0 62.382035603874101 -122.68733060984232 0 0 0 0 -569.32453203629484 281.42886275211913 0 281.42886275211913 -63.571611025668972 0 0 0 0 -34.234705842580297 153.37346374507251 0 153.37346374507251 -193.64618748059729 0 0 0 0 86.173099109662871 137.88211331877392 0 137.88211331877392 -354.37236873018776 0 0 0 0 180.13514899613801 142.52035122050256 0 142.52035122050256 -203.46031415400648 0 0 0 0 -25.554297421535011 143.10073348960395 0 143.10073348960395 -147.39117313536553 0 0 0 0 38.077431956366127 27.210656357568951 0 27.210656357568951 -11.765221088542603 0 0 0 0 115.08679711910372 15.887258405724424 0 15.887258405724424 -117.53139884175198 0 0 0 0 57.316362955451041 45.212974593261606 0 45.212974593261606 -16.401794373612574 0 0 0 0 57.295361657526882 45.703333274763736 0 45.703333274763736 -5.0949070076312637 0 0 0 0 82.492897729021934 19.345322865221533 0 19.345322865221533 -65.098614246118814 0 0 0 0 78.037330380888307 83.406771729059983 0 83.406771729059983 14.038798186164058 0 0 0 0 72.29765868819959 71.747914239029342 0 71.747914239029342 10.454903800949978 0 0 0 0 74.620096861783168 52.226797442702946 0 52.226797442702946 -25.282965811347822 0 0 0 0 100.02067384399561 78.100450825269945 0 78.100450825269945 -15.361941457806097 0 0 0 0 -13.755581676849488 99.098514009669998 0 99.098514009669998 -192.66705128260946 0 0 0 0 15.917880577267184 10.396073236211407 0 10.396073236211407 6.7060894753139593 0 0 0 0 59.679054784661275 -9.3887392352698953 0 -9.3887392352698953 -5.5630005122693547 0 0 0 0 142.70699048793904 -64.008092808233414 0 -64.008092808233414 1.8427656109820418 0 0 0 0 -39.951220570717851 215.06728335377193 0 215.06728335377193 -129.87027725994994 0 0 0 0 -11.369062640646007 169.45449010964148 0 169.45449010964148 -131.89779348650529 0 0 0 0 -25.980494341894882 146.77135944508973 0 146.77135944508973 -39.710332617061795 0 0 0 0 -24.911418895906536 8.8668825805580127 0 8.8668825805580127 252.42630442595691 0 0 0 0 122.89021330832475 298.4864746776293 0 298.4864746776293 99.525100019980528 0 0 0 0 -51.139144082189887 98.465455498866504 0 98.465455498866504 82.159015659453871 0 0 0 0 -150.87826765208229 94.905527701279425 0 94.905527701279425 86.811083508768206 0 0 0 0 -117.27095899426058 185.77340364125848 0 185.77340364125848 109.64550932711063 0 0 0 0 -148.74266017105379 135.26917960901159 0 135.26917960901159 123.66432012095902 0 0 0 0 695.40131649718751 79.338786747019185 0 79.338786747019185 -190.06932795545436 0 0 0 0 489.23230130910815 -352.7188208718253 0 -352.7188208718253 85.240933753200807 0 0 0 0 189.85734894764755 -59.474614495607966 0 -59.474614495607966 106.91521395149903 0 0 0 0 5.4709577695218456 3.4757025290768553 0 3.4757025290768553 2.3296896603780226 0 0 0 0 244.01044869142606 19.017716699916491 0 19.017716699916491 -186.3803531869853 0 0 0 0 -148.07936971336676 124.77255083078126 0 124.77255083078126 -51.662311329062504 0 0 0 0 -306.60856185779812 408.4406819926844 0 408.4406819926844 158.5896914189434 0 0 0 0 1.4441757124546015 2.9902881284152087 0 2.9902881284152087 -2.0681648383451545 0 0 0 0 -118.44648873083815 173.21747961967094 0 173.21747961967094 -5.2360959622819792 0 0 0 0 -20.678270610609616 -92.048033228813438 0 -92.048033228813438 -4.2938454187387833 0 0 0 0 469.20850093065746 -334.68738881430545 0 -334.68738881430545 -45.063063699288364 0 0 0 0 241.045214791131 547.55379965398788 0 547.55379965398788 -70.878356679073477 0 0 0 0 58.627747961225396 -5.5657711283711251 0 -5.5657711283711251 -24.192811942808476 0 0 0 0 -29.472005790727053 39.068989614401289 0 39.068989614401289 -1.831797419807117 0 0 0 0 -0.63594558289794634 5.4196564708402271 0 5.4196564708402271 -7.5017975272873656 0 0 0 0 14.55614968628106 -3.5057788190133579 0 -3.5057788190133579 -23.535743798609474 0 0 0 0 26.842163260720554 50.048535177025769 0 50.048535177025769 0.054784763680800097 0 0 0 0 61.752230232450529 -18.405381499356736 0 -18.405381499356736 10.305260525998165 0 0 0 0 -22.740707242242934 12.532955370566015 0 12.532955370566015 1.5229407786755473 0 0 0 0 10.50753067759797 98.557651987619465 0 98.557651987619465 148.32861662162031 0 0 0 0 127.01803098092932 167.92070179165967 0 167.92070179165967 84.289823880717449 0 0 0 0 186.54465209837872 213.12858498188507 0 213.12858498188507 108.04346263644766 0 0 0 0 168.03262355819152 0.87786037367322933 0 0.87786037367322933 -42.781310589904024 0 0 0 0 -37.17752422956255 21.92214118893753 0 21.92214118893753 43.78052687622403 0 0 0 0 2.6584037013607684 2.4808505120911377 0 2.4808505120911377 3.500800211280179 0 0 0 0 312.06611967433128 112.59246412958964 0 112.59246412958964 -25.534941261135373 0 0 0 0 -121.86247224576016 141.53018653119904 0 141.53018653119904 512.73474263875687 0 0 0 0 316.32790436793584 286.86534288804978 0 286.86534288804978 96.060812537128186 0 0 0 0 121.71026048867861 242.8030531227796 0 242.8030531227796 402.4531584271972 0 0 0 0 -119.71909441589014 73.494843755075635 0 73.494843755075635 94.464359901168791 0 0 0 0 -39.124559307854497 42.765930473589378 0 42.765930473589378 -9.2747243265548605 0 0 0 0 4.5705142792115083 9.6761343111082994 0 9.6761343111082994 4.5296500962381288 0 0 0 0 38.487555214316671 158.82287066615936 0 158.82287066615936 -38.046485950661008 0 0 0 0 52.951876626854414 -51.203827984394593 0 -51.203827984394593 -110.96723139752066 0 0 0 0 -7.1576686865726771 10.615978466822028 0 10.615978466822028 -6.2843745678300422 0 0 0 0 7.136892269783857 45.50651527109585 0 45.50651527109585 9.2309872282894503 0 0 0 0 5.0756326787914077 11.22433853147777 0 11.22433853147777 88.154683603628655 0 0 0 0 5.0741934561518178 11.313026089312544 0 11.313026089312544 5.6228356383133047 0 0 0 0 -4.2294412927387981 11.450813426506127 0 11.450813426506127 -9.0374020004914541 0 0 0 0 -8.8753779284852499 -5.7984622549647611 0 -5.7984622549647611 -3.3020279468983063 0 0 0 0 -17.101912256588548 76.172586221535312 0 76.172586221535312 -25.968974643932597 0 0 0 0 -107.00648853059101 162.03774255173084 0 162.03774255173084 9.9476909820805304 0 0 0 0 -52.833305807434954 86.601527504216392 0 86.601527504216392 43.910731239990128 0 0 0 0 2.8258718738033934 2.6119526388575309 0 2.6119526388575309 3.6946669282069422 0 0 0 0 389.89285818524513 -7.790433639605908 0 -7.790433639605908 -21.514161671630063 0 0 0 0 -41.086042890585304 23.339859824925952 0 23.339859824925952 660.83174946870713 0 0 0 0 381.08212168839236 234.53530159894945 0 234.53530159894945 23.649873920716345 0 0 0 0 161.88975773266571 187.45499882895786 0 187.45499882895786 66.881513917222037 0 0 0 0 162.01384192253681 134.73783655617808 0 134.73783655617808 1.3859957720414968 0 0 0 0 220.0100793757374 99.797485751083514 0 99.797485751083514 8.432364655775018 0 0 0 0 90.099655229547352 -20.902156790252775 0 -20.902156790252775 -17.404226811362605 0 0 0 0 67.57105999189298 24.614875370160007 0 24.614875370160007 4.9555277143635976 0 0 0 0 59.910770924649114 56.830572817267239 0 56.830572817267239 4.1001825774828831 0 0 0 0 106.93224272609405 105.87868364076348 0 105.87868364076348 48.830877400978352 0 0 0 0 -36.536012685694004 -141.45177446149683 0 -141.45177446149683 -58.930788479221519 0 0 0 0 95.096166903178528 111.15633391631491 0 111.15633391631491 50.265776749165525 0 0 0 0 -4.8409947849241775 4.4561730954631464 0 4.4561730954631464 -4.7974937537721445 0 0 0 0 33.290588570227555 89.677188053999998 0 89.677188053999998 8.1819830972708587 0 0 0 0 46.454623953293776 113.25740710651553 0 113.25740710651553 62.673164879957767 0 0 0 0 70.664273244510696 79.517804658538807 0 79.517804658538807 105.5637285522389 0 0 0 0 35.940253347309408 94.824134208967735 0 94.824134208967735 69.605132973316358 0 0 0 0 74.171677285397891 129.62100906492924 0 129.62100906492924 36.052038140944205 0 0 0 0 76.63170643572812 116.60548469339483 0 116.60548469339483 34.250553165700694 0 0 0 0 61.384825715678744 114.20068241017361 0 114.20068241017361 33.898864786931881 0 0 0 0 61.051718352624448 129.45575998881031 0 129.45575998881031 36.209508011806065 0 0 0 0 -31.607549066386127 149.16632422472685 0 149.16632422472685 185.84492767937991 0 0 0 0 -5.5283010281054885 90.318180426173058 0 90.318180426173058 101.42117162563227 0 0 0 0 -12.973873751761857 19.229303435364272 0 19.229303435364272 21.713407131668646 0 0 0 0 -61.998520849661872 32.852407894255521 0 32.852407894255521 49.978579261703999 0 0 0 0 -9.6347902333751847 9.2325646786886253 0 9.2325646786886253 -5.9538955600947006 0 0 0 0 -2.1560257124874624 13.213652899893532 0 13.213652899893532 4.1160328669793671 0 0 0 0 18.370310560037979 45.50151295429805 0 45.50151295429805 12.296829944451019 0 0 0 0 1.3451309141778651 -0.56886415966889103 0 -0.56886415966889103 -16.554731763825814 0 0 0 0 -11.132611562294187 8.5515163757681876 0 8.5515163757681876 -19.476321684336654 0 0 0 0 -5.2334203203790821 7.7133940741096012 0 7.7133940741096012 -25.236550179995902 0 0 0 0 85.492778981126321 -73.528502425291663 0 -73.528502425291663 -20.787186387169641 0 0 0 0 1.6871891191663906 -0.30835545738002779 0 -0.30835545738002779 -15.02970010470375 0 0 0 0 4.303334148838303 -2.1883937332855936 0 -2.1883937332855936 -5.7764142355763539 0 0 0 0 0.65341990434171748 -35.376606412612091 0 -35.376606412612091 -18.207420582704799 0 0 0 0 -3.2226775444449345 9.788504784179473 0 9.788504784179473 -22.945794374524667 0 0 0 0 11.613170248929237 9.5514742424493306 0 9.5514742424493306 -13.451717322634067 0 0 0 0 -4.7011195076225647 17.744216800960729 0 17.744216800960729 -36.368563266698033 0 0 0 0 -164.75556482683896 -247.49840175066856 0 -247.49840175066856 -114.11143615334004 0 0 0 0 269.9602517038802 106.64470135812735 0 106.64470135812735 -52.951526432632363 0 0 0 0 67.087094341335614 -77.416317411583805 0 -77.416317411583805 -0.70978772843955085 0 0 0 0 78.798450175265316 -90.059500007919269 0 -90.059500007919269 -37.336666792923097 0 0 0 0 7.171097458951408 26.264403944443984 0 26.264403944443984 39.549643359849142 0 0 0 0 -54.051100332442729 16.837152917294588 0 16.837152917294588 153.46810693947191 0 0 0 0 86.210661884957517 -57.43598270964867 0 -57.43598270964867 -3.5768463484114363 0 0 0 0 0.18566604211341797 1.8093630294281127 0 1.8093630294281127 -2.3200607725460287 0 0 0 0 -89.278765288268914 0.013976052272482775 0 0.013976052272482775 201.62779018934816 0 0 0 0 121.77573105727788 -176.29855390655212 0 -176.29855390655212 857.51996103109559 0 0 0 0 -1.2070853168324618 0.22411834603219916 0 0.22411834603219916 -2.2571300665197214 0 0 0 0 164.71962499926303 -13.443702057573319 0 -13.443702057573319 40.834963546680228 0 0 0 0 309.51816902567225 536.87453272351195 0 536.87453272351195 232.35004568633303 0 0 0 0 155.74040960365528 187.69103283442382 0 187.69103283442382 -121.38056979518296 0 0 0 0 152.64538107515546 176.86303748959472 0 176.86303748959472 -159.6348331108311 0 0 0 0 103.06697903712484 144.67259183908754 0 144.67259183908754 -138.97733084928404 0 0 0 0 203.57984830974601 181.23949572030688 0 181.23949572030688 -126.65713510612841 0 0 0 0 157.06942972569232 36.116752568203992 0 36.116752568203992 -211.38269406619656 0 0 0 0 23.459398145096202 183.2723844482498 0 183.2723844482498 -345.78138128011051 0 0 0 0 -37.545148936369515 -60.199034535369719 0 -60.199034535369719 13.893442258617142 0 0 0 0 -52.325145905997488 -108.91816263658984 0 -108.91816263658984 168.07705180868288 0 0 0 0 278.91179298522911 76.701045132020226 0 76.701045132020226 -199.18705266399775 0 0 0 0 -358.23461657235748 33.220560971272789 0 33.220560971272789 -10.963531742829218 0 0 0 0 36.680242353235371 -110.5105561534765 0 -110.5105561534765 -440.63194246924559 0 0 0 0 -1.1835346550791996 2.0069492707547241 0 2.0069492707547241 -2.4014312386121901 0 0 0 0 -323.32997022719792 53.383649193581732 0 53.383649193581732 18.940222122124396 0 0 0 0 52.177838222989521 51.171258639460575 0 51.171258639460575 -159.24613386365309 0 0 0 0 71.127688885295356 11.069046081360284 0 11.069046081360284 -137.04361145110306 0 0 0 0 21.505393100840308 19.608418899603066 0 19.608418899603066 10.022004520362884 0 0 0 0 34.348453040875029 45.471020277214848 0 45.471020277214848 -4.8149926063924795 0 0 0 0 24.081261289946269 71.386810862677521 0 71.386810862677521 -152.43339079088037 0 0 0 0 1.6212888484078576 33.899662117506523 0 33.899662117506523 -127.56465985729665 0 0 0 0 -0.17536298382927384 24.76581308263502 0 24.76581308263502 0.35724460823716697 0 0 0 0 -14.759366985384986 23.338305287565163 0 23.338305287565163 16.154859504182241 0 0 0 0 -51.491391054107226 47.394960609839472 0 47.394960609839472 9.8147840654528409 0 0 0 0 -32.338630735252082 32.908734053742592 0 32.908734053742592 19.097745289029262 0 0 0 0 2.81431506337222 10.431026072013342 0 10.431026072013342 -3.0226503513063676 0 0 0 0 -27.140088190149982 39.313671029736724 0 39.313671029736724 4.8300990208954317 0 0 0 0 -62.736918325274019 124.69986249001886 0 124.69986249001886 -9.5544673040149064 0 0 0 0 19.782863972810446 105.73522008209784 0 105.73522008209784 -5.8511309995119518 0 0 0 0 -37.513093158449919 23.774497868440449 0 23.774497868440449 -41.389788062386287 0 0 0 0 -8.2586220210697192 18.767408868078185 0 18.767408868078185 -44.780112843113457 0 0 0 0 -18.208045165392832 54.2188554505301 0 54.2188554505301 -43.761979999200776 0 0 0 0 127.21204355176451 20.990778374336514 0 20.990778374336514 -121.31593154790608 0 0 0 0 173.59452925211372 91.207137550904008 0 91.207137550904008 -84.022476707752503 0 0 0 0 -120.90121987802559 280.25071377140193 0 280.25071377140193 -189.50833931243142 0 0 0 0 168.46145175639685 -137.26129994380972 0 -137.26129994380972 -406.11429845891325 0 0 0 0 38.474875063151558 34.862082153903884 0 34.862082153903884 -14.231473437088425 0 0 0 0 18.843436054496124 -4.1164154983298431 0 -4.1164154983298431 -19.068672454268381 0 0 0 0 -0.99159093087811812 4.5231014362405944 0 4.5231014362405944 -10.205640755868004 0 0 0 0 -13.691440218113712 25.640065323235831 0 25.640065323235831 -31.13762713801043 0 0 0 0 -14.047760612851562 23.01441935240473 0 23.01441935240473 -16.341553196445602 0 0 0 0 28.81551051396309 24.341169193204223 0 24.341169193204223 -15.729183191153425 0 0 0 0 0.95476220108833609 29.771670760131393 0 29.771670760131393 -20.920453378799749 0 0 0 0 0.41679180978462682 39.18178433913954 0 39.18178433913954 -22.741092392989231 0 0 0 0 90.118367345028673 11.358283068288983 0 11.358283068288983 -33.198209415604651 0 0 0 0 -7.7221252269519027 41.607408693816978 0 41.607408693816978 -18.564333016054661 0 0 0 0 -20.316904302701005 37.058239001393304 0 37.058239001393304 -22.431549592266492 0 0 0 0 -26.31819049542537 40.442299148397979 0 40.442299148397979 -23.498077667394682 0 0 0 0 1.6063344777641602 28.435445111788212 0 28.435445111788212 -24.524866159737478 0 0 0 0 -30.296984851078378 45.678098032394246 0 45.678098032394246 -24.121499388647862 0 0 0 0 -13.578589880939035 47.866755339625342 0 47.866755339625342 -24.034846470120101 0 0 0 0 -47.425531621200207 39.612603044832213 0 39.612603044832213 -25.756678911331619 0 0 0 0 -25.069610734479284 38.738704075079568 0 38.738704075079568 -27.416597970846851 0 0 0 0 -0.25196760101971449 12.770857456451267 0 12.770857456451267 -19.79644746032136 0 0 0 0 24.516759841742896 21.779871732779611 0 21.779871732779611 -27.935815877804998 0 0 0 0 43.551147944828699 9.3777317981875967 0 9.3777317981875967 -30.26083304317126 0 0 0 0 7.2535420478525339 -0.25835974348592572 0 -0.25835974348592572 -28.475554127565374 0 0 0 0 -26.540361851803027 2.0002394780885879 0 2.0002394780885879 -34.230788841792673 0 0 0 0 -5.8561077165795723 15.393105867286067 0 15.393105867286067 -35.531296096181904 0 0 0 0 -7.7684080325487912 10.489246024297717 0 10.489246024297717 -16.799501979320532 0 0 0 0 -59.895461101448745 26.557295538146718 0 26.557295538146718 33.414463484514272 0 0 0 0 158.58857552769769 -288.59237720441888 0 -288.59237720441888 -48.597081625077408 0 0 0 0 -3.0338724647270041 2.6697932067568644 0 2.6697932067568644 -0.4107389548657352 0 0 0 0 2.7861096602282487 0.98691788115866075 0 0.98691788115866075 -31.376929863691657 0 0 0 0 -353.07991005347139 75.390054854211485 0 75.390054854211485 -26.833589752541684 0 0 0 0 5.9928869714349275 28.348826779299998 0 28.348826779299998 -40.361781829558822 0 0 0 0 -10.934733647845562 10.221875188370216 0 10.221875188370216 -9.5837233057845594 0 0 0 0 37.218473160657595 35.926936319193373 0 35.926936319193373 -50.766461133363919 0 0 0 0 13.461326754975744 20.051339197514608 0 20.051339197514608 -16.473027027086573 0 0 0 0 -8.3552500047343159 9.8418538871332597 0 9.8418538871332597 -8.8964403841598738 0 0 0 0 -16.327927858554176 10.377378082455834 0 10.377378082455834 -54.763055262701528 0 0 0 0 -22.86459364205075 38.124554932912361 0 38.124554932912361 -33.495785605380661 0 0 0 0 -9.1459797047627944 28.036682338593891 0 28.036682338593891 8.029754721235804 0 0 0 0 61.511044246039091 103.01376160122709 0 103.01376160122709 -4.6654336317819798 0 0 0 0 0.6268737406139735 1.1516927742273424 0 1.1516927742273424 -2.3141764592763083 0 0 0 0 16.214437412019834 39.054108687206281 0 39.054108687206281 -84.102741801052616 0 0 0 0 46.57959204101644 102.34924838397092 0 102.34924838397092 134.44358622148138 0 0 0 0 19.425591048639035 25.910756066590693 0 25.910756066590693 14.976108977003605 0 0 0 0 89.86211797092983 143.383955156296 0 143.383955156296 33.770309805354827 0 0 0 0 -71.617174617444107 56.966470843948628 0 56.966470843948628 -14.009464314083743 0 0 0 0 -49.363525307173404 38.906830886917305 0 38.906830886917305 -11.810594574191782 0 0 0 0 -21.68508523303899 36.444488646538957 0 36.444488646538957 -11.010145366548386 0 0 0 0 -4.0229515999223722 9.6101266938395185 0 9.6101266938395185 2.789884163719222 0 0 0 0 -3.8589982030114802 3.6858159674525766 0 3.6858159674525766 -0.32458594610014302 0 0 0 0 -47.895304906349338 24.703133545288438 0 24.703133545288438 -6.2380824117790326 0 0 0 0 -8.2915499856240213 22.040784511532976 0 22.040784511532976 -28.875991054340432 0 0 0 0 -24.557586170405557 29.439365366892162 0 29.439365366892162 -18.686469760570617 0 0 0 0 -19.831572334958764 28.590528475542669 0 28.590528475542669 -22.385585535295832 0 0 0 0 -26.973372553426969 16.05437944148418 0 16.05437944148418 -3.904274742607349 0 0 0 0 -23.994049998364062 27.115337079582787 0 27.115337079582787 -6.8807978002951131 0 0 0 0 -28.22730599708801 23.316591843914388 0 23.316591843914388 -11.55330131909863 0 0 0 0 -21.573958562027457 27.186327150348014 0 27.186327150348014 -13.726569486636336 0 0 0 0 -29.996493857914061 25.731296898434728 0 25.731296898434728 -14.435561687593676 0 0 0 0 -50.972170365508646 28.331926700246186 0 28.331926700246186 -27.691860597846244 0 0 0 0 -52.979788906828617 20.787608397058648 0 20.787608397058648 -33.193824046438749 0 0 0 0 -57.856294162056656 49.040067720342449 0 49.040067720342449 -32.922912477912178 0 0 0 0 -38.280125090430374 33.109086855864007 0 33.109086855864007 -64.709537958373403 0 0 0 0 -7.5699243159976959 8.3551893413102079 0 8.3551893413102079 -5.1542195990129187 0 0 0 0 -23.91365360183741 28.383711031466923 0 28.383711031466923 -26.185020680609448 0 0 0 0 -39.902749488035624 42.706880773612738 0 42.706880773612738 -54.238460047099579 0 0 0 0 -47.226183191603923 30.512985857902095 0 30.512985857902095 -45.898794297903805 0 0 0 0 8.5276004754829415 20.30893473788371 0 20.30893473788371 -40.463913724396519 0 0 0 0 38.925271112821065 20.533614078332903 0 20.533614078332903 -37.984530430810992 0 0 0 0 18.192179875875354 29.537633102601831 0 29.537633102601831 -17.371846508554881 0 0 0 0 19.002867263516237 32.889190133962984 0 32.889190133962984 -12.380254173447611 0 0 0 0 -3.9992979204080337 31.756906888068713 0 31.756906888068713 -28.032819706195241 0 0 0 0 -44.29479854194085 40.653113505219778 0 40.653113505219778 -34.289511991970357 0 0 0 0 2.2728841659778993 2.4656340952287898 0 2.4656340952287898 -4.8895121818108009 0 0 0 0 -30.150066025234992 46.8489049444579 0 46.8489049444579 -36.161435597898162 0 0 0 0 -33.719038971747068 50.247311939629071 0 50.247311939629071 -27.213740771994708 0 0 0 0 -15.043766951406724 57.317392930574897 0 57.317392930574897 -33.30012426342546 0 0 0 0 -14.905156387940224 55.639517724675898 0 55.639517724675898 -23.162438455934534 0 0 0 0 4.3890349020948634 59.093109294171882 0 59.093109294171882 -25.69488014482522 0 0 0 0 -20.364641830630717 47.104945100890291 0 47.104945100890291 -25.63780450833292 0 0 0 0 -20.745182988208398 45.388441503226204 0 45.388441503226204 -9.810843690414913 0 0 0 0 -32.897072296909755 39.25528923057027 0 39.25528923057027 -26.834754784981214 0 0 0 0 -34.484825666368124 43.353012203083381 0 43.353012203083381 -37.097562636692601 0 0 0 0 -50.980515150502242 27.990100384963881 0 27.990100384963881 -33.08749292131688 0 0 0 0 -26.216832825114864 18.693736086178319 0 18.693736086178319 -9.7194752430893487 0 0 0 0 -34.336343621289416 32.181909173272288 0 32.181909173272288 -42.091729400744953 0 0 0 0 -31.186086976202205 22.872189730480386 0 22.872189730480386 -17.726364515046953 0 0 0 0 -21.168118875953951 28.07489417949364 0 28.07489417949364 -18.440685180783476 0 0 0 0 -26.311426418510564 14.16402189041893 0 14.16402189041893 -1.0937937980236097 0 0 0 0 -4.874991802029399 -12.467123472235471 0 -12.467123472235471 -74.99799107619765 0 0 0 0 7.4772280435136054 17.373463301026277 0 17.373463301026277 -73.463880899304058 0 0 0 0 -103.49094934291497 54.47299525044582 0 54.47299525044582 3.4535720824205782 0 0 0 0 -75.510897409454628 27.820630005306157 0 27.820630005306157 9.2317257191934914 0 0 0 0 2.6032959560898803 -1.7755130989891441 0 -1.7755130989891441 -3.6943766451742306 0 0 0 0 8.9519360463891644 19.468530808790092 0 19.468530808790092 -17.648911095791163 0 0 0 0 -39.515398381054183 54.045573493195661 0 54.045573493195661 -10.011938722534978 0 0 0 0 -27.960742437470799 25.420787487340018 0 25.420787487340018 -20.613292261402762 0 0 0 0 9.6216282536570361 40.685636199274086 0 40.685636199274086 -28.577908630744787 0 0 0 0 0.022849796689115465 40.474307338768995 0 40.474307338768995 -16.716975825747795 0 0 0 0 2.8833027049794566 12.856522711124526 0 12.856522711124526 -31.224279700903978 0 0 0 0 4.5796323923350428 30.968425030425351 0 30.968425030425351 -34.940108213726489 0 0 0 0 -3.4409349565539742 27.883179064443539 0 27.883179064443539 -31.735700367564277 0 0 0 0 21.745619809516938 44.476046694555407 0 44.476046694555407 -24.968013575533405 0 0 0 0 17.076816437394882 11.765612860731153 0 11.765612860731153 -52.313528342201607 0 0 0 0 -0.30271862183104759 5.1753941014930049 0 5.1753941014930049 -5.3248798708252725 0 0 0 0 57.543110760016134 45.314782913446834 0 45.314782913446834 -7.9051720190657306 0 0 0 0 -3.7661584206891945 6.7063849169928034 0 6.7063849169928034 -3.4040368637281517 0 0 0 0 -36.951425901934272 20.762662354312852 0 20.762662354312852 9.2587818848551251 0 0 0 0 -0.8948512000933988 65.426576155761722 0 65.426576155761722 8.5947680298405942 0 0 0 0 6.5826990528948954 45.926841219728885 0 45.926841219728885 15.70144182590775 0 0 0 0 37.014190246529324 68.015724264734672 0 68.015724264734672 7.5654696599376621 0 0 0 0 8.0577431568899556 51.933733148124702 0 51.933733148124702 -0.44570252071207506 0 0 0 0 8.6202626083031646 41.736503203839675 0 41.736503203839675 -4.4927665065888505 0 0 0 0 10.010781812066853 42.53201432505557 0 42.53201432505557 -16.366607996675157 0 0 0 0 -0.0028379297618812416 48.585251678292479 0 48.585251678292479 -9.7128386823051187 0 0 0 0 25.183402753849805 44.717385195250245 0 44.717385195250245 -14.528072643621272 0 0 0 0 0.35633178034913726 52.007940841274831 0 52.007940841274831 -14.114104181412017 0 0 0 0 2.045937798500745 54.815534571975149 0 54.815534571975149 -31.201687346558174 0 0 0 0 11.102282885229215 49.14862888436619 0 49.14862888436619 -25.656854912978815 0 0 0 0 -1.6173188709071837 50.974577143162605 0 50.974577143162605 -24.347600917837099 0 0 0 0 0.0075319761745049618 53.686323062044721 0 53.686323062044721 -28.564073079811351 0 0 0 0 -1.6920626549326698 52.413424347729233 0 52.413424347729233 -29.49954772762203 0 0 0 0 -6.5446844250982394 57.664042922995122 0 57.664042922995122 -29.322727479395326 0 0 0 0 -18.591174749017227 56.89267970471883 0 56.89267970471883 -27.54984957546958 0 0 0 0 -13.196345897198626 52.281708970884665 0 52.281708970884665 -27.350238300961792 0 0 0 0 -8.9165181117859902 53.822644451767701 0 53.822644451767701 -27.095838647512323 0 0 0 0 -7.6804219858022407 49.853061996328506 0 49.853061996328506 -23.645363933351064 0 0 0 0 -15.230863929424231 48.849289313396639 0 48.849289313396639 -22.637670416299443 0 0 0 0 -4.405377634215256 47.039538280687566 0 47.039538280687566 -23.304375552868805 0 0 0 0 -5.9770727422437631 49.778445340751205 0 49.778445340751205 -25.852747317074318 0 0 0 0 -5.564369954430731 49.246290120573576 0 49.246290120573576 -29.665913850826655 0 0 0 0 -0.0050962217182693699 50.71770060584042 0 50.71770060584042 -29.296393265120059 0 0 0 0 -4.311184917918581 53.27992738845478 0 53.27992738845478 -29.661919441675991 0 0 0 0 -6.2943268738672487 51.692623892683514 0 51.692623892683514 -26.09110130580666 0 0 0 0 -14.506575676023203 43.133469073985907 0 43.133469073985907 -112.30550633692928 0 0 0 0 -7.7775005828916619 24.83579982898209 0 24.83579982898209 -110.71485039465188 0 0 0 0 0.024824713538691867 52.370090933638494 0 52.370090933638494 -107.71597674943405 0 0 0 0 0.50255084235979552 -1.0185867735596048 0 -1.0185867735596048 -0.88939849674978788 0 0 0 0 -20.395630793253076 21.169527420606755 0 21.169527420606755 -58.079391425322683 0 0 0 0 44.589011363263126 41.768113103531505 0 41.768113103531505 -84.268401989942504 0 0 0 0 0.47768697614384337 -1.0039264842193631 0 -1.0039264842193631 -0.69807050271351656 0 0 0 0 -20.353567581572861 17.999876632711675 0 17.999876632711675 -67.42731222904149 0 0 0 0 132.23903582949424 171.22714708968488 0 171.22714708968488 13.541426141593547 0 0 0 0 71.007884846662819 131.09370269417104 0 131.09370269417104 32.616397808804322 0 0 0 0 81.284702697506873 117.60323500900995 0 117.60323500900995 -15.678329496186052 0 0 0 0 56.388196818210417 46.580069048697624 0 46.580069048697624 -62.081717428989577 0 0 0 0 57.626588332022948 50.388970815854009 0 50.388970815854009 -37.663469458206237 0 0 0 0 78.417704571664217 76.030093078750724 0 76.030093078750724 -159.29380096718523 0 0 0 0 43.360361616279988 70.21349091063712 0 70.21349091063712 -90.650934371598851 0 0 0 0 28.749444958248205 28.172853221328296 0 28.172853221328296 -109.33177511979738 0 0 0 0 -48.099231516040163 68.801700907850318 0 68.801700907850318 -130.61757993977153 0 0 0 0 40.648034007062961 -64.392442212758397 0 -64.392442212758397 -80.0930194769644 0 0 0 0 1.0691733198127622 3.144402860782975 0 3.144402860782975 -217.86415436817333 0 0 0 0 7.4366592263357632 -4.2241754647803305 0 -4.2241754647803305 0.91740161034617529 0 0 0 0 61.019370670204808 55.674242090153712 0 55.674242090153712 -210.22445281908585 0 0 0 0 87.21030362311285 65.06191586890418 0 65.06191586890418 -149.70042924021982 0 0 0 0 63.742381066207599 43.591758812959597 0 43.591758812959597 -160.50784645032343 0 0 0 0 3.2560730389886885 68.350356070563976 0 68.350356070563976 -163.0938453255003 0 0 0 0 5.4636005563206709 55.198993862843054 0 55.198993862843054 -99.637443472027371 0 0 0 0 1.5970862234535161 50.331656381918947 0 50.331656381918947 -104.73780335657648 0 0 0 0 47.779530082528311 -8.5461894051946956 0 -8.5461894051946956 -24.483571852508987 0 0 0 0 10.850362936813326 46.276301789126592 0 46.276301789126592 -102.97293873260787 0 0 0 0 -12.015679208790971 58.821668479193249 0 58.821668479193249 -120.35577237797406 0 0 0 0 28.774082063191599 11.397612656142883 0 11.397612656142883 -75.555746501260728 0 0 0 0 31.055431654495344 -2.6383485182786899 0 -2.6383485182786899 -40.746241647379364 0 0 0 0 4.2928848598582761 6.7000706234999967 0 6.7000706234999967 -6.5145321960224152 0 0 0 0 25.314640919095837 24.732305304987676 0 24.732305304987676 -61.770391579571879 0 0 0 0 -44.935635647841991 114.89409046664332 0 114.89409046664332 -209.57245873066131 0 0 0 0 -6.9120856157460366 60.391512698466613 0 60.391512698466613 -151.58934740200982 0 0 0 0 2.7086876987013966 31.526917500601485 0 31.526917500601485 -153.35109055467547 0 0 0 0 -0.02597133689414477 48.920726323543931 0 48.920726323543931 -132.98527447697779 0 0 0 0 2.5792507261772073 0.52863877971712725 0 0.52863877971712725 -0.57653062783079179 0 0 0 0 0.26570310873272268 42.182458409890515 0 42.182458409890515 -72.751069238649507 0 0 0 0 18.301779900539259 -70.155229512864025 0 -70.155229512864025 -196.18632208130202 0 0 0 0 -35.340220771395252 63.128203412372386 0 63.128203412372386 70.487568778553396 0 0 0 0 4.1936812325831445 788.25009234004801 0 788.25009234004801 -496.15502725710394 0 0 0 0 2.8170231032028283 -0.99811644055272808 0 -0.99811644055272808 -6.5839774617199396 0 0 0 0 -1.760256538655085 48.747427948668701 0 48.747427948668701 -57.041454908656306 0 0 0 0 14.181683672381041 -38.609293028881439 0 -38.609293028881439 -62.448601843527172 0 0 0 0 17.217202401872385 8.8265095665071982 0 8.8265095665071982 -47.492319705573848 0 0 0 0 3.5182395890115004 33.420244667167935 0 33.420244667167935 -77.51086989108444 0 0 0 0 -15.272653068772343 48.44440873237545 0 48.44440873237545 -74.101036676896911 0 0 0 0 11.603955713755568 43.781477783966693 0 43.781477783966693 -77.015597283062334 0 0 0 0 -37.857185940796626 48.226496600767859 0 48.226496600767859 -31.288171243031684 0 0 0 0 0.0002623292530188337 6.7303816742005438 0 6.7303816742005438 -14.097529082671826 0 0 0 0 5.4632526082568802 -17.654812073087669 0 -17.654812073087669 -0.83913020911859348 0 0 0 0 1.8981110440575861 -0.97896339401330223 0 -0.97896339401330223 -3.8931445035088785 0 0 0 0 -8.1999001475924302 22.609770425340017 0 22.609770425340017 -33.147037198874557 0 0 0 0 -5.6797738622131391 22.124132967316644 0 22.124132967316644 -36.652907423268545 0 0 0 0 0.51565391887947953 12.464313649656663 0 12.464313649656663 -29.156250490612592 0 0 0 0 21.446796422220359 11.462110961254439 0 11.462110961254439 -11.222674347831344 0 0 0 0 -1.7415353984575006 4.1888941764745198 0 4.1888941764745198 -4.767345453412517 0 0 0 0 -22.694133892189711 42.724690676661339 0 42.724690676661339 -34.976883954801451 0 0 0 0 -8.3659287212794879 43.188093703496634 0 43.188093703496634 -35.744024864642597 0 0 0 0 -15.058399494002927 19.735385566888585 0 19.735385566888585 -26.142014945176271 0 0 0 0 -33.038521234870132 51.001965750274394 0 51.001965750274394 -32.647644864124231 0 0 0 0 -21.437774030382528 21.518571869260018 0 21.518571869260018 -17.44020056890875 0 0 0 0 11.34880993450497 31.542145180777879 0 31.542145180777879 -13.055406470492017 0 0 0 0 -14.75263525599803 33.422109129691307 0 33.422109129691307 -25.103045814637881 0 0 0 0 -0.64369486850773683 28.979465045664256 0 28.979465045664256 -25.752137896016166 0 0 0 0 -5.8596729868586408 21.438970587801123 0 21.438970587801123 -35.678916815726552 0 0 0 0 5.6935979483932897 29.796816032327115 0 29.796816032327115 -35.824823904567893 0 0 0 0 -7.8070698300559371 18.915532881369039 0 18.915532881369039 -28.654659149392373 0 0 0 0 12.169588778102479 33.473418628433137 0 33.473418628433137 -15.331514163219254 0 0 0 0 -0.051063559487374732 36.574819499535806 0 36.574819499535806 -30.918416323598649 0 0 0 0 -3.6396492727253644 33.782709548961066 0 33.782709548961066 -30.954631979155238 0 0 0 0 -29.248264438057959 36.142977409523155 0 36.142977409523155 -10.042553597464746 0 0 0 0 -0.959474109182338 41.028803496235923 0 41.028803496235923 -25.235702448189841 0 0 0 0 -26.253397886946914 46.181589883643028 0 46.181589883643028 -18.90004133322509 0 0 0 0 -16.452764170186128 49.898329204257607 0 49.898329204257607 -4.5721620001168048 0 0 0 0 -19.538375127640322 22.711779333548414 0 22.711779333548414 -24.508047323810345 0 0 0 0 -1.2503692890641105 37.15894558481159 0 37.15894558481159 -17.44672942507168 0 0 0 0 -17.725761967966676 19.997533891378438 0 19.997533891378438 -9.378978887893382 0 0 0 0 -5.5968233829807588 5.5145386059755879 0 5.5145386059755879 -3.3827711637778464 0 0 0 0 -30.714768480584098 47.795589838098749 0 47.795589838098749 -35.36878483959299 0 0 0 0 29.99045374882553 23.236067023056421 0 23.236067023056421 -25.73085407706094 0 0 0 0 -9.7514627259079134 29.110614838004039 0 29.110614838004039 -26.637198496006022 0 0 0 0 1.4340738626087841 43.123045233814992 0 43.123045233814992 -16.116010624813498 0 0 0 0 84.640078797649039 -6.1733643462248438 0 -6.1733643462248438 -33.226789992500017 0 0 0 0 2.0497283279801195 62.570434474982903 0 62.570434474982903 -76.317783036531182 0 0 0 0 0.16324905186030136 -0.24118370224469743 0 -0.24118370224469743 -0.15067788792887882 0 0 0 0 -123.37550517499039 102.31058580253011 0 102.31058580253011 -69.094244498744956 0 0 0 0 -36.321337408378895 44.22134002902294 0 44.22134002902294 -36.017734547043801 0 0 0 0 -1.1497390850054217 59.789788771133317 0 59.789788771133317 -110.52157822731169 0 0 0 0 -12.105389860416835 45.245950708812416 0 45.245950708812416 -88.57300791497255 0 0 0 0 -18.433252389142581 63.331391919349699 0 63.331391919349699 -101.65496169829839 0 0 0 0 -18.617386660589545 72.497125961763231 0 72.497125961763231 -75.619822010019561 0 0 0 0 -33.726769461954973 59.283968464551435 0 59.283968464551435 -59.293812017443997 0 0 0 0 -10.93553265014998 61.813213732739314 0 61.813213732739314 -84.20931398007815 0 0 0 0 28.484508520006784 135.42366745275103 0 135.42366745275103 2.8435781360167312 0 0 0 0 -38.404214952573966 66.40583530355434 0 66.40583530355434 -48.102871401860284 0 0 0 0 -158.72465909307721 87.86200132916747 0 87.86200132916747 -8.8375665897947329 0 0 0 0 -6.6846565558153088 31.818434079639246 0 31.818434079639246 -36.798680073399737 0 0 0 0 -52.235666305892664 41.725691395473405 0 41.725691395473405 -19.918117633817019 0 0 0 0 -22.382029358983345 49.007529631780926 0 49.007529631780926 -35.9280320523103 0 0 0 0 -62.436727458843961 56.507797203255905 0 56.507797203255905 -22.165361387953453 0 0 0 0 -116.35691681376193 82.347188599938818 0 82.347188599938818 -30.905325578242355 0 0 0 0 -52.627606196186434 49.231425979980372 0 49.231425979980372 -35.742244844848756 0 0 0 0 -80.023704086568614 35.711400825166493 0 35.711400825166493 -16.159879573075159 0 0 0 0 2.4343958146831994 2.8508173948680735 0 2.8508173948680735 3.1912174837911209 0 0 0 0 180.78336656989268 29.414053360980688 0 29.414053360980688 -11.184431352536194 0 0 0 0 -13.930147301685793 26.32747877273323 0 26.32747877273323 -0.61732604479766451 0 0 0 0 -53.918854910880327 43.120029377892934 0 43.120029377892934 -28.043974868145597 0 0 0 0 -50.467182388558285 52.200105305593752 0 52.200105305593752 -15.912040795534267 0 0 0 0 -30.317377956813289 39.160012400841879 0 39.160012400841879 -23.098845357671962 0 0 0 0 109.46882684589218 138.62815147834772 0 138.62815147834772 32.873540341992339 0 0 0 0 37.24010107875074 237.27237833602521 0 237.27237833602521 -75.789402641472407 0 0 0 0 160.52094916710485 88.824391558464413 0 88.824391558464413 -56.64635069740325 0 0 0 0 104.77023109126458 122.60574636192541 0 122.60574636192541 -19.95081212916557 0 0 0 0 83.090992811987235 117.40738015494571 0 117.40738015494571 29.568241800142459 0 0 0 0 181.92348631150526 56.007291382640688 0 56.007291382640688 -18.218510996637633 0 0 0 0 202.49391909512542 100.42694478194016 0 100.42694478194016 -186.56142461034324 0 0 0 0 -34.869567394558544 31.342791983028292 0 31.342791983028292 8.653167999949801 0 0 0 0 159.49756277404958 135.95424370503861 0 135.95424370503861 17.216567330597172 0 0 0 0 462.19685272729112 -31.616559399051766 0 -31.616559399051766 -78.837001261725163 0 0 0 0 1.1179162590814755 1.540987092993177 0 1.540987092993177 0.56688752667838571 0 0 0 0 208.86204000389625 72.400116890441495 0 72.400116890441495 -101.83573466675443 0 0 0 0 181.73468953226256 81.644506730983267 0 81.644506730983267 -78.4717184522342 0 0 0 0 157.43263510259385 27.181803499533999 0 27.181803499533999 1.252177823214879 0 0 0 0 198.99523722258164 49.084583374296926 0 49.084583374296926 -142.92761950862405 0 0 0 0 330.70928532543985 112.48486441155001 0 112.48486441155001 -217.51032625348307 0 0 0 0 329.28514605764212 101.23109395019492 0 101.23109395019492 -171.03912294397742 0 0 0 0 -138.02848266662477 107.52029756442789 0 107.52029756442789 -150.37941545396643 0 0 0 0 228.75809562328504 16.064232085227559 0 16.064232085227559 -222.13533959611414 0 0 0 0 101.64841962341961 62.677654738761703 0 62.677654738761703 -138.38839971895504 0 0 0 0 223.19113935284986 -23.266060091780673 0 -23.266060091780673 -227.5235604743948 0 0 0 0 73.41956827631293 21.077216891135322 0 21.077216891135322 -188.98729617668141 0 0 0 0 70.954891207633409 74.105194813724665 0 74.105194813724665 -97.791579505181289 0 0 0 0 198.84125034067984 46.406803643520107 0 46.406803643520107 -152.13479888245638 0 0 0 0 67.13103027168836 64.455922726931021 0 64.455922726931021 -121.59545618291304 0 0 0 0 -4.9955754460315802 115.01612136539916 0 115.01612136539916 -56.322130970562284 0 0 0 0 -19.583247080518049 85.823505797208782 0 85.823505797208782 -92.18293817706035 0 0 0 0 -12.48880192627621 80.54829851071554 0 80.54829851071554 -134.21567497221258 0 0 0 0 54.080796397348166 -11.506282740138715 0 -11.506282740138715 -17.497804274004046 0 0 0 0 -24.271947617955448 103.65708459664893 0 103.65708459664893 -138.06586021699331 0 0 0 0 1.3100732493112446 113.56777040156157 0 113.56777040156157 -195.263186023245 0 0 0 0 12.624461770174094 78.153835793764301 0 78.153835793764301 -229.79649569143658 0 0 0 0 -15.483913332784141 180.98890871158073 0 180.98890871158073 -292.50222076130012 0 0 0 0 -14.994677471877367 103.24124099597248 0 103.24124099597248 -124.81022697077969 0 0 0 0 -16.589721488235455 156.92648034852118 0 156.92648034852118 -398.7406829786778 0 0 0 0 -23.123275387177131 34.207218073025587 0 34.207218073025587 -35.501276901641518 0 0 0 0 55.028512953649454 -7.6230692170721852 0 -7.6230692170721852 -20.487460603120482 0 0 0 0 47.464622088671604 102.81416720168272 0 102.81416720168272 -59.772842536276585 0 0 0 0 -19.553891224561085 -24.158087737632741 0 -24.158087737632741 37.365210274721903 0 0 0 0 -22.218920298669218 18.288542304768953 0 18.288542304768953 -138.58987416396849 0 0 0 0 64.074919865408447 28.957616134583077 0 28.957616134583077 -128.88326284915183 0 0 0 0 -23.081128905493586 25.565248900789811 0 25.565248900789811 -27.964349669395176 0 0 0 0 28.227689408355218 91.247108826622934 0 91.247108826622934 54.161297177852248 0 0 0 0 27.508086380177701 103.30225763503768 0 103.30225763503768 7.7872266317235699 0 0 0 0 93.846345446887426 206.35367193009733 0 206.35367193009733 179.63061362048029 0 0 0 0 194.22885591193699 176.93173745915556 0 176.93173745915556 54.985670803645917 0 0 0 0 50.818064317369135 124.50190011444647 0 124.50190011444647 116.59979918948011 0 0 0 0 134.8402293734398 294.69457841337862 0 294.69457841337862 355.97189592210998 0 0 0 0 262.74794461046258 274.37251930517959 0 274.37251930517959 169.34431772641256 0 0 0 0 318.28971124555392 321.80165629553085 0 321.80165629553085 178.44497863933793 0 0 0 0 543.03003986361728 111.47900896738065 0 111.47900896738065 -25.384120444858127 0 0 0 0 1104.1236161702072 158.62360600310967 0 158.62360600310967 -35.061470219385228 0 0 0 0 530.53366233640554 512.46246917109966 0 512.46246917109966 366.84859528479865 0 0 0 0 509.60272685092423 -19.159382559613732 0 -19.159382559613732 -217.35699991004367 0 0 0 0 478.49189246774262 189.94833340272186 0 189.94833340272186 -176.93228005154378 0 0 0 0 922.25287773356104 280.00658486196699 0 280.00658486196699 -240.31554219606187 0 0 0 0 475.72646233775112 -66.545609993543849 0 -66.545609993543849 -268.73455551483494 0 0 0 0 121.03599115245743 246.1918198226158 0 246.1918198226158 446.3534075027037 0 0 0 0 14.319697776696557 -99.691714169035549 0 -99.691714169035549 -144.30031417700229 0 0 0 0 6.3472183644505691 4.7959161381673709 0 4.7959161381673709 -1.2980479663850915 0 0 0 0 196.08970157275326 -102.80919134295254 0 -102.80919134295254 -202.43340655634529 0 0 0 0 9.0055589831516301 19.052860622564282 0 19.052860622564282 -15.547189350959087 0 0 0 0 -57.766416927806858 79.121970064428751 0 79.121970064428751 298.8093019794087 0 0 0 0 -96.908511048866785 -27.685332563487464 0 -27.685332563487464 211.81993010678707 0 0 0 0 14.802873076194373 331.28316230972268 0 331.28316230972268 70.082038911670679 0 0 0 0 141.48412678166278 362.47730199283251 0 362.47730199283251 -39.970119874986267 0 0 0 0 511.66140599303617 569.81939259840874 0 569.81939259840874 350.54407007791451 0 0 0 0 490.15310167153802 479.86474413737596 0 479.86474413737596 -19.640645949541067 0 0 0 0 326.84923588558013 111.80458504783019 0 111.80458504783019 149.5535403917529 0 0 0 0 -44.060936742644117 389.43062521284446 0 389.43062521284446 32.061058609113388 0 0 0 0 332.18904402901535 168.70559197304829 0 168.70559197304829 567.29199495763169 0 0 0 0 -1.4877913651202022 0.39227366165803801 0 0.39227366165803801 0.39634581875181141 0 0 0 0 -39.613983633582393 323.71439497995016 0 323.71439497995016 -460.45355379965622 0 0 0 0 -44.009925910157108 361.20084107944331 0 361.20084107944331 -329.51890941738384 0 0 0 0 -254.63886136273504 46.712570072588278 0 46.712570072588278 -405.5783211930393 0 0 0 0 -76.135323258742574 81.600848516456608 0 81.600848516456608 86.821930494385015 0 0 0 0 -312.55747517097552 239.23339634550393 0 239.23339634550393 58.814764338756504 0 0 0 0 -87.253477538455627 185.13003236382792 0 185.13003236382792 -256.3509521339729 0 0 0 0 -4.259799742479629 1.5755352139936036 0 1.5755352139936036 2.1285391817178407 0 0 0 0 -318.35880106502009 214.33145865632468 0 214.33145865632468 212.8886594571668 0 0 0 0 -213.35308097237157 260.83073457543924 0 260.83073457543924 -183.92659734957124 0 0 0 0 -310.87085127594037 87.037213305397017 0 87.037213305397017 66.208651369470317 0 0 0 0 -180.07431281756726 192.97824169149681 0 192.97824169149681 139.10286612214259 0 0 0 0 -179.15340005829057 162.59803930455382 0 162.59803930455382 98.421927919916925 0 0 0 0 -84.15929224640422 163.30898639578118 0 163.30898639578118 -178.76908400607499 0 0 0 0 -78.015293457854568 350.72378622331416 0 350.72378622331416 -43.608742073716712 0 0 0 0 -1.164554006663721 1.4977027273618759 0 1.4977027273618759 -2.7286081788113279 0 0 0 0 27.59107579958436 45.980661378973309 0 45.980661378973309 -118.06352599238016 0 0 0 0 -143.37156136926751 169.55291673563852 0 169.55291673563852 93.462823310728709 0 0 0 0 -7.8243580315356667 267.26050524937818 0 267.26050524937818 45.75799634661962 0 0 0 0 165.64253410987294 260.03992140315677 0 260.03992140315677 -44.454661663221486 0 0 0 0 32.141316915332027 346.41983340350635 0 346.41983340350635 -29.442776285002765 0 0 0 0 136.58208072713387 300.65652781964673 0 300.65652781964673 -39.184639213934133 0 0 0 0 414.03791781865039 279.34811041091507 0 279.34811041091507 -118.95681357387366 0 0 0 0 152.8014105481052 227.52345646392496 0 227.52345646392496 -116.44127380818463 0 0 0 0 108.70877787844438 179.53116719960235 0 179.53116719960235 -66.559160515285839 0 0 0 0 118.41022171335862 201.35929736489197 0 201.35929736489197 -27.149168030947294 0 0 0 0 32.57990580294063 207.58679215351731 0 207.58679215351731 28.840552336452674 0 0 0 0 -37.259700371399958 178.05451487426944 0 178.05451487426944 29.267274682679272 0 0 0 0 -23.893050545349979 202.24232809505702 0 202.24232809505702 -20.941142818577646 0 0 0 0 -28.295126768822229 1.8374833460657101 0 1.8374833460657101 -253.73917330643599 0 0 0 0 -1.8588865616630699 1.4821319939190154 0 1.4821319939190154 -0.9578686063759676 0 0 0 0 17.429797550165858 168.50847925591711 0 168.50847925591711 120.60996064311985 0 0 0 0 31.421752559908782 43.339125439948475 0 43.339125439948475 110.86337929293222 0 0 0 0 22.908263269608142 95.886839222155686 0 95.886839222155686 4.4352905993455352 0 0 0 0 41.603686748079781 119.97780303198124 0 119.97780303198124 -19.01068750486229 0 0 0 0 -44.867095741361027 82.876119485755225 0 82.876119485755225 79.978689595132892 0 0 0 0 84.948616642232082 222.00736762654196 0 222.00736762654196 171.90811479557487 0 0 0 0 171.92027273089479 205.63980551680652 0 205.63980551680652 37.89565418157872 0 0 0 0 251.63451382604762 165.24819573399873 0 165.24819573399873 45.720731815337786 0 0 0 0 8.2552959031163482 236.60984237618322 0 236.60984237618322 59.423354446693338 0 0 0 0 14.926273013465106 235.913610796586 0 235.913610796586 51.254108997147796 0 0 0 0 34.970854322012201 243.59593008156935 0 243.59593008156935 39.941597973425814 0 0 0 0 51.102996316223653 162.46786728238658 0 162.46786728238658 84.41098138687812 0 0 0 0 151.86518100839749 118.90793547060093 0 118.90793547060093 73.115387763529725 0 0 0 0 194.75303811582853 163.48536285988303 0 163.48536285988303 24.939089268424141 0 0 0 0 201.13125140964257 138.44005414083949 0 138.44005414083949 38.389293211555923 0 0 0 0 1.191295778427957 42.994864033698832 0 42.994864033698832 7.8780809393210802 0 0 0 0 -1.1950619580256898 5.6535436423113481 0 5.6535436423113481 -5.4993848607666251 0 0 0 0 0.45975242475621059 0.98635170092765634 0 0.98635170092765634 1.2146915781087841 0 0 0 0 -256.10984535886382 269.17689286242603 0 269.17689286242603 -62.149882469369913 0 0 0 0 -0.33233761984494592 6.15004426943662 0 6.15004426943662 11.381549670225667 0 0 0 0 -200.92437967617298 80.087927333501284 0 80.087927333501284 197.51365140273265 0 0 0 0 -136.67172960286189 93.613427243019032 0 93.613427243019032 318.09851242491277 0 0 0 0 -0.53841504418578268 4.4547531819844224 0 4.4547531819844224 -0.94379645705494397 0 0 0 0 -386.58368220750708 -160.45254025976828 0 -160.45254025976828 -34.98600102450655 0 0 0 0 0.30228641990106553 18.597434805035846 0 18.597434805035846 -98.507409243436996 0 0 0 0 4.3220920023450162 45.892891418108775 0 45.892891418108775 -200.94609339196177 0 0 0 0 -0.76305420779701194 4.5096712539717814 0 4.5096712539717814 8.6614810538821132 0 0 0 0 232.86928171950422 144.43976244054284 0 144.43976244054284 30.054639370146106 0 0 0 0 223.85915853107872 119.44238868483444 0 119.44238868483444 51.740006126950902 0 0 0 0 369.35265064789564 121.72898965427885 0 121.72898965427885 32.458418684509525 0 0 0 0 798.01748876486818 265.72645225282031 0 265.72645225282031 72.427569197399862 0 0 0 0 244.12605024309414 155.36600837899005 0 155.36600837899005 52.3710629123525 0 0 0 0 0.31268861102150147 0.50754075150371136 0 0.50754075150371136 3.1895840472469672 0 0 0 0 -281.60761995070061 319.90320201458599 0 319.90320201458599 182.89978478285047 0 0 0 0 -148.53983463586701 106.95187935933427 0 106.95187935933427 139.19288523853902 0 0 0 0 -108.48255129651807 166.30990905388899 0 166.30990905388899 -148.54428923400337 0 0 0 0 -317.25930128370965 222.85385953764126 0 222.85385953764126 478.73205095076264 0 0 0 0 243.44163609932366 400.08561964811452 0 400.08561964811452 388.06785353806481 0 0 0 0 162.03505590486748 -72.882661455518246 0 -72.882661455518246 160.42153927902837 0 0 0 0 147.67177039127637 270.00829723844072 0 270.00829723844072 379.06005135846499 0 0 0 0 31.775680621358333 -72.619287228972098 0 -72.619287228972098 381.32582673463912 0 0 0 0 288.05125470252824 -80.597593324018817 0 -80.597593324018817 75.965184850568221 0 0 0 0 287.15126424071786 333.08473527117167 0 333.08473527117167 287.44364380872139 0 0 0 0 -155.7387236649738 121.62778504318703 0 121.62778504318703 192.46389174434808 0 0 0 0 80.285109156457111 151.86812773317433 0 151.86812773317433 -53.776828637819563 0 0 0 0 -292.38377437912459 -56.75026531047439 0 -56.75026531047439 -39.475053056055913 0 0 0 0 -50.295550198163255 344.4358141887933 0 344.4358141887933 -333.37303826144125 0 0 0 0 1.6711252761787705 -0.083416626302735608 0 -0.083416626302735608 -0.15149399907743444 0 0 0 0 263.87356155148154 78.099519311894255 0 78.099519311894255 -117.74224425261491 0 0 0 0 20.873544416055665 47.918813181971927 0 47.918813181971927 55.939190864862212 0 0 0 0 -54.076402565548051 -31.892513926906759 0 -31.892513926906759 -77.174777096166508 0 0 0 0 -7.8429592484608293 38.343814354906499 0 38.343814354906499 -194.05578594718463 0 0 0 0 -39.083776636398397 79.941897505435918 0 79.941897505435918 -67.746978717084403 0 0 0 0 -68.028028440472553 70.228166490222065 0 70.228166490222065 31.214561081345892 0 0 0 0 -164.65926326409681 95.071048401936423 0 95.071048401936423 -58.453847151686205 0 0 0 0 -448.53359509761867 232.41760849784623 0 232.41760849784623 200.1852437647467 0 0 0 0 -48.299759966525016 138.20612656703452 0 138.20612656703452 -126.73959100827778 0 0 0 0 -95.22888133880042 105.73195475284592 0 105.73195475284592 37.310902748264198 0 0 0 0 -47.945595584855255 56.469356210812293 0 56.469356210812293 -77.681060970295221 0 0 0 0 -57.912067545708851 60.600577183933638 0 60.600577183933638 -50.714659967212356 0 0 0 0 -85.047663066805399 95.123810168472119 0 95.123810168472119 8.594063757074764 0 0 0 0 -0.067413290620606858 -136.23584905466123 0 -136.23584905466123 213.88691364132501 0 0 0 0 35.145148152820184 -52.391641551061184 0 -52.391641551061184 101.18350416795147 0 0 0 0 -95.145140860211541 39.305627686484513 0 39.305627686484513 241.75483665912179 0 0 0 0 -48.081756733598013 59.777117940815515 0 59.777117940815515 28.232625007617571 0 0 0 0 -47.537339767597587 26.460361923262099 0 26.460361923262099 102.29812312986905 0 0 0 0 -35.417765860478539 49.828369404390287 0 49.828369404390287 19.471812966563448 0 0 0 0 16.050921015397762 70.596440088997042 0 70.596440088997042 22.990185725531774 0 0 0 0 -11.470948023755227 6.6683888410243526 0 6.6683888410243526 28.865717554028379 0 0 0 0 -9.3777737429254557 5.6228805263872346 0 5.6228805263872346 2.2082959279650822 0 0 0 0 -19.792264631083526 -7.4495450763315603 0 -7.4495450763315603 -1.4842715180070627 0 0 0 0 -215.07270646640973 235.36480248090083 0 235.36480248090083 -21.706749913544627 0 0 0 0 -0.14445928668591534 1.5335048567195599 0 1.5335048567195599 4.1411188666023122 0 0 0 0 -0.30087022906445782 8.2250290812917228 0 8.2250290812917228 28.722781926706375 0 0 0 0 1.1518179310629915 3.8579334370420213 0 3.8579334370420213 5.4893154639433135 0 0 0 0 107.94984517617195 17.203796098445309 0 17.203796098445309 -178.02672531721964 0 0 0 0 7.1602109581472178 -14.141819412259792 0 -14.141819412259792 15.336292041408342 0 0 0 0 -29.351260687351896 34.837862940514242 0 34.837862940514242 -50.108432329616335 0 0 0 0 0.76693956410732156 2.49010468007301 0 2.49010468007301 2.046693289448001 0 0 0 0 -148.10461840240532 131.49653249830226 0 131.49653249830226 19.203676447577891 0 0 0 0 322.41157262087563 36.842421590079539 0 36.842421590079539 -166.51905741038354 0 0 0 0 -29.981022241237952 59.168596580126177 0 59.168596580126177 36.363466689545021 0 0 0 0 -27.804711260348995 85.941996203393501 0 85.941996203393501 -46.365268540780562 0 0 0 0 -39.688754227932804 -196.87248882654239 0 -196.87248882654239 451.43631139957688 0 0 0 0 51.200843308801268 41.918487882845511 0 41.918487882845511 49.087910304653633 0 0 0 0 -83.199684574537969 -49.195067077293061 0 -49.195067077293061 -1.7991596452866361 0 0 0 0 -323.62023495785252 6.7233645001360856 0 6.7233645001360856 210.30592129746219 0 0 0 0 0.16833829056739447 0.36721014333518553 0 0.36721014333518553 0.7642173702370485 0 0 0 0 23.804252622234344 13.354182360289997 0 13.354182360289997 -276.90010451908165 0 0 0 0 412.17480873455497 -35.600667769056599 0 -35.600667769056599 -84.5472392365009 0 0 0 0 10.412837610991119 26.243288616024074 0 26.243288616024074 112.15627051836782 0 0 0 0 -115.02024174728285 -5.018718928706221 0 -5.018718928706221 60.661861890364889 0 0 0 0 -175.36954142652758 251.41653226949347 0 251.41653226949347 -352.81540630178642 0 0 0 0 -393.77904844857403 159.32618331804406 0 159.32618331804406 31.627074281923342 0 0 0 0 -385.63922474577703 71.943140476148983 0 71.943140476148983 -10.725460230678436 0 0 0 0 -2.1694261584610217 2.000668621261994 0 2.000668621261994 4.000470168958941 0 0 0 0 -341.61068978876756 197.43072970275443 0 197.43072970275443 29.75199922916363 0 0 0 0 -11.859297972205241 9.6758186505248887 0 9.6758186505248887 2.6970659133262416 0 0 0 0 -1.2183515809528558 0.4552219078261075 0 0.4552219078261075 0.12286156009469096 0 0 0 0 -2.5235138503267081 -31.797891877809889 0 -31.797891877809889 133.3423641450554 0 0 0 0 -14.071736133864761 -66.706372900483984 0 -66.706372900483984 95.175577843738665 0 0 0 0 -17.392159288186846 3.2689337140189139 0 3.2689337140189139 8.672042633980567 0 0 0 0 -46.372074743663688 -78.475049033208052 0 -78.475049033208052 150.70863865437695 0 0 0 0 -77.685450758506704 -59.40270466470156 0 -59.40270466470156 156.71107850552653 0 0 0 0 -102.2323690995172 19.974497030676503 0 19.974497030676503 84.504674416944908 0 0 0 0 -125.29242407291895 -1.8589922818864579 0 -1.8589922818864579 63.970539242756786 0 0 0 0 -224.10869386754348 142.23822400804238 0 142.23822400804238 27.881945276290935 0 0 0 0 -8.6933722661124193 58.931521081263782 0 58.931521081263782 67.297284542299167 0 0 0 0 -8.7352151892478105 57.753423051537311 0 57.753423051537311 222.6019083594656 0 0 0 0 55.536483593765297 -95.571433825040003 0 -95.571433825040003 188.76322618661652 0 0 0 0 -194.31008658453356 97.486579960299423 0 97.486579960299423 261.31017827539472 0 0 0 0 -11.464591360458854 3.1638520519020972 0 3.1638520519020972 6.3015294538429885 0 0 0 0 53.286591006730305 -91.928782689851687 0 -91.928782689851687 221.24197793783969 0 0 0 0 -5.4273784112404684 -0.79598583929004008 0 -0.79598583929004008 -0.87738265403805826 0 0 0 0 -383.60246618572273 486.06373489061843 0 486.06373489061843 -455.33773206868136 0 0 0 0 -454.99840317331655 340.45697694181217 0 340.45697694181217 -651.63667551224353 0 0 0 0 -286.80947455789283 548.97474297618464 0 548.97474297618464 -713.76774824252061 0 0 0 0 -323.20573216177218 127.54180251380239 0 127.54180251380239 -195.68162482095613 0 0 0 0 2.0364479527515442 1.5457824778382161 0 1.5457824778382161 0.90169909615141819 0 0 0 0 -3.7605592600536255 0.40035694553850476 0 0.40035694553850476 0.48095656594804836 0 0 0 0 -183.89266499892983 64.27928167859136 0 64.27928167859136 -45.525436049538257 0 0 0 0 -57.643815354655089 344.118391922093 0 344.118391922093 -390.02792463965307 0 0 0 0 -218.7452180025175 39.250723120045222 0 39.250723120045222 -24.61289849581226 0 0 0 0 -257.19188056678104 113.53599755367759 0 113.53599755367759 -96.696169039787492 0 0 0 0 -321.57057264751347 69.481496077038173 0 69.481496077038173 18.596119741589064 0 0 0 0 -238.05370487892651 57.925211995345308 0 57.925211995345308 -38.565886099531781 0 0 0 0 -197.31243904857183 10.443656227700558 0 10.443656227700558 -10.455178371004877 0 0 0 0 -125.27464679045079 -27.745638155287452 0 -27.745638155287452 3.8009388032005518 0 0 0 0 -287.41004668306414 34.167371920026198 0 34.167371920026198 8.8874849717176403 0 0 0 0 -312.95902646300965 66.7676334373391 0 66.7676334373391 72.888005229629925 0 0 0 0 -287.87937222146957 44.680886960074986 0 44.680886960074986 36.851585195225198 0 0 0 0 -106.25288558988541 70.924908547982341 0 70.924908547982341 -47.682445136691967 0 0 0 0 -24.84800664242357 71.075180097577686 0 71.075180097577686 -55.583291713468498 0 0 0 0 -96.763103836878145 21.937913927024056 0 21.937913927024056 -24.718802429721109 0 0 0 0 -182.92107794133517 48.531802860205062 0 48.531802860205062 -15.390140164759941 0 0 0 0 -101.9989640885251 53.76749147396913 0 53.76749147396913 -8.7572969955508597 0 0 0 0 -20.350748494311119 45.607704731839476 0 45.607704731839476 -25.381807515113906 0 0 0 0 30.667030032334878 21.21423260913798 0 21.21423260913798 -43.887247859842319 0 0 0 0 7.1358916433007664 6.0970303285247525 0 6.0970303285247525 1.7965116509303698 0 0 0 0 13.420620783099366 7.1398577388699778 0 7.1398577388699778 -8.0239334282523487 0 0 0 0 -321.02989707569577 214.11887719240985 0 214.11887719240985 -310.50017148369261 0 0 0 0 -282.94301077327736 390.37760542755268 0 390.37760542755268 -529.83130247787631 0 0 0 0 -297.43054334685075 347.68884503643312 0 347.68884503643312 -553.57239552788269 0 0 0 0 -227.35846542486252 342.94741004835669 0 342.94741004835669 -500.87243220966411 0 0 0 0 -210.76918866272899 316.0088259175609 0 316.0088259175609 -469.64727094338014 0 0 0 0 -293.21486303381971 367.67825459827873 0 367.67825459827873 -399.73760443960782 0 0 0 0 -2.3013241788668068 0.87217633023148267 0 0.87217633023148267 0.90102488726398633 0 0 0 0 -264.49793786649388 388.83420144896809 0 388.83420144896809 -478.44012301076509 0 0 0 0 -166.60027591543621 321.98378937760936 0 321.98378937760936 -395.87093221137911 0 0 0 0 -5.5589160305025871 7.126341652321571 0 7.126341652321571 -0.58339328310103156 0 0 0 0 -280.50762846293946 336.18024828431953 0 336.18024828431953 -397.58898126266286 0 0 0 0 -3.6995577813660105 7.4890792349023201 0 7.4890792349023201 3.6048744310049017 0 0 0 0 -5.4165495646716408 7.9828982949256897 0 7.9828982949256897 1.2973941631207708 0 0 0 0 6.2509111687541008 23.536463305616053 0 23.536463305616053 -2.460581395731424 0 0 0 0 8.3941420225783077 24.318269753533968 0 24.318269753533968 -9.8961721610685345 0 0 0 0 -9.6290669182126294 36.450399226781883 0 36.450399226781883 -1.1746923252067063 0 0 0 0 4.8622344392133527 23.809857995511265 0 23.809857995511265 -2.4945633926072333 0 0 0 0 -6.4822533171678103 7.2262351436012544 0 7.2262351436012544 -0.40418698544937115 0 0 0 0 -1.7187941081210738 23.983191647061176 0 23.983191647061176 18.004475741719943 0 0 0 0 -3.3844541988873971 7.7306167947681388 0 7.7306167947681388 -0.44459236071270425 0 0 0 0 -8.8806662932906306 4.5255479657682045 0 4.5255479657682045 1.2970642246194615 0 0 0 0 -14.364920014417294 7.9179592595137365 0 7.9179592595137365 19.377583202993264 0 0 0 0 -0.66204251891470101 4.8613623504206913 0 4.8613623504206913 -3.4023433102696572 0 0 0 0 -6.5817608388715598 6.678404269820021 0 6.678404269820021 0.69322047687455779 0 0 0 0 -5.8089687823739951 6.2387595094478456 0 6.2387595094478456 1.0736047793243415 0 0 0 0 -5.9487700394820422 6.786603614793421 0 6.786603614793421 -0.78864590625744313 0 0 0 0 -2.2762450881264158 4.846510973756267 0 4.846510973756267 1.0829737863678019 0 0 0 0 -9.2685608270658122 2.6447211547747429 0 2.6447211547747429 -1.9287682975254938 0 0 0 0 -1.4522906223368643 3.7373511413659237 0 3.7373511413659237 -1.8165712886082588 0 0 0 0 -7.3132687349389016 5.46902028275872 0 5.46902028275872 0.37755368952912249 0 0 0 0 -5.9164033204676372 1.5621655533153529 0 1.5621655533153529 2.9191033168473695 0 0 0 0 -9.518638930425368 6.4562723880335398 0 6.4562723880335398 -0.13117572078772355 0 0 0 0 -10.141731172298023 8.2153361022428726 0 8.2153361022428726 -2.648524969117716e-05 0 0 0 0 -0.1999035393835662 -1.0944113182641146 0 -1.0944113182641146 -0.29649479146675617 0 0 0 0 1.5793810177565319 4.2793109969707075 0 4.2793109969707075 -1.7801972797169583 0 0 0 0 -19.889607122408052 4.3707607346586883 0 4.3707607346586883 1.3095073738240899 0 0 0 0 -578.33436012074162 -212.33843698666215 0 -212.33843698666215 46.773778583141393 0 0 0 0 -0.5298068732168062 0.54895359803099097 0 0.54895359803099097 -1.9274003005319003 0 0 0 0 -4.4173998700352968 3.0974979098609765 0 3.0974979098609765 -0.033329660698655061 0 0 0 0 1.8283300695875369 8.2479598432000785 0 8.2479598432000785 0.0022021540552405344 0 0 0 0 -201.58367320098478 -3.4110824931231036 0 -3.4110824931231036 3.6948896326648537 0 0 0 0 -3.4126976724854714 2.8199476247549775 0 2.8199476247549775 -3.2853806418945055 0 0 0 0 -9.4544808945829573 6.8058625537132684 0 6.8058625537132684 1.5031225694110617 0 0 0 0 -200.12753082704148 21.527160217327037 0 21.527160217327037 28.062380943199969 0 0 0 0 -326.68766934182713 -67.689916462153633 0 -67.689916462153633 -16.432160860047588 0 0 0 0 -386.14169894260704 165.1427113997479 0 165.1427113997479 115.13693887258705 0 0 0 0 -164.8400997661447 54.488942823350953 0 54.488942823350953 22.745154294875647 0 0 0 0 -253.0739732133552 141.20462790792317 0 141.20462790792317 -57.217008637591789 0 0 0 0 -306.7896446941777 30.565172132199223 0 30.565172132199223 103.21049576273072 0 0 0 0 -169.07192148061586 26.345841245267366 0 26.345841245267366 -11.069467144583541 0 0 0 0 -7.1315285924575846 -1.0497965101553035 0 -1.0497965101553035 -0.57231005594630346 0 0 0 0 -18.360658661447815 0.75473064441030147 0 0.75473064441030147 46.367127605655696 0 0 0 0 0.57214763575029792 38.068540586169547 0 38.068540586169547 29.86538905188354 0 0 0 0 -60.610477509057091 20.655669112966279 0 20.655669112966279 4.334412019525189 0 0 0 0 -17.690542589043616 13.89821173861128 0 13.89821173861128 5.3567953068268253 0 0 0 0 -451.51603671710291 -54.937023793685057 0 -54.937023793685057 -33.221226784662576 0 0 0 0 -470.43163844012452 283.55144979173929 0 283.55144979173929 -58.922058345994856 0 0 0 0 -59.610673692586715 -109.75857486630139 0 -109.75857486630139 84.346616820257623 0 0 0 0 -1.8214648622791998 -0.81203058312966903 0 -0.81203058312966903 -0.48914872919885966 0 0 0 0 -331.76179779844824 -56.966072163028002 0 -56.966072163028002 74.694100761349546 0 0 0 0 -242.86692176235374 114.97518598613533 0 114.97518598613533 -211.7932121513586 0 0 0 0 -450.05328282219125 106.94024100244133 0 106.94024100244133 61.521264060822432 0 0 0 0 -2.3570476306111168 1.6112327759939191 0 1.6112327759939191 4.894572747007885 0 0 0 0 1.5450074106603324 2.4466140185485159 0 2.4466140185485159 -2.5574613761025873 0 0 0 0 7.6111644926968438 10.606583925276936 0 10.606583925276936 -167.77425342210336 0 0 0 0 -217.7591025620859 -19.622009673912544 0 -19.622009673912544 213.72143465928093 0 0 0 0 -19.81747412156983 21.25652499433636 0 21.25652499433636 7.8390197961707599 0 0 0 0 -161.96633652444143 145.08603105544898 0 145.08603105544898 5.8389341653091833 0 0 0 0 -9.0710628437246612 13.430006297153071 0 13.430006297153071 -6.6697060406099453 0 0 0 0 -26.749024904533144 16.531188120050501 0 16.531188120050501 26.005724010210542 0 0 0 0 190.49961656975211 32.241141238322598 0 32.241141238322598 62.531303316955018 0 0 0 0 -17.333372207351204 1.9474741714839183 0 1.9474741714839183 12.148886798579042 0 0 0 0 16.420150382873544 19.370739038115062 0 19.370739038115062 -97.46909818219865 0 0 0 0 -13.156882821815088 7.4140531175944488 0 7.4140531175944488 -15.54027743388724 0 0 0 0 -103.86268198497419 60.96755796754951 0 60.96755796754951 -29.400332075678307 0 0 0 0 0.11208296897851255 -1.1835934093118823 0 -1.1835934093118823 1.1934274475909774 0 0 0 0 43.821845616475912 102.20046371408898 0 102.20046371408898 38.285859854360751 0 0 0 0 -23.486297319341247 86.86591245667114 0 86.86591245667114 -63.567847049518605 0 0 0 0 -124.28243084448695 249.83609085833996 0 249.83609085833996 -54.720402610815654 0 0 0 0 -436.05008743546114 234.59539570421384 0 234.59539570421384 0.47216429793115822 0 0 0 0 -11.348316853378492 148.47865819953768 0 148.47865819953768 -39.307538060676961 0 0 0 0 -48.267568762448718 463.08793862600578 0 463.08793862600578 -971.76379560207715 0 0 0 0 -1.7113978147556281 2.4988252957400903 0 2.4988252957400903 0.72656021211037114 0 0 0 0 -97.053905288594251 289.2199602466444 0 289.2199602466444 -2.2173081850135214 0 0 0 0 30.580604766670149 108.7125450178828 0 108.7125450178828 -383.03607791658214 0 0 0 0 -129.29927917046916 409.16162930945757 0 409.16162930945757 -285.10574385981818 0 0 0 0 -8.7041010470311448 -37.468855482296931 0 -37.468855482296931 -184.75743984905785 0 0 0 0 -88.740219152829923 162.56433931827632 0 162.56433931827632 -336.34552102357702 0 0 0 0 -17.841096627893421 96.517054176270904 0 96.517054176270904 -105.92607835224044 0 0 0 0 -57.982035644334246 57.881340133142658 0 57.881340133142658 -26.829958415459259 0 0 0 0 -9.4047957690792572 12.936423361151157 0 12.936423361151157 -6.0724431240136383 0 0 0 0 -13.607618817673938 109.56366889974197 0 109.56366889974197 52.633819127633615 0 0 0 0 -0.85515813132951735 227.33353856793474 0 227.33353856793474 227.42660934563901 0 0 0 0 119.89619183675859 102.86282513958486 0 102.86282513958486 76.105957759988087 0 0 0 0 290.54339279176565 247.11718481634671 0 247.11718481634671 33.814826626989088 0 0 0 0 387.66840186997797 125.54879953336422 0 125.54879953336422 -128.44840667297831 0 0 0 0 160.17233874194426 133.30575792491436 0 133.30575792491436 -64.110092041708413 0 0 0 0 118.65562654292808 45.565278003437925 0 45.565278003437925 -152.5942459304697 0 0 0 0 -218.77691966335806 198.51172541024971 0 198.51172541024971 138.79075518081663 0 0 0 0 -0.057632071367891058 0.21294028955945521 0 0.21294028955945521 1.0012370437235916 0 0 0 0 337.2196863131212 22.156408052966071 0 22.156408052966071 0.18732532751891995 0 0 0 0 241.39539237596182 175.80757910646571 0 175.80757910646571 29.443456918896118 0 0 0 0 -0.80417897221849577 5.3206092836045968 0 5.3206092836045968 -11.234968047489247 0 0 0 0 -353.25194234882656 80.884123947151238 0 80.884123947151238 13.61637995653291 0 0 0 0 117.66791638818177 113.23212764563868 0 113.23212764563868 77.41524209529598 0 0 0 0 -324.7730366184478 126.89018566826417 0 126.89018566826417 -111.39541517922771 0 0 0 0 -322.03701256246927 59.135350320895327 0 59.135350320895327 -6.4209158923913492 0 0 0 0 177.39172537733975 87.847607799543766 0 87.847607799543766 72.616396979086858 0 0 0 0 233.23384935947979 -15.025655135737907 0 -15.025655135737907 45.793079846218461 0 0 0 0 168.19630556109769 -1.754748528557684 0 -1.754748528557684 13.919466351995652 0 0 0 0 50.334842467396811 -27.33537869531574 0 -27.33537869531574 47.909951532852574 0 0 0 0 -46.64437947938768 -34.151776030338624 0 -34.151776030338624 -13.718269125689403 0 0 0 0 155.52179111667283 95.539315616901149 0 95.539315616901149 -87.572535585815785 0 0 0 0 89.863946176341415 187.6545903054066 0 187.6545903054066 -255.09490813345474 0 0 0 0 207.4617486079951 41.897394005754904 0 41.897394005754904 -76.239857264745297 0 0 0 0 -978.63992692692773 755.28878351861204 0 755.28878351861204 -156.98390391445719 0 0 0 0 -807.33747003430835 91.331418332023532 0 91.331418332023532 -17.241148794251785 0 0 0 0 487.69899573440853 99.44451469122032 0 99.44451469122032 -258.64884461287875 0 0 0 0 -0.36219779179959621 1.1005419905980389 0 1.1005419905980389 -3.913589784335727 0 0 0 0 269.3359979859888 340.16431507072411 0 340.16431507072411 -452.41176063686726 0 0 0 0 -420.09690320398659 288.15507570788031 0 288.15507570788031 -658.63634581095539 0 0 0 0 -241.7421085855749 786.58054491534494 0 786.58054491534494 -1028.69376395367 0 0 0 0 -809.71784804017443 520.80108776286943 0 520.80108776286943 -406.32755590994202 0 0 0 0 -4.8713878691506949 -0.21260491411069893 0 -0.21260491411069893 -0.32907228972563018 0 0 0 0 195.10648704044434 425.21387471566413 0 425.21387471566413 -514.66953121343249 0 0 0 0 -154.79068374494091 527.55973366380931 0 527.55973366380931 -445.05545926935156 0 0 0 0 -168.57573714507998 32.241748416515293 0 32.241748416515293 -212.15717402259179 0 0 0 0 -100.36724303044321 270.68512248566549 0 270.68512248566549 -297.72313947606017 0 0 0 0 -107.73586584079021 233.9644398894161 0 233.9644398894161 -234.15150209840795 0 0 0 0 -431.14354224016279 271.3708408482853 0 271.3708408482853 -230.8753994943545 0 0 0 0 -106.6749250643843 98.523755921341944 0 98.523755921341944 -209.34946386541196 0 0 0 0 -128.5938550311912 129.77361290102272 0 129.77361290102272 -72.785467563426209 0 0 0 0 -2.9402919813219341 141.06126904047414 0 141.06126904047414 -216.99377644451306 0 0 0 0 -97.820346923217585 177.5326671242583 0 177.5326671242583 -298.61866871804523 0 0 0 0 0.51671685623638552 0.10721377877548832 0 0.10721377877548832 -0.17811763032852923 0 0 0 0 438.82931365345576 0.04436306591014727 0 0.04436306591014727 -52.332548582811796 0 0 0 0 10.51048538172472 96.763976612513943 0 96.763976612513943 -204.10402096757389 0 0 0 0 718.22126122697046 39.349192603855045 0 39.349192603855045 -86.977984028446372 0 0 0 0 179.75872628537763 82.7532565198253 0 82.7532565198253 -78.337686524959281 0 0 0 0 0.80128186362050258 0.82721982646799574 0 0.82721982646799574 0.28355018864277781 0 0 0 0 63.995489112288851 -11.96770677454515 0 -11.96770677454515 -12.963196297860122 0 0 0 0 121.60026048440341 144.75618727982146 0 144.75618727982146 -58.532005538851081 0 0 0 0 355.60495848408391 177.24044197018247 0 177.24044197018247 -187.32864661249187 0 0 0 0 202.4199271614998 210.54895941658469 0 210.54895941658469 -54.581691220492758 0 0 0 0 348.52451776964881 169.61437265483983 0 169.61437265483983 -129.6188270198727 0 0 0 0 491.68839711355213 226.76490199568434 0 226.76490199568434 -111.90750491328799 0 0 0 0 371.61692505623796 178.36696644770927 0 178.36696644770927 -36.866310060475371 0 0 0 0 657.10780822968445 245.57270755709578 0 245.57270755709578 -23.326195251807803 0 0 0 0 318.94969276059055 274.05035481520281 0 274.05035481520281 36.156406454261742 0 0 0 0 193.59277848952479 164.01703023707523 0 164.01703023707523 -51.861081433060463 0 0 0 0 140.64131258059206 194.40348614681716 0 194.40348614681716 43.22942949688877 0 0 0 0 52.303071669812198 99.981645230891445 0 99.981645230891445 -54.337580787483603 0 0 0 0 -18.972559896974417 78.58273988723704 0 78.58273988723704 20.945900976927078 0 0 0 0 -18.37287196637044 76.870760978719773 0 76.870760978719773 23.315178027041839 0 0 0 0 41.947665409446927 109.8129949633767 0 109.8129949633767 -6.4866785918457026 0 0 0 0 74.686403781121044 71.648938484369864 0 71.648938484369864 -352.4220571032929 0 0 0 0 12.525954032207665 34.459313046958414 0 34.459313046958414 -128.88177499115409 0 0 0 0 93.635103884451382 156.80447591963821 0 156.80447591963821 -211.34688661669679 0 0 0 0 106.69018090620375 110.75902253506865 0 110.75902253506865 -177.63106887883259 0 0 0 0 194.05936792955617 178.08064099391049 0 178.08064099391049 -126.8410428236748 0 0 0 0 127.22963058416644 242.53142757061869 0 242.53142757061869 -241.58874278247094 0 0 0 0 208.3739434633826 251.88438166203377 0 251.88438166203377 -278.47007129910344 0 0 0 0 105.88650893655904 342.99030542535002 0 342.99030542535002 -578.91419199485972 0 0 0 0 13.796777560182818 566.9109309722985 0 566.9109309722985 -537.89769686523505 0 0 0 0 48.761189363976882 441.68848681361851 0 441.68848681361851 -401.8884067813342 0 0 0 0 -24.692890660611738 463.63212844658483 0 463.63212844658483 -142.91212507462842 0 0 0 0 175.97684942274554 294.01533094326578 0 294.01533094326578 -150.71671590977348 0 0 0 0 183.20975233424542 306.6889711122094 0 306.6889711122094 -337.46129272576582 0 0 0 0 261.86132129312318 244.59252943890533 0 244.59252943890533 -125.69474516316768 0 0 0 0 265.49863872079732 288.94970611451572 0 288.94970611451572 84.722393121919595 0 0 0 0 257.79494061631158 177.43223719641992 0 177.43223719641992 -221.90139584096323 0 0 0 0 304.93452230891126 234.16400465837069 0 234.16400465837069 -168.32372799424411 0 0 0 0 332.93262083675108 187.19941213343554 0 187.19941213343554 -131.34701578690874 0 0 0 0 377.50583806853683 194.52966502284835 0 194.52966502284835 -162.28079517118749 0 0 0 0 290.58953349508738 182.91438712612216 0 182.91438712612216 -126.66199068308379 0 0 0 0 201.2823351420775 335.44406978169172 0 335.44406978169172 482.33181846879597 0 0 0 0 305.09984866396189 278.48374536521078 0 278.48374536521078 86.903735390066686 0 0 0 0 -394.59632307129868 267.03254753109468 0 267.03254753109468 -1.1954034006776055 0 0 0 0 200.82851495615432 204.70196266200037 0 204.70196266200037 374.6677845334998 0 0 0 0 70.96911654095311 435.81841087833891 0 435.81841087833891 101.43593607446019 0 0 0 0 -190.02074166446982 791.1985920852967 0 791.1985920852967 1050.5524022588961 0 0 0 0 12.969846904826227 247.26515615075846 0 247.26515615075846 -1502.3522643606047 0 0 0 0 -3.2144724479270792 5.3241440172472636 0 5.3241440172472636 -2.5687147129102357 0 0 0 0 -8.1181207290052697 11.284240162366949 0 11.284240162366949 -5.2211231921209986 0 0 0 0 37.885669263188902 82.149600901222584 0 82.149600901222584 -532.38912765775967 0 0 0 0 -247.43976741535153 448.03679719431602 0 448.03679719431602 -616.23110756026654 0 0 0 0 -128.04128946442506 752.88412847910877 0 752.88412847910877 -979.63967204436085 0 0 0 0 -189.92938142755884 492.24290739007847 0 492.24290739007847 -754.31236924488985 0 0 0 0 -3.2592603511109104 3.615380715774748 0 3.615380715774748 1.743143754966674 0 0 0 0 -655.39103302531294 1107.9889964660324 0 1107.9889964660324 -682.60007105651857 0 0 0 0 -599.72566731842744 560.43354032931347 0 560.43354032931347 -93.562684680726306 0 0 0 0 -591.85241881811817 284.94533625292024 0 284.94533625292024 219.03267660460551 0 0 0 0 -2.3728332989672083 2.140706836326558 0 2.140706836326558 0.80218314821905778 0 0 0 0 -411.55418211200231 1033.5113839364567 0 1033.5113839364567 -289.22540465723432 0 0 0 0 -324.78205547892503 1074.7200898479459 0 1074.7200898479459 -430.56060516378784 0 0 0 0 -272.94619632433023 835.92953889556156 0 835.92953889556156 -367.15221840665617 0 0 0 0 -214.02824601005705 964.73201580315799 0 964.73201580315799 -190.66915099485414 0 0 0 0 75.433113222399697 438.33541526874887 0 438.33541526874887 -160.80404360547982 0 0 0 0 -251.7276876475371 690.09836159913903 0 690.09836159913903 138.4793163184695 0 0 0 0 -247.86152743136336 869.80352215463608 0 869.80352215463608 -326.01066481581074 0 0 0 0 -203.74517389002722 841.06052072709281 0 841.06052072709281 -313.96780121519532 0 0 0 0 -160.8249833574373 956.54421489264132 0 956.54421489264132 -472.72643172868197 0 0 0 0 -260.42061899151304 1242.5425246597952 0 1242.5425246597952 -557.38956875209988 0 0 0 0 -167.75373430861146 1064.4926430462729 0 1064.4926430462729 -925.47402198257259 0 0 0 0 -360.20531364891394 1204.8938041583242 0 1204.8938041583242 -329.76822415899005 0 0 0 0 -389.78253477885301 1142.9202840330654 0 1142.9202840330654 -459.60084933754706 0 0 0 0 -488.16464702194207 1037.9176625283762 0 1037.9176625283762 -312.26578108666899 0 0 0 0 -534.76196635091765 916.38563117000012 0 916.38563117000012 -459.33729999712841 0 0 0 0 -0.15135984022344928 1286.921339844188 0 1286.921339844188 -519.24862957961705 0 0 0 0 -476.29795793440098 1204.1237116355123 0 1204.1237116355123 0.42924288967697066 0 0 0 0 -312.92808149957682 924.07337095402238 0 924.07337095402238 -933.9150263801821 0 0 0 0 -0.53516021143150283 589.40653842098527 0 589.40653842098527 -1925.5933968767567 0 0 0 0 -6.310678751090947 7.0768697080198351 0 7.0768697080198351 -8.8541828959832571 0 0 0 0 -808.56508125122127 757.39668364248246 0 757.39668364248246 -935.46481345498933 0 0 0 0 -336.28782986632541 1136.7184240919078 0 1136.7184240919078 -1665.1647379866045 0 0 0 0 -110.92764604485274 693.38150528404731 0 693.38150528404731 -800.25620730886658 0 0 0 0 -12.455301284857342 657.68411471664604 0 657.68411471664604 -1048.9707850414343 0 0 0 0 88.367172478945577 17.608406006547739 0 17.608406006547739 -812.23162395217878 0 0 0 0 44.76220122527593 -176.2949784150951 0 -176.2949784150951 -1959.5942571912419 0 0 0 0 -4.5318231905184803 -55.180366034471263 0 -55.180366034471263 -326.65656629058503 0 0 0 0 -7.5167054832927533 109.99072321597123 0 109.99072321597123 -249.5628137210806 0 0 0 0 34.9170787883304 140.99830870520054 0 140.99830870520054 -324.63244149863749 0 0 0 0 27.89155337378179 -6.6399625161575386 0 -6.6399625161575386 -217.6457051968373 0 0 0 0 -4.6362168747727992 40.444710441794996 0 40.444710441794996 10.854432912274206 0 0 0 0 128.13941700577334 82.137244026629219 0 82.137244026629219 10.905933518602978 0 0 0 0 -15.401596129522403 18.819917075320756 0 18.819917075320756 -21.291681412894505 0 0 0 0 147.19087602493528 224.09406058241802 0 224.09406058241802 180.45201691120019 0 0 0 0 45.620020977985405 73.522584485264815 0 73.522584485264815 73.618194900722301 0 0 0 0 282.75348565286549 93.177253117866712 0 93.177253117866712 -33.719525868480559 0 0 0 0 -0.89016697464103345 112.41038196237787 0 112.41038196237787 -147.26412989999699 0 0 0 0 -87.307017060222279 -49.887728314857668 0 -49.887728314857668 79.27887014800217 0 0 0 0 -150.48581739945803 268.62368791836161 0 268.62368791836161 -308.75520584899277 0 0 0 0 -697.63286876849452 927.78686371932054 0 927.78686371932054 -364.35602782898422 0 0 0 0 -619.14931896797498 394.26369358576085 0 394.26369358576085 201.71947490029561 0 0 0 0 148.68304083943076 -78.321330633263642 0 -78.321330633263642 -71.11375940227299 0 0 0 0 -4.4509916040806274 11.103009822836611 0 11.103009822836611 -24.735159111209214 0 0 0 0 -35.779344960730668 -15.913222810973821 0 -15.913222810973821 32.066465557349147 0 0 0 0 -17.345894814838566 17.619541489127478 0 17.619541489127478 10.85951575131368 0 0 0 0 18.265608060406521 6.804057334564277 0 6.804057334564277 -4.798871265433263 0 0 0 0 4.576906113646718 18.832584574428765 0 18.832584574428765 2.7228798318045802 0 0 0 0 -4.3007334724916291 14.398219635186251 0 14.398219635186251 5.8473992501194516 0 0 0 0 -2.2026944739348426 11.662983860952231 0 11.662983860952231 -1.3862220205262901 0 0 0 0 12.538308838167723 5.9898683171049925 0 5.9898683171049925 220.13618288545422 0 0 0 0 39.269874653819443 44.271466954463904 0 44.271466954463904 32.688618335741921 0 0 0 0 16.340688696020152 74.626637336157728 0 74.626637336157728 80.506240163129405 0 0 0 0 44.790279407507114 117.06133112918906 0 117.06133112918906 -62.282280397688737 0 0 0 0 31.181472822914657 59.736877914045181 0 59.736877914045181 -58.518624475331308 0 0 0 0 -37.729194857078255 36.489404609070334 0 36.489404609070334 19.181295444159332 0 0 0 0 -7.2299009054459873 5.9902913573370569 0 5.9902913573370569 2.4934605080649757 0 0 0 0 -60.305270844156439 41.042434156101081 0 41.042434156101081 39.352372707886389 0 0 0 0 -9.0733261837995087 13.227168152923696 0 13.227168152923696 37.824102378173848 0 0 0 0 -25.790958690700791 61.595237234025262 0 61.595237234025262 19.755167124310901 0 0 0 0 -29.052940757600112 11.269492320395855 0 11.269492320395855 6.4159145671533366 0 0 0 0 4.1466209746140521 52.929685414099367 0 52.929685414099367 -28.604348712033243 0 0 0 0 -14.219188537882474 41.152189542197448 0 41.152189542197448 17.364010270728613 0 0 0 0 13.849020862156976 72.87993488945358 0 72.87993488945358 -4.4710777794753085 0 0 0 0 33.523485784520744 95.261073481437052 0 95.261073481437052 -26.366854731037165 0 0 0 0 16.918376213428019 67.327941416362592 0 67.327941416362592 -1.1259846579196164 0 0 0 0 36.0646350336865 100.28858940268401 0 100.28858940268401 30.248658316733781 0 0 0 0 42.139720082685017 128.53884222327906 0 128.53884222327906 127.29822384435101 0 0 0 0 -17.380593969446636 28.969306714527193 0 28.969306714527193 45.705879502529569 0 0 0 0 -24.947061147984641 22.824052038035006 0 22.824052038035006 193.63679948540084 0 0 0 0 -6.2684764861576099 2.2123789934147382 0 2.2123789934147382 2.0155052086674345 0 0 0 0 -25.149991444472107 18.143827740597771 0 18.143827740597771 130.79618235882663 0 0 0 0 -22.61963812610702 31.6903079049589 0 31.6903079049589 25.972153439351132 0 0 0 0 -26.120519906016852 27.457049302451196 0 27.457049302451196 27.474163877268438 0 0 0 0 -22.950753248482215 30.012861962182797 0 30.012861962182797 69.753208775189705 0 0 0 0 -7.4308922134005115 24.119370078173233 0 24.119370078173233 73.399428127901047 0 0 0 0 18.905698283213496 -0.74674977799440967 0 -0.74674977799440967 24.478210871428018 0 0 0 0 -6.2944807313037465 0.090825735151931042 0 0.090825735151931042 1.6026459448217025 0 0 0 0 -14.257482112661819 46.161812799909967 0 46.161812799909967 15.829678015550599 0 0 0 0 8.2494729589743656 45.029477534808393 0 45.029477534808393 67.087549157060494 0 0 0 0 -14.269661360392092 25.057106141866825 0 25.057106141866825 52.293316724535543 0 0 0 0 24.034069761250066 59.779942295703222 0 59.779942295703222 44.626292665477195 0 0 0 0 49.027313431179209 72.336171722607105 0 72.336171722607105 64.732684027665528 0 0 0 0 4.6427156040945192 77.213724988117974 0 77.213724988117974 228.30224424190237 0 0 0 0 24.2871034680702 64.374695433019951 0 64.374695433019951 62.43959287000871 0 0 0 0 111.45469260648679 96.928362769176601 0 96.928362769176601 39.491666188012459 0 0 0 0 52.308036072027789 62.931538325198744 0 62.931538325198744 61.31904144246073 0 0 0 0 16.963198205466597 -0.5710517778288704 0 -0.5710517778288704 93.631367700829287 0 0 0 0 8.5814850726626446 50.025896860219746 0 50.025896860219746 110.7510937738989 0 0 0 0 75.109294842117379 160.84155806889976 0 160.84155806889976 161.37396932399133 0 0 0 0 144.13307084744702 172.41453239041402 0 172.41453239041402 -18.648168428830104 0 0 0 0 109.61135979391474 84.640157357334829 0 84.640157357334829 21.852649030210159 0 0 0 0 125.23698008284737 189.68733094496565 0 189.68733094496565 59.394228809220294 0 0 0 0 58.981520805728451 117.19959279307841 0 117.19959279307841 98.768308670452825 0 0 0 0 3.3227317618438974 31.444997884525947 0 31.444997884525947 -19.606071384418783 0 0 0 0 1.4188991386999881 2.0724653398115009 0 2.0724653398115009 -0.23035880816132304 0 0 0 0 -5.6638916844994682 5.4485708521868617 0 5.4485708521868617 -2.2969499980401764 0 0 0 0 2.6884534166074445 87.658233557534913 0 87.658233557534913 0.031368587748147547 0 0 0 0 27.765505596788898 51.519602879889135 0 51.519602879889135 -113.10892825508199 0 0 0 0 -17.23555947657951 60.134052630553924 0 60.134052630553924 12.256165706756292 0 0 0 0 -24.420096378384187 19.786152636825136 0 19.786152636825136 -13.390121268155781 0 0 0 0 -27.37024736485256 -13.510271726398969 0 -13.510271726398969 -65.738820175050932 0 0 0 0 55.311627778008642 2.1606675600514791 0 2.1606675600514791 -172.62670709734084 0 0 0 0 35.428383587016469 21.454123376430289 0 21.454123376430289 -112.48515461889474 0 0 0 0 -5.7646575954632127 3.407273893699319 0 3.407273893699319 -1.8995152568955262 0 0 0 0 7.527324709705681 48.500178378746568 0 48.500178378746568 65.063050291653781 0 0 0 0 2.378660443748231 8.3249196552242211 0 8.3249196552242211 64.849600358538737 0 0 0 0 -71.587533627991434 25.886327754757076 0 25.886327754757076 97.681258048141899 0 0 0 0 -14.686994933804272 65.301782363596431 0 65.301782363596431 89.571745770082998 0 0 0 0 -131.75302000966076 74.253012380195287 0 74.253012380195287 90.22738332755398 0 0 0 0 28.030147973316161 75.466343122190665 0 75.466343122190665 -62.639576046072762 0 0 0 0 -73.914989141529986 -156.42278470577185 0 -156.42278470577185 -79.869870663955226 0 0 0 0 -1.6115273464833813 1.5035524335216763 0 1.5035524335216763 -0.86388655039338147 0 0 0 0 62.949609607786442 -2.2424235229445912 0 -2.2424235229445912 -285.21177508095752 0 0 0 0 -59.722461320650837 24.774544033676648 0 24.774544033676648 39.54232253934606 0 0 0 0 16.536820599965132 19.392107244956502 0 19.392107244956502 8.714978648065923 0 0 0 0 -40.545595560532092 36.21380359664181 0 36.21380359664181 40.10166104156815 0 0 0 0 -13.037957208110129 30.836332477210817 0 30.836332477210817 -44.585895786287438 0 0 0 0 79.680249075060601 87.264014968020092 0 87.264014968020092 8.8537517213044339 0 0 0 0 -16.526365435366642 78.587743773747206 0 78.587743773747206 -14.097651567310095 0 0 0 0 17.036613716182504 18.093045430245816 0 18.093045430245816 6.5193595676310565 0 0 0 0 -42.719900913442871 232.9605124650152 0 232.9605124650152 85.324772107249373 0 0 0 0 -19.343332784124868 61.879047662419907 0 61.879047662419907 2.8775316350383946 0 0 0 0 -2.1433351517189294 18.119622339916532 0 18.119622339916532 -18.034411564671245 0 0 0 0 84.796216070096534 27.403960973818357 0 27.403960973818357 -18.401092727934156 0 0 0 0 0.27743409490004112 0.40130697572992347 0 0.40130697572992347 0.24096995158225809 0 0 0 0 9.2844151619228796 14.336250647123961 0 14.336250647123961 76.636993222653473 0 0 0 0 18.510031535208327 45.87944901580704 0 45.87944901580704 -16.64279895927757 0 0 0 0 33.869465415145442 78.827864132024843 0 78.827864132024843 53.447968670770933 0 0 0 0 -2.85195257590658 30.658868771362904 0 30.658868771362904 57.29654477693839 0 0 0 0 -10.196990661228483 15.538943906605709 0 15.538943906605709 28.118801841154891 0 0 0 0 0.15006133842962299 62.748978531964895 0 62.748978531964895 32.572309757597395 0 0 0 0 5.011529895282365 55.555955149780857 0 55.555955149780857 -12.074053624333828 0 0 0 0 -45.382248258141772 10.357390591700096 0 10.357390591700096 -9.6190165135931238 0 0 0 0 -82.878520487937294 69.346186019974994 0 69.346186019974994 72.424744225358154 0 0 0 0 -35.909667288928176 38.404628602795128 0 38.404628602795128 66.418112742729136 0 0 0 0 -54.997265656323179 70.701678177654685 0 70.701678177654685 80.465474803695543 0 0 0 0 -66.502260485098304 26.397040334355552 0 26.397040334355552 184.19870318288667 0 0 0 0 -1.0827173631322822 0.90436755404986968 0 0.90436755404986968 0.038616574703452144 0 0 0 0 15.714708061958845 46.761508838430018 0 46.761508838430018 -230.81765585509129 0 0 0 0 -32.362881996617944 -14.671496428938553 0 -14.671496428938553 -98.531578849346261 0 0 0 0 -23.999008893893915 58.129067157417012 0 58.129067157417012 -67.056737925498965 0 0 0 0 -67.154894883337874 34.414097196913644 0 34.414097196913644 53.123337665463623 0 0 0 0 -61.095572241296395 98.46003724107868 0 98.46003724107868 -88.732433372912055 0 0 0 0 -88.975445988317688 19.473934891596855 0 19.473934891596855 88.555434286972741 0 0 0 0 5.9670250759454575 12.448986573725051 0 12.448986573725051 91.453594271108159 0 0 0 0 -3.4741156858877531 0.71303389908410963 0 0.71303389908410963 -0.23720194965469998 0 0 0 0 26.031292292162107 -12.784604863769346 0 -12.784604863769346 -136.4364515683651 0 0 0 0 -8.2782385026343945 -6.1537429144151474 0 -6.1537429144151474 69.172225695940142 0 0 0 0 36.384176551759083 21.635122950170626 0 21.635122950170626 72.868373561323097 0 0 0 0 26.327225999124494 32.78702947261263 0 32.78702947261263 75.599447852716821 0 0 0 0 -2.9965334061625981 66.364509923903825 0 66.364509923903825 -37.340362108967383 0 0 0 0 -49.927065070146 30.191172210068544 0 30.191172210068544 -38.352331086956838 0 0 0 0 -37.965400925672839 33.129071719909916 0 33.129071719909916 33.263323493549251 0 0 0 0 0.64349884061630291 60.516998551938741 0 60.516998551938741 -31.794047487488569 0 0 0 0 35.251025086944537 50.740951838408364 0 50.740951838408364 -31.236576719935329 0 0 0 0 -2.8375862057246195 86.042060580777616 0 86.042060580777616 83.834519893567631 0 0 0 0 -65.615747488302532 5.0230460596649209 0 5.0230460596649209 17.757403669442283 0 0 0 0 78.046990044270615 6.7188540319730237 0 6.7188540319730237 12.446139998915896 0 0 0 0 54.50545189084005 -42.852621904665284 0 -42.852621904665284 -242.75291480853775 0 0 0 0 -1.5935332660355357 12.389274707529395 0 12.389274707529395 -8.0825646262831512 0 0 0 0 46.599383120485527 73.942356699424636 0 73.942356699424636 61.284316553414101 0 0 0 0 21.869793202159599 19.032288531439917 0 19.032288531439917 29.805164725956274 0 0 0 0 -9.4192046430143819 55.557170894815499 0 55.557170894815499 97.092937139620972 0 0 0 0 -11.560491100056424 40.092567444789893 0 40.092567444789893 33.741524880169891 0 0 0 0 -23.302890838646817 34.522775037081374 0 34.522775037081374 94.362349709808768 0 0 0 0 -112.53608667321805 -420.75863264000509 0 -420.75863264000509 263.60581421438837 0 0 0 0 0.81047902064388389 5.3636698235566627 0 5.3636698235566627 -6.9499468727523421 0 0 0 0 -143.78451358434904 -298.76768644870208 0 -298.76768644870208 -90.305405113795132 0 0 0 0 -377.25610311037053 39.449293930185377 0 39.449293930185377 -140.17361267521483 0 0 0 0 -341.16854276744562 213.89900352603581 0 213.89900352603581 113.24037457301893 0 0 0 0 -326.67313288657897 5.5269790147503954 0 5.5269790147503954 -108.63514001891599 0 0 0 0 -146.72883872923194 -55.899643190288771 0 -55.899643190288771 -125.71806292800466 0 0 0 0 -122.47055940132805 76.931120932734302 0 76.931120932734302 528.66356928899768 0 0 0 0 382.31393746273761 269.23297402082608 0 269.23297402082608 -48.375564857531572 0 0 0 0 3.731580171438436 4.2249727811538236 0 4.2249727811538236 4.0444140794173222 0 0 0 0 376.08949340759682 315.20533318089656 0 315.20533318089656 65.472214625653578 0 0 0 0 31.9677279311436 -27.996790387687724 0 -27.996790387687724 35.089928817738837 0 0 0 0 -34.771305539859895 13.492410879987801 0 13.492410879987801 100.36098518757353 0 0 0 0 -15.611138823141118 -19.87001005501952 0 -19.87001005501952 115.66615413190812 0 0 0 0 -9.7571169776756506 4.3565346665673133 0 4.3565346665673133 51.988549573994533 0 0 0 0 -49.834686611136931 22.517639829129621 0 22.517639829129621 80.012158338026211 0 0 0 0 24.020447504007279 16.329962948992033 0 16.329962948992033 79.908900571985157 0 0 0 0 -166.89424732338011 180.28537008554122 0 180.28537008554122 -184.37298744169675 0 0 0 0 1.2435996153786313 3.9730666392273406 0 3.9730666392273406 1.7203725594802322 0 0 0 0 -0.75271690679629799 0.053000232632271604 0 0.053000232632271604 -1.4048113759733027 0 0 0 0 -49.167435875260708 -15.230460459162714 0 -15.230460459162714 -197.67494204340619 0 0 0 0 -29.580742551122967 120.04992640778573 0 120.04992640778573 -400.68299988812942 0 0 0 0 -0.20793428856153895 0.75602211445524858 0 0.75602211445524858 0.41408752561922313 0 0 0 0 -213.14052986825845 277.18527185399216 0 277.18527185399216 -161.93907272416618 0 0 0 0 -198.31573313078297 96.154712633746385 0 96.154712633746385 -136.10839681114521 0 0 0 0 10.173180512315412 209.39299126539481 0 209.39299126539481 -289.31196373886633 0 0 0 0 -40.996397094737404 111.50666259631817 0 111.50666259631817 -160.56074688273657 0 0 0 0 71.134331851038951 115.34318499972869 0 115.34318499972869 -168.42961935715175 0 0 0 0 160.18715504120127 -22.296630049675912 0 -22.296630049675912 9.0517373045076965 0 0 0 0 150.62202348935412 258.61857386467591 0 258.61857386467591 -62.545810562267434 0 0 0 0 -228.30964098412096 193.52375664438432 0 193.52375664438432 41.790025375885307 0 0 0 0 -217.80250162767152 282.4599033637387 0 282.4599033637387 210.20178747337246 0 0 0 0 -216.16929975161429 174.01894745113714 0 174.01894745113714 -20.528058924683137 0 0 0 0 -220.03574071135881 164.31023433097653 0 164.31023433097653 22.227212281162792 0 0 0 0 -253.77404329301135 152.92854105747574 0 152.92854105747574 44.812006000880501 0 0 0 0 -259.56163476652728 160.3171438584468 0 160.3171438584468 113.19210123570519 0 0 0 0 -64.491100862523126 81.356030763945455 0 81.356030763945455 -82.884080725678359 0 0 0 0 -228.00585485503507 73.314300080462999 0 73.314300080462999 -66.698352374616661 0 0 0 0 -176.67370041236336 167.80260176846787 0 167.80260176846787 -101.64938730619906 0 0 0 0 -393.68932747490544 119.13312145575037 0 119.13312145575037 -17.845422835789577 0 0 0 0 1.2486080240562512 1.2871105020046443 0 1.2871105020046443 -0.022751101887308778 0 0 0 0 -311.79570839226471 145.42855906889599 0 145.42855906889599 208.08206903835082 0 0 0 0 -315.63083165828175 66.481910759117454 0 66.481910759117454 74.033746077069736 0 0 0 0 0.79707322882685006 1.2696221599586366 0 1.2696221599586366 2.3324559367939912 0 0 0 0 390.58743268624767 77.124904003803749 0 77.124904003803749 -3.0054699220199836 0 0 0 0 193.52489753368536 49.450873374076764 0 49.450873374076764 14.789143208850874 0 0 0 0 141.87939370067579 189.40809558196634 0 189.40809558196634 211.87301610994473 0 0 0 0 62.019832456414179 -36.403824027678638 0 -36.403824027678638 -14.250460923820356 0 0 0 0 268.77680380201411 -66.580642724112749 0 -66.580642724112749 -12.14065550262967 0 0 0 0 153.22423643260572 83.62357712884841 0 83.62357712884841 -53.764904042036505 0 0 0 0 -57.123921950143995 275.68585634944429 0 275.68585634944429 17.108369182620663 0 0 0 0 51.908148341525703 132.7766566609389 0 132.7766566609389 -8.8762782487174263 0 0 0 0 -265.00003896951057 178.45851548584324 0 178.45851548584324 41.79373708167077 0 0 0 0 -158.90231538989792 187.81010319048073 0 187.81010319048073 37.563211460304956 0 0 0 0 -77.761336656395542 142.02884691844883 0 142.02884691844883 0.69140700020943768 0 0 0 0 -57.835790459188502 166.94149028807442 0 166.94149028807442 -8.7918084248765069 0 0 0 0 -174.77239256609755 149.3926792423008 0 149.3926792423008 37.111019157706323 0 0 0 0 -129.27844633390123 163.03391377383377 0 163.03391377383377 -27.828937542333733 0 0 0 0 -160.13840406410236 132.5800639296358 0 132.5800639296358 6.7170889821718447 0 0 0 0 -165.87488374995792 139.68127118686789 0 139.68127118686789 -30.839287658425746 0 0 0 0 -69.74589353618876 98.5419626746625 0 98.5419626746625 -35.687044044738286 0 0 0 0 -80.39288231296814 81.744924952553447 0 81.744924952553447 -42.35607650167367 0 0 0 0 29.548874861252443 8.3600477508116455 0 8.3600477508116455 -2.9230001687792537 0 0 0 0 8.9418019068971262 -40.62067522732923 0 -40.62067522732923 -51.698583804689406 0 0 0 0 43.059502192451873 -14.31432732434223 0 -14.31432732434223 -39.301705968040551 0 0 0 0 182.99982778624326 105.37546007436458 0 105.37546007436458 -36.735001620778348 0 0 0 0 63.385094297009346 40.559571101592155 0 40.559571101592155 -70.838306395573454 0 0 0 0 41.318643734950911 52.744413142650956 0 52.744413142650956 -75.380729867427362 0 0 0 0 -25.985131609761766 56.146277950761487 0 56.146277950761487 20.797426063785679 0 0 0 0 -122.93451250105909 58.72614757775591 0 58.72614757775591 80.178803541417437 0 0 0 0 14.841222433913721 10.832831544831478 0 10.832831544831478 8.3658068720050593 0 0 0 0 -52.129668036334806 8.414552408416057 0 8.414552408416057 385.1739089390976 0 0 0 0 -4.883413249596174 -10.849153478599874 0 -10.849153478599874 26.599134312957176 0 0 0 0 -81.71018489598805 55.932507744979375 0 55.932507744979375 79.977687218743085 0 0 0 0 9.0229713471976574 9.7932220685454254 0 9.7932220685454254 11.733083486642826 0 0 0 0 51.288521231540471 27.517960330413189 0 27.517960330413189 -36.066516653321742 0 0 0 0 -41.072208266272355 38.792730557015602 0 38.792730557015602 27.186029299336951 0 0 0 0 -7.5057393194856559 33.935412988805183 0 33.935412988805183 25.243159458783339 0 0 0 0 -39.615943694358066 65.417291831043258 0 65.417291831043258 23.914822123624617 0 0 0 0 -6.0497093225214087 185.71421400530994 0 185.71421400530994 -6.8232509172266873 0 0 0 0 11.016214671308244 19.910862038980902 0 19.910862038980902 17.105068772462971 0 0 0 0 143.77051194601972 83.822526418261987 0 83.822526418261987 -69.397608397448494 0 0 0 0 120.89277167715318 45.952826326121794 0 45.952826326121794 -28.02277939317355 0 0 0 0 86.997058125705735 72.804157739516086 0 72.804157739516086 0.9816944707517905 0 0 0 0 76.560666489926916 58.674259792102021 0 58.674259792102021 -2.0572732492364594 0 0 0 0 89.030448553144197 76.674461281030744 0 76.674461281030744 -8.9053731830499601 0 0 0 0 101.36812160440968 64.776718028097093 0 64.776718028097093 -26.187652409874318 0 0 0 0 99.317799189651851 99.982158455648459 0 99.982158455648459 23.996102191886166 0 0 0 0 -0.84354391363115155 1.1521286372025044 0 1.1521286372025044 -3.6111757321086486 0 0 0 0 81.530731316290257 40.111218713282142 0 40.111218713282142 2.1404985304834554 0 0 0 0 11.878665609219752 48.63477767180666 0 48.63477767180666 38.564654775229428 0 0 0 0 535.36004633825723 -421.68477784057177 0 -421.68477784057177 -523.42274038303731 0 0 0 0 31.662428533794809 70.176004521874347 0 70.176004521874347 43.393519170647778 0 0 0 0 5.1321088838012656 -128.85382350587315 0 -128.85382350587315 93.079277343258582 0 0 0 0 1.6154386122021478 2.9082780230505918 0 2.9082780230505918 5.0007276205304834 0 0 0 0 20.59560906249375 20.408787847997438 0 20.408787847997438 9.3520008411365367 0 0 0 0 -31.416230049004298 513.04662806285342 0 513.04662806285342 80.349719236393867 0 0 0 0 -27.338203179597713 67.093459606139731 0 67.093459606139731 -3.6136681786902045 0 0 0 0 2.4102511183923969 5.7626633019982991 0 5.7626633019982991 -9.8852424297555785 0 0 0 0 102.63041565235835 -111.51888643846178 0 -111.51888643846178 1245.8695783540606 0 0 0 0 -394.55460667594389 -113.50944272582456 0 -113.50944272582456 239.8346173473401 0 0 0 0 511.39264612670013 148.362032309813 0 148.362032309813 -10.564600840749335 0 0 0 0 57.139879264534102 -261.49664695912361 0 -261.49664695912361 235.26327479716656 0 0 0 0 -230.69557135718969 30.987561991700204 0 30.987561991700204 38.307613900469732 0 0 0 0 100.97954168295473 -117.47669240575487 0 -117.47669240575487 -122.2589372990351 0 0 0 0 13.282823773804012 38.123213190926435 0 38.123213190926435 -15.401277339413355 0 0 0 0 15.989656106310576 12.698187368054278 0 12.698187368054278 -86.541600227090385 0 0 0 0 -154.202559534172 202.28699388825225 0 202.28699388825225 173.85844531603107 0 0 0 0 1.1601506786546452 85.487871088907923 0 85.487871088907923 49.877467579208314 0 0 0 0 4.4222257660327173 1.9590608128051272 0 1.9590608128051272 1.1361415499894392 0 0 0 0 -16.614212931081056 152.97889986309383 0 152.97889986309383 435.86517138812633 0 0 0 0 82.793270787981783 24.577612644739929 0 24.577612644739929 32.486574839887908 0 0 0 0 0.54365924445301061 112.79630953358355 0 112.79630953358355 95.652607711781457 0 0 0 0 -50.247658586255056 -7.6945786546148156 0 -7.6945786546148156 -11.980968729330925 0 0 0 0 -6.0921835938042932 13.691164101597678 0 13.691164101597678 83.618851876570261 0 0 0 0 -4.0918533283111174 84.938088475176755 0 84.938088475176755 12.367668141181639 0 0 0 0 -55.553745645943309 85.738896417982687 0 85.738896417982687 75.07570768282676 0 0 0 0 222.78251990060016 95.380734499083701 0 95.380734499083701 -3.5151383895081381 0 0 0 0 0.39173839019880496 0.8025962749936113 0 0.8025962749936113 0.35158716970596515 0 0 0 0 51.025143948976847 36.948546726148834 0 36.948546726148834 -3.1655292385694338 0 0 0 0 59.475240786015092 59.328422032919661 0 59.328422032919661 -18.059222935575235 0 0 0 0 42.972829838654434 42.319133195154791 0 42.319133195154791 19.162118036587344 0 0 0 0 64.985341318594692 58.105343733788686 0 58.105343733788686 -23.511545326437044 0 0 0 0 11.089360901241889 51.484179792982104 0 51.484179792982104 -5.5165770230960334 0 0 0 0 44.285043405316173 38.499337506009397 0 38.499337506009397 -57.580185592425551 0 0 0 0 0.0044465912351370207 76.562041418378612 0 76.562041418378612 -59.089090473251417 0 0 0 0 16.000620069658908 34.847394264939794 0 34.847394264939794 -86.147371377443051 0 0 0 0 0.80173626195134418 1.5452434287500907 0 1.5452434287500907 0.76187665042606056 0 0 0 0 -67.784949551395584 103.08142183881137 0 103.08142183881137 -12.816674331756076 0 0 0 0 -0.2031581272995151 0.54873599404467477 0 0.54873599404467477 -1.143977231484385 0 0 0 0 -183.68642129348427 0.71426589061957202 0 0.71426589061957202 -26.487937945292288 0 0 0 0 -20.807949076002842 -10.90822576534265 0 -10.90822576534265 -40.523963795967575 0 0 0 0 -169.19849402876025 -94.335458693856708 0 -94.335458693856708 -61.508432151014858 0 0 0 0 -26.893160729383681 20.578695178733142 0 20.578695178733142 -86.971364879187604 0 0 0 0 2.5752316240854327 -0.24539060328611129 0 -0.24539060328611129 -0.050959559596886805 0 0 0 0 182.89682262331917 15.486657544934133 0 15.486657544934133 17.827494063800259 0 0 0 0 50.186455837207177 -81.885603752130919 0 -81.885603752130919 -81.589569724146713 0 0 0 0 -127.56021790186242 68.007524194488724 0 68.007524194488724 67.850942618024419 0 0 0 0 -13.471434295809559 -116.39222351631452 0 -116.39222351631452 68.425750032431097 0 0 0 0 16.256458719881266 -50.712297715876048 0 -50.712297715876048 58.627117597665347 0 0 0 0 52.065136765941133 20.558489099563303 0 20.558489099563303 103.76241868006764 0 0 0 0 -77.498730718813022 28.15348003708641 0 28.15348003708641 74.514522853460221 0 0 0 0 -21.824342067309772 -29.331003880445678 0 -29.331003880445678 59.814825206885871 0 0 0 0 -15.577372216925141 -7.7008749115848332 0 -7.7008749115848332 26.92111486358408 0 0 0 0 -24.412334242842917 14.371146310208132 0 14.371146310208132 56.913746965798055 0 0 0 0 -69.890800942746864 4.5017317824040219 0 4.5017317824040219 43.494088212126371 0 0 0 0 -66.178495208638196 25.881949599490326 0 25.881949599490326 81.950866272601161 0 0 0 0 0.88928453459807599 -0.21338896090269799 0 -0.21338896090269799 0.1234927396881389 0 0 0 0 -77.127037347268242 36.900565208569788 0 36.900565208569788 8.0285342733550351 0 0 0 0 -107.86210226188996 2.650088893235079 0 2.650088893235079 55.831556075278058 0 0 0 0 -101.45727364129561 0.58772997208507149 0 0.58772997208507149 -34.967634187400563 0 0 0 0 -125.50690445881082 88.009941850696123 0 88.009941850696123 -26.966159264862654 0 0 0 0 0.72265213431635755 38.87380311061672 0 38.87380311061672 10.350705343767771 0 0 0 0 -226.6916464146052 28.809820672218848 0 28.809820672218848 144.19992269061186 0 0 0 0 -83.514286426190665 77.582044765149476 0 77.582044765149476 -25.672503132682323 0 0 0 0 -127.20388314121737 21.082558713133039 0 21.082558713133039 13.249842258144781 0 0 0 0 1.2453999454311759 38.367352778609416 0 38.367352778609416 9.8341518879862804 0 0 0 0 -57.700023437173513 -10.56182742764031 0 -10.56182742764031 -4.1554025835503126 0 0 0 0 -12.273480066396587 -2.395538672364637 0 -2.395538672364637 14.665858184923309 0 0 0 0 -11.018003274959483 -7.5870945337337616 0 -7.5870945337337616 34.090120186789136 0 0 0 0 -26.104505269817309 22.634189307722409 0 22.634189307722409 21.371833243414585 0 0 0 0 -20.004215543700411 1.0842011870990973 0 1.0842011870990973 -6.0573893743039662 0 0 0 0 -47.306025183772363 18.921319931586822 0 18.921319931586822 3.7045651202934096 0 0 0 0 7.1631147212974611 29.573351652659767 0 29.573351652659767 0.92774096941866446 0 0 0 0 -11.923307336532162 22.775154021164781 0 22.775154021164781 5.3506470077900303 0 0 0 0 135.16950193415687 44.790132941516276 0 44.790132941516276 -23.070470077676873 0 0 0 0 0.46909361858698162 0.72859137933194518 0 0.72859137933194518 0.93593147619014871 0 0 0 0 36.031960290092684 120.47940860340896 0 120.47940860340896 -5.0040457486102241 0 0 0 0 -12.510199441836448 9.4315945143043791 0 9.4315945143043791 20.42735550411453 0 0 0 0 -11.177572755465917 8.490869983274024 0 8.490869983274024 -1.5786458245420363 0 0 0 0 -7.8434979259582178 31.893707167198954 0 31.893707167198954 24.318028865207452 0 0 0 0 -11.773523940490122 22.24843312423036 0 22.24843312423036 6.8882275206706254 0 0 0 0 1.0655730595345076 1.5037487229562458 0 1.5037487229562458 3.4307475703022448 0 0 0 0 -18.093640524079092 11.561231777385728 0 11.561231777385728 -0.17421923844813136 0 0 0 0 -15.050673465400905 6.650025502727658 0 6.650025502727658 2.1158907240096596 0 0 0 0 -28.098777430648624 10.359247568205319 0 10.359247568205319 2.441055845527444 0 0 0 0 -0.99992842919343161 4.7876832173680839 0 4.7876832173680839 4.2000001189494753 0 0 0 0 -48.301665189825144 19.909662408970689 0 19.909662408970689 8.0125139644369483 0 0 0 0 0.32203640730449457 38.719035283846779 0 38.719035283846779 8.4021461912134896 0 0 0 0 -50.339754996437478 15.445681378443624 0 15.445681378443624 2.062614792950626 0 0 0 0 -44.33939824996196 32.108511829079362 0 32.108511829079362 4.1225945005280664 0 0 0 0 -75.590322606822156 23.185095256629211 0 23.185095256629211 14.500169559363712 0 0 0 0 -14.366349123059081 20.566926310981316 0 20.566926310981316 0.18806341304478025 0 0 0 0 -5.682971595525089 43.589823698016573 0 43.589823698016573 36.03595575223153 0 0 0 0 27.71689372914625 41.536433210909308 0 41.536433210909308 6.6809681344311684 0 0 0 0 -3.2359506621921024 29.876604919856693 0 29.876604919856693 23.134093391755954 0 0 0 0 -3.3607893784646876 27.867148876543069 0 27.867148876543069 12.137715521573682 0 0 0 0 12.003844669627142 28.45512031907856 0 28.45512031907856 12.073797587744139 0 0 0 0 -9.8109376031061402 53.780703812273714 0 53.780703812273714 15.158851445379696 0 0 0 0 12.282930385694527 55.2696706305193 0 55.2696706305193 15.240594601258636 0 0 0 0 -14.170452147576725 43.035666070256411 0 43.035666070256411 42.521566170578808 0 0 0 0 -40.045299848265131 15.694564827615977 0 15.694564827615977 35.749083157472342 0 0 0 0 -7.1229932106755598 3.9426588129619518 0 3.9426588129619518 -1.8162076918331991 0 0 0 0 -16.227415224294134 7.5639119819405565 0 7.5639119819405565 -1.2127943744982659 0 0 0 0 -1.0753588144871173 25.06975488216267 0 25.06975488216267 10.484621683408477 0 0 0 0 -9.0388866016546672 6.7029007594646828 0 6.7029007594646828 -4.1797526264417684 0 0 0 0 -10.018712288816459 13.261661692877169 0 13.261661692877169 -2.3327427153199096 0 0 0 0 -4.1367014038933121 7.4748655381554272 0 7.4748655381554272 -5.0173028976714704 0 0 0 0 -169.84111455511447 130.62661987514002 0 130.62661987514002 -133.8219197557919 0 0 0 0 -161.39314058839227 193.39462752684994 0 193.39462752684994 -112.03856630049086 0 0 0 0 -1.7077312978251413 0.64659179008458523 0 0.64659179008458523 -1.2029448258163882 0 0 0 0 -10.528464563591115 8.0792889067197393 0 8.0792889067197393 0.3485742745360767 0 0 0 0 -9.6841064728582609 6.5316720785589695 0 6.5316720785589695 -2.0434029364809163 0 0 0 0 -221.17458661259843 151.12365452774975 0 151.12365452774975 138.70966282349764 0 0 0 0 0.17993308420312104 0.62647131431808134 0 0.62647131431808134 0.50579395231184776 0 0 0 0 -5.062656986626962 265.81511593085202 0 265.81511593085202 169.53273128113506 0 0 0 0 131.72746777450902 89.60008813164859 0 89.60008813164859 93.995850402105134 0 0 0 0 -26.474478166176141 -35.016339528376193 0 -35.016339528376193 0.47921410218987148 0 0 0 0 -37.024910296347116 -35.379743206371131 0 -35.379743206371131 -26.459168842418876 0 0 0 0 36.733711514887545 17.193842263659462 0 17.193842263659462 -103.9774784901183 0 0 0 0 36.997151497050368 11.928062472214833 0 11.928062472214833 -3.9773313621626585 0 0 0 0 64.945372699189448 16.593307199708647 0 16.593307199708647 -10.609249354216445 0 0 0 0 24.807646335961181 33.339962885453133 0 33.339962885453133 24.791666683115182 0 0 0 0 5.8050523274323638 14.786613829359297 0 14.786613829359297 2.7425444491147886 0 0 0 0 24.701082338166088 -6.6079713032413565 0 -6.6079713032413565 -13.012234494781296 0 0 0 0 53.499462859768755 42.260341078585043 0 42.260341078585043 26.329088147202128 0 0 0 0 57.906115338621021 -22.242522976248438 0 -22.242522976248438 -22.22893827885855 0 0 0 0 81.238192916509433 158.20294308118173 0 158.20294308118173 -2.4758833738233079 0 0 0 0 128.29337336125536 217.73920390178318 0 217.73920390178318 151.72939564590166 0 0 0 0 49.211294663287163 -28.870655920575246 0 -28.870655920575246 149.65961925954616 0 0 0 0 139.42876049207734 227.53465237849014 0 227.53465237849014 93.318321396456668 0 0 0 0 78.762073433326805 133.62754458036034 0 133.62754458036034 52.681450426280207 0 0 0 0 -171.08758062596354 46.449230713377347 0 46.449230713377347 175.3588398405991 0 0 0 0 77.645257395299268 -40.495674739693641 0 -40.495674739693641 -198.16334385368646 0 0 0 0 -31.276881876013249 49.079058443685426 0 49.079058443685426 28.849372252727335 0 0 0 0 278.27996959708071 64.439449985533429 0 64.439449985533429 -31.908275203109952 0 0 0 0 283.82616942608365 138.21044190418615 0 138.21044190418615 -76.922264227127016 0 0 0 0 -65.358173302181967 -101.60736164617629 0 -101.60736164617629 363.92901391621854 0 0 0 0 241.987490414489 -19.177705847587276 0 -19.177705847587276 -33.073065555014182 0 0 0 0 76.007942768746034 130.28974338193984 0 130.28974338193984 221.47209769277833 0 0 0 0 142.57308244893102 -66.893638957022631 0 -66.893638957022631 39.896611850970658 0 0 0 0 2.7090556017544252 1.6643132058526646 0 1.6643132058526646 -0.029952096315597032 0 0 0 0 0.85571009698431855 1.1811139305897278 0 1.1811139305897278 -0.27258750132671139 0 0 0 0 -5.3957643216272118 -19.433427944532013 0 -19.433427944532013 26.938698211099108 0 0 0 0 1.8866043344351056 7.731108087249595 0 7.731108087249595 -4.8788202400828595 0 0 0 0 -0.9974880948399969 3.3952009318020089 0 3.3952009318020089 4.3687559488766823 0 0 0 0 1.1879587544190642 4.5815827348368217 0 4.5815827348368217 -0.44630730337182456 0 0 0 0 105.3057393012823 -98.013264499448269 0 -98.013264499448269 -105.20881358521001 0 0 0 0 1.8322322562125919 5.5989122068676807 0 5.5989122068676807 -2.5480004675337113 0 0 0 0 -12.30350263031653 10.539126056679379 0 10.539126056679379 11.63428396506788 0 0 0 0 52.024715772875425 -135.61719547721441 0 -135.61719547721441 -122.85041006711981 0 0 0 0 -47.632511847619753 191.28604860038831 0 191.28604860038831 -75.71345802367432 0 0 0 0 0.16477192315151434 0.26021272397032291 0 0.26021272397032291 1.6445890194613071 0 0 0 0 255.42896223901789 141.71685376910318 0 141.71685376910318 67.702127191660111 0 0 0 0 -52.011294724494292 122.09611963739735 0 122.09611963739735 109.73659217288969 0 0 0 0 -1.6565843368462261 1.7622566558813872 0 1.7622566558813872 -1.8961338238551235 0 0 0 0 -57.06038048762457 -12.023940484887135 0 -12.023940484887135 79.90478779955447 0 0 0 0 -240.08719270596703 39.540808664416545 0 39.540808664416545 47.526389217417091 0 0 0 0 -22.527891415040358 96.738913728688203 0 96.738913728688203 60.972421856868095 0 0 0 0 -8.8961293027685961 6.3358977673571815 0 6.3358977673571815 1.0815963001422162 0 0 0 0 10.727969390817492 21.942615882179815 0 21.942615882179815 21.237110307826683 0 0 0 0 -8.369332517246221 25.403260189057619 0 25.403260189057619 48.650726765379659 0 0 0 0 2.6740307395052696 44.314493894316911 0 44.314493894316911 24.401307635005651 0 0 0 0 70.867442506684256 40.392322884222267 0 40.392322884222267 -83.117822648993751 0 0 0 0 3.8393504919684087 2.5023231159866484 0 2.5023231159866484 -20.893530731353025 0 0 0 0 7.2424861578588207 10.636427378321969 0 10.636427378321969 -7.6698590351588791 0 0 0 0 12.455370425361252 12.589520762321627 0 12.589520762321627 -10.852967759285093 0 0 0 0 17.150851521808363 11.209764531682595 0 11.209764531682595 -11.555055400924175 0 0 0 0 22.032188300108828 4.8858244182665658 0 4.8858244182665658 -12.301979589865368 0 0 0 0 13.417007378575363 3.581311580070178 0 3.581311580070178 -9.8007217546983156 0 0 0 0 13.276590681858579 3.0240596248295333 0 3.0240596248295333 -7.3425842446740717 0 0 0 0 9.6867768282481848 4.7554537801370316 0 4.7554537801370316 -8.1088757042889483 0 0 0 0 12.201990106892481 5.6131759125273675 0 5.6131759125273675 -12.118046710966155 0 0 0 0 6.1890618052288566 10.797538804514843 0 10.797538804514843 -8.8500778254393282 0 0 0 0 10.442241657263367 10.073499539867043 0 10.073499539867043 -14.190267888465314 0 0 0 0 0.86286684425613203 13.729401407130354 0 13.729401407130354 -8.6808378824207466 0 0 0 0 -1.3647825790631423 10.960145391038139 0 10.960145391038139 8.4636408567963741 0 0 0 0 4.9640329045060012 19.964797678103789 0 19.964797678103789 3.7377966599602814 0 0 0 0 11.494373017327234 6.208248526967509 0 6.208248526967509 -5.8446629949903581 0 0 0 0 4.3528714464271019 5.4415216301886034 0 5.4415216301886034 -1.20534743634785 0 0 0 0 1.6926696880218515 5.6732908087942633 0 5.6732908087942633 -2.8807689831228345 0 0 0 0 10.422889096786093 8.2634442419512197 0 8.2634442419512197 -9.6848379010343706 0 0 0 0 -49.764227613371986 11.319388742916999 0 11.319388742916999 -7.6881121326969151 0 0 0 0 2.5893115645620384 5.6195139472811739 0 5.6195139472811739 -2.0149444197138564 0 0 0 0 -31.149933808698279 10.987800630466154 0 10.987800630466154 8.719343782227952 0 0 0 0 0.5527807827693465 0.78707274732902732 0 0.78707274732902732 -1.0380221345890064 0 0 0 0 -6.8069845893587626 30.243958750255842 0 30.243958750255842 -37.61467185796937 0 0 0 0 -44.028581431462953 -8.2869264276523609 0 -8.2869264276523609 -13.555551497804117 0 0 0 0 86.691274734232138 33.929218629426032 0 33.929218629426032 -56.308700796012999 0 0 0 0 112.77783752403047 26.99975558535516 0 26.99975558535516 -49.295605427687406 0 0 0 0 101.51923547250044 20.907747398894571 0 20.907747398894571 -52.54340683513874 0 0 0 0 103.67752483272488 2.8072989525244338 0 2.8072989525244338 -30.889932991558453 0 0 0 0 79.50785158968938 20.756569780765858 0 20.756569780765858 -50.452883712328912 0 0 0 0 62.893275301000358 120.64176290588148 0 120.64176290588148 -24.443231177254347 0 0 0 0 104.45816941752491 134.00431582212332 0 134.00431582212332 -55.364363411717932 0 0 0 0 83.041301004170236 98.914727096684146 0 98.914727096684146 -1.0359457450758782 0 0 0 0 169.51291567682529 78.883513377419149 0 78.883513377419149 -48.18444850484957 0 0 0 0 55.842206912315305 62.739417827462603 0 62.739417827462603 -49.138098308131248 0 0 0 0 63.967738902992323 30.610035181631702 0 30.610035181631702 18.151106033423275 0 0 0 0 -37.140201686625005 52.766204116987865 0 52.766204116987865 0.37541628297913121 0 0 0 0 55.285780659682132 67.789454723209928 0 67.789454723209928 -35.604102530851378 0 0 0 0 1.0324733866941216 1.6312875439650014 0 1.6312875439650014 -7.0316265879838227 0 0 0 0 -182.40665462766628 69.393805328520102 0 69.393805328520102 -3.0529652912464371 0 0 0 0 226.7670514797037 57.618091831740458 0 57.618091831740458 -90.262529212523077 0 0 0 0 88.352094909551198 6.9721502484186431 0 6.9721502484186431 38.680563115885889 0 0 0 0 208.0536370136324 -10.695548744148255 0 -10.695548744148255 -79.105540601580287 0 0 0 0 85.416493063132776 85.806158274412724 0 85.806158274412724 -207.06400032596866 0 0 0 0 27.253585123839002 -94.598771349519666 0 -94.598771349519666 -88.305682737307507 0 0 0 0 4.5465168683749653 44.880599940814136 0 44.880599940814136 -147.4638352326765 0 0 0 0 164.94848255012039 -5.6367949812329243 0 -5.6367949812329243 -72.000514915271197 0 0 0 0 1.1543789289308162 1.0431683491283792 0 1.0431683491283792 -13.479012047657193 0 0 0 0 12.343660169085751 -17.830329554197988 0 -17.830329554197988 -22.572920350517961 0 0 0 0 -0.1079921735377809 0.82112125165616945 0 0.82112125165616945 -2.3129895068460371 0 0 0 0 -58.604700370859064 45.77308874035225 0 45.77308874035225 39.208355382008449 0 0 0 0 -53.692214820286608 51.970346749945747 0 51.970346749945747 45.407130765161128 0 0 0 0 -262.43053849240459 163.94905275593374 0 163.94905275593374 -0.66632325440150453 0 0 0 0 -154.09309378679882 145.19364960738903 0 145.19364960738903 -28.975724976749916 0 0 0 0 -0.88421972182446495 -0.22999730851479683 0 -0.22999730851479683 0.63165353892300402 0 0 0 0 51.033448662023147 21.035445214918582 0 21.035445214918582 -5.7142859712193967 0 0 0 0 17.116747370699159 57.779572940322396 0 57.779572940322396 0.90317689627408981 0 0 0 0 -59.788739085904353 71.608836590326348 0 71.608836590326348 16.111932348969276 0 0 0 0 -47.465986591749243 49.439330213008361 0 49.439330213008361 30.901376580444776 0 0 0 0 -14.63456470023084 36.157188495856644 0 36.157188495856644 3.5371285415239981 0 0 0 0 -28.543620243490295 69.127257612784888 0 69.127257612784888 -1.9161381017329404 0 0 0 0 1.3655788306180945 28.268465671997884 0 28.268465671997884 10.205673524177371 0 0 0 0 -25.088042871608195 36.658740587625289 0 36.658740587625289 10.197593651668285 0 0 0 0 -47.093237726665393 37.099703188639978 0 37.099703188639978 4.0380511440635019 0 0 0 0 -54.669217264472536 25.388564082808443 0 25.388564082808443 -7.9459178332981537 0 0 0 0 -36.393599850009196 33.722719981567934 0 33.722719981567934 -5.5320560320396908 0 0 0 0 0.94371304806192235 27.63331999967119 0 27.63331999967119 -3.9655013315447434 0 0 0 0 1.2684217043563337 27.675433303143098 0 27.675433303143098 -16.544272970409082 0 0 0 0 -46.744314492223566 32.969517536654166 0 32.969517536654166 -22.526571782240353 0 0 0 0 -52.746412640619383 38.567747595683613 0 38.567747595683613 -19.503129580734822 0 0 0 0 -7.679711337483468 3.911216234974944 0 3.911216234974944 -2.2710793667489781 0 0 0 0 -60.923222742632788 37.698040485120146 0 37.698040485120146 -17.699297153732914 0 0 0 0 -23.338574391318005 2.7922558825747075 0 2.7922558825747075 10.826048476931703 0 0 0 0 -38.662617476118612 20.476280115246482 0 20.476280115246482 -9.7927035800848898 0 0 0 0 -274.05771612346871 114.04571744922214 0 114.04571744922214 -117.27080945757189 0 0 0 0 -33.978326918517268 34.436026823466818 0 34.436026823466818 -7.6182735440161196 0 0 0 0 -63.939876299535172 44.162030493706879 0 44.162030493706879 -3.5081089140294353 0 0 0 0 -43.143029945069429 37.765778680455696 0 37.765778680455696 -1.5588935798514285 0 0 0 0 -1.3729068608209829 -0.40826172926786342 0 -0.40826172926786342 0.91245411104547713 0 0 0 0 -32.925838754264987 30.168937565493252 0 30.168937565493252 1.3467861878489202 0 0 0 0 -100.40646061810912 280.16271467254955 0 280.16271467254955 -447.27736212489981 0 0 0 0 -199.56435772438635 365.91647351757638 0 365.91647351757638 -355.02403127673642 0 0 0 0 -253.20626842488855 275.80708061415135 0 275.80708061415135 -330.08983166264807 0 0 0 0 -220.19186435326992 277.31584465241394 0 277.31584465241394 -402.11407548638363 0 0 0 0 -256.92845030758235 312.31997865798894 0 312.31997865798894 -401.82857384413364 0 0 0 0 -284.05169418890728 339.8644543746268 0 339.8644543746268 -384.73682947602356 0 0 0 0 -281.70238117629924 373.46968971630849 0 373.46968971630849 -437.35354681049648 0 0 0 0 -47.72903516221777 12.666263818996413 0 12.666263818996413 72.04087516844811 0 0 0 0 -21.953226645678981 2.9810969740522353 0 2.9810969740522353 9.9763349286564846 0 0 0 0 -5.0334733343897824 10.74276046379282 0 10.74276046379282 -9.9350294617106556 0 0 0 0 1.7425346609888948 4.1308159285654256 0 4.1308159285654256 -6.1076260149893642 0 0 0 0 -281.3563938123807 437.37490976620393 0 437.37490976620393 -543.41245895010979 0 0 0 0 -334.25968382172869 415.04411729689309 0 415.04411729689309 -437.92646096311 0 0 0 0 -5.6782625864653085 4.3665719133753669 0 4.3665719133753669 7.3008249463105415 0 0 0 0 -281.22528312540271 343.62295188575717 0 343.62295188575717 -469.56524305634957 0 0 0 0 -277.09740724649691 279.27773401751983 0 279.27773401751983 -391.79286572252749 0 0 0 0 -287.82098680787749 422.06068941012927 0 422.06068941012927 -593.68603854229787 0 0 0 0 8.1460672632820206 46.86628141015899 0 46.86628141015899 26.023184272842627 0 0 0 0 -2.8480770312375441 4.0056708485347059 0 4.0056708485347059 5.0247478395307041 0 0 0 0 -389.31137005240089 566.2084294480519 0 566.2084294480519 -599.90016440756881 0 0 0 0 -289.98321506681532 397.33234008118598 0 397.33234008118598 -640.98834168018948 0 0 0 0 -432.71737403720908 423.54948948842502 0 423.54948948842502 -421.58965456849546 0 0 0 0 -303.78108191403953 260.76812703016913 0 260.76812703016913 -362.01727038298122 0 0 0 0 -215.10350684210607 118.69984949724312 0 118.69984949724312 -197.91701732402726 0 0 0 0 -240.39761207626725 280.05679061207775 0 280.05679061207775 -365.97914641476382 0 0 0 0 -278.61436866106123 288.58214958734061 0 288.58214958734061 -127.13597447924985 0 0 0 0 -65.845139507404383 184.83988266598681 0 184.83988266598681 -282.62908539531054 0 0 0 0 -21.390076961724844 20.20312941379234 0 20.20312941379234 -8.3841475927983993 0 0 0 0 -9.3048993473622161 4.143240360677261 0 4.143240360677261 -0.045798810011518754 0 0 0 0 -68.200866110266361 -14.557380130841921 0 -14.557380130841921 -158.4951029450458 0 0 0 0 -25.321475809203577 8.8382333629456866 0 8.8382333629456866 4.0386860753276039 0 0 0 0 -53.537924040903818 27.712008099191735 0 27.712008099191735 -18.786759506401722 0 0 0 0 0.95593800623552916 9.0707767431224582 0 9.0707767431224582 -13.885612682222387 0 0 0 0 -647.96278786213588 517.28834229776112 0 517.28834229776112 -363.01661541122303 0 0 0 0 -0.76119824448912354 -0.15574944913100452 0 -0.15574944913100452 -4.0145689574181347 0 0 0 0 -382.81732913502128 180.35576730531466 0 180.35576730531466 -6.8613227099704091 0 0 0 0 -424.63039306825158 424.37869743039482 0 424.37869743039482 -239.82386570341532 0 0 0 0 -410.18722507512575 552.43661158751638 0 552.43661158751638 -476.7209169434791 0 0 0 0 -533.44911559628235 134.27231914470758 0 134.27231914470758 -85.002783539333905 0 0 0 0 -392.42647021053563 282.73909705112965 0 282.73909705112965 -23.376664978801273 0 0 0 0 -239.32957222694677 156.90444441901855 0 156.90444441901855 0.5861815927491989 0 0 0 0 -207.53293145300267 317.06236636411631 0 317.06236636411631 -57.774862969308742 0 0 0 0 -229.80078355022579 189.76914946039324 0 189.76914946039324 111.40027265621029 0 0 0 0 21.688741692016265 229.03117735935666 0 229.03117735935666 0.038777647907409118 0 0 0 0 -228.27497046340795 291.56886492059311 0 291.56886492059311 141.71518209213536 0 0 0 0 -43.126439676179871 42.935724448769179 0 42.935724448769179 321.59657624361716 0 0 0 0 -1.3010790902436611 2.0247560604897501 0 2.0247560604897501 2.1209654789347496 0 0 0 0 -411.83675639222929 698.04818636540949 0 698.04818636540949 -725.90571262982667 0 0 0 0 -43.65875352118104 71.262432472037744 0 71.262432472037744 16.153747055475833 0 0 0 0 105.08654449032474 123.99601602076291 0 123.99601602076291 20.585165840544505 0 0 0 0 172.84455186550622 148.89119937425858 0 148.89119937425858 12.120132952390122 0 0 0 0 217.30773524517281 15.736701826682292 0 15.736701826682292 -12.573776217541308 0 0 0 0 44.081407654312898 -4.3512851377818151 0 -4.3512851377818151 -1.2108843363675987 0 0 0 0 -2.6059567445117864 4.0961768936758745 0 4.0961768936758745 -0.0029124021975213323 0 0 0 0 -0.5031178072252942 0.75286664534957026 0 0.75286664534957026 1.3452195342143511 0 0 0 0 -0.574155074673385 2.1588891306675464 0 2.1588891306675464 1.7237398116024991 0 0 0 0 -2.1095389790903027 5.2480062620970784 0 5.2480062620970784 0.55508498703420628 0 0 0 0 6.0633077142083494 4.0397184892790392 0 4.0397184892790392 -1.8523087083958671 0 0 0 0 7.6561579596782394 13.988186740873061 0 13.988186740873061 4.4496343702849117 0 0 0 0 156.42542776066148 -214.42947646006724 0 -214.42947646006724 183.60552424329762 0 0 0 0 5.3407060401557018 1.9091652422519587 0 1.9091652422519587 2.2089192356060892 0 0 0 0 299.00808001586893 141.5391255109962 0 141.5391255109962 -268.51821433347504 0 0 0 0 -278.30155608910445 232.73976087329902 0 232.73976087329902 -28.02582998658545 0 0 0 0 1.2857444763548624 2.2997488364920429 0 2.2997488364920429 -6.0769212715507308 0 0 0 0 -97.652759087878621 21.34279993932978 0 21.34279993932978 12.645533520553727 0 0 0 0 2.5751856874812802 113.12275657724967 0 113.12275657724967 -107.10213925017706 0 0 0 0 125.02711803449529 -122.30748694679642 0 -122.30748694679642 5.9015922925373161 0 0 0 0 88.368785209469934 20.611646958488564 0 20.611646958488564 -19.049496798441396 0 0 0 0 106.71697422729812 -27.770265121092962 0 -27.770265121092962 -32.870134719560156 0 0 0 0 101.99470508966078 -124.29095135246826 0 -124.29095135246826 76.701586267041876 0 0 0 0 101.25549518107618 -44.725127440153301 0 -44.725127440153301 71.325602223922033 0 0 0 0 -5.0988246712330465 -18.456809358213718 0 -18.456809358213718 -235.06595668786031 0 0 0 0 11.872189365579942 11.626868804197343 0 11.626868804197343 -0.25410421268580308 0 0 0 0 13.611444829704851 32.004985388142813 0 32.004985388142813 -65.273287877367693 0 0 0 0 -21.040838497023515 27.877716729995541 0 27.877716729995541 -7.7876037380483467 0 0 0 0 24.314730170375697 13.518444196601195 0 13.518444196601195 -24.913564533861063 0 0 0 0 26.497987837068649 -4.6387855905813922 0 -4.6387855905813922 -39.324602553693694 0 0 0 0 -1.7286093086553187 1.4712702645229001 0 1.4712702645229001 -1.6119275474209758 0 0 0 0 17.098365225974703 -9.9641997329454171 0 -9.9641997329454171 -61.047302608841164 0 0 0 0 -11.790284753964443 -17.536798653654841 0 -17.536798653654841 -12.437079751369311 0 0 0 0 -10.96778290151633 -2.4230141544976505 0 -2.4230141544976505 15.39813266521378 0 0 0 0 108.55247564124147 24.999800322344527 0 24.999800322344527 20.799957213144808 0 0 0 0 56.877564366319348 90.563360062438733 0 90.563360062438733 -34.693992018685094 0 0 0 0 9.2598866745236137 82.151996400942153 0 82.151996400942153 90.676470377962687 0 0 0 0 -0.98559175896165385 -0.43856599437452104 0 -0.43856599437452104 0.14881727161446179 0 0 0 0 -363.73200235504282 436.19771612431578 0 436.19771612431578 -240.45465659873298 0 0 0 0 -743.12539308977648 472.97462214022198 0 472.97462214022198 -95.754814719679416 0 0 0 0 -410.55808036955204 564.3033705797061 0 564.3033705797061 -409.59216644049047 0 0 0 0 -422.3192929977231 264.72938460169098 0 264.72938460169098 0.082656653139565606 0 0 0 0 -408.97629883153422 286.9436828044054 0 286.9436828044054 -13.199093269129662 0 0 0 0 -462.50035263545033 439.34454490143435 0 439.34454490143435 -216.55011786812975 0 0 0 0 -176.76602509626537 249.92763089437358 0 249.92763089437358 -144.33583223605274 0 0 0 0 -178.50553910600252 249.91318996090013 0 249.91318996090013 -53.769945850552176 0 0 0 0 93.176019285481743 117.75940443617219 0 117.75940443617219 -0.28408379398388206 0 0 0 0 91.312547086281484 68.129050183033542 0 68.129050183033542 -106.74919313399005 0 0 0 0 106.2116572787636 168.1176464399723 0 168.1176464399723 82.274740494984144 0 0 0 0 326.43630245735403 137.97733014658297 0 137.97733014658297 -107.51694843106816 0 0 0 0 -260.78070525259318 -168.62779603750823 0 -168.62779603750823 445.44065738015706 0 0 0 0 90.271473395211615 29.102592018363794 0 29.102592018363794 0.051662869143910939 0 0 0 0 41.638991155817166 104.28577547401801 0 104.28577547401801 63.861123088870954 0 0 0 0 -25.12834878006106 21.255499683764356 0 21.255499683764356 35.015413169110616 0 0 0 0 113.216260032023 91.740756868513927 0 91.740756868513927 0.040490571776899742 0 0 0 0 271.9865869726309 163.27509706313504 0 163.27509706313504 29.159533215892225 0 0 0 0 113.8418450172303 49.876014347943055 0 49.876014347943055 51.585165115095151 0 0 0 0 0.060556857357918048 0.46666034279785862 0 0.46666034279785862 -0.56205062233215131 0 0 0 0 462.07049159599319 5.7634755210820003 0 5.7634755210820003 -41.787895757137449 0 0 0 0 -552.66259090115636 300.76837730011175 0 300.76837730011175 111.42623613422757 0 0 0 0 -82.44761626015088 127.25549163949654 0 127.25549163949654 -0.052275783076765947 0 0 0 0 8.0375843132369482 75.262936724029714 0 75.262936724029714 46.467066405886726 0 0 0 0 8.0501613507331058 76.400281221242039 0 76.400281221242039 15.833284287065908 0 0 0 0 62.79506639668989 109.44691923423488 0 109.44691923423488 32.896099785655679 0 0 0 0 -2.6536742284779393 72.710895921869451 0 72.710895921869451 49.316203068141476 0 0 0 0 -95.02556876130916 77.681822921900675 0 77.681822921900675 59.288802047776699 0 0 0 0 -82.664244195716492 114.1442530466993 0 114.1442530466993 41.478306533330397 0 0 0 0 -53.563113302082229 83.119444300078612 0 83.119444300078612 22.141488234043209 0 0 0 0 -68.984134717685265 65.361343082489839 0 65.361343082489839 11.862779500517718 0 0 0 0 -28.73614290855221 117.11161579186955 0 117.11161579186955 55.65316221076273 0 0 0 0 187.36888806574098 -43.48937035948984 0 -43.48937035948984 30.406622546870494 0 0 0 0 40.830280242455501 45.400203176928699 0 45.400203176928699 29.127003095163673 0 0 0 0 179.07824578845975 105.6408627489036 0 105.6408627489036 28.98064214846454 0 0 0 0 -11.518383783160061 92.476742674523848 0 92.476742674523848 3.6639923743041436 0 0 0 0 86.273127661270337 88.047446802822378 0 88.047446802822378 -8.9593547048934852 0 0 0 0 210.75952883276068 7.8518870579000577 0 7.8518870579000577 -4.9193635392075521 0 0 0 0 138.00056545191001 -32.368165083975327 0 -32.368165083975327 -12.062133764877217 0 0 0 0 42.785062097160335 20.113858567514399 0 20.113858567514399 17.885776623916172 0 0 0 0 -14.329583307139728 29.005351396608603 0 29.005351396608603 9.5763918239827035 0 0 0 0 31.695900237729802 93.989455907776573 0 93.989455907776573 -132.64457159955782 0 0 0 0 -57.338332538610302 59.975848455083906 0 59.975848455083906 -34.301231692017609 0 0 0 0 71.779156821363358 27.367438254801527 0 27.367438254801527 -81.369310815753124 0 0 0 0 -24.890463719873424 55.473109507835034 0 55.473109507835034 -78.617582738523197 0 0 0 0 4.2699501007860086 17.574586636259276 0 17.574586636259276 20.682478660046172 0 0 0 0 -45.121957853989898 131.6038034163962 0 131.6038034163962 -61.492504133595503 0 0 0 0 -10.851844010426703 31.83691964125137 0 31.83691964125137 -3.4742573692237784 0 0 0 0 -0.0020293965044402285 30.449860708564302 0 30.449860708564302 -7.3652924674133828 0 0 0 0 7.8263502780586869 19.256050865144815 0 19.256050865144815 21.284613608253764 0 0 0 0 0.61160572897324528 37.935013808544682 0 37.935013808544682 -8.4575558562828519 0 0 0 0 -18.730128356876776 152.02541812814161 0 152.02541812814161 -124.32194314771186 0 0 0 0 -16.451999190390779 31.709884422973118 0 31.709884422973118 1.122366910421988 0 0 0 0 18.951149908832576 62.552692936044878 0 62.552692936044878 8.936091542505892 0 0 0 0 -1.8530107609520599 28.966730957711661 0 28.966730957711661 -1.6695132293025381 0 0 0 0 -0.13601238045652053 44.263913420306608 0 44.263913420306608 31.861725036149437 0 0 0 0 -27.506173340795613 38.760436509162901 0 38.760436509162901 34.903179104905576 0 0 0 0 1.6627741904649156 18.648677651770413 0 18.648677651770413 31.547229897103534 0 0 0 0 10.552857136699419 20.23253654100327 0 20.23253654100327 21.784670521297542 0 0 0 0 3.015300795663876 48.112752063308108 0 48.112752063308108 1.5089737533853622 0 0 0 0 5.3023054390314428 27.897810579643192 0 27.897810579643192 -0.6524978671768622 0 0 0 0 -24.418247226783933 12.899054682151473 0 12.899054682151473 -31.61371025968765 0 0 0 0 0.32641178457573616 0.39954972336244055 0 0.39954972336244055 0.10984343923601614 0 0 0 0 113.39720112336818 22.796482956145155 0 22.796482956145155 -48.494097102338856 0 0 0 0 -16.326888593575177 52.647890992752764 0 52.647890992752764 -9.1216606235029758 0 0 0 0 21.796053440371907 53.725856061691957 0 53.725856061691957 -42.482884139748421 0 0 0 0 0.57742367260066629 0.79301919801032739 0 0.79301919801032739 0.36646158229144987 0 0 0 0 -21.963212434913657 43.485814998892238 0 43.485814998892238 -19.065341292407538 0 0 0 0 -21.147566277975784 69.083105981519111 0 69.083105981519111 -30.754082640338311 0 0 0 0 14.286750297404978 33.93272398017325 0 33.93272398017325 -19.493322210350016 0 0 0 0 16.844966031205772 17.746418928389783 0 17.746418928389783 5.1346584093113847 0 0 0 0 -21.07532597809336 41.727077548607667 0 41.727077548607667 -6.5064515901722189 0 0 0 0 -3.0477546713893844 40.47134897295291 0 40.47134897295291 0.75635690328272176 0 0 0 0 15.188367663229656 18.706684117303666 0 18.706684117303666 -27.032424477599307 0 0 0 0 5.9615426034661141 4.7105873164537115 0 4.7105873164537115 -2.0479413045395631 0 0 0 0 -10.96730112238356 31.238118191447938 0 31.238118191447938 -6.5559179935554965 0 0 0 0 15.896560847929294 16.470064811704752 0 16.470064811704752 4.7663996961795192 0 0 0 0 -23.292301835798298 41.671366336950086 0 41.671366336950086 -6.6457374403253198 0 0 0 0 -7.6502881764881749 29.172154236752249 0 29.172154236752249 6.8307451764121652 0 0 0 0 24.306961901149407 22.037126601953787 0 22.037126601953787 4.2795240000414196 0 0 0 0 21.327514482668448 50.434289726199495 0 50.434289726199495 -19.913644250040306 0 0 0 0 -67.041557260408354 68.254302853310946 0 68.254302853310946 -4.2928437648442923 0 0 0 0 25.449190800041833 35.388765718067589 0 35.388765718067589 -1.2615272778812141 0 0 0 0 57.571538326850259 23.016796473739305 0 23.016796473739305 -5.8793138845867361 0 0 0 0 41.826634081340671 21.549408170605602 0 21.549408170605602 8.1391877775458852 0 0 0 0 40.378726635065505 25.353316807204465 0 25.353316807204465 5.7361012479414057 0 0 0 0 30.384611546415272 29.412923338250948 0 29.412923338250948 6.1904012999802944 0 0 0 0 17.728111497001542 17.859104998239143 0 17.859104998239143 0.90041691542469948 0 0 0 0 -33.183919399539263 47.27379427798769 0 47.27379427798769 -16.391499605859281 0 0 0 0 26.116108370604707 26.248510719575279 0 26.248510719575279 8.1840046204233659 0 0 0 0 -26.90627076664714 23.210812141740462 0 23.210812141740462 26.685714729683241 0 0 0 0 -5.7485155831796817 14.553709927809599 0 14.553709927809599 19.753235024085853 0 0 0 0 -17.14617730202508 28.593838275999587 0 28.593838275999587 35.349008059551124 0 0 0 0 26.095746905904889 36.359781492079492 0 36.359781492079492 27.34977766792872 0 0 0 0 23.197982061043149 22.469050062936731 0 22.469050062936731 22.915686128981179 0 0 0 0 1.6225559188079517 3.4075507265986573 0 3.4075507265986573 5.3885199663173253 0 0 0 0 27.57672770546742 7.9416734246478882 0 7.9416734246478882 31.993703997082775 0 0 0 0 26.746287149966975 21.522718289401382 0 21.522718289401382 11.146202119387453 0 0 0 0 15.09576790001006 15.843220520473551 0 15.843220520473551 6.1119332284069969 0 0 0 0 -1.9004657296201994 1.4881984624569071 0 1.4881984624569071 -0.023911004006180292 0 0 0 0 6.7365030777920492 9.1836994249402295 0 9.1836994249402295 0.95415604428006873 0 0 0 0 7.3289180522729112 22.738293849870388 0 22.738293849870388 5.3489457726682303 0 0 0 0 16.768025791227956 15.573520314181224 0 15.573520314181224 -0.80120293746585958 0 0 0 0 8.872623265704533 17.259705586882774 0 17.259705586882774 5.6615687475714367 0 0 0 0 19.203209284008363 11.474953315541313 0 11.474953315541313 -1.7307958468505973 0 0 0 0 4.8400002769471833 13.970476752999218 0 13.970476752999218 10.839127981363248 0 0 0 0 26.311311407185713 22.996656961928238 0 22.996656961928238 7.1408100976295827 0 0 0 0 1.3237945899791121 15.031906820678884 0 15.031906820678884 18.930129466420127 0 0 0 0 -64.395796612183403 68.440111110430735 0 68.440111110430735 -14.045189370539447 0 0 0 0 -18.94267374095034 32.561255835786142 0 32.561255835786142 -7.3133621360470897 0 0 0 0 -22.694617432410269 25.806462731212378 0 25.806462731212378 25.23998143717472 0 0 0 0 -50.362542814271364 32.358670057263225 0 32.358670057263225 25.871773483919696 0 0 0 0 -28.497179521369162 16.186412320177624 0 16.186412320177624 28.706451405239932 0 0 0 0 -119.50933982802235 74.143880665560573 0 74.143880665560573 60.607774907133717 0 0 0 0 -109.58156370771428 17.621728822127352 0 17.621728822127352 44.387023368268274 0 0 0 0 -39.538634002673007 3.9788257793697994 0 3.9788257793697994 33.84368163639374 0 0 0 0 -28.958323112335961 30.169869317140183 0 30.169869317140183 27.121089065258275 0 0 0 0 -0.065304198889700515 1.018282785007429 0 1.018282785007429 -1.253578357048255 0 0 0 0 4.3445778549494207 7.6275247676203435 0 7.6275247676203435 0.0090983871377829928 0 0 0 0 -226.39666426337317 99.826809381494968 0 99.826809381494968 64.500704975114786 0 0 0 0 -207.42288295336812 -54.78637668769079 0 -54.78637668769079 17.987525674263452 0 0 0 0 16.42796092271692 13.426863535773009 0 13.426863535773009 7.8247282590018585 0 0 0 0 5.8951642187752427 4.3459662180523821 0 4.3459662180523821 -1.0296065310981959 0 0 0 0 20.509490344555161 18.413431573902926 0 18.413431573902926 17.917131060326938 0 0 0 0 14.304131966526256 14.08260689227609 0 14.08260689227609 15.602406869380502 0 0 0 0 5.1685465296339075 10.233678225524272 0 10.233678225524272 3.9505511075019797 0 0 0 0 6.688834332940985 6.3146789462625748 0 6.3146789462625748 0.29770257725613192 0 0 0 0 2.7429256947654594 6.7776437375042349 0 6.7776437375042349 4.9613651463239989 0 0 0 0 18.783603289984967 19.136182319594809 0 19.136182319594809 19.394293767516501 0 0 0 0 -14.42314137460744 17.83749065738084 0 17.83749065738084 21.69135455207288 0 0 0 0 -0.75948998487137054 2.764228847707443 0 2.764228847707443 -0.90439681975030339 0 0 0 0 -13.377217485765868 24.389720603707246 0 24.389720603707246 24.651141610644117 0 0 0 0 -13.40982124902439 26.807899492087017 0 26.807899492087017 21.351702839867357 0 0 0 0 1.6393634364695886 -0.25013329886822078 0 -0.25013329886822078 -0.74065013032873139 0 0 0 0 -6.0969349464266998 5.1258958913313108 0 5.1258958913313108 8.0081403898730059 0 0 0 0 173.57330879202976 43.521991347382937 0 43.521991347382937 3.9237194798188284 0 0 0 0 0.22745302032441883 -0.17789199791763366 0 -0.17789199791763366 1.0187346831260129 0 0 0 0 6.5267322680439435 9.3531191979736832 0 9.3531191979736832 -0.00026514379351283424 0 0 0 0 -0.88198511428143433 6.0871489435030526 0 6.0871489435030526 3.4696924445797777 0 0 0 0 144.38430579281481 111.233689035319 0 111.233689035319 33.45774789495772 0 0 0 0 9.1275548538403903 5.4215762098962443 0 5.4215762098962443 -5.5558828975463825 0 0 0 0 90.824303614021801 14.2429693473714 0 14.2429693473714 -2.0978312876877681 0 0 0 0 108.14696833513881 106.27736157897016 0 106.27736157897016 42.804145070520462 0 0 0 0 22.839201787998945 76.554751632087573 0 76.554751632087573 73.528792414377676 0 0 0 0 98.164417460849791 136.08803745331033 0 136.08803745331033 73.14336670612829 0 0 0 0 101.21672142159605 132.77057526067802 0 132.77057526067802 69.967296358416206 0 0 0 0 153.53616071083843 158.84065198511416 0 158.84065198511416 49.969945986915263 0 0 0 0 140.66264374841489 131.58776498135921 0 131.58776498135921 -0.022986576908314661 0 0 0 0 158.80191591900393 158.36851460385151 0 158.36851460385151 0.099918265282677582 0 0 0 0 183.61977654184196 202.14954576032505 0 202.14954576032505 63.201262546914222 0 0 0 0 186.57946435838403 222.46452347650711 0 222.46452347650711 100.91764164757478 0 0 0 0 160.7396513665617 220.58439759732937 0 220.58439759732937 101.6841299601856 0 0 0 0 122.33021223309788 147.90627662330007 0 147.90627662330007 104.3315425394685 0 0 0 0 113.85792508846862 155.84961113035206 0 155.84961113035206 111.36084184692299 0 0 0 0 96.58369227592857 126.63916327620973 0 126.63916327620973 115.53068859587802 0 0 0 0 106.25949120955192 144.08379665870052 0 144.08379665870052 188.7905816576822 0 0 0 0 104.96994874278653 149.87089852517238 0 149.87089852517238 165.83598725075717 0 0 0 0 70.905490248303977 123.12380201863562 0 123.12380201863562 213.49625258078595 0 0 0 0 67.503955026958693 109.05094703555551 0 109.05094703555551 155.48620770961861 0 0 0 0 136.19864789746316 175.85744758905275 0 175.85744758905275 138.40660871109139 0 0 0 0 133.8566632985511 187.51696537329553 0 187.51696537329553 196.25990525149973 0 0 0 0 107.91267085740856 173.17599245003657 0 173.17599245003657 188.6691303773332 0 0 0 0 4.0847301958655748 9.0055932191821313 0 9.0055932191821313 -10.657057203991492 0 0 0 0 117.58752174507208 170.72116898758395 0 170.72116898758395 200.99595448801301 0 0 0 0 121.61356630605405 161.73990947617767 0 161.73990947617767 197.54336874517321 0 0 0 0 -48.901998215616914 -39.384940069983713 0 -39.384940069983713 255.15728080768531 0 0 0 0 17.604978174585995 -128.66832009753853 0 -128.66832009753853 120.00038614766527 0 0 0 0 42.065136658959091 -200.73435784738103 0 -200.73435784738103 193.70763326538145 0 0 0 0 4.259018841861689 -90.023126718166168 0 -90.023126718166168 20.474463401245885 0 0 0 0 86.305917907324329 -280.51547202092479 0 -280.51547202092479 221.98103823339625 0 0 0 0 210.68685698989066 -191.83645644996432 0 -191.83645644996432 -82.517535610473715 0 0 0 0 270.14141095651212 -287.53760529069405 0 -287.53760529069405 56.11261821698281 0 0 0 0 7.5062370396481128 12.694091198267415 0 12.694091198267415 13.838429248979082 0 0 0 0 2.2416938643783197 8.2187852714770884 0 8.2187852714770884 -4.1477882368932057 0 0 0 0 91.605673117489459 168.06400902107634 0 168.06400902107634 239.9545348756219 0 0 0 0 -31.91424868672766 28.863189041439909 0 28.863189041439909 182.64553694543429 0 0 0 0 26.258114037906125 56.748898334990372 0 56.748898334990372 89.982502539176494 0 0 0 0 4.857181578194286 -22.845062859749305 0 -22.845062859749305 87.146903990794272 0 0 0 0 2.1508088879127172 -1.3394229216937674 0 -1.3394229216937674 38.909052826162224 0 0 0 0 19.987413066232875 3.5831143090472324 0 3.5831143090472324 18.421640753207612 0 0 0 0 42.856690180529313 22.5698487608297 0 22.5698487608297 26.613279625249561 0 0 0 0 6.5490658410881224 15.445550153823206 0 15.445550153823206 7.1160947129901615 0 0 0 0 7.5991520968865185 8.2097615099939247 0 8.2097615099939247 -5.3270604776778612 0 0 0 0 11.653024071845721 5.7067523886544222 0 5.7067523886544222 20.088730867855702 0 0 0 0 9.0019666948101076 3.1317045730975224 0 3.1317045730975224 21.316984207394853 0 0 0 0 12.610290191559216 6.4606520053712302 0 6.4606520053712302 17.336125887370144 0 0 0 0 9.3386514893245476 -1.7752130797452992 0 -1.7752130797452992 9.2521183810895309 0 0 0 0 2.4568259754173241 4.4613706452402084 0 4.4613706452402084 -0.3349282193534151 0 0 0 0 18.394969474063146 15.044322350711809 0 15.044322350711809 7.6803388869811897 0 0 0 0 12.05090719504733 11.342709156633646 0 11.342709156633646 6.6572247730782692 0 0 0 0 12.724909674689115 11.326839904897497 0 11.326839904897497 4.0060741848410544 0 0 0 0 11.84428580610345 7.2919608728465164 0 7.2919608728465164 -6.3510714635954599 0 0 0 0 11.368685536815065 13.13127707397507 0 13.13127707397507 7.3538523233946762 0 0 0 0 5.6499269769510061 5.7945790953883431 0 5.7945790953883431 -8.1350072212905786 0 0 0 0 77.797602520569853 111.04091489550774 0 111.04091489550774 108.44415971294802 0 0 0 0 70.236599262866093 122.39986757339284 0 122.39986757339284 111.59533661041496 0 0 0 0 -62.563128570611298 258.72019470359737 0 258.72019470359737 81.938310867080872 0 0 0 0 94.954287837628726 174.95681103724564 0 174.95681103724564 31.481240224646172 0 0 0 0 84.7273960290986 280.76424379537548 0 280.76424379537548 -0.21737282198591856 0 0 0 0 208.79538023130817 266.90933129376572 0 266.90933129376572 0.071326381352264434 0 0 0 0 141.49223570146205 205.46416986967415 0 205.46416986967415 31.07065266257996 0 0 0 0 174.34230524952 283.18961627011959 0 283.18961627011959 54.375933465724302 0 0 0 0 200.18015908137295 238.30809565822801 0 238.30809565822801 129.17335601140803 0 0 0 0 240.35968704393235 297.68347600036213 0 297.68347600036213 87.832193673260917 0 0 0 0 239.74645105766012 230.26833208999778 0 230.26833208999778 43.420626263907252 0 0 0 0 225.72984667385572 222.41448481526822 0 222.41448481526822 0.0061097100870201072 0 0 0 0 235.16441509919173 255.39494496236921 0 255.39494496236921 85.429179383543669 0 0 0 0 228.96503362831209 250.24663810849597 0 250.24663810849597 87.748305253662693 0 0 0 0 183.14224746825721 272.14119508682415 0 272.14119508682415 214.93214213053579 0 0 0 0 156.73471075965972 339.73117975489004 0 339.73117975489004 493.26338274701266 0 0 0 0 91.717641134098812 199.38660040027753 0 199.38660040027753 234.47294455737574 0 0 0 0 -0.38968817792893162 0.68801763500655966 0 0.68801763500655966 0.23053221911914079 0 0 0 0 -33.851067890850572 -57.871556142501504 0 -57.871556142501504 37.782042662380263 0 0 0 0 254.36593864306633 447.99067657623527 0 447.99067657623527 465.05769193444848 0 0 0 0 -194.25794991980456 20.727803078854777 0 20.727803078854777 256.25249853987043 0 0 0 0 362.50035199898048 334.23315938863379 0 334.23315938863379 382.58367024471227 0 0 0 0 326.27486660096838 281.70410016133974 0 281.70410016133974 463.54648405673652 0 0 0 0 234.52760738912184 341.0389566529775 0 341.0389566529775 427.00669976115751 0 0 0 0 332.00621837928702 361.16264663796028 0 361.16264663796028 359.58530185131531 0 0 0 0 221.3863577720731 333.77778553367898 0 333.77778553367898 363.03273459650973 0 0 0 0 218.45638333015177 277.57991925426904 0 277.57991925426904 215.57799466096185 0 0 0 0 242.91652774999829 284.6611652133397 0 284.6611652133397 214.46271237319161 0 0 0 0 203.88061386255322 332.69490691475949 0 332.69490691475949 182.14792331045828 0 0 0 0 147.0269273194881 261.33757211479133 0 261.33757211479133 256.69639413930418 0 0 0 0 241.23279403622473 257.63405646613683 0 257.63405646613683 265.30704287915432 0 0 0 0 194.18779046824056 339.38676265059621 0 339.38676265059621 365.02161021899519 0 0 0 0 219.89638046942855 369.73428014918318 0 369.73428014918318 459.90237021172288 0 0 0 0 244.9917604766863 287.90164570336947 0 287.90164570336947 407.31345391598006 0 0 0 0 204.78405933339491 314.28949802134593 0 314.28949802134593 429.92878511334857 0 0 0 0 188.72380553330368 342.23584910267527 0 342.23584910267527 393.82665092775642 0 0 0 0 175.03376361683695 273.27390235661733 0 273.27390235661733 366.44517514029576 0 0 0 0 159.66689545475674 327.49420443925192 0 327.49420443925192 271.99439878053818 0 0 0 0 88.067732626950601 271.28916068925901 0 271.28916068925901 368.51581949629417 0 0 0 0 145.53114003408336 281.18160249307402 0 281.18160249307402 408.93968136377225 0 0 0 0 160.636268822278 285.26229759077614 0 285.26229759077614 366.12670091923792 0 0 0 0 124.00314922235339 287.33292462666577 0 287.33292462666577 408.79761407295882 0 0 0 0 130.79057531694616 250.87327150220153 0 250.87327150220153 371.5490430516511 0 0 0 0 122.09553171127936 247.41983183455886 0 247.41983183455886 312.18039728607255 0 0 0 0 146.51409975030401 337.23198904246965 0 337.23198904246965 66.215788490007981 0 0 0 0 2.1289023987028486 315.83381132640352 0 315.83381132640352 286.48052603457472 0 0 0 0 21.231488504326535 63.818472114571705 0 63.818472114571705 125.95788671987611 0 0 0 0 -15.404180833737882 -187.76453456823037 0 -187.76453456823037 -359.65126381444861 0 0 0 0 190.89290197403898 342.54969293343311 0 342.54969293343311 491.62113348347248 0 0 0 0 6.7508513860652215 10.712485554160878 0 10.712485554160878 -12.658238325808725 0 0 0 0 -5.6688667544536955 2.4456871052308031 0 2.4456871052308031 6.2287985371253143 0 0 0 0 212.11325230910552 325.54480989961303 0 325.54480989961303 458.33817659284978 0 0 0 0 195.56797306563203 303.28460164593707 0 303.28460164593707 500.56890905888577 0 0 0 0 171.92298595354259 327.13602813307625 0 327.13602813307625 476.53473239734012 0 0 0 0 165.56820826038802 298.7764147285443 0 298.7764147285443 450.42598131623527 0 0 0 0 146.14870874841245 269.94215186745078 0 269.94215186745078 421.7513615047792 0 0 0 0 152.99496925909625 306.24766898136568 0 306.24766898136568 444.58635134405631 0 0 0 0 160.06310003167891 272.52126303024124 0 272.52126303024124 413.42672496181331 0 0 0 0 175.65857873024561 318.75746822198198 0 318.75746822198198 428.09006325247174 0 0 0 0 209.78666233181139 298.50236106417287 0 298.50236106417287 437.84650774685724 0 0 0 0 192.33826636751883 327.5569019433824 0 327.5569019433824 464.47061120020226 0 0 0 0 270.27752158412841 297.26176848751493 0 297.26176848751493 464.12442386821931 0 0 0 0 183.88415048752358 287.13680445619684 0 287.13680445619684 455.90696087680408 0 0 0 0 55.229806505698889 49.971186179820506 0 49.971186179820506 49.813021972837305 0 0 0 0 -3.5313200468203334 0.86434466162651802 0 0.86434466162651802 1.6066925062037569 0 0 0 0 249.44692112475332 425.846611231118 0 425.846611231118 533.39398793712462 0 0 0 0 313.30851399388484 372.33478869131068 0 372.33478869131068 441.18624772454496 0 0 0 0 214.50089851572568 367.87570943350966 0 367.87570943350966 470.27239987722714 0 0 0 0 -64.285557790735766 -142.00821885105324 0 -142.00821885105324 -356.241693155549 0 0 0 0 101.10350208000909 109.5502766378122 0 109.5502766378122 146.51079453209059 0 0 0 0 -0.70663273534527704 2.6042888863636975 0 2.6042888863636975 -5.3512733929677267 0 0 0 0 -396.47896566711825 -211.5309644907793 0 -211.5309644907793 -364.65047158742163 0 0 0 0 1.6725076653823265 13.98128140838331 0 13.98128140838331 -15.76522506514803 0 0 0 0 63.527817751278235 -720.53046036327396 0 -720.53046036327396 -377.2574196632122 0 0 0 0 -42.27081449819525 48.630492450742167 0 48.630492450742167 161.93951973714866 0 0 0 0 221.2478061232232 319.25649951041851 0 319.25649951041851 562.1141490293885 0 0 0 0 205.15890024501277 93.097520286668441 0 93.097520286668441 -59.992862453280395 0 0 0 0 1.0930029616144168 16.591399669561994 0 16.591399669561994 -16.696447680501208 0 0 0 0 -55.890656560939533 144.57221784299327 0 144.57221784299327 219.52898653410557 0 0 0 0 -441.50410654763982 367.74572106284904 0 367.74572106284904 -860.3758300904301 0 0 0 0 109.26076851270295 473.60900652817963 0 473.60900652817963 -514.48669041974063 0 0 0 0 298.2070126877843 -141.1575236496501 0 -141.1575236496501 -517.23694826770225 0 0 0 0 346.67600378268889 132.45692662515103 0 132.45692662515103 -43.859333855423756 0 0 0 0 160.92952856445754 196.31845675741715 0 196.31845675741715 105.70581241578475 0 0 0 0 142.93594530706241 77.19577100412971 0 77.19577100412971 16.827551194728585 0 0 0 0 18.316747401721841 26.067948947924378 0 26.067948947924378 57.224310954607063 0 0 0 0 86.902210278316943 92.087616808907114 0 92.087616808907114 32.955947592447046 0 0 0 0 4.4371691908600042 38.78483245665484 0 38.78483245665484 28.114557135848372 0 0 0 0 40.249063895893414 95.706808590002765 0 95.706808590002765 55.675866097543349 0 0 0 0 113.49900645195885 131.32709532527952 0 131.32709532527952 50.464581349348009 0 0 0 0 69.88217962588169 104.13097612351703 0 104.13097612351703 66.923623324553773 0 0 0 0 161.70558267160413 104.87177478119338 0 104.87177478119338 52.810327094281092 0 0 0 0 142.50562654135251 165.86765467649593 0 165.86765467649593 74.333755997584376 0 0 0 0 -3.8045550193346269 8.4840426289946009 0 8.4840426289946009 -14.481580452194208 0 0 0 0 -32.831120265696882 -170.07646521701099 0 -170.07646521701099 -341.53454313780094 0 0 0 0 152.14195848843246 143.28897465472801 0 143.28897465472801 46.155185286177584 0 0 0 0 100.57538380103142 138.91797155937456 0 138.91797155937456 79.469166432711972 0 0 0 0 84.795516198697896 166.35449364456144 0 166.35449364456144 68.042107060195121 0 0 0 0 144.61798066273479 62.747080292510418 0 62.747080292510418 -52.982296189045883 0 0 0 0 -49.891767955801697 112.15552959983688 0 112.15552959983688 -78.526880758430707 0 0 0 0 -6.3931044935525172 15.70092189526337 0 15.70092189526337 -19.737945036257315 0 0 0 0 2.3931107002035787 53.490115433029132 0 53.490115433029132 -249.1323233088915 0 0 0 0 -46.0558749948068 -115.76070885512308 0 -115.76070885512308 -358.91653020759986 0 0 0 0 -47.46924606273933 -196.58753687759599 0 -196.58753687759599 -180.16902898855915 0 0 0 0 -164.82705249820356 -214.88053620959181 0 -214.88053620959181 -351.32352625277417 0 0 0 0 -0.309321180825048 0.48392162532341132 0 0.48392162532341132 -0.5525095257438295 0 0 0 0 -38.168294536054873 55.680390953715687 0 55.680390953715687 -16.241569924502983 0 0 0 0 62.409145423946939 73.906567481633829 0 73.906567481633829 -50.245441172222854 0 0 0 0 30.24619013060601 6.7635331185083487 0 6.7635331185083487 4.9691796175666241 0 0 0 0 31.498141195116659 -5.5808258470387955 0 -5.5808258470387955 -81.698674558690982 0 0 0 0 26.972740269869064 11.371656326424272 0 11.371656326424272 6.1030194824488717 0 0 0 0 51.645566684667756 12.334805008797048 0 12.334805008797048 5.6908737728808774 0 0 0 0 43.586182972594997 21.359130182801891 0 21.359130182801891 0.52580816456611501 0 0 0 0 -0.55483091471233337 0.81280979307589263 0 0.81280979307589263 -1.9742307792528635 0 0 0 0 23.716772587691594 2.2760854780790396 0 2.2760854780790396 -1.0046028983488213 0 0 0 0 11.596134951974818 -5.7423496092924324 0 -5.7423496092924324 -5.3804671977013641 0 0 0 0 16.324514461452054 -6.6387652513803914 0 -6.6387652513803914 -0.59323872782260878 0 0 0 0 -4.0054221168256845 12.354728639293171 0 12.354728639293171 -2.2771371105263825 0 0 0 0 29.808969564386643 4.5739524880082172 0 4.5739524880082172 -9.9649926489510108 0 0 0 0 22.376755501592925 -51.2172375788723 0 -51.2172375788723 -13.961076391206007 0 0 0 0 19.052300746147012 14.444337489157078 0 14.444337489157078 -34.482887697202386 0 0 0 0 24.074707640191264 -12.759447612981603 0 -12.759447612981603 -13.032856103903214 0 0 0 0 26.07447697956286 28.443170100936186 0 28.443170100936186 -88.408934994222363 0 0 0 0 262.42319489637134 -180.36323432661266 0 -180.36323432661266 -181.52810198903899 0 0 0 0 274.96449239286085 -106.63260934896971 0 -106.63260934896971 -346.38228254883143 0 0 0 0 264.56330312492355 -143.95137947975309 0 -143.95137947975309 -288.51345461394521 0 0 0 0 141.2854743679236 -42.977817811464774 0 -42.977817811464774 -227.20530205035175 0 0 0 0 213.01959767009976 -172.56714323380584 0 -172.56714323380584 -77.809261077083647 0 0 0 0 61.664294529073231 15.631379525279044 0 15.631379525279044 -147.48340324447781 0 0 0 0 54.747709170618691 -120.08755453805497 0 -120.08755453805497 22.007765870948788 0 0 0 0 59.378563580662558 -114.4891784477004 0 -114.4891784477004 -78.292865163864917 0 0 0 0 12.556817837350536 -38.237695019473904 0 -38.237695019473904 45.013724654898397 0 0 0 0 12.969862259602451 43.272783507614804 0 43.272783507614804 -102.37504303612513 0 0 0 0 56.164320080713878 221.4718873258098 0 221.4718873258098 -424.49856036377696 0 0 0 0 0.31346794050970939 1.2222396080823437 0 1.2222396080823437 -0.097470374928732895 0 0 0 0 -141.80858208142217 94.258406442062551 0 94.258406442062551 -63.251737404480082 0 0 0 0 -246.32023311893772 233.18696374491265 0 233.18696374491265 -123.01562908632695 0 0 0 0 11.789695739399576 106.66538256120839 0 106.66538256120839 -190.21473067589977 0 0 0 0 -0.51766796358424472 59.675297973350098 0 59.675297973350098 -61.949576154211172 0 0 0 0 0.69862325410713311 81.622504825116266 0 81.622504825116266 -109.07773723232822 0 0 0 0 -27.227104049918125 70.951401301776059 0 70.951401301776059 -112.86452499258303 0 0 0 0 0.50463780504357025 2.003470693300978 0 2.003470693300978 0.14804320975601115 0 0 0 0 -18.90847006697777 25.168773415737405 0 25.168773415737405 -28.00413633883727 0 0 0 0 -2.7108982702720823 19.171813110689982 0 19.171813110689982 -47.091898393631709 0 0 0 0 -4.989732844449918 55.322329076319875 0 55.322329076319875 33.087249039977905 0 0 0 0 1.7847719175124439 25.925852922355261 0 25.925852922355261 -56.055271773819186 0 0 0 0 -9.8293762331322796 1.4084736137901928 0 1.4084736137901928 9.1827476908438257 0 0 0 0 -0.085458590823716207 0.083560043281266871 0 0.083560043281266871 0.081828046500191931 0 0 0 0 36.601185457661813 84.832162273700305 0 84.832162273700305 -32.067579073762317 0 0 0 0 26.868896175625196 72.020206586480526 0 72.020206586480526 25.225556351128034 0 0 0 0 -19.667298385846152 26.257584473027237 0 26.257584473027237 -54.676450330236548 0 0 0 0 -39.909356966274459 94.435234104042138 0 94.435234104042138 -49.09916043722842 0 0 0 0 64.102352130617874 67.368554315838992 0 67.368554315838992 -126.34614069346571 0 0 0 0 29.442929177720544 86.853305219761751 0 86.853305219761751 -10.73234566035535 0 0 0 0 28.161326874782389 74.424426396904892 0 74.424426396904892 -27.765696368383942 0 0 0 0 36.706883864424526 72.350574617976235 0 72.350574617976235 -42.772546072053956 0 0 0 0 4.9893057657000099 57.858490279333637 0 57.858490279333637 19.679237349688265 0 0 0 0 37.511603956558247 76.225290723680246 0 76.225290723680246 27.379421340661793 0 0 0 0 50.968179877181683 43.182184583237358 0 43.182184583237358 30.502023292690865 0 0 0 0 -2.1328252876801344 91.403878840353173 0 91.403878840353173 25.229661507630226 0 0 0 0 51.454473942246295 43.883981871524156 0 43.883981871524156 38.592760190202171 0 0 0 0 50.565489750472352 56.061694842277575 0 56.061694842277575 89.683097318215005 0 0 0 0 23.161915418560056 -22.300804435006285 0 -22.300804435006285 249.1468052606815 0 0 0 0 122.22744165293079 90.989520521859959 0 90.989520521859959 96.172311925027316 0 0 0 0 0.68071005682800489 0.73615977013978551 0 0.73615977013978551 0.47655997132457628 0 0 0 0 -11.674659738953778 -23.785513449012797 0 -23.785513449012797 54.538303156955408 0 0 0 0 26.662948265901832 2.2163489408048918 0 2.2163489408048918 71.464656898722751 0 0 0 0 56.039469249151352 110.88295085552636 0 110.88295085552636 25.991181354613218 0 0 0 0 19.37197527837634 54.403045198159816 0 54.403045198159816 69.013308720990608 0 0 0 0 91.141685341373886 29.008863031998771 0 29.008863031998771 52.778148888788223 0 0 0 0 9.0773071254843671 95.419299998844508 0 95.419299998844508 54.828866350160069 0 0 0 0 90.300048758077537 55.094167019720771 0 55.094167019720771 46.666833789444354 0 0 0 0 90.252696095347346 45.120020089772879 0 45.120020089772879 89.876891334879474 0 0 0 0 0.14019070127505984 -3.7730849877916626 0 -3.7730849877916626 63.258222271339946 0 0 0 0 110.59627537443885 29.894256298317487 0 29.894256298317487 75.136862741816003 0 0 0 0 0.04474761248365855 0.32954950768767999 0 0.32954950768767999 0.33414611178793052 0 0 0 0 31.121700958126894 80.089214904164692 0 80.089214904164692 79.514621202251874 0 0 0 0 54.609755974146083 88.944796952462639 0 88.944796952462639 40.800650161138037 0 0 0 0 -0.45609988094550502 0.987650308656292 0 0.987650308656292 -0.030504263116569064 0 0 0 0 -63.001249911857485 -12.485646222830837 0 -12.485646222830837 -5.9230195449708845 0 0 0 0 -52.478773497286966 -7.1361889331492421 0 -7.1361889331492421 -8.202382015864714 0 0 0 0 74.478662124828588 36.733588833769318 0 36.733588833769318 18.553633920244465 0 0 0 0 99.405276551588031 37.506573388051038 0 37.506573388051038 15.366364751778747 0 0 0 0 76.848210017735255 62.336630460380547 0 62.336630460380547 44.504925777642711 0 0 0 0 124.35078543966688 65.837590808741425 0 65.837590808741425 35.489760493859649 0 0 0 0 77.345952247724199 41.593120566794823 0 41.593120566794823 16.597442541431519 0 0 0 0 0.48541921562993195 0.088710220558319008 0 0.088710220558319008 0.070021180836363328 0 0 0 0 0.27768360734379183 1.8686973701451111 0 1.8686973701451111 0.369007404621982 0 0 0 0 4.3249591360855675 -0.81334143916956236 0 -0.81334143916956236 3.5538338950791513 0 0 0 0 -60.372842049170686 0.85585578646714566 0 0.85585578646714566 18.428497713000979 0 0 0 0 -24.553478439042919 -15.075743671106466 0 -15.075743671106466 -14.102086437533217 0 0 0 0 4.8216503807875597 40.059238356328933 0 40.059238356328933 22.205924670153763 0 0 0 0 -47.191384170075253 5.7257124165989808 0 5.7257124165989808 9.0109726338250766 0 0 0 0 45.605120097373856 94.79400949218325 0 94.79400949218325 45.966558949025057 0 0 0 0 19.315737682033614 116.46831451814433 0 116.46831451814433 66.776412826489832 0 0 0 0 -19.35715573408379 54.14999159366198 0 54.14999159366198 30.391766646829637 0 0 0 0 -25.478278861240597 57.746056400103953 0 57.746056400103953 28.924900360259926 0 0 0 0 -53.463722033207887 39.815965661360678 0 39.815965661360678 23.412249015347697 0 0 0 0 -25.614112688704154 56.616255411889142 0 56.616255411889142 -23.463968950571143 0 0 0 0 -86.863369085143859 38.26143803850573 0 38.26143803850573 -7.3054423351895821 0 0 0 0 -76.222675969143893 -8.165741800039541 0 -8.165741800039541 -2.5456988307450956 0 0 0 0 -50.092865355339427 8.2793785270005174 0 8.2793785270005174 7.8010159825062146 0 0 0 0 -16.438671695557787 35.618590773620781 0 35.618590773620781 8.5560862809579703 0 0 0 0 -38.270817621571041 18.39755641024567 0 18.39755641024567 -0.16270237040589564 0 0 0 0 367.81118912524198 144.14638595848191 0 144.14638595848191 -50.83226066113275 0 0 0 0 1365.4622997343281 831.62175159386879 0 831.62175159386879 442.54509079476702 0 0 0 0 1202.0700682934275 466.15393009140826 0 466.15393009140826 -11.79113141466587 0 0 0 0 101.76607445245736 278.24321056795816 0 278.24321056795816 194.78991985014 0 0 0 0 -10.283771043172237 136.86166427916396 0 136.86166427916396 62.299688215230162 0 0 0 0 -57.151834286118174 48.300653411861276 0 48.300653411861276 38.831104297474667 0 0 0 0 -129.61718267009019 15.564257599267876 0 15.564257599267876 -28.094272859565535 0 0 0 0 -148.64601587822108 104.43511768722965 0 104.43511768722965 144.46845175610179 0 0 0 0 -25.998523869780911 104.20795107750018 0 104.20795107750018 37.093728975574777 0 0 0 0 -427.26285374204781 110.70025052644633 0 110.70025052644633 75.232990276548662 0 0 0 0 1445.2237024128965 -472.64074736261387 0 -472.64074736261387 -288.09257025801344 0 0 0 0 -201.4324669283651 257.82726865971199 0 257.82726865971199 104.55673644676426 0 0 0 0 0.75122965083205084 11.344435388759003 0 11.344435388759003 7.5014913700260024 0 0 0 0 2.2992576390643586 3.0944247744747129 0 3.0944247744747129 1.6976606684976474 0 0 0 0 83.724377389191432 323.75226896201639 0 323.75226896201639 107.89208491181125 0 0 0 0 -193.74379532596822 60.216004794191122 0 60.216004794191122 124.75688680444728 0 0 0 0 1486.7145452726381 -327.38071137466432 0 -327.38071137466432 32.292003009511973 0 0 0 0 1.8147256627828332 1.9172577478935082 0 1.9172577478935082 3.4925038362445378 0 0 0 0 -90.623636209560573 72.603378840649384 0 72.603378840649384 -133.75082278402988 0 0 0 0 -57.004710590599643 97.788060966424382 0 97.788060966424382 -53.848531132935022 0 0 0 0 -40.041093176063441 67.672995660106608 0 67.672995660106608 -60.777533256667084 0 0 0 0 -84.416961531640482 94.691435128872399 0 94.691435128872399 -63.636299588775728 0 0 0 0 -61.407984898101859 94.309322386114218 0 94.309322386114218 -84.425913773156935 0 0 0 0 -66.344097146336935 82.599975969513252 0 82.599975969513252 -75.244036491349107 0 0 0 0 -77.927781483392209 112.77561199573938 0 112.77561199573938 -4.7300392668075801 0 0 0 0 -165.39782810098359 55.638258467859487 0 55.638258467859487 82.720864138784236 0 0 0 0 -37.935222580239497 61.008388001417188 0 61.008388001417188 -55.547401376668859 0 0 0 0 -44.706357773033233 126.16598585114843 0 126.16598585114843 -72.347342474276047 0 0 0 0 4.1716825638239383 7.9872074201319361 0 7.9872074201319361 4.3740511279512333 0 0 0 0 1238.4424798241662 341.58127774145396 0 341.58127774145396 259.08371166100551 0 0 0 0 -211.44533293898894 146.79173862215248 0 146.79173862215248 -7.7166720083587279 0 0 0 0 -145.29688145451382 73.335313515259259 0 73.335313515259259 -14.183454883510421 0 0 0 0 -195.50373081577982 -30.627118899890775 0 -30.627118899890775 -7.1042949383800078 0 0 0 0 -0.46560176462414304 0.31063934316316733 0 0.31063934316316733 0.099750644933635613 0 0 0 0 -63.198876459352505 -12.796741336060222 0 -12.796741336060222 -4.8153272135896259 0 0 0 0 -85.732903247579998 93.672392707580002 0 93.672392707580002 -36.207689469381876 0 0 0 0 -52.949855347185803 41.384126831824688 0 41.384126831824688 -22.030139335267449 0 0 0 0 -90.562601131802694 63.110403296544973 0 63.110403296544973 -31.248697043316497 0 0 0 0 -68.681829217654013 67.343254351766518 0 67.343254351766518 -22.17633073637262 0 0 0 0 -123.93910944689469 57.190941935819865 0 57.190941935819865 -25.340541147488693 0 0 0 0 -121.51642470082606 87.062227142901975 0 87.062227142901975 -12.06379121705686 0 0 0 0 -104.64342810205289 82.794066450715036 0 82.794066450715036 23.892456272733398 0 0 0 0 -115.81105483898045 78.118839462205869 0 78.118839462205869 -20.961812527908478 0 0 0 0 -95.485568139087263 74.108505631222215 0 74.108505631222215 -20.403358093539282 0 0 0 0 -40.352125117660762 121.7286671293914 0 121.7286671293914 -12.737362018648128 0 0 0 0 -82.978950009377513 73.874428369921588 0 73.874428369921588 -65.761940734621021 0 0 0 0 -120.28555731212964 63.830652696266043 0 63.830652696266043 -23.705067495615367 0 0 0 0 -70.651114797984519 96.466402439848025 0 96.466402439848025 -56.874828251253348 0 0 0 0 -89.546084037064247 49.925283971300814 0 49.925283971300814 -4.1994397905655205 0 0 0 0 -60.728042993131567 33.838676605813816 0 33.838676605813816 -42.717581860037171 0 0 0 0 -66.82566448356738 65.785054877120274 0 65.785054877120274 -64.68136278171005 0 0 0 0 -88.609062235396777 115.07196380699679 0 115.07196380699679 -65.940376270784782 0 0 0 0 1.1420277450031247 1.4527730937379246 0 1.4527730937379246 0.95928447920742599 0 0 0 0 188.5883306014457 -140.02066560011554 0 -140.02066560011554 -35.037399017917778 0 0 0 0 264.53065410213458 -67.089841230772436 0 -67.089841230772436 32.390486252261326 0 0 0 0 592.52404691097399 -212.56435294839321 0 -212.56435294839321 -147.13274083249416 0 0 0 0 -36.413642107850137 69.133662232732604 0 69.133662232732604 -68.001224493724294 0 0 0 0 0.56822599176380173 0.71276807960391864 0 0.71276807960391864 0.29000996395357959 0 0 0 0 -27.984324688072775 64.239332406934409 0 64.239332406934409 -57.620578341015062 0 0 0 0 6.7828533792516916 9.2652525612301169 0 9.2652525612301169 4.0713406760249597 0 0 0 0 203.8447806861077 2.6550021312796162 0 2.6550021312796162 7.9941627145162784 0 0 0 0 -36.735872451854448 53.789317330010817 0 53.789317330010817 -71.163082846382167 0 0 0 0 -11.918225993768829 2.6205739567085402 0 2.6205739567085402 -0.39584225873079504 0 0 0 0 -54.430979276751714 53.730208646738902 0 53.730208646738902 -2.682810380065348 0 0 0 0 -33.782438313989587 66.395434575842955 0 66.395434575842955 -30.584567752135627 0 0 0 0 3.7530793341179187 0.29019869275235077 0 0.29019869275235077 0.56849075477261124 0 0 0 0 277.0142099617151 -66.940178146905964 0 -66.940178146905964 -35.334982344349555 0 0 0 0 -2.9281854579632309 0.088992182678055087 0 0.088992182678055087 1.786639178942508 0 0 0 0 358.46105263969184 -139.82818692877117 0 -139.82818692877117 47.371613944902492 0 0 0 0 270.96451619538493 -21.303188152352959 0 -21.303188152352959 7.2489978185694781 0 0 0 0 255.27201248605706 -38.102309721234633 0 -38.102309721234633 -73.686760350406985 0 0 0 0 236.92003604999991 -46.906727414519992 0 -46.906727414519992 22.05653432483814 0 0 0 0 172.33493682167318 -50.291939610156987 0 -50.291939610156987 19.727785268023581 0 0 0 0 68.789270296998438 9.6386303181971016 0 9.6386303181971016 -16.323135509308486 0 0 0 0 171.06195748062601 49.413883970180905 0 49.413883970180905 -64.570936618194992 0 0 0 0 10.18400944830023 10.113253796066022 0 10.113253796066022 1.326493994865487 0 0 0 0 22.818944059707974 9.7445047720921139 0 9.7445047720921139 4.1206311383939465 0 0 0 0 218.82956051652036 -7.3146300411026459 0 -7.3146300411026459 -45.445105048274854 0 0 0 0 172.25525041332202 -44.117893175907795 0 -44.117893175907795 36.778843501146184 0 0 0 0 83.072534331622592 27.463963206317203 0 27.463963206317203 2.190825757017592 0 0 0 0 0.42559156770984607 0.19973682578174756 0 0.19973682578174756 0.08382232740775919 0 0 0 0 135.86811941488668 14.456495128113602 0 14.456495128113602 -4.1789163053290395 0 0 0 0 -3.0584584720433945 7.2940037420020545 0 7.2940037420020545 0.3587044113274942 0 0 0 0 121.2968516032397 65.362083948039071 0 65.362083948039071 -46.402195273232792 0 0 0 0 137.6278477538126 9.409687772844336 0 9.409687772844336 11.914159270207165 0 0 0 0 137.9746227917816 61.405793382124557 0 61.405793382124557 -127.86287695918872 0 0 0 0 -98.775420129261192 75.136428714654812 0 75.136428714654812 -24.831088948249089 0 0 0 0 -71.08032772205479 35.127835218563632 0 35.127835218563632 -55.852581705061311 0 0 0 0 3.9063751180055988 62.644900186036466 0 62.644900186036466 -51.322676626168686 0 0 0 0 -67.159888737428446 52.168679721229637 0 52.168679721229637 -9.6274679802299943 0 0 0 0 3.2513549503929333 1.5099594351515009 0 1.5099594351515009 0.69150333952580922 0 0 0 0 1.0616499886400561 11.241963042834868 0 11.241963042834868 1.6310540523190866 0 0 0 0 2.0924795442649433 4.2808656650698822 0 4.2808656650698822 3.8622997064039026 0 0 0 0 -37.769523306856172 1.8993233547280397 0 1.8993233547280397 -6.634671869184217 0 0 0 0 -43.326146265671014 53.896017673720053 0 53.896017673720053 -44.511379976747776 0 0 0 0 -37.874972306246349 45.062961089323068 0 45.062961089323068 -63.788671192385664 0 0 0 0 1.1260702373701612 1.343258812165157 0 1.343258812165157 0.91855561433918353 0 0 0 0 -38.299824457417344 64.919218660281331 0 64.919218660281331 -76.6763052352253 0 0 0 0 -7.3634519136785457 14.024350413676075 0 14.024350413676075 -32.308361947201774 0 0 0 0 43.036899852511851 41.061914669789985 0 41.061914669789985 -41.17773817768466 0 0 0 0 51.063850524124064 75.384179037886497 0 75.384179037886497 -14.439989262275049 0 0 0 0 16.139231351044145 67.747825001129968 0 67.747825001129968 29.155003778636456 0 0 0 0 47.063877075749588 85.160126652664985 0 85.160126652664985 16.137673514254857 0 0 0 0 82.481761753144383 118.28901496846447 0 118.28901496846447 90.603065103550762 0 0 0 0 61.810504926720569 69.88985621300526 0 69.88985621300526 31.939984227283276 0 0 0 0 93.177610970333262 53.323764271000982 0 53.323764271000982 40.383600120507253 0 0 0 0 46.874666959802198 80.790090484475513 0 80.790090484475513 28.620313827879727 0 0 0 0 80.467092384850503 -22.421921061015382 0 -22.421921061015382 -59.05246821865876 0 0 0 0 45.562515979882846 39.809622852069879 0 39.809622852069879 -78.106506019186781 0 0 0 0 19.698904180554564 20.126112638117775 0 20.126112638117775 4.3367856234508508 0 0 0 0 13.308065305058335 21.070754627740826 0 21.070754627740826 -76.888206364392659 0 0 0 0 48.948929595524532 9.0563013546488946 0 9.0563013546488946 -165.06549956080562 0 0 0 0 -7.8818397090108192 78.962149684892211 0 78.962149684892211 -131.53002333330369 0 0 0 0 24.187808010269237 41.112295564193118 0 41.112295564193118 -232.07886109876563 0 0 0 0 -9.7111981708762869 -56.278084582614611 0 -56.278084582614611 152.48718636089325 0 0 0 0 1.2433568728113116 2.3809363845819433 0 2.3809363845819433 1.8199658888494668 0 0 0 0 9.1076230104026763 143.21059691282608 0 143.21059691282608 -314.27030303614811 0 0 0 0 -60.185648658727587 70.779070061031234 0 70.779070061031234 -149.40431418286971 0 0 0 0 52.693858920488537 67.962739969993891 0 67.962739969993891 -242.54364943853579 0 0 0 0 67.393479346189451 115.43517330951818 0 115.43517330951818 -92.398596907849424 0 0 0 0 -13.442895984924689 99.119808462495712 0 99.119808462495712 -62.983831840870153 0 0 0 0 19.208122171341529 93.081366646396418 0 93.081366646396418 -62.044119857047917 0 0 0 0 -22.088177508090666 56.46260121274463 0 56.46260121274463 -78.223192533244401 0 0 0 0 45.05129652866799 67.476772801494008 0 67.476772801494008 -97.957863031602756 0 0 0 0 -21.828921964710389 53.502775862134513 0 53.502775862134513 -100.86898987081076 0 0 0 0 7.487386085336766 22.850763355661911 0 22.850763355661911 -69.895789553198483 0 0 0 0 37.452555508500154 44.606740247425478 0 44.606740247425478 -144.73232972699043 0 0 0 0 22.221931481754837 16.777788578612672 0 16.777788578612672 -115.92344020788005 0 0 0 0 -4.450340365889133 -11.498076889994991 0 -11.498076889994991 -51.948669310177138 0 0 0 0 77.717765049326772 97.426871041041522 0 97.426871041041522 -9.3955966991707101 0 0 0 0 -34.599756971765601 143.37785636895569 0 143.37785636895569 78.348249444403336 0 0 0 0 -2.932079980885355 19.384984946419351 0 19.384984946419351 -36.858842828724065 0 0 0 0 59.305224374516001 53.703701007028485 0 53.703701007028485 15.181760816929454 0 0 0 0 68.718946620054339 94.087244203174123 0 94.087244203174123 41.293070806656033 0 0 0 0 -12.063184464448568 -2.0359230288941035 0 -2.0359230288941035 -26.526412301263917 0 0 0 0 -2.4576679323727717 18.363836560623355 0 18.363836560623355 -35.27001188033249 0 0 0 0 19.102809970660019 43.53471890002038 0 43.53471890002038 -21.07962154184861 0 0 0 0 14.677112899487838 4.1619925252780376 0 4.1619925252780376 -60.418198390745602 0 0 0 0 11.524410614531007 7.8845176189024642 0 7.8845176189024642 9.4929963287104329 0 0 0 0 19.591085276490048 27.425208847558224 0 27.425208847558224 -27.384487221832387 0 0 0 0 33.210826370806899 22.018148896739149 0 22.018148896739149 -26.607833452924751 0 0 0 0 9.5388938183095888 28.920145300115109 0 28.920145300115109 -28.375094212831755 0 0 0 0 19.766047452838393 21.247232506018918 0 21.247232506018918 -69.888236050777778 0 0 0 0 8.0654079351661494 16.571905021286511 0 16.571905021286511 -40.460168424076983 0 0 0 0 7.6686584225826664 4.94238035192393 0 4.94238035192393 -41.998668785621703 0 0 0 0 7.3996259382947756 15.408643210539594 0 15.408643210539594 -49.668107676322961 0 0 0 0 22.310572077522011 19.281898724853818 0 19.281898724853818 -49.495229070234927 0 0 0 0 -9.9774380281269259 11.970760446620261 0 11.970760446620261 -41.910192244351492 0 0 0 0 -2.6489236391593849 20.267201111763114 0 20.267201111763114 -38.856000773952914 0 0 0 0 0.15982984114998544 27.661290851479862 0 27.661290851479862 -53.719282143534315 0 0 0 0 4.295156886226323 19.137294930475036 0 19.137294930475036 -53.944464186803089 0 0 0 0 245.4500684868899 73.966403514078593 0 73.966403514078593 6.6217874140274944 0 0 0 0 2.2774367371048356 52.89100506773957 0 52.89100506773957 -85.751252517751709 0 0 0 0 -4.1753518252844515 35.308945736676833 0 35.308945736676833 -60.464913670387432 0 0 0 0 14.773197164078738 22.891691143815478 0 22.891691143815478 -64.652137905184645 0 0 0 0 4.2415448923421621 9.7389213516188136 0 9.7389213516188136 -3.6485539884122886 0 0 0 0 13.57848949707477 21.003642571846285 0 21.003642571846285 -37.008121461017254 0 0 0 0 20.972048263469333 86.469021308574156 0 86.469021308574156 38.822820632914954 0 0 0 0 3.8145494076804098 5.7036406186496897 0 5.7036406186496897 -16.127036255203024 0 0 0 0 -8.6132600446457133 23.954772253823776 0 23.954772253823776 -34.887719572317167 0 0 0 0 224.25666139981695 94.089646217558766 0 94.089646217558766 8.7018589848739794 0 0 0 0 327.61815200019555 32.784038824453091 0 32.784038824453091 -49.949170775216771 0 0 0 0 295.87977008909002 74.498353635684907 0 74.498353635684907 -21.201742828896386 0 0 0 0 205.1656788355067 35.46470968986614 0 35.46470968986614 -17.235087732246029 0 0 0 0 60.711298801987141 142.65470895120234 0 142.65470895120234 -5.6398844341674703 0 0 0 0 103.58771808922029 117.47546638856875 0 117.47546638856875 -34.172414299247976 0 0 0 0 292.00736455662809 -8.5518883526819991 0 -8.5518883526819991 -27.775109127003816 0 0 0 0 220.44464191213774 69.043936083784502 0 69.043936083784502 -16.815469370903884 0 0 0 0 -168.67789017138239 56.68884149083533 0 56.68884149083533 37.315289538993966 0 0 0 0 342.3987028231295 87.17973785776303 0 87.17973785776303 -40.684879478787479 0 0 0 0 -0.85030066476317234 -1.7113393562230996 0 -1.7113393562230996 -0.82682339337645772 0 0 0 0 -39.374075069806167 15.773623927885637 0 15.773623927885637 -8.770212261712004 0 0 0 0 211.42715220556784 178.97846044672769 0 178.97846044672769 67.402730407193303 0 0 0 0 -32.032535917927817 122.30400016823114 0 122.30400016823114 -13.845191587595764 0 0 0 0 37.369201579071159 50.286143618730421 0 50.286143618730421 -18.107034096567077 0 0 0 0 76.584788008804026 60.480913451930974 0 60.480913451930974 -13.099573530553243 0 0 0 0 42.39008929580632 58.168760285645476 0 58.168760285645476 -11.13654593523097 0 0 0 0 40.602544654099802 52.183353517882097 0 52.183353517882097 -6.4257312503250432 0 0 0 0 31.988024826343462 73.326204123703064 0 73.326204123703064 -30.955557275749015 0 0 0 0 -55.853941022221989 60.105176408429543 0 60.105176408429543 -1.5972888541073189 0 0 0 0 99.799255780135354 46.084189409401006 0 46.084189409401006 -12.067182351616793 0 0 0 0 63.852853924567171 63.112505830027658 0 63.112505830027658 -17.549840764924738 0 0 0 0 74.600983091657326 49.086416424968775 0 49.086416424968775 -20.726131571536826 0 0 0 0 74.70769648397436 50.284845640726417 0 50.284845640726417 -8.1781512805355305 0 0 0 0 65.568153957792674 55.699630307230109 0 55.699630307230109 14.126245310977538 0 0 0 0 99.188371273155241 59.178855304541457 0 59.178855304541457 35.110784267973941 0 0 0 0 125.8671186036654 28.133349480480319 0 28.133349480480319 -8.5989471253888041 0 0 0 0 108.45959634296014 57.720633416385681 0 57.720633416385681 -55.373973227440729 0 0 0 0 76.357455194992326 56.145986185763149 0 56.145986185763149 -26.090421294131374 0 0 0 0 99.80359793289972 42.819671712240961 0 42.819671712240961 -19.983888597551413 0 0 0 0 87.910259806161775 54.314232058019115 0 54.314232058019115 -22.383929423731388 0 0 0 0 -127.51452609639455 86.442433597134368 0 86.442433597134368 -27.151676643245992 0 0 0 0 161.27486879544222 70.429377743795158 0 70.429377743795158 -96.598223459754081 0 0 0 0 -0.46264057494410338 1.4719900112182742 0 1.4719900112182742 -1.7430943892850905 0 0 0 0 48.431733293434945 164.53533829861613 0 164.53533829861613 -114.34351808662905 0 0 0 0 -80.837094074968263 105.55621950213754 0 105.55621950213754 53.352523207606282 0 0 0 0 151.78259725427688 63.426688723370944 0 63.426688723370944 -2.8316958100986085 0 0 0 0 60.956841801173141 -37.078040271670034 0 -37.078040271670034 -108.06460972368723 0 0 0 0 22.960203600041496 190.68118942680485 0 190.68118942680485 -104.16778751467996 0 0 0 0 12.953454079517542 111.48589505988639 0 111.48589505988639 94.3805630602983 0 0 0 0 74.832104835888458 97.053208929126413 0 97.053208929126413 46.84619583330732 0 0 0 0 68.670673138489292 73.562517675842173 0 73.562517675842173 18.064486740571738 0 0 0 0 469.5225036282618 243.65763800584864 0 243.65763800584864 81.698025149053137 0 0 0 0 291.67314342083864 20.290376952088536 0 20.290376952088536 -33.52178427180479 0 0 0 0 80.010471389627128 82.549964564586844 0 82.549964564586844 9.2054434020828921 0 0 0 0 73.908936734031158 111.42485216121531 0 111.42485216121531 8.9199364924643305 0 0 0 0 75.520471013229326 98.633815531549772 0 98.633815531549772 -44.87450410170095 0 0 0 0 53.822993042916096 88.593436754536015 0 88.593436754536015 40.296647551091155 0 0 0 0 37.512940163122039 111.53622616451685 0 111.53622616451685 9.3485985094221178 0 0 0 0 69.957173930979479 84.4648926551763 0 84.4648926551763 9.33407098375028 0 0 0 0 -2.0124395146855143 17.445734168999394 0 17.445734168999394 -33.779570756132856 0 0 0 0 52.600518162112166 86.340639040643509 0 86.340639040643509 40.179846183724294 0 0 0 0 -10.10897918190858 6.2089825872353686 0 6.2089825872353686 -6.762995486795262 0 0 0 0 -99.487877301689878 141.17380655715169 0 141.17380655715169 162.57833199724701 0 0 0 0 -32.609319318959024 181.75262225538245 0 181.75262225538245 184.24998197302193 0 0 0 0 47.895677102694208 96.595184290215911 0 96.595184290215911 93.858991104949382 0 0 0 0 -51.594059091108647 35.468337823542242 0 35.468337823542242 56.816013718653267 0 0 0 0 16.712756579947381 53.92969967992758 0 53.92969967992758 86.585680271923138 0 0 0 0 38.799798100315456 68.051730442983171 0 68.051730442983171 43.333286125613085 0 0 0 0 69.134099802548008 74.515675806494983 0 74.515675806494983 3.4465122783039988 0 0 0 0 20.6795009697762 39.663004072164767 0 39.663004072164767 27.938734609770108 0 0 0 0 -1.6911741341208675 16.5713513035085 0 16.5713513035085 -32.634842214743742 0 0 0 0 15.411816692411321 54.052099955427366 0 54.052099955427366 35.073850455744832 0 0 0 0 -83.407132865824678 -22.966121587014641 0 -22.966121587014641 -13.469018642203082 0 0 0 0 -26.16563886662243 78.043359653009247 0 78.043359653009247 5.8729269752693654 0 0 0 0 0.068202843249309808 53.993911940786347 0 53.993911940786347 -59.757355895366345 0 0 0 0 12.542379590661767 21.628667054248581 0 21.628667054248581 20.86551286275062 0 0 0 0 44.75166038306179 13.679901545776374 0 13.679901545776374 -158.65350941005454 0 0 0 0 1.1211034144228975 15.922250183463483 0 15.922250183463483 -30.895875906543608 0 0 0 0 0.90640974252710294 138.18786263490983 0 138.18786263490983 69.366029787845036 0 0 0 0 -25.935914795370991 75.75697022712302 0 75.75697022712302 17.184483088731213 0 0 0 0 47.158392015211575 24.354763302320862 0 24.354763302320862 -33.097532816078456 0 0 0 0 -2.6536545457097418 37.222289941334566 0 37.222289941334566 8.4178299000341212 0 0 0 0 -4.1466908310339932 38.417469691916267 0 38.417469691916267 36.894460716041067 0 0 0 0 11.726386983658813 118.54032378405827 0 118.54032378405827 -190.04784625071625 0 0 0 0 -70.276566527742943 -42.936339376721662 0 -42.936339376721662 -7.4604819430096541 0 0 0 0 137.46085276959457 141.15481573853685 0 141.15481573853685 20.495462996585047 0 0 0 0 92.501753430648023 104.09908425137837 0 104.09908425137837 45.542223444004776 0 0 0 0 82.699487830174803 107.45193310559625 0 107.45193310559625 49.076268575136055 0 0 0 0 51.508923686928824 114.52714119325697 0 114.52714119325697 74.59899964073702 0 0 0 0 44.625076789870946 44.041571706160539 0 44.041571706160539 -1.6887429207126843 0 0 0 0 14.323760135638622 55.501959833893579 0 55.501959833893579 1.244719292037189 0 0 0 0 2.7802618793875808 102.56803885177396 0 102.56803885177396 155.47941099685704 0 0 0 0 46.203960721606563 70.520271383986255 0 70.520271383986255 23.683155730535873 0 0 0 0 -2.8759697730538392 46.507203675813798 0 46.507203675813798 44.206017643875384 0 0 0 0 91.203268519686389 182.65212796164633 0 182.65212796164633 108.19586332652398 0 0 0 0 95.360995651599296 163.84682442546728 0 163.84682442546728 93.094444755686709 0 0 0 0 90.147418970724175 168.69292110266724 0 168.69292110266724 88.701299719807139 0 0 0 0 79.583319538782234 110.75011158916277 0 110.75011158916277 58.130552493519644 0 0 0 0 103.09569906085881 166.32657248479995 0 166.32657248479995 116.49178707665124 0 0 0 0 79.249292548222002 122.82540644556502 0 122.82540644556502 98.422543713546474 0 0 0 0 0.90881938804417928 0.80697775913947112 0 0.80697775913947112 -0.19027613478156979 0 0 0 0 83.289218397318109 199.60822371809991 0 199.60822371809991 273.49741933143014 0 0 0 0 5.5730229236141895 103.08243888907054 0 103.08243888907054 176.7604022858286 0 0 0 0 22.072978065871212 100.53265426147482 0 100.53265426147482 98.311614252299478 0 0 0 0 50.207621275130805 153.38466091903319 0 153.38466091903319 166.07605092049926 0 0 0 0 65.882870134581026 202.91704123807358 0 202.91704123807358 279.03943225721014 0 0 0 0 121.22667200604519 174.90760139506892 0 174.90760139506892 101.09798725461951 0 0 0 0 117.75450829082592 135.11457922296177 0 135.11457922296177 72.731943167520512 0 0 0 0 109.66290909447162 199.87755355425907 0 199.87755355425907 222.18444362415903 0 0 0 0 140.70691906581851 191.36860021017128 0 191.36860021017128 106.07293086546815 0 0 0 0 133.25857517436634 247.60465258799013 0 247.60465258799013 250.98777130729286 0 0 0 0 186.39784539321954 167.87895018579002 0 167.87895018579002 267.86034201059374 0 0 0 0 94.077686448257737 189.27203235761408 0 189.27203235761408 232.97104640160615 0 0 0 0 151.80816624751969 253.25712531037425 0 253.25712531037425 302.970146154541 0 0 0 0 44.766934145867708 165.16570588080867 0 165.16570588080867 358.40278015157674 0 0 0 0 220.35230948491517 297.60122983267865 0 297.60122983267865 442.25897991841339 0 0 0 0 44.241082219452437 161.45466337496691 0 161.45466337496691 375.29187083562283 0 0 0 0 142.25297143813668 172.90108436820401 0 172.90108436820401 352.66869593216688 0 0 0 0 351.20941242281697 110.58250183034397 0 110.58250183034397 363.40055558633685 0 0 0 0 132.13391525649934 125.60322954436947 0 125.60322954436947 660.84067180790589 0 0 0 0 115.91119902965511 165.62951387153953 0 165.62951387153953 429.68084730264673 0 0 0 0 132.81053214193162 136.83291671867846 0 136.83291671867846 477.30931375613727 0 0 0 0 -2.069883089860415 0.36754084698736733 0 0.36754084698736733 4.5719952454261943 0 0 0 0 311.91147764327434 250.8701765343576 0 250.8701765343576 232.43918025626044 0 0 0 0 -79.66892402238409 -9.8152662239772326 0 -9.8152662239772326 301.05490240432118 0 0 0 0 184.84001059415095 286.60618106846232 0 286.60618106846232 498.00742351685767 0 0 0 0 105.39654454650008 244.79680609131901 0 244.79680609131901 541.65185922172532 0 0 0 0 187.18498149035668 262.25959712549411 0 262.25959712549411 383.46497179288417 0 0 0 0 145.04074448004394 209.39988133178122 0 209.39988133178122 317.21334095879865 0 0 0 0 -1.0201379423506367 0.4324021014210544 0 0.4324021014210544 1.224898930989383 0 0 0 0 14.493219362644595 68.884582484604834 0 68.884582484604834 319.35707642691705 0 0 0 0 -71.262382747925585 184.32937430663151 0 184.32937430663151 564.40513033224852 0 0 0 0 -26.232246813486199 -19.913891844727914 0 -19.913891844727914 236.24627308258331 0 0 0 0 -13.300175017639049 20.586438433016156 0 20.586438433016156 346.71796312955848 0 0 0 0 -0.80940424162326963 6.8957324549664918 0 6.8957324549664918 38.666889681968314 0 0 0 0 -19.497490744224706 11.673972968095768 0 11.673972968095768 124.07350805648457 0 0 0 0 -30.158214213251995 83.439507892623112 0 83.439507892623112 167.93458187352371 0 0 0 0 -29.111706703234518 106.6827511985656 0 106.6827511985656 253.49492001346516 0 0 0 0 10.359668693152344 113.94719837257435 0 113.94719837257435 237.46034972237265 0 0 0 0 18.7897509361228 102.7160145417547 0 102.7160145417547 251.99567901071714 0 0 0 0 169.15512763652805 311.96017613711592 0 311.96017613711592 497.49543738187094 0 0 0 0 -9.5056267381078214 -61.137487410480389 0 -61.137487410480389 -422.12451623994275 0 0 0 0 1.3854591330165817 6.1825706220865584 0 6.1825706220865584 -4.7209071036162555 0 0 0 0 -108.53111852082293 -292.14746186656703 0 -292.14746186656703 -485.55454411775281 0 0 0 0 1.0904436910717905 2.6420376768150931 0 2.6420376768150931 3.1605296915547854 0 0 0 0 10.631973398376431 -10.056322325566725 0 -10.056322325566725 -468.06792579848661 0 0 0 0 91.867015151230135 -119.44978117967003 0 -119.44978117967003 -323.96753778732091 0 0 0 0 -1.3562171560223657 4.6451127301051081 0 4.6451127301051081 -0.87873706129155948 0 0 0 0 -12.252144231004422 -134.44656544794634 0 -134.44656544794634 -107.66358209623286 0 0 0 0 -77.143612299949382 -149.45821513628289 0 -149.45821513628289 -339.37640177707362 0 0 0 0 -2.9193364848688361 -68.341748069200548 0 -68.341748069200548 -319.27563339013432 0 0 0 0 -23.417528452761871 -303.8866076817194 0 -303.8866076817194 -597.88659225676383 0 0 0 0 -168.84399710732032 -191.83858573853649 0 -191.83858573853649 -323.14795911198598 0 0 0 0 -34.346708102759749 -185.28319966087383 0 -185.28319966087383 -367.62421043115319 0 0 0 0 -27.868743768955028 37.489333641140547 0 37.489333641140547 -161.82432198625611 0 0 0 0 188.74202465665098 236.55541102999769 0 236.55541102999769 544.59176715531066 0 0 0 0 -77.360803640111044 -137.42306576742703 0 -137.42306576742703 -383.97986230048991 0 0 0 0 193.20119139872259 265.13521838832094 0 265.13521838832094 450.84430791344494 0 0 0 0 197.80224754421943 298.42473949305713 0 298.42473949305713 480.59763526008464 0 0 0 0 164.23012158186248 300.10138077488227 0 300.10138077488227 482.86485235441796 0 0 0 0 149.2265319043654 279.75223261539213 0 279.75223261539213 514.41784401801851 0 0 0 0 140.25604447813384 386.63443592047042 0 386.63443592047042 595.44936159298413 0 0 0 0 186.10215845714629 277.17829656670074 0 277.17829656670074 434.38686675985809 0 0 0 0 155.06939419601713 215.44497662417416 0 215.44497662417416 371.24449685982836 0 0 0 0 90.990671120540355 195.74084623112867 0 195.74084623112867 419.63033336980152 0 0 0 0 219.68274112925974 378.02342753659832 0 378.02342753659832 423.92122967505566 0 0 0 0 24.611983094073821 -58.186454871927708 0 -58.186454871927708 -567.46346905087557 0 0 0 0 0.53395819757935925 1.9223058837353619 0 1.9223058837353619 -2.2145991540699157 0 0 0 0 196.75702770614043 260.66515952009286 0 260.66515952009286 -37.301775447948785 0 0 0 0 35.804063753734681 29.177350974646743 0 29.177350974646743 -47.605532203982875 0 0 0 0 113.49998158311246 207.39067659751163 0 207.39067659751163 322.19929065942415 0 0 0 0 121.62197875986021 180.01847817745875 0 180.01847817745875 310.78571036958056 0 0 0 0 133.51656104111862 143.7280413491535 0 143.7280413491535 415.93972276782733 0 0 0 0 80.958739509034785 175.65799618035089 0 175.65799618035089 405.66382749359582 0 0 0 0 91.156068524167495 195.21240144913099 0 195.21240144913099 410.34195511371945 0 0 0 0 58.572078254170265 189.68877553690982 0 189.68877553690982 421.92629128534463 0 0 0 0 84.9105613598731 184.05458767437449 0 184.05458767437449 422.6397825218155 0 0 0 0 97.001239636476384 168.09650289759156 0 168.09650289759156 431.94753069072613 0 0 0 0 69.626546630533994 180.35996963155048 0 180.35996963155048 432.80384150245845 0 0 0 0 92.746139659611799 158.3250032322685 0 158.3250032322685 430.25398722290993 0 0 0 0 88.463939465771546 154.59894890736177 0 154.59894890736177 465.15553604086745 0 0 0 0 71.358890885312576 193.69235271384605 0 193.69235271384605 397.56462603136606 0 0 0 0 72.545572348208225 211.18819169780181 0 211.18819169780181 460.2133085035648 0 0 0 0 99.682483890208459 216.2500434316953 0 216.2500434316953 406.73870517729665 0 0 0 0 83.591416128329001 214.74219418692519 0 214.74219418692519 406.88216644733984 0 0 0 0 80.853177853641682 232.13033732496297 0 232.13033732496297 375.09296245931182 0 0 0 0 127.61982253644965 248.0124874846224 0 248.0124874846224 335.52221626717073 0 0 0 0 73.787545865539869 196.90701719903154 0 196.90701719903154 323.78466371204559 0 0 0 0 51.580358128165244 220.51573987049414 0 220.51573987049414 364.02680064608285 0 0 0 0 66.161684681443148 196.44171858042682 0 196.44171858042682 369.58328768739011 0 0 0 0 55.317573579517557 207.78676239850392 0 207.78676239850392 418.75348304433282 0 0 0 0 70.517666975938482 178.24599418740763 0 178.24599418740763 422.80160167130816 0 0 0 0 50.998752370891452 207.32889063552284 0 207.32889063552284 399.99100654007452 0 0 0 0 77.526518955077336 195.11968341361353 0 195.11968341361353 401.94708826115675 0 0 0 0 74.458020577858406 204.66536037108744 0 204.66536037108744 355.98205970274284 0 0 0 0 69.010232818713121 197.38890838936641 0 197.38890838936641 301.70797142131778 0 0 0 0 49.398283191330847 210.8849729098074 0 210.8849729098074 354.89394788830032 0 0 0 0 76.877739816491157 202.99409857121645 0 202.99409857121645 302.65814110977226 0 0 0 0 91.33246440424773 218.17392504654345 0 218.17392504654345 351.89830425182299 0 0 0 0 54.721659826311225 212.48210354457842 0 212.48210354457842 354.75717459426596 0 0 0 0 60.336256063965266 214.07110032835772 0 214.07110032835772 390.57775970107468 0 0 0 0 94.916658819747681 211.89785773354379 0 211.89785773354379 390.33963495799981 0 0 0 0 81.849726724360153 223.95654217336414 0 223.95654217336414 411.90610898561135 0 0 0 0 121.18531773879658 222.96413648097223 0 222.96413648097223 408.97961218038108 0 0 0 0 93.844277141644852 213.90563086947805 0 213.90563086947805 430.88116960087791 0 0 0 0 103.79779384870926 203.60933033387846 0 203.60933033387846 415.26967849438915 0 0 0 0 66.689991331342753 203.18209423271037 0 203.18209423271037 415.74175677851599 0 0 0 0 114.99799461720249 198.60301575877384 0 198.60301575877384 417.47770965336531 0 0 0 0 77.794882937952934 192.44867909062305 0 192.44867909062305 423.40286470945284 0 0 0 0 126.89051921661303 222.13972003987874 0 222.13972003987874 446.77479979849886 0 0 0 0 126.85259566456807 229.96928327718342 0 229.96928327718342 425.61376476123405 0 0 0 0 159.1048852769818 248.19492943916339 0 248.19492943916339 425.31202962552197 0 0 0 0 141.38529513001413 263.74602766446333 0 263.74602766446333 456.60714122068021 0 0 0 0 148.55174232143145 290.10645939394817 0 290.10645939394817 466.50783707987284 0 0 0 0 159.19679244357394 264.46773427852713 0 264.46773427852713 433.79744784202194 0 0 0 0 122.49308902572739 253.50923632323247 0 253.50923632323247 437.80950800310166 0 0 0 0 142.74558782116219 275.84988614741815 0 275.84988614741815 431.2330717461009 0 0 0 0 110.15195450577085 234.98267401738121 0 234.98267401738121 431.56097322179994 0 0 0 0 132.8455129745671 248.36577702849172 0 248.36577702849172 411.03490006722859 0 0 0 0 111.19664068601924 229.64719230704213 0 229.64719230704213 385.26753923700016 0 0 0 0 95.938883459453791 235.01229151980078 0 235.01229151980078 412.39187037940428 0 0 0 0 106.17062821165382 236.37044850202801 0 236.37044850202801 356.21407947866828 0 0 0 0 72.567698504633881 213.74769788697449 0 213.74769788697449 358.6873418289415 0 0 0 0 75.907006803539844 221.05078927906288 0 221.05078927906288 387.98735612539895 0 0 0 0 117.98068986084763 257.58088011831569 0 257.58088011831569 381.13543908203428 0 0 0 0 93.131721751833538 231.51480691453617 0 231.51480691453617 392.99531998578459 0 0 0 0 126.3635868039637 252.84217396119493 0 252.84217396119493 394.84929241817281 0 0 0 0 115.00965162702778 250.10217262220249 0 250.10217262220249 420.24376630982442 0 0 0 0 136.76528985152254 275.01134763895971 0 275.01134763895971 419.57141730441072 0 0 0 0 129.88525458514778 280.39184359745013 0 280.39184359745013 416.70917747079511 0 0 0 0 115.18573780007864 246.42595852314116 0 246.42595852314116 405.11947988134852 0 0 0 0 94.368343722126156 222.65892690672626 0 222.65892690672626 369.96511439200913 0 0 0 0 124.90632371951142 283.05037426883064 0 283.05037426883064 413.96915743281716 0 0 0 0 122.33130150214129 246.35709776589647 0 246.35709776589647 390.41729803086491 0 0 0 0 150.1717673392377 304.37285649391561 0 304.37285649391561 450.26736167611671 0 0 0 0 140.26382688223021 270.49324752375105 0 270.49324752375105 425.94780474396248 0 0 0 0 151.48566441707953 296.59779729069851 0 296.59779729069851 445.97360155476781 0 0 0 0 167.64470927602088 320.13695137125615 0 320.13695137125615 472.32858586892689 0 0 0 0 151.94434068732153 295.70673875786451 0 295.70673875786451 469.55372359439207 0 0 0 0 171.83895485674702 288.18403354428301 0 288.18403354428301 446.491294919746 0 0 0 0 135.45266498202363 268.31521886523478 0 268.31521886523478 437.18197469654842 0 0 0 0 141.48549795856525 267.90265918434307 0 267.90265918434307 447.44002697942778 0 0 0 0 160.31336398414351 293.11767993631656 0 293.11767993631656 448.36666770484953 0 0 0 0 170.01182099481957 293.08895092486273 0 293.08895092486273 462.36123851983575 0 0 0 0 157.85135661354798 295.29453848719277 0 295.29453848719277 500.39956337969488 0 0 0 0 197.45642711413166 287.23751010674823 0 287.23751010674823 469.1328998968529 0 0 0 0 -6.351276720955866 104.4144341311985 0 104.4144341311985 471.80974734425035 0 0 0 0 44.520811805204175 225.2536251933343 0 225.2536251933343 351.60147162855719 0 0 0 0 66.097605445127556 210.48780599932797 0 210.48780599932797 316.69543514236102 0 0 0 0 95.349867657663708 266.16038212126296 0 266.16038212126296 366.09418081377953 0 0 0 0 90.030040617435589 219.42092524872032 0 219.42092524872032 349.70988590105844 0 0 0 0 110.02743241828648 262.6254647251917 0 262.6254647251917 371.44004700529331 0 0 0 0 96.590363398765476 232.01575377221889 0 232.01575377221889 309.5539977534936 0 0 0 0 76.877367599900026 213.1344157057174 0 213.1344157057174 297.40971108054509 0 0 0 0 78.542458695354071 195.87591525330572 0 195.87591525330572 324.30418617888063 0 0 0 0 101.79284245335657 238.30782452338462 0 238.30782452338462 331.95305627719063 0 0 0 0 91.541811692599367 211.35845782670003 0 211.35845782670003 310.07747351078433 0 0 0 0 53.038703821108356 207.0005650524472 0 207.0005650524472 315.58624940823938 0 0 0 0 62.552222406215151 172.1822247584787 0 172.1822247584787 275.52301903378975 0 0 0 0 68.989015026494599 183.40384306444685 0 183.40384306444685 237.23399656990659 0 0 0 0 48.098047987885366 169.1886805010472 0 169.1886805010472 264.59580645204551 0 0 0 0 -39.47912931233077 9.6238539799232967 0 9.6238539799232967 204.70020976220803 0 0 0 0 53.183361788225739 163.86886463812698 0 163.86886463812698 269.71090570924207 0 0 0 0 27.505723822327127 9.5808492501091678 0 9.5808492501091678 61.509275780837925 0 0 0 0 25.391962189856713 79.059416294738185 0 79.059416294738185 121.67203609337957 0 0 0 0 47.990489876210631 134.71350016932411 0 134.71350016932411 179.56036930133996 0 0 0 0 31.302009224909852 101.01778459332854 0 101.01778459332854 157.69391880149487 0 0 0 0 -4.9537733314082288 120.48432052026692 0 120.48432052026692 239.71069495020492 0 0 0 0 42.992897114923835 77.755204307301028 0 77.755204307301028 119.70755773748533 0 0 0 0 30.589510219870135 168.74738062635151 0 168.74738062635151 260.60235390988237 0 0 0 0 46.218187030608533 196.37503711623867 0 196.37503711623867 305.34873520426845 0 0 0 0 76.780956089532992 192.08176585664842 0 192.08176585664842 255.5930333762808 0 0 0 0 75.589729645300395 184.60766867232815 0 184.60766867232815 223.08128301899706 0 0 0 0 49.939202522753476 160.77505368410857 0 160.77505368410857 230.68261076213093 0 0 0 0 63.418538731384615 145.62295059959433 0 145.62295059959433 173.25635214353679 0 0 0 0 74.889811684392043 132.86244403896853 0 132.86244403896853 120.82871239115048 0 0 0 0 74.952300006231781 135.167768271358 0 135.167768271358 119.24494958278956 0 0 0 0 83.779304205905646 169.15751091773564 0 169.15751091773564 139.73895131019162 0 0 0 0 80.356565974994737 198.48634854397096 0 198.48634854397096 199.36333887036744 0 0 0 0 80.929764725502537 180.72887305036602 0 180.72887305036602 209.55671936563158 0 0 0 0 56.433533130842989 211.63521578048676 0 211.63521578048676 296.82540664584667 0 0 0 0 92.287542782341916 197.19588208047935 0 197.19588208047935 276.26682217698544 0 0 0 0 132.31214430629188 235.0924511707417 0 235.0924511707417 193.42410163703607 0 0 0 0 83.79432037999868 238.13013341103942 0 238.13013341103942 297.25129273427592 0 0 0 0 109.31509798623301 194.56625151708431 0 194.56625151708431 167.88928628298163 0 0 0 0 131.83501095185056 173.58542616565683 0 173.58542616565683 37.003066352859605 0 0 0 0 114.33725832152049 163.90945506914431 0 163.90945506914431 54.440940970089287 0 0 0 0 90.231648856606625 81.383588941178459 0 81.383588941178459 -0.32429968428914435 0 0 0 0 96.022434640168285 77.676784714531095 0 77.676784714531095 -82.095062769541983 0 0 0 0 105.03467784174427 132.76821904069948 0 132.76821904069948 73.405277837737231 0 0 0 0 -16.267824133141403 9.2278928580490174 0 9.2278928580490174 35.983906984740315 0 0 0 0 70.09267438918323 90.243310794408899 0 90.243310794408899 51.402981519844616 0 0 0 0 32.328763782912574 70.567861011004425 0 70.567861011004425 72.292011653567897 0 0 0 0 26.672769695564057 14.656896864551527 0 14.656896864551527 26.023340253752394 0 0 0 0 -7.2455875714595095 1.0194338774308562 0 1.0194338774308562 -34.747472056697006 0 0 0 0 -33.463647845728701 -14.381150583154522 0 -14.381150583154522 -8.0385261838237057 0 0 0 0 -2.2441005481223328 -1.7757919079722342 0 -1.7757919079722342 -34.738139224180486 0 0 0 0 -12.656015600425235 7.6482804726729228 0 7.6482804726729228 39.979624625382712 0 0 0 0 8.25828769765576 -15.841104434413865 0 -15.841104434413865 -23.886524993187777 0 0 0 0 -71.525730889476108 73.762845605917391 0 73.762845605917391 -58.626570734584675 0 0 0 0 -94.329316749390273 55.477493388050789 0 55.477493388050789 -0.16635771303117508 0 0 0 0 -9.0371870585219085 0.72431486411205981 0 0.72431486411205981 1.4808090459127925 0 0 0 0 -53.113135600926398 33.465866890276629 0 33.465866890276629 -44.206756981242506 0 0 0 0 -3.0746359920100339 -1.0659394649985288 0 -1.0659394649985288 -0.32516711286601208 0 0 0 0 -94.54006986792956 75.188024170765857 0 75.188024170765857 -17.720202363441786 0 0 0 0 -114.26119005770124 125.60894038934566 0 125.60894038934566 -145.24379923703964 0 0 0 0 23.667261133788088 57.886144308120492 0 57.886144308120492 25.091656314398278 0 0 0 0 -24.904079611401357 27.937468488775266 0 27.937468488775266 55.084417372374446 0 0 0 0 -58.441551397610965 220.47339295761049 0 220.47339295761049 -323.84238637190538 0 0 0 0 -85.106110040782369 202.48629837921908 0 202.48629837921908 -207.33979293381344 0 0 0 0 -4.6748481347461421 1.3015274569467152 0 1.3015274569467152 1.3299828643186231 0 0 0 0 53.490831338928729 50.156384829023409 0 50.156384829023409 26.897013385110768 0 0 0 0 -110.12953037866237 205.39357486721201 0 205.39357486721201 -81.298652054789272 0 0 0 0 -141.77724272188243 147.04090953509149 0 147.04090953509149 0.079502819491608534 0 0 0 0 -1.7851397720320037 1.2221860248069021 0 1.2221860248069021 1.052648501045752 0 0 0 0 -16.891336436510755 16.201569701646804 0 16.201569701646804 -12.01314141176772 0 0 0 0 -16.187034622683171 6.6175582810204858 0 6.6175582810204858 5.7147444121034496 0 0 0 0 14.619568229350989 28.817465961004928 0 28.817465961004928 -49.454319414984639 0 0 0 0 -75.912834269458472 21.691919597138622 0 21.691919597138622 35.676369638604228 0 0 0 0 -1.2152160435730224 0.46153742093485306 0 0.46153742093485306 1.1710721145766314 0 0 0 0 -2.0246707062760834 -38.559481054457137 0 -38.559481054457137 30.904690136805584 0 0 0 0 -10.362791426523472 38.597062593576993 0 38.597062593576993 30.400493267919956 0 0 0 0 19.883016420990316 -1.1217036232228565 0 -1.1217036232228565 -37.368403947146362 0 0 0 0 -33.2415830281534 24.651505977044508 0 24.651505977044508 13.012368753988994 0 0 0 0 -24.00764938775319 -14.195343829665944 0 -14.195343829665944 23.274467807517794 0 0 0 0 -13.237267440042615 -0.96000837110113935 0 -0.96000837110113935 -17.357025640994834 0 0 0 0 -14.145826491996559 29.013000384917177 0 29.013000384917177 -42.221769735784619 0 0 0 0 285.99846494220219 128.81609493251744 0 128.81609493251744 40.466593345947331 0 0 0 0 120.40466630965966 211.72783561582037 0 211.72783561582037 146.49343166171457 0 0 0 0 145.99412753183333 185.11988354660207 0 185.11988354660207 154.10934446987812 0 0 0 0 185.96514018855669 251.23620360944187 0 251.23620360944187 263.15347513753659 0 0 0 0 185.19881134711613 -3.6470323542307597 0 -3.6470323542307597 -80.437960898503661 0 0 0 0 -193.97307600529166 -21.485755142319249 0 -21.485755142319249 -23.417881320987362 0 0 0 0 -170.44521674749558 -195.88043156560161 0 -195.88043156560161 -138.63601531043241 0 0 0 0 -1.9340342635174324 2.3998015094731215 0 2.3998015094731215 1.1159688106531362 0 0 0 0 156.73722779846867 53.795647533144802 0 53.795647533144802 -198.82417291461024 0 0 0 0 101.45173954521306 144.59051623186679 0 144.59051623186679 36.189351227687439 0 0 0 0 172.17633916644263 145.40617603078135 0 145.40617603078135 -142.02037346272846 0 0 0 0 -2.5995624213867359 7.3912344936260084 0 7.3912344936260084 -7.2610937578134269 0 0 0 0 -73.230598482241476 -7.854816423394368 0 -7.854816423394368 31.266905795368075 0 0 0 0 -13.717523381243154 12.703626667802382 0 12.703626667802382 -9.3378123173097265 0 0 0 0 2.3780322457896546 -19.724243121312611 0 -19.724243121312611 -32.68407285764988 0 0 0 0 -9.5757523122010753 13.917776617832715 0 13.917776617832715 -16.759047937208379 0 0 0 0 -14.117673386517708 9.4023660567436309 0 9.4023660567436309 -10.70984285448867 0 0 0 0 -13.801658405523867 7.8882528883447804 0 7.8882528883447804 5.7754005197235898 0 0 0 0 -9.4857663868933741 13.834833977467497 0 13.834833977467497 -6.598456494306447 0 0 0 0 -8.4419845963457192 10.215406914408959 0 10.215406914408959 -4.4240553242671012 0 0 0 0 -2.7668620417478564 4.6333362826510367 0 4.6333362826510367 -3.817192929271954 0 0 0 0 -1.2613132315382245 7.3394407589903494 0 7.3394407589903494 -5.9279717088793404 0 0 0 0 -5.1875738675553293 5.2820199024608883 0 5.2820199024608883 -5.8274662211551913 0 0 0 0 5.9741134930809494 10.315602988528553 0 10.315602988528553 0.006159201031550765 0 0 0 0 3.4844670331403904 4.0561305656483455 0 4.0561305656483455 -3.6565502803641721 0 0 0 0 0.66131285932260653 15.53281923290524 0 15.53281923290524 -1.8596248731919331 0 0 0 0 -1.8251615087784359 2.4252304429324667 0 2.4252304429324667 0.44225543747950269 0 0 0 0 -4.1480840007970983 5.589031725863606 0 5.589031725863606 4.5824211662984453 0 0 0 0 -13.312825359802446 16.386520328473125 0 16.386520328473125 -0.84022707139956765 0 0 0 0 -9.2526715140447777 13.14652685438341 0 13.14652685438341 5.0892001848915243 0 0 0 0 -9.253374360014277 12.872299620692502 0 12.872299620692502 -1.1165566102135926 0 0 0 0 -17.035093375754514 15.395208588084643 0 15.395208588084643 0.0029639327440236229 0 0 0 0 -19.876440461704988 15.80851298545258 0 15.80851298545258 -1.3772716575622326 0 0 0 0 -16.76682032066492 12.580478750121983 0 12.580478750121983 -5.020390650635818 0 0 0 0 -19.224157801662841 16.090245274484914 0 16.090245274484914 -6.1984645149859716 0 0 0 0 -21.823950432197307 11.426743100644671 0 11.426743100644671 -6.0267684453792754 0 0 0 0 -19.980119762924005 13.709006919474632 0 13.709006919474632 -0.62957812166860094 0 0 0 0 -22.003329198110805 14.840856467937556 0 14.840856467937556 -0.0038328913178702351 0 0 0 0 -23.542758725378008 14.076989827752186 0 14.076989827752186 0.11153510028088931 0 0 0 0 -24.09878103911069 14.847779707987684 0 14.847779707987684 0.012090113228623522 0 0 0 0 -37.648245194159244 17.402967395923042 0 17.402967395923042 9.8047966262402042 0 0 0 0 -24.417374341734515 4.7780839889340214 0 4.7780839889340214 5.7507610963528606 0 0 0 0 -21.6864463933764 12.499694034454251 0 12.499694034454251 1.1493526918820862 0 0 0 0 -19.523458527134338 5.1953904872715242 0 5.1953904872715242 5.1041525175050353 0 0 0 0 54.032923702623521 -10.150448657990637 0 -10.150448657990637 -28.564023468472442 0 0 0 0 -0.7958844037793682 0.27396923240175397 0 0.27396923240175397 0.64692877557614281 0 0 0 0 -35.664000108739856 44.723999304627796 0 44.723999304627796 -40.025709450659633 0 0 0 0 -31.009763577545527 -33.991314919807337 0 -33.991314919807337 37.833154296195062 0 0 0 0 -59.494653204609676 10.273453422417333 0 10.273453422417333 -4.4359588480874663 0 0 0 0 -37.21908548452484 6.0065903350296139 0 6.0065903350296139 22.019551105171558 0 0 0 0 -2.9595949510840001 19.802733249100129 0 19.802733249100129 23.36794607265665 0 0 0 0 -20.606941069252571 6.5463157739632152 0 6.5463157739632152 -8.2254611079479218 0 0 0 0 -5.1123259688210965 9.3272584461556107 0 9.3272584461556107 -32.448118160471495 0 0 0 0 -29.180017760827468 7.4506191308655616 0 7.4506191308655616 32.295032287642243 0 0 0 0 -19.424032579920095 -1.1223502508764795 0 -1.1223502508764795 -0.98267505397052446 0 0 0 0 -31.482041824444423 -9.0972559777192146 0 -9.0972559777192146 1.4449511131824693 0 0 0 0 -17.965783841440498 12.932698392207385 0 12.932698392207385 15.269565531452827 0 0 0 0 -31.734551855966856 -5.4932682393955474 0 -5.4932682393955474 8.5403229468083737 0 0 0 0 -25.421128339135976 -3.2173413637610793 0 -3.2173413637610793 -6.7440892572849407 0 0 0 0 -33.465659650584712 -1.5109766463938286 0 -1.5109766463938286 -5.0760513490604353 0 0 0 0 -35.008297568347189 -5.1378660480040708 0 -5.1378660480040708 -12.569146990237641 0 0 0 0 -8.5787804189367343 7.8199195510474411 0 7.8199195510474411 1.0706843469397995 0 0 0 0 25.510268138579704 4.5605251921697345 0 4.5605251921697345 5.883092984353425 0 0 0 0 -12.415760933232434 8.2362588533522114 0 8.2362588533522114 4.7226585506238052 0 0 0 0 -6.1433592591492925 -7.7100136736589775 0 -7.7100136736589775 25.019406547991821 0 0 0 0 -28.851359919532115 3.1989470435692056 0 3.1989470435692056 -10.17703729623463 0 0 0 0 -29.742858757534123 0.52841053180236486 0 0.52841053180236486 -15.720447757055808 0 0 0 0 -3.0176515806170059 0.10644371762485605 0 0.10644371762485605 0.98501358012566698 0 0 0 0 9.2628580788805266 43.667185381775198 0 43.667185381775198 -2.4660986370363389 0 0 0 0 -45.139335527652293 3.2165599563304568 0 3.2165599563304568 17.192377387580564 0 0 0 0 -35.479213167818671 17.224672740412643 0 17.224672740412643 -5.0810472424491309 0 0 0 0 -9.4839933380095118 9.559666229980337 0 9.559666229980337 6.439534270552592 0 0 0 0 -55.394505186937749 19.930956555297598 0 19.930956555297598 -0.013583557396486867 0 0 0 0 -55.779556181681983 2.4457642510242295 0 2.4457642510242295 41.194503494938544 0 0 0 0 0.0096916220939533559 1.4240951529276629 0 1.4240951529276629 -0.23271353519201732 0 0 0 0 19.05015466077748 -2.6035587378719356 0 -2.6035587378719356 -9.6674095725611551 0 0 0 0 -2.6865698265755782 2.004246530123055 0 2.004246530123055 1.7404216504874057 0 0 0 0 3.3583823089720681 0.27497053700790275 0 0.27497053700790275 -0.018982953552040271 0 0 0 0 -0.86561310573755179 0.4860675219563575 0 0.4860675219563575 2.2880168138061734 0 0 0 0 -28.635132359981071 -0.21848366615813575 0 -0.21848366615813575 38.343936782026503 0 0 0 0 -7.6073013996938244 -12.734153560713821 0 -12.734153560713821 30.812483680565492 0 0 0 0 -10.07828834506077 8.5504262235769914 0 8.5504262235769914 3.7209908147176449 0 0 0 0 -6.0809279582972522 4.5308886181301204 0 4.5308886181301204 0.009776972969120834 0 0 0 0 -1.6540868104541744 2.9425397700216038 0 2.9425397700216038 -2.022736774028445 0 0 0 0 -14.083503185593145 19.503925451136638 0 19.503925451136638 -4.953031458746409 0 0 0 0 -14.982110852808546 19.303251914006978 0 19.303251914006978 -4.9205671326149059 0 0 0 0 -4.0171841022965964 1.6960455963526329 0 1.6960455963526329 11.999192902047071 0 0 0 0 -10.789881375523692 10.012645733077079 0 10.012645733077079 -0.01712040204074583 0 0 0 0 -13.72390366827166 11.492195873013841 0 11.492195873013841 -1.1943103522108025 0 0 0 0 -12.0080131037721 11.65525444877494 0 11.65525444877494 2.4454059618474275 0 0 0 0 -14.679047960227763 24.927460281724052 0 24.927460281724052 6.148252917730133 0 0 0 0 -17.483668852044502 13.723476108076284 0 13.723476108076284 -2.0727297161392926 0 0 0 0 -12.124310973482892 10.232037637907936 0 10.232037637907936 -0.30938889483845777 0 0 0 0 -19.816968302384339 19.651044666294183 0 19.651044666294183 27.229698787889902 0 0 0 0 -21.823444629164442 25.557873259418557 0 25.557873259418557 -3.0517288682240178 0 0 0 0 -17.328067050520986 2.7896875176729736 0 2.7896875176729736 -12.901137034343265 0 0 0 0 -3.4977022280654637 36.270311958586262 0 36.270311958586262 -34.113059331502882 0 0 0 0 -14.609062364902456 -0.54861379413705436 0 -0.54861379413705436 20.466572614386678 0 0 0 0 -0.24107022078919726 1.1526962125967799 0 1.1526962125967799 4.1171369593655243 0 0 0 0 -6.5649166215889707 4.7816373373814827 0 4.7816373373814827 12.137507069695275 0 0 0 0 13.953752846118732 10.060512019873386 0 10.060512019873386 -74.075792213818204 0 0 0 0 -9.8370062350368244 0.63408851901112939 0 0.63408851901112939 30.023775003955961 0 0 0 0 -5.5771311075541377 0.063540914564612194 0 0.063540914564612194 4.3412764557153558 0 0 0 0 -13.226596701406379 23.848347777762683 0 23.848347777762683 -5.1798227297585981 0 0 0 0 -3.8656335097548435 -3.9351575285472791 0 -3.9351575285472791 23.588712171395855 0 0 0 0 -2.4382457453899917 -0.50865066835017103 0 -0.50865066835017103 4.508218164891808 0 0 0 0 50.474980684197362 41.140585717821523 0 41.140585717821523 -69.788700918155882 0 0 0 0 -8.3339905266547945 2.3161020364928362 0 2.3161020364928362 12.19013484345804 0 0 0 0 -43.577291888408581 70.95378639422961 0 70.95378639422961 -55.130090924358228 0 0 0 0 34.512776479403328 -6.7178549866239337 0 -6.7178549866239337 -47.952663401709287 0 0 0 0 -0.43963608565172763 7.5669018538010278 0 7.5669018538010278 7.8660996090256958 0 0 0 0 -68.998993107819842 15.116029605014774 0 15.116029605014774 14.752056406557585 0 0 0 0 -19.615282772334467 -22.926133252596628 0 -22.926133252596628 3.4766140556166647 0 0 0 0 34.613994496441592 63.066045068040694 0 63.066045068040694 -57.544582528387764 0 0 0 0 -1.0766411824210422 0.95443101269627562 0 0.95443101269627562 0.036780221912774635 0 0 0 0 -29.625235657664234 50.069116035592742 0 50.069116035592742 -58.984774756012484 0 0 0 0 -33.5557997952601 -26.740080200263037 0 -26.740080200263037 9.2083268441365362 0 0 0 0 -27.989193427325517 0.23028970778977964 0 0.23028970778977964 15.942891236091327 0 0 0 0 -3.5160354589443159 -5.9785012818126688 0 -5.9785012818126688 16.992025974475837 0 0 0 0 -20.963645127452764 21.104213350496138 0 21.104213350496138 39.776312038128935 0 0 0 0 -69.22846572717026 2.2229417305879906 0 2.2229417305879906 37.911779098343686 0 0 0 0 -10.354672805185032 9.9488757114203707 0 9.9488757114203707 2.5210586081771851 0 0 0 0 -11.753484177224635 0.18735326647152561 0 0.18735326647152561 11.005922707952479 0 0 0 0 -73.741036290381089 99.663086771552116 0 99.663086771552116 6.0947236789033923 0 0 0 0 -138.65598429019155 -84.04735934504788 0 -84.04735934504788 89.217229941508776 0 0 0 0 -0.6464240075801797 0.052638818224409079 0 0.052638818224409079 1.2569087292871473 0 0 0 0 -103.97935118772784 6.4757523269317971 0 6.4757523269317971 290.81165093767049 0 0 0 0 -10.975138247827545 2.3291829497361505 0 2.3291829497361505 143.94283464764158 0 0 0 0 -0.18431043190062013 5.7335374411662805 0 5.7335374411662805 7.8357652689787329 0 0 0 0 -0.17682606987455074 46.818104968217995 0 46.818104968217995 249.15454060775664 0 0 0 0 52.915719604102151 31.709680876590255 0 31.709680876590255 18.582397502177628 0 0 0 0 -48.998541842545819 1.5042601935074345 0 1.5042601935074345 37.609164180870721 0 0 0 0 83.953724145630986 118.50709853623812 0 118.50709853623812 140.55931834551302 0 0 0 0 -92.492668152906845 -26.076875757959897 0 -26.076875757959897 376.52916748786811 0 0 0 0 144.83283303395365 -42.607802690698009 0 -42.607802690698009 77.311571830927278 0 0 0 0 15.289046248974046 -56.205867311702605 0 -56.205867311702605 298.92242115742556 0 0 0 0 70.286257469218981 134.93773814736414 0 134.93773814736414 100.20014581230134 0 0 0 0 -1.0685075894547111 0.41991930465594152 0 0.41991930465594152 1.1961904124314344 0 0 0 0 -1.9422773291607882 139.03207652514902 0 139.03207652514902 34.705875045779976 0 0 0 0 -12.017951983034436 130.79104133532746 0 130.79104133532746 300.09331410695262 0 0 0 0 -15.938720577210916 -127.71906256220609 0 -127.71906256220609 325.27123494433908 0 0 0 0 -0.45125691788097555 1.0542175050521649 0 1.0542175050521649 3.2818263852022369 0 0 0 0 42.255117804088513 -47.357245708248229 0 -47.357245708248229 9.6814465155257494 0 0 0 0 -6.7317878981862123 -78.407087979755943 0 -78.407087979755943 85.83235415146919 0 0 0 0 -60.950560223245702 18.736620509669592 0 18.736620509669592 45.193461294980807 0 0 0 0 -1.2187306527348483 0.75465313962509128 0 0.75465313962509128 1.7670798744220519 0 0 0 0 -51.93335186674085 43.527119571968797 0 43.527119571968797 -35.321029811449989 0 0 0 0 -63.077926986494276 24.30917395252618 0 24.30917395252618 -23.418749632604886 0 0 0 0 -64.998035298003742 32.231771912379372 0 32.231771912379372 -20.043107696896186 0 0 0 0 -13.076983524813841 104.45910386778269 0 104.45910386778269 -58.22997648997989 0 0 0 0 -44.266817088479002 36.114130336722155 0 36.114130336722155 -59.624661192567146 0 0 0 0 -24.642635434654949 68.856735780242161 0 68.856735780242161 -5.0135301649279427 0 0 0 0 -27.459216468043451 77.065138721201947 0 77.065138721201947 -19.459560990300815 0 0 0 0 -41.817912092581537 -96.54599216841234 0 -96.54599216841234 185.656635872474 0 0 0 0 -4.530784356258664 -70.433130020328463 0 -70.433130020328463 183.48523722145183 0 0 0 0 -106.59435763401962 -48.770722035002109 0 -48.770722035002109 240.97213453956647 0 0 0 0 -89.152066284928878 -39.162346839926613 0 -39.162346839926613 273.73317715809389 0 0 0 0 -27.614996639575111 69.225410895080131 0 69.225410895080131 -30.212546455779375 0 0 0 0 -41.447284617985133 -41.630799793125334 0 -41.630799793125334 112.11494716216112 0 0 0 0 -124.80751761668216 -0.018560739670647308 0 -0.018560739670647308 151.09486844627827 0 0 0 0 -160.54011353760143 125.2674095938637 0 125.2674095938637 37.321526534477016 0 0 0 0 -132.4172641223231 62.529606823689392 0 62.529606823689392 94.272343350632582 0 0 0 0 21.81035469804192 -18.796366325448616 0 -18.796366325448616 -9.695285474153934 0 0 0 0 0.62957220016114945 3.1433551044098209 0 3.1433551044098209 6.0315782993636731 0 0 0 0 -149.4031717609214 -22.11480932412087 0 -22.11480932412087 25.673033368962933 0 0 0 0 -205.11139732234005 24.830317742904299 0 24.830317742904299 76.117426068849454 0 0 0 0 -128.41768035670066 4.9757473779773136 0 4.9757473779773136 216.64337772551517 0 0 0 0 -95.069829433459745 3.0300815824721212 0 3.0300815824721212 36.760371197888162 0 0 0 0 -12.548750530651887 41.01275033647471 0 41.01275033647471 22.796688106089277 0 0 0 0 -19.529776610757835 -18.659580976658617 0 -18.659580976658617 203.22268708638694 0 0 0 0 72.151039995871542 141.14733920263825 0 141.14733920263825 393.50034835092083 0 0 0 0 0.68120057107979193 1.472343344387145 0 1.472343344387145 3.2678618523826799 0 0 0 0 58.158932159167648 117.34949131832218 0 117.34949131832218 1.8305679755285382 0 0 0 0 50.710429645328986 -216.88829252459254 0 -216.88829252459254 402.01337529689454 0 0 0 0 68.211352177994627 221.04263196112379 0 221.04263196112379 230.53189818413375 0 0 0 0 292.04515191304836 57.696352669718181 0 57.696352669718181 99.501544432012452 0 0 0 0 -40.790605218460769 40.517199811292812 0 40.517199811292812 181.22916916024769 0 0 0 0 -41.350787834706352 36.127229952668131 0 36.127229952668131 357.96351650863289 0 0 0 0 1.9630432396609265 0.73968560670404315 0 0.73968560670404315 -0.34718222920513142 0 0 0 0 -13.406114080999032 79.54108406688465 0 79.54108406688465 214.43656117280261 0 0 0 0 -0.82798099690262461 73.725860397804354 0 73.725860397804354 91.016629638492304 0 0 0 0 14.516651542673571 105.61225464717336 0 105.61225464717336 132.56098787089286 0 0 0 0 -20.514102278277278 59.445386504081398 0 59.445386504081398 124.10870632618116 0 0 0 0 -20.08699923097447 76.946698931817082 0 76.946698931817082 172.10538911821277 0 0 0 0 -28.975663954104675 23.823945747893958 0 23.823945747893958 92.402270023005258 0 0 0 0 -11.477174455098066 52.165099956031554 0 52.165099956031554 90.27919102240412 0 0 0 0 -5.8801635950112541 27.458622294088855 0 27.458622294088855 39.02347660554733 0 0 0 0 13.029951286577671 40.523241872251674 0 40.523241872251674 38.412296115737263 0 0 0 0 -28.807645541099191 7.3159411544056638 0 7.3159411544056638 43.443399198513362 0 0 0 0 -32.964828191493325 2.2897235502987314 0 2.2897235502987314 17.991951333158795 0 0 0 0 0.89425210323724968 -8.7762822500380935 0 -8.7762822500380935 -20.259288419052609 0 0 0 0 -53.250981444281933 23.599332883513853 0 23.599332883513853 15.347025018712884 0 0 0 0 29.183430606151887 74.989754758766139 0 74.989754758766139 81.926712585100177 0 0 0 0 -52.320160707841296 70.125522899732687 0 70.125522899732687 -50.081678307709808 0 0 0 0 -14.627925828841398 78.270810542504478 0 78.270810542504478 -58.291240371625463 0 0 0 0 -39.858723915625887 79.820321956116459 0 79.820321956116459 -48.4933283992832 0 0 0 0 10.474838635318278 18.577135243455011 0 18.577135243455011 -4.6689463772392088 0 0 0 0 6.0456173838517842 -0.82604811951134138 0 -0.82604811951134138 -0.065826452004927205 0 0 0 0 -20.787827337368071 28.967429631120467 0 28.967429631120467 9.9948741868101934 0 0 0 0 -28.841382725229778 50.164859442291345 0 50.164859442291345 -3.1328571031917818 0 0 0 0 -51.595883906509698 16.169494718989881 0 16.169494718989881 5.8169249184538785 0 0 0 0 -40.753002547593496 65.094358987393207 0 65.094358987393207 -121.16566249905736 0 0 0 0 -123.00862982550461 35.369968451792374 0 35.369968451792374 6.7354410331172403 0 0 0 0 -20.126841111370595 21.288758504757425 0 21.288758504757425 -12.737296421590145 0 0 0 0 -0.029918767857452622 53.244708667532905 0 53.244708667532905 -16.051400367308815 0 0 0 0 129.76124173597054 -34.816868545567559 0 -34.816868545567559 -70.405548911039659 0 0 0 0 -0.5786987606963705 19.695106394769716 0 19.695106394769716 -15.609465268990874 0 0 0 0 -4.7679150085868116 3.1514059876731224 0 3.1514059876731224 -1.3105039647637113 0 0 0 0 135.14456223809975 24.503190681665728 0 24.503190681665728 -156.3255839295889 0 0 0 0 0.087203891576791648 33.017137730301329 0 33.017137730301329 -6.8677769718051422 0 0 0 0 30.796108035458019 -37.814463754504686 0 -37.814463754504686 16.421941961030825 0 0 0 0 4.219190214149009 1.4722259609745976 0 1.4722259609745976 -0.7907873852023215 0 0 0 0 -123.98982407514268 -136.97789280637517 0 -136.97789280637517 129.71364176475618 0 0 0 0 465.02469946267229 -252.05802427211893 0 -252.05802427211893 149.04753331892425 0 0 0 0 -21.327472440178155 34.3107970170378 0 34.3107970170378 0.19507447136439282 0 0 0 0 23.738070478430018 5.7838550838132505 0 5.7838550838132505 -11.556496258635889 0 0 0 0 530.15253474045312 173.35615948151099 0 173.35615948151099 434.50675856724592 0 0 0 0 1.1458766287623519 4.3772041173761806 0 4.3772041173761806 1.5114090574785806 0 0 0 0 1301.1840868133077 709.04795025208296 0 709.04795025208296 -40.730261780321598 0 0 0 0 -2.6737783491935669 2.7037293210638325 0 2.7037293210638325 5.4040653900941322 0 0 0 0 -17.777044229067087 40.787577707772471 0 40.787577707772471 0.1081345382190193 0 0 0 0 1.1288548148222617 764.14011053241848 0 764.14011053241848 543.45159800730471 0 0 0 0 658.87883471443638 1372.114072585322 0 1372.114072585322 -0.51344499755941797 0 0 0 0 -0.52253244840730417 0.77437791066512318 0 0.77437791066512318 1.0329184815352335 0 0 0 0 -69.000246859544859 8.9494277587346005 0 8.9494277587346005 37.937871191417798 0 0 0 0 -105.0850416227986 160.54419772491019 0 160.54419772491019 -144.21425819563592 0 0 0 0 -270.27053052192787 223.30335055691103 0 223.30335055691103 253.7555684736999 0 0 0 0 -2.4544435283629724 1.3927446209650043 0 1.3927446209650043 0.10808963500808755 0 0 0 0 -27.881012032377356 20.887761307511752 0 20.887761307511752 -5.9756208636004118 0 0 0 0 -210.6820671560472 143.22818170352639 0 143.22818170352639 -28.028278098368901 0 0 0 0 1.2238634081149939 41.546432414375886 0 41.546432414375886 313.22506757195515 0 0 0 0 -4.2249745466760942 84.083249701765453 0 84.083249701765453 -241.10720134821895 0 0 0 0 -3.3386638521988061 14.829668064328871 0 14.829668064328871 -136.68187526922702 0 0 0 0 -17.176264284491481 37.583781807055857 0 37.583781807055857 0.0046943455272412393 0 0 0 0 -16.789479575134465 28.683195300403895 0 28.683195300403895 20.780237185483202 0 0 0 0 -14.567254869267344 67.013709806735278 0 67.013709806735278 -8.2808350990635518 0 0 0 0 11.660008833838219 -29.08131800420233 0 -29.08131800420233 249.43822104743958 0 0 0 0 4.4119850722308911 36.788522076123627 0 36.788522076123627 -44.909360587946139 0 0 0 0 -77.539225365813763 36.937153053335351 0 36.937153053335351 211.53398307116004 0 0 0 0 -22.73466272590187 16.743382667231558 0 16.743382667231558 -2.7221752040270655 0 0 0 0 -7.2680584574037255 2.4373423682390793 0 2.4373423682390793 0.30687267939196761 0 0 0 0 -14.880365369688661 46.146704400300223 0 46.146704400300223 -48.217225468521065 0 0 0 0 9.3917321107192038 67.276260795423696 0 67.276260795423696 -32.148940831430082 0 0 0 0 16.738335607093177 51.336891011927946 0 51.336891011927946 -60.176846950912477 0 0 0 0 -3.3513406942220172 24.487678384371975 0 24.487678384371975 -64.211550276915659 0 0 0 0 -14.26125113832677 27.913533426853974 0 27.913533426853974 -31.771006058452258 0 0 0 0 -49.629630153947801 65.653109248491091 0 65.653109248491091 -50.289279160242586 0 0 0 0 -33.641043656336478 61.70125959209463 0 61.70125959209463 9.5274671954393853 0 0 0 0 -77.646598442133836 14.215923922160073 0 14.215923922160073 -6.3121752993756672 0 0 0 0 -81.842045524532296 43.492171297140885 0 43.492171297140885 4.7924013369502063 0 0 0 0 -53.26896014200247 13.044480968756261 0 13.044480968756261 -24.024244965199614 0 0 0 0 -54.441290857071635 22.493721087831773 0 22.493721087831773 -31.898504459255491 0 0 0 0 -28.101049064454855 3.1136168936682225 0 3.1136168936682225 -17.923480703819223 0 0 0 0 -1.2883868662496951 0.93230865069045166 0 0.93230865069045166 0.21614610848565619 0 0 0 0 -37.324980731107644 38.274406894935964 0 38.274406894935964 -79.443900675651093 0 0 0 0 -11.815074802274466 10.254103622930415 0 10.254103622930415 -52.75296444966807 0 0 0 0 -79.660573732980993 32.288514260388183 0 32.288514260388183 -28.560306168554234 0 0 0 0 -44.879017622290121 2.7814464145976672 0 2.7814464145976672 -90.375230999539781 0 0 0 0 60.179486243680003 -5.0944077268886758 0 -5.0944077268886758 88.430746276895661 0 0 0 0 29.50488026880339 85.525456532239332 0 85.525456532239332 -94.005797573095606 0 0 0 0 -16.262559096820041 21.716544839693597 0 21.716544839693597 0.01855150745541323 0 0 0 0 -16.237555372019415 19.935691579448758 0 19.935691579448758 3.4757154282415286 0 0 0 0 -16.863792603722047 16.46611107433948 0 16.46611107433948 -3.2958410231061634 0 0 0 0 -16.307768364149524 18.475780227052383 0 18.475780227052383 -0.032094041162054054 0 0 0 0 -59.793849312729435 17.451052014483139 0 17.451052014483139 106.71235193426764 0 0 0 0 -66.616653124637196 -53.846675691074324 0 -53.846675691074324 81.620628658274654 0 0 0 0 -1.7576436880190158 2.3929440469510155 0 2.3929440469510155 35.220974658397608 0 0 0 0 -10.569612982254483 2.5982653522229739 0 2.5982653522229739 -0.065903313490379922 0 0 0 0 2.0608211538492469 -6.2072343561012531 0 -6.2072343561012531 30.600612653077405 0 0 0 0 -11.837994841017931 15.967251282315445 0 15.967251282315445 -2.0834635414992935 0 0 0 0 21.095900364689442 7.157147650130355 0 7.157147650130355 25.462654977945931 0 0 0 0 -5.7749094218816026 22.218228574394743 0 22.218228574394743 -12.128407211625017 0 0 0 0 -4.4796000281192789 4.5246903076630076 0 4.5246903076630076 -4.4906124354321975 0 0 0 0 -13.085327495231468 13.884255102806492 0 13.884255102806492 0.0051483014103541509 0 0 0 0 -12.018096947594032 2.6963557159837706 0 2.6963557159837706 2.8989095355156556 0 0 0 0 -4.4548984676584951 -5.5023427259802702 0 -5.5023427259802702 34.550782779336373 0 0 0 0 -19.777716688826331 16.297648428513639 0 16.297648428513639 41.794208147104655 0 0 0 0 -0.77743664248779965 10.326308385305719 0 10.326308385305719 3.853605908154222 0 0 0 0 -2.3750741174117138 -11.572533328169811 0 -11.572533328169811 -47.888511984525394 0 0 0 0 -4.7375827496762213 13.6633985461267 0 13.6633985461267 -45.601425887449295 0 0 0 0 -3.4910205859856092 1.1995577657745216 0 1.1995577657745216 -0.036441989684169229 0 0 0 0 2.2120196438409039 0.44407522201072425 0 0.44407522201072425 -67.379308400086302 0 0 0 0 -10.480417172035231 3.2899910234227718 0 3.2899910234227718 -46.634241382787877 0 0 0 0 -6.1286367063894431 -5.6512235412078553 0 -5.6512235412078553 -41.841551792800601 0 0 0 0 -7.9405452206237896 0.79898274502284039 0 0.79898274502284039 -29.154396630248812 0 0 0 0 -16.086150913586607 -13.583738310364424 0 -13.583738310364424 6.5005070298211649 0 0 0 0 -28.235527722150437 8.5341768214020703 0 8.5341768214020703 -21.631492477503343 0 0 0 0 2.6894978456039098 -5.6653417331035598 0 -5.6653417331035598 -27.798608732303364 0 0 0 0 -2.2557546980278858 -3.2810966493780143 0 -3.2810966493780143 7.4544395726843504 0 0 0 0 -16.827907189861435 3.8258066960188444 0 3.8258066960188444 103.89562856793054 0 0 0 0 44.137299620914746 -35.194438162864117 0 -35.194438162864117 19.54545441204391 0 0 0 0 -29.542166499981249 14.205040055432619 0 14.205040055432619 22.46085474155916 0 0 0 0 -18.165507931429602 -5.2415763182361843 0 -5.2415763182361843 42.983904988865106 0 0 0 0 -46.410415001887486 43.039017623820655 0 43.039017623820655 107.67311270991195 0 0 0 0 -48.385847783973531 31.80791628133602 0 31.80791628133602 45.759815910598263 0 0 0 0 -40.268627703600941 59.735316018603044 0 59.735316018603044 81.12304847793348 0 0 0 0 3.0415279383432789 -6.7574950646021534 0 -6.7574950646021534 109.48426771291997 0 0 0 0 -41.770774681521289 66.673457087399584 0 66.673457087399584 219.64755035476264 0 0 0 0 -35.967209956186707 109.09918345436745 0 109.09918345436745 115.26737069543378 0 0 0 0 -11.229238983720279 99.758194624393582 0 99.758194624393582 123.73841547439224 0 0 0 0 -22.046906259420211 111.80386023570281 0 111.80386023570281 49.049310424285068 0 0 0 0 -31.948518222023267 126.05644127695268 0 126.05644127695268 140.25865189900287 0 0 0 0 -25.93420919676646 99.215911209084879 0 99.215911209084879 19.918854713054316 0 0 0 0 -20.571214929623238 118.16875513934792 0 118.16875513934792 48.206630866267005 0 0 0 0 -17.215411427539948 112.99968517789966 0 112.99968517789966 56.558187645921862 0 0 0 0 -27.118103111257369 121.16239016832697 0 121.16239016832697 49.92746587401416 0 0 0 0 -36.189040604913316 92.19912337310052 0 92.19912337310052 46.014998043581727 0 0 0 0 -40.148635969540919 76.203886742267059 0 76.203886742267059 36.707290272559476 0 0 0 0 -31.556739678773738 86.684509622486075 0 86.684509622486075 49.396800976734085 0 0 0 0 21.936920417025249 118.80310824945263 0 118.80310824945263 35.745819460003986 0 0 0 0 -20.032130802283973 96.670641625502412 0 96.670641625502412 24.866560103728261 0 0 0 0 -0.3106547484117943 -0.60702236901695272 0 -0.60702236901695272 1.0864737251018823 0 0 0 0 11.679092639595183 58.392815315190091 0 58.392815315190091 -1.3391502579022472 0 0 0 0 -28.631449926720052 30.620566925698313 0 30.620566925698313 -2.7630822462233482 0 0 0 0 -91.08149587074513 44.062848802182998 0 44.062848802182998 20.878001146591487 0 0 0 0 -54.29229557486326 21.489161258756269 0 21.489161258756269 -7.9600455731961119 0 0 0 0 -55.820727316830016 41.367331288653077 0 41.367331288653077 33.989980327947706 0 0 0 0 -39.964775016629574 0.43885487724219274 0 0.43885487724219274 20.117521186366503 0 0 0 0 -55.568333250688738 16.314502556160733 0 16.314502556160733 4.0482727195121697 0 0 0 0 -101.93534246559648 5.5631977054599702 0 5.5631977054599702 7.3842881473028683 0 0 0 0 -56.417205784278394 6.9840259151303599 0 6.9840259151303599 -4.7259232697761036 0 0 0 0 -5.7581643755820551 38.767426583486667 0 38.767426583486667 -3.1445960631426715 0 0 0 0 -0.33172999873383446 -0.64603718598939253 0 -0.64603718598939253 0.92001228096995646 0 0 0 0 -132.92624099230306 29.093595350072064 0 29.093595350072064 16.921705117689271 0 0 0 0 42.015949599408486 62.097426661244754 0 62.097426661244754 -4.2671368834235182 0 0 0 0 -41.660263068582935 28.776899392509222 0 28.776899392509222 11.306493001495255 0 0 0 0 -0.32463197206683958 -0.31631930402863873 0 -0.31631930402863873 1.7053710164022959 0 0 0 0 -71.238473881548998 55.185479309306174 0 55.185479309306174 10.439374961730209 0 0 0 0 -89.041786245848925 -7.4114614307982265 0 -7.4114614307982265 25.065719779049687 0 0 0 0 -17.269557658742997 49.400958435195207 0 49.400958435195207 -17.603184705769308 0 0 0 0 14.070681545450498 15.933520681593109 0 15.933520681593109 -9.0591403827529575 0 0 0 0 15.855207833500948 25.122785786941513 0 25.122785786941513 18.478590678085794 0 0 0 0 -291.09191650608409 176.63877492544452 0 176.63877492544452 138.48166758147636 0 0 0 0 -51.059901592743699 32.843579028442036 0 32.843579028442036 -88.94537506904453 0 0 0 0 -60.581656016744091 74.245398280940208 0 74.245398280940208 101.22828752691566 0 0 0 0 0.41660476331162499 190.18045424683078 0 190.18045424683078 90.756366094915393 0 0 0 0 34.520662278066084 -147.95091684893259 0 -147.95091684893259 127.85507751453406 0 0 0 0 1.0545595391315175 0.32391579534469273 0 0.32391579534469273 -0.26831045306772694 0 0 0 0 -0.049804354974185117 183.12890437734677 0 183.12890437734677 177.81184628722485 0 0 0 0 -35.06118690943913 64.331450592890178 0 64.331450592890178 -88.39493504384518 0 0 0 0 -132.92938161045458 126.52243419576735 0 126.52243419576735 -28.291953791702326 0 0 0 0 -5.6946802473630669 38.883330585731528 0 38.883330585731528 -5.6966648481975426 0 0 0 0 15.477044687469061 21.681389356074675 0 21.681389356074675 7.4422589809390871 0 0 0 0 0.0054650125694445028 85.858204557991002 0 85.858204557991002 -51.917294258237234 0 0 0 0 -29.997730666633288 -283.41704257990204 0 -283.41704257990204 301.88899743635466 0 0 0 0 2.6658183280005261 1.9508143791984907 0 1.9508143791984907 2.1364229980341207 0 0 0 0 -0.059475574213138316 31.451933532873227 0 31.451933532873227 -17.648723552410956 0 0 0 0 76.882358182483586 6.1561289115270483 0 6.1561289115270483 100.83838044427284 0 0 0 0 -197.36426037401179 20.804170928335225 0 20.804170928335225 140.49313550298029 0 0 0 0 -2.726999119793561 -0.63021188941461048 0 -0.63021188941461048 -1.3215570996084374 0 0 0 0 203.43606357654426 199.04765384600614 0 199.04765384600614 -425.90344646695303 0 0 0 0 -103.00703821348725 -31.269040495055378 0 -31.269040495055378 280.27957568905094 0 0 0 0 -1.7027833583124448 650.14802928910649 0 650.14802928910649 578.29212039835056 0 0 0 0 -43.365926609643793 -7.7691816787337302 0 -7.7691816787337302 -70.245714489952661 0 0 0 0 0.24183206395991777 117.73582037667713 0 117.73582037667713 91.28094011459325 0 0 0 0 -15.634685599521617 -283.02372359642504 0 -283.02372359642504 199.51664567594116 0 0 0 0 1.1462565399553313 0.63541735806641597 0 0.63541735806641597 0.62818229663326974 0 0 0 0 -0.17323951056134437 98.174785656471173 0 98.174785656471173 -109.91004638125378 0 0 0 0 145.46417337668572 78.716692652921665 0 78.716692652921665 100.43093008655705 0 0 0 0 -72.486713919097383 -54.766127414182847 0 -54.766127414182847 20.942722624338785 0 0 0 0 0.41967942714488515 0.5494634001588814 0 0.5494634001588814 0.87778869728177256 0 0 0 0 -81.049485208117403 -72.051754428466666 0 -72.051754428466666 26.29119586820525 0 0 0 0 -11.293527717993129 177.33250774606131 0 177.33250774606131 -89.022284366292297 0 0 0 0 17.377361532024224 -208.79476773166789 0 -208.79476773166789 202.15873972861937 0 0 0 0 3.3486742397751783 2.5154093139545015 0 2.5154093139545015 2.0751292844747837 0 0 0 0 -108.65872310143459 95.249992927490894 0 95.249992927490894 58.34377595190017 0 0 0 0 58.273191548607429 -71.910128057854308 0 -71.910128057854308 65.349374631106912 0 0 0 0 123.20333135150577 25.860432052680153 0 25.860432052680153 -123.82190697384794 0 0 0 0 -120.10119853621291 27.257015157942078 0 27.257015157942078 -71.985710688873951 0 0 0 0 105.0673595310509 -113.33730845218815 0 -113.33730845218815 168.98385826630692 0 0 0 0 0.033979137619127187 0.20243220707473242 0 0.20243220707473242 0.55394380284167255 0 0 0 0 15.962356067932355 27.208579728307022 0 27.208579728307022 28.263996881277308 0 0 0 0 -234.70095903102265 132.19564111594082 0 132.19564111594082 35.305290504642471 0 0 0 0 -37.610584145526445 8.5826960480844718 0 8.5826960480844718 25.07798932143487 0 0 0 0 -133.68423240917946 28.270589340812876 0 28.270589340812876 60.842616406625893 0 0 0 0 -81.125638355641058 53.035631891854791 0 53.035631891854791 62.831588693756203 0 0 0 0 -145.30612134136754 27.810411555926294 0 27.810411555926294 164.50231528953009 0 0 0 0 17.39559637204713 30.448449818261583 0 30.448449818261583 34.630182927134115 0 0 0 0 -40.530045819428778 83.649462746336212 0 83.649462746336212 46.649180955293559 0 0 0 0 3.8387145425258495 97.555657169887127 0 97.555657169887127 46.040900884247094 0 0 0 0 -12.291162546332998 45.069692372155259 0 45.069692372155259 17.696450533650932 0 0 0 0 7.9995857384483458 39.489403827529415 0 39.489403827529415 47.977353282300143 0 0 0 0 -17.581250325500648 2.5381871828856326 0 2.5381871828856326 19.290932940215782 0 0 0 0 -4.6465007511996248 6.1079287000973466 0 6.1079287000973466 12.873944997448675 0 0 0 0 -10.472592084085363 4.136580890998097 0 4.136580890998097 10.586492589808755 0 0 0 0 -113.99605788927147 52.001020447987685 0 52.001020447987685 149.63627955870106 0 0 0 0 -101.47518414459046 41.385563357947831 0 41.385563357947831 98.287891318975198 0 0 0 0 -7.5733718201809097 77.793411608798124 0 77.793411608798124 -30.39942317776331 0 0 0 0 -22.312545060100092 42.859979731241765 0 42.859979731241765 59.438810018167715 0 0 0 0 -23.26649461056877 44.014216205659977 0 44.014216205659977 65.880151284552994 0 0 0 0 -37.257513947861298 54.63989237007263 0 54.63989237007263 55.441643479920458 0 0 0 0 11.293788171379617 29.352591102420874 0 29.352591102420874 51.970528796186713 0 0 0 0 -17.788253966675256 51.030771866529903 0 51.030771866529903 40.960103558227274 0 0 0 0 -34.811816921705031 67.469775038047374 0 67.469775038047374 116.86327465151408 0 0 0 0 -26.005768780207291 135.19816373343201 0 135.19816373343201 219.5728951938363 0 0 0 0 61.843876608643768 -63.86970876092164 0 -63.86970876092164 40.402891140043721 0 0 0 0 97.079245504577557 137.24970324437527 0 137.24970324437527 52.497387000046729 0 0 0 0 36.067963586858241 -8.2049492501173518 0 -8.2049492501173518 -75.706222129163507 0 0 0 0 23.17198989420649 16.202625320718653 0 16.202625320718653 -29.631326700779027 0 0 0 0 101.0756882204405 102.31162252682043 0 102.31162252682043 10.755369564074499 0 0 0 0 76.558587777733919 117.01002885254275 0 117.01002885254275 130.27321581321848 0 0 0 0 -30.769874250599969 -37.728013565283618 0 -37.728013565283618 214.79220635195816 0 0 0 0 -0.79662427752312226 8.2529340786821663 0 8.2529340786821663 12.732557507766305 0 0 0 0 -52.944070546425792 -20.93233410549874 0 -20.93233410549874 219.07078545109835 0 0 0 0 67.615021487508784 60.451777388996561 0 60.451777388996561 -40.40930164989004 0 0 0 0 50.087020387923985 59.040665818964044 0 59.040665818964044 19.027623442827462 0 0 0 0 46.046483348325637 60.553474814076253 0 60.553474814076253 64.899536853197787 0 0 0 0 22.404876555985538 79.840876371483319 0 79.840876371483319 82.723346449143719 0 0 0 0 69.521663561326022 98.959733609813156 0 98.959733609813156 25.013856698671589 0 0 0 0 19.337858041257732 121.38336925226395 0 121.38336925226395 56.779671961921849 0 0 0 0 -18.080482082605158 102.89601884970034 0 102.89601884970034 55.797935314310962 0 0 0 0 108.51380563088242 131.1349739267007 0 131.1349739267007 54.321026450699719 0 0 0 0 66.096686181874247 73.975819749979564 0 73.975819749979564 2.2947302482207306 0 0 0 0 171.73968005866845 99.450525392920099 0 99.450525392920099 14.280876479781 0 0 0 0 -0.2652568539528648 -0.75043961108236346 0 -0.75043961108236346 0.47974198962495507 0 0 0 0 -278.99425964413967 57.727602241255227 0 57.727602241255227 44.847786273669044 0 0 0 0 -18.283202636377609 100.36895539624356 0 100.36895539624356 27.410918442546972 0 0 0 0 -40.720842814611387 110.6140905709799 0 110.6140905709799 35.962158721049491 0 0 0 0 -84.877705169263209 84.169928253217222 0 84.169928253217222 38.662737117143479 0 0 0 0 -91.503075652752159 54.547335639770608 0 54.547335639770608 -9.2012861719776993 0 0 0 0 -190.50199362290732 91.128440790838795 0 91.128440790838795 39.082581145489712 0 0 0 0 -125.39854827459203 43.483662222777639 0 43.483662222777639 -8.9827345422236249 0 0 0 0 -180.3839576752398 52.642316553094133 0 52.642316553094133 9.8600522777887818 0 0 0 0 -180.30514714918775 49.843795191605125 0 49.843795191605125 -23.210675686088507 0 0 0 0 -144.35995945621107 63.722294871684426 0 63.722294871684426 -18.618046109881107 0 0 0 0 -38.180538968299516 24.511301683996862 0 24.511301683996862 98.234272585141298 0 0 0 0 -194.59978701476211 114.65920730658399 0 114.65920730658399 -42.052852464257739 0 0 0 0 0.014631737424952718 1.1957689187795424 0 1.1957689187795424 0.066879472333482681 0 0 0 0 -224.27950615153532 -37.834114803721604 0 -37.834114803721604 20.211265525951603 0 0 0 0 0.33931991897075875 1.7701914996507071 0 1.7701914996507071 1.8261850094703433 0 0 0 0 -190.84816181103815 111.26474410481023 0 111.26474410481023 -3.9630350939405616 0 0 0 0 -113.30084141455882 50.648075478267856 0 50.648075478267856 -78.49390104131453 0 0 0 0 -205.77568491126931 28.419151182942187 0 28.419151182942187 -8.9191584223153768 0 0 0 0 -125.31227125139412 62.863108397785254 0 62.863108397785254 39.755659133476001 0 0 0 0 -101.96752038095156 63.242576332062583 0 63.242576332062583 21.943611804905231 0 0 0 0 -1.1721280828242726 0.76533502897051875 0 0.76533502897051875 13.274548932344516 0 0 0 0 -11.045502935454351 5.1452003613094348 0 5.1452003613094348 47.686094271768525 0 0 0 0 -67.162636979319359 11.78594087381498 0 11.78594087381498 10.077865712170023 0 0 0 0 -22.790206986814155 9.2735236674416228 0 9.2735236674416228 54.194026911882247 0 0 0 0 -68.653531249896332 62.831909963017097 0 62.831909963017097 29.872139694434736 0 0 0 0 -64.636805027783339 115.50591426797655 0 115.50591426797655 147.50225580416736 0 0 0 0 75.971601614161045 120.24782323212276 0 120.24782323212276 51.279777867970552 0 0 0 0 7.4682435428403551 86.308786389941815 0 86.308786389941815 -108.01901407968762 0 0 0 0 1.9702112759290884 50.097371046266048 0 50.097371046266048 26.115215862340385 0 0 0 0 686.33172355278657 -13.005355388220778 0 -13.005355388220778 -45.310034838348656 0 0 0 0 -12.983025690595241 50.044988795263635 0 50.044988795263635 -43.163926175111555 0 0 0 0 -82.387923535605751 1.5278931715533872 0 1.5278931715533872 83.624016434463556 0 0 0 0 -5.4357143151628406 -541.81332522442062 0 -541.81332522442062 259.71876364992931 0 0 0 0 -0.12627180186227527 -1.4008690134471067 0 -1.4008690134471067 4.8549626655025406 0 0 0 0 -15.274391391153415 48.413761987563419 0 48.413761987563419 30.639394014907602 0 0 0 0 -47.290625735746289 32.674309161986457 0 32.674309161986457 97.068944133923651 0 0 0 0 -9.6907236335064226 59.97982977378615 0 59.97982977378615 -68.765250345000368 0 0 0 0 18.289781319056182 25.05247758110368 0 25.05247758110368 -24.7430993328828 0 0 0 0 17.022605123865446 23.311996803738879 0 23.311996803738879 0.59944848755441171 0 0 0 0 4.543127329867275 55.014520440108754 0 55.014520440108754 -42.432946272938352 0 0 0 0 -2.0389574316634622 23.116032019314385 0 23.116032019314385 11.716476100321518 0 0 0 0 -23.867331076158735 53.232884020255369 0 53.232884020255369 -4.7625679191041854 0 0 0 0 -1.3102573961507673 27.050765519808962 0 27.050765519808962 32.62583365526632 0 0 0 0 -29.78447898246668 32.675265074160052 0 32.675265074160052 25.365720696790959 0 0 0 0 -23.375549634840354 38.254286865775612 0 38.254286865775612 27.931631048573763 0 0 0 0 0.49046778716729023 27.5119043093855 0 27.5119043093855 32.716993862275558 0 0 0 0 8.7873634175757616 19.237405044394109 0 19.237405044394109 37.254956517281244 0 0 0 0 3.4735434673639247 22.594461779823177 0 22.594461779823177 47.070430621191917 0 0 0 0 -1.5678782288993389 8.8011754837985521 0 8.8011754837985521 44.012153562506782 0 0 0 0 30.037391360425318 21.388822758701281 0 21.388822758701281 45.168395463813795 0 0 0 0 11.102008307123469 40.828566024691099 0 40.828566024691099 62.829620622782386 0 0 0 0 -21.471611272514565 25.980610309674375 0 25.980610309674375 56.308544433817588 0 0 0 0 1.9298328183067497 20.183922983942466 0 20.183922983942466 44.18911646882043 0 0 0 0 -5.7093503627947939 7.3094204401859315 0 7.3094204401859315 28.144825249735732 0 0 0 0 0.91808412346750856 9.8682198637376075 0 9.8682198637376075 -4.4090865131735697 0 0 0 0 1.43078975759272 18.122083653506706 0 18.122083653506706 44.142670332659691 0 0 0 0 7.067826411281473 14.593830722599364 0 14.593830722599364 6.2840069783920853 0 0 0 0 0.40656651657627663 18.663862262472321 0 18.663862262472321 45.67028723344265 0 0 0 0 49.755550245343329 31.511154564919707 0 31.511154564919707 -74.669251636332774 0 0 0 0 1.7637403671549379 15.602715835852983 0 15.602715835852983 40.629226600336779 0 0 0 0 -4.1669171381654451 16.504214182376018 0 16.504214182376018 44.651100004222826 0 0 0 0 -7.683519351267023 31.825093474395544 0 31.825093474395544 52.96443708903098 0 0 0 0 -18.405511090968503 43.328463328005455 0 43.328463328005455 63.985136665161917 0 0 0 0 -12.315690919000616 11.697036316239505 0 11.697036316239505 14.411403722900189 0 0 0 0 -18.275120976218432 21.65690961724458 0 21.65690961724458 91.972736136936874 0 0 0 0 -37.73685118912681 -16.691185652956392 0 -16.691185652956392 122.48914298088494 0 0 0 0 -51.336188620640314 45.068062464390096 0 45.068062464390096 76.799271667674475 0 0 0 0 16.680831768526332 -41.261899253905085 0 -41.261899253905085 106.40355495090262 0 0 0 0 -15.187951437445008 9.1964812406658893 0 9.1964812406658893 74.924891589729668 0 0 0 0 -0.45073770116869127 7.0404953166980704 0 7.0404953166980704 4.5502945638836536 0 0 0 0 0.010649981726601254 28.437266662444017 0 28.437266662444017 29.965079085402976 0 0 0 0 -7.847049067683173 3.5416166293150724 0 3.5416166293150724 4.4172288710905505 0 0 0 0 6.524003066808433 7.2151265836481855 0 7.2151265836481855 4.035252958548547 0 0 0 0 4.4120853111950566 11.948903391125214 0 11.948903391125214 10.91568818964501 0 0 0 0 1.4747926172058214 23.049832157952551 0 23.049832157952551 23.24899459592416 0 0 0 0 -25.006044980582374 136.77276155687196 0 136.77276155687196 -120.72649092987922 0 0 0 0 26.221531238366182 14.073908265311577 0 14.073908265311577 -1.1652790338732615 0 0 0 0 -4.5430119036755059 35.70121966555962 0 35.70121966555962 7.5740719891582557 0 0 0 0 -69.199394276096427 121.53950735676062 0 121.53950735676062 -111.95120378035699 0 0 0 0 26.660467529211019 122.54527372848861 0 122.54527372848861 -140.0319137049969 0 0 0 0 12.890200718102278 131.69474117664504 0 131.69474117664504 -141.58029531466309 0 0 0 0 6.7035897575551644 79.802538093283147 0 79.802538093283147 -160.41837148958075 0 0 0 0 -12.961153834239667 100.6491200915641 0 100.6491200915641 -176.38125777378082 0 0 0 0 27.125480876800793 118.7634430682574 0 118.7634430682574 -219.02128890738095 0 0 0 0 -6.1524580633631558 45.188710280532177 0 45.188710280532177 -236.24547133684791 0 0 0 0 -1.6806067087018164 124.61386163932002 0 124.61386163932002 -155.28247255787267 0 0 0 0 39.747271493586595 119.42680256860876 0 119.42680256860876 -155.60667971633075 0 0 0 0 -0.062640637548611267 134.58661465252681 0 134.58661465252681 -146.05366411629439 0 0 0 0 9.0967692157719284 83.283702508342685 0 83.283702508342685 -250.79092221745668 0 0 0 0 -0.15669842409261037 139.88999143164619 0 139.88999143164619 -286.26270812868461 0 0 0 0 0.94549688613608396 -1.2890154423244873 0 -1.2890154423244873 -0.49852245378265536 0 0 0 0 -23.405490667879349 7.1192383704037638 0 7.1192383704037638 71.230408327122859 0 0 0 0 -0.0012795717692284513 0.36910447639787225 0 0.36910447639787225 1.0823499310354237 0 0 0 0 38.385185012055445 33.448596823076514 0 33.448596823076514 -417.85435346532176 0 0 0 0 -1.5363620893734833 -0.68241417882983058 0 -0.68241417882983058 0.92951429970153754 0 0 0 0 -4.1040405193642755 2.7362664174917413 0 2.7362664174917413 7.2618727756341883 0 0 0 0 -13.147182664626598 -1.7137085817262232 0 -1.7137085817262232 36.529660433960089 0 0 0 0 4.3987531085250282 7.2282849964099363 0 7.2282849964099363 8.3453165226456036 0 0 0 0 -6.9395842535450356 25.242816085266895 0 25.242816085266895 17.55431005706123 0 0 0 0 6.3782799155451357 10.056630423157912 0 10.056630423157912 -18.214263766116005 0 0 0 0 0.054087137918349938 28.082662591222331 0 28.082662591222331 26.540483754426532 0 0 0 0 1.4600363837970036 2.143205670115357 0 2.143205670115357 2.4093451135310602 0 0 0 0 -14.030970774000707 88.44218091070843 0 88.44218091070843 335.37940069680189 0 0 0 0 283.78531164864398 81.746015699556665 0 81.746015699556665 -156.24334469393943 0 0 0 0 50.529144111042115 -44.933145204039647 0 -44.933145204039647 48.641079951899883 0 0 0 0 2.6251772354444256 41.151615980641509 0 41.151615980641509 -22.003178298571584 0 0 0 0 42.030853319163725 109.36623199860333 0 109.36623199860333 191.18064215249433 0 0 0 0 47.105700978201639 77.949743991128344 0 77.949743991128344 309.57724430454255 0 0 0 0 -26.268038201185846 18.180076856133383 0 18.180076856133383 237.7255619946518 0 0 0 0 333.55184304443173 245.73196282024583 0 245.73196282024583 271.61633032428927 0 0 0 0 372.88078825329012 251.25028939425829 0 251.25028939425829 159.50964507904791 0 0 0 0 11.464894322536566 69.596667626734416 0 69.596667626734416 263.24867442782357 0 0 0 0 42.308142546720774 76.507697742665187 0 76.507697742665187 88.80661846638759 0 0 0 0 95.95520001933437 185.60591916612611 0 185.60591916612611 61.313432127564738 0 0 0 0 210.05272755426085 340.64632985358912 0 340.64632985358912 268.58963257249604 0 0 0 0 90.558108760269533 145.61501759320527 0 145.61501759320527 52.6027860235763 0 0 0 0 88.192319227983717 124.77700941739749 0 124.77700941739749 55.458922508856631 0 0 0 0 95.928084189014044 134.61913741442368 0 134.61913741442368 66.213989295865758 0 0 0 0 102.80730203702763 -20.911049732840183 0 -20.911049732840183 -84.303736198344268 0 0 0 0 60.532019826523538 0.16789835713643697 0 0.16789835713643697 -68.982501292193774 0 0 0 0 185.34122336211294 27.315588320907409 0 27.315588320907409 91.668110066020745 0 0 0 0 1.4834721323520412 0.53080758642427384 0 0.53080758642427384 -0.43698346856952952 0 0 0 0 38.710799582826439 -29.739873459628143 0 -29.739873459628143 -66.279952682623843 0 0 0 0 -6.0420474696184101 -4.1963057159173331 0 -4.1963057159173331 -53.034568031420349 0 0 0 0 -5.9263164990697987 32.017870994386612 0 32.017870994386612 -29.233548901771428 0 0 0 0 36.247024494195784 219.85962330173152 0 219.85962330173152 -199.95456552360702 0 0 0 0 3.3848790687030998 5.0612474972466401 0 5.0612474972466401 5.3200335621130961 0 0 0 0 -59.017089712253437 9.1807133341026201 0 9.1807133341026201 -22.397359428694472 0 0 0 0 130.53053913944314 157.09966059502403 0 157.09966059502403 90.117086832484347 0 0 0 0 2.6380458456024485 4.2302835321274834 0 4.2302835321274834 5.0480528944189587 0 0 0 0 -1.6367675318544812 1.289879070596939 0 1.289879070596939 3.0884324131883716 0 0 0 0 -191.36605491900627 117.34901747975891 0 117.34901747975891 104.46357463764434 0 0 0 0 -156.91736983950068 216.69308963860749 0 216.69308963860749 -119.23266961903755 0 0 0 0 -31.939731908958493 10.882044728563415 0 10.882044728563415 23.11458031984148 0 0 0 0 -18.518690779634198 24.167316109043895 0 24.167316109043895 -24.825065290184284 0 0 0 0 -25.887506699262303 26.946541920122399 0 26.946541920122399 -31.78674551678705 0 0 0 0 -40.934914641416981 29.538575074817345 0 29.538575074817345 -23.324244163341064 0 0 0 0 -26.595418339835305 22.324271856152336 0 22.324271856152336 -20.190070126016508 0 0 0 0 -26.85632158665976 19.904866181750549 0 19.904866181750549 -16.806879384123022 0 0 0 0 -21.643597171187139 20.049937720599701 0 20.049937720599701 -25.313681535379146 0 0 0 0 -29.430929846908839 17.106177887297235 0 17.106177887297235 -4.5571880503703142 0 0 0 0 -16.974157965489212 14.055825831346738 0 14.055825831346738 -13.730650150304427 0 0 0 0 -42.192834447472706 19.400342051842017 0 19.400342051842017 -7.2924828672912554 0 0 0 0 -29.317404464989522 12.75004521849678 0 12.75004521849678 -4.085437869784073 0 0 0 0 -34.717639918409986 8.5035710286065296 0 8.5035710286065296 18.239801346382592 0 0 0 0 -41.492146473938192 18.171474157803459 0 18.171474157803459 4.6928661480051233 0 0 0 0 -19.317901130409155 11.140121664342587 0 11.140121664342587 -2.0077465933318308 0 0 0 0 -21.543755605467595 12.461284816501575 0 12.461284816501575 5.881603344460018 0 0 0 0 27.707302874787274 -4.9835634473674872 0 -4.9835634473674872 -9.7729863814020064 0 0 0 0 -17.074651157257904 36.315305526397424 0 36.315305526397424 -29.258029074931983 0 0 0 0 0.60826438791517745 0.21353211247323145 0 0.21353211247323145 -0.96699794433769171 0 0 0 0 -13.005480665202413 21.828236448738608 0 21.828236448738608 -26.046715364122065 0 0 0 0 -1.4638319559089723 8.7297485787785263 0 8.7297485787785263 -15.354011800838634 0 0 0 0 -66.563467527088505 36.400696735259771 0 36.400696735259771 1.7452069406135706 0 0 0 0 -70.065980388069875 32.409067693712132 0 32.409067693712132 9.3783230271365028 0 0 0 0 -61.741293216269696 37.537262516780174 0 37.537262516780174 -4.2094265782213824 0 0 0 0 -56.446075943651522 32.365462505087635 0 32.365462505087635 -7.6771735538350185 0 0 0 0 -69.703600408924103 25.392415651222109 0 25.392415651222109 6.1713544480298879 0 0 0 0 -61.864160531098605 24.182352355353942 0 24.182352355353942 -3.5037373263076006 0 0 0 0 -61.880228362424532 23.23005438529799 0 23.23005438529799 -5.8160894760439987 0 0 0 0 -54.577136809341027 21.773841281232308 0 21.773841281232308 -9.7243039330642205 0 0 0 0 -57.076716386363842 28.942460586691595 0 28.942460586691595 -20.736635508917971 0 0 0 0 -61.419248595950194 29.284696035094385 0 29.284696035094385 -12.395697884858237 0 0 0 0 -52.474704124470009 27.649198287988838 0 27.649198287988838 -19.28681417509506 0 0 0 0 -54.082314237777609 32.674689010571456 0 32.674689010571456 -21.751077468812582 0 0 0 0 -48.978478938206536 22.498580318137101 0 22.498580318137101 -11.890778026674525 0 0 0 0 -44.419381441177393 23.009723330142151 0 23.009723330142151 -11.879450354506844 0 0 0 0 -45.330837637207878 10.546917093932279 0 10.546917093932279 7.6006156144430861 0 0 0 0 -66.440658514246024 13.385142284481844 0 13.385142284481844 6.3837505174305988 0 0 0 0 -66.829542469393346 24.358564529116848 0 24.358564529116848 6.1202929566525199 0 0 0 0 -56.688912333142071 19.828609371044877 0 19.828609371044877 1.3332122528299806 0 0 0 0 -53.91865729383062 16.645451833188417 0 16.645451833188417 -0.38414085282420274 0 0 0 0 -97.483076429326957 21.85708386515762 0 21.85708386515762 11.357937182714522 0 0 0 0 -78.210763494753337 22.153643730845943 0 22.153643730845943 6.5143602567986818 0 0 0 0 -75.45476410939591 29.1208085303806 0 29.1208085303806 9.0514561073068762 0 0 0 0 -124.9563524397463 34.138352897089476 0 34.138352897089476 9.0489412371171056 0 0 0 0 -79.686908474242955 30.302452009960689 0 30.302452009960689 -8.5042062660577358 0 0 0 0 -80.91821800276557 24.173156525560444 0 24.173156525560444 17.909703591663856 0 0 0 0 -64.020238519595296 43.923151334383874 0 43.923151334383874 11.239017435267669 0 0 0 0 -72.657882708921534 17.417355371453596 0 17.417355371453596 21.181429285992635 0 0 0 0 -56.627860519256501 16.321535477298312 0 16.321535477298312 10.717694037150068 0 0 0 0 -55.101950934204069 22.34188280950093 0 22.34188280950093 20.013329833120224 0 0 0 0 -48.610212645085994 12.046591919668572 0 12.046591919668572 35.50104121836921 0 0 0 0 -55.842548861823161 56.655071637462243 0 56.655071637462243 44.418549524525588 0 0 0 0 -63.187576451602581 36.002320730680367 0 36.002320730680367 60.346780813924852 0 0 0 0 -70.282883597577893 73.718493349886558 0 73.718493349886558 78.908482586317405 0 0 0 0 -69.02618665976479 75.007299160461116 0 75.007299160461116 18.2132023713948 0 0 0 0 -83.785180616177968 44.027071614302258 0 44.027071614302258 33.726163637322315 0 0 0 0 -114.4431831692691 64.653045869421248 0 64.653045869421248 9.8334697589161806 0 0 0 0 -85.483291688891768 75.519271905890491 0 75.519271905890491 -11.282737661655119 0 0 0 0 -83.923987290727382 49.607096754451049 0 49.607096754451049 -20.783768467503251 0 0 0 0 -18.913628518028418 20.269264463568106 0 20.269264463568106 70.627598138686153 0 0 0 0 -11.926189491001423 1.4055820642315666 0 1.4055820642315666 9.8710087427134567 0 0 0 0 -11.651142689417611 -11.257220412117022 0 -11.257220412117022 57.604861301340861 0 0 0 0 -47.368264998473023 21.810552259263204 0 21.810552259263204 80.838331334307441 0 0 0 0 -33.415726702816755 8.0355013130210864 0 8.0355013130210864 48.675043054106936 0 0 0 0 -32.74113415210013 14.729975484959141 0 14.729975484959141 17.544063311717764 0 0 0 0 -46.395192997821141 33.733369739507907 0 33.733369739507907 32.839642564492351 0 0 0 0 -21.99992013652809 7.3156883637275314 0 7.3156883637275314 48.590095258892688 0 0 0 0 -45.856043892614252 63.95869338556804 0 63.95869338556804 98.418265626336506 0 0 0 0 -37.475497320534487 44.737431684839976 0 44.737431684839976 75.196830419015896 0 0 0 0 -56.104108616108078 60.602317856347099 0 60.602317856347099 106.55889381792804 0 0 0 0 -30.229750702877936 92.115283297192946 0 92.115283297192946 149.06047440769737 0 0 0 0 -46.33119286611327 16.740316275099758 0 16.740316275099758 150.3621100442615 0 0 0 0 -16.948805812924547 3.6105164434302424 0 3.6105164434302424 91.998826858267421 0 0 0 0 -15.338190061378555 65.857363721217553 0 65.857363721217553 191.26388079363824 0 0 0 0 -10.284678510455706 163.5738760175982 0 163.5738760175982 201.4328206535065 0 0 0 0 -23.322925054406369 126.57361409482837 0 126.57361409482837 96.443071120520472 0 0 0 0 -54.725405902372586 111.77117508074662 0 111.77117508074662 133.34775081940461 0 0 0 0 -43.297266684247006 142.43095439980607 0 142.43095439980607 106.54679357594614 0 0 0 0 25.652803160893427 154.83971933583894 0 154.83971933583894 98.970283457558253 0 0 0 0 -90.857703377087091 96.537850314707612 0 96.537850314707612 42.615659745606536 0 0 0 0 -101.1768655235249 110.41604363875967 0 110.41604363875967 24.500014831210137 0 0 0 0 -87.904649804363544 77.67413943086558 0 77.67413943086558 39.393905852230091 0 0 0 0 -70.016839050647832 110.51428896889774 0 110.51428896889774 37.085194036525081 0 0 0 0 -71.764944587659556 111.80994730410748 0 111.80994730410748 85.863434566854266 0 0 0 0 -56.925609808960871 98.791814303255705 0 98.791814303255705 60.124231387948385 0 0 0 0 -43.459069078457105 138.96132904542173 0 138.96132904542173 69.434590904604192 0 0 0 0 -52.345063503003985 133.44964524975103 0 133.44964524975103 59.742846945417114 0 0 0 0 -67.851506618451822 119.84902394214441 0 119.84902394214441 87.726004042462591 0 0 0 0 -73.267524726634292 86.361962633265648 0 86.361962633265648 56.122153662778146 0 0 0 0 -23.705531323099422 125.86471791553413 0 125.86471791553413 36.121821332166292 0 0 0 0 -68.329417312060286 113.91827544810803 0 113.91827544810803 44.42762729099195 0 0 0 0 -37.475750122852332 99.495002628145812 0 99.495002628145812 -11.396224425512628 0 0 0 0 12.00971371693133 53.761873749746215 0 53.761873749746215 27.850400139203582 0 0 0 0 27.306471913715086 158.5049092628451 0 158.5049092628451 20.946001479511324 0 0 0 0 -19.217097852955703 110.64674246871073 0 110.64674246871073 0.84013319994573976 0 0 0 0 24.941130980660091 155.74612441403588 0 155.74612441403588 -105.42517813505765 0 0 0 0 13.521009847936512 110.47198312081127 0 110.47198312081127 -30.129276657757998 0 0 0 0 114.17459531714849 72.074677206242995 0 72.074677206242995 -139.6361544383617 0 0 0 0 52.838302385094721 31.081976855761241 0 31.081976855761241 -46.178500028327107 0 0 0 0 197.0721131118903 31.499818165561919 0 31.499818165561919 -46.643537532465416 0 0 0 0 180.07257406950521 166.44018950176178 0 166.44018950176178 -28.578745088407459 0 0 0 0 79.62252241465103 0.44051799217777443 0 0.44051799217777443 9.5990350868917176 0 0 0 0 497.91101519666336 6.3075291930354069 0 6.3075291930354069 9.1794619985084864 0 0 0 0 1.4709901964337107 1.6305142796875742 0 1.6305142796875742 1.6743549771336035 0 0 0 0 221.29230697834373 309.78723515923775 0 309.78723515923775 283.11206496368686 0 0 0 0 91.713959509695997 153.21727781152731 0 153.21727781152731 97.807763361624893 0 0 0 0 84.573172804111891 3.6741850053367671 0 3.6741850053367671 -79.619768174045021 0 0 0 0 -9.9585144736265647 31.921825860210447 0 31.921825860210447 99.589319623126357 0 0 0 0 -122.31807524315809 160.74797973527529 0 160.74797973527529 172.97013642549837 0 0 0 0 4.3246908462620226 3.4547783112761223 0 3.4547783112761223 4.2972404980130676 0 0 0 0 -43.926466788043399 109.87465084758878 0 109.87465084758878 -91.417155336822361 0 0 0 0 19.187669357575942 15.152214937090321 0 15.152214937090321 -19.59740054429858 0 0 0 0 84.088055331259966 -7.3728184610372409 0 -7.3728184610372409 -14.067645547245775 0 0 0 0 45.975689818722458 5.6712725233737729 0 5.6712725233737729 -40.364581161757087 0 0 0 0 73.080038642085128 37.406719858745419 0 37.406719858745419 -89.24349380327476 0 0 0 0 26.532377538809669 26.911880349251078 0 26.911880349251078 -61.525812726955337 0 0 0 0 17.82624955562278 20.283095439313911 0 20.283095439313911 -37.217088129960757 0 0 0 0 22.162251795129123 55.645454803510802 0 55.645454803510802 -43.71565668949188 0 0 0 0 -3.8668353568137519 37.782621687797324 0 37.782621687797324 -14.43939029361394 0 0 0 0 44.090634673945715 68.293064031484391 0 68.293064031484391 -121.86722000716691 0 0 0 0 37.391043061155699 62.292184097638518 0 62.292184097638518 20.854223093146224 0 0 0 0 58.171201961860788 72.84263884363736 0 72.84263884363736 46.97961495508207 0 0 0 0 -6.9254475968415434 27.522456370578681 0 27.522456370578681 1.0997078132957512 0 0 0 0 -56.207579610158973 65.718611584197674 0 65.718611584197674 184.91102302632316 0 0 0 0 31.990081786727387 85.293766298644186 0 85.293766298644186 20.466098125751159 0 0 0 0 33.832211853280278 51.893701800693805 0 51.893701800693805 15.051129310247024 0 0 0 0 82.379367336528958 -32.588157585366389 0 -32.588157585366389 -154.33645947126297 0 0 0 0 29.791762719375583 222.08937277938981 0 222.08937277938981 45.510501663038667 0 0 0 0 108.11892528116368 48.849844460859003 0 48.849844460859003 -425.44366891829668 0 0 0 0 -21.552459723626271 -98.423508990766436 0 -98.423508990766436 -684.32072133115616 0 0 0 0 -60.358759515987913 44.25255115441314 0 44.25255115441314 -195.67990196134087 0 0 0 0 -90.903704839183774 82.152141120091073 0 82.152141120091073 43.447834443297324 0 0 0 0 -248.73167764339451 312.22109539763369 0 312.22109539763369 -50.323196289997668 0 0 0 0 -3.0564711999029157 3.7224956542246304 0 3.7224956542246304 -4.4182322708255199 0 0 0 0 59.742371759284651 -144.78832779032746 0 -144.78832779032746 -593.92155379288124 0 0 0 0 53.731828395852062 -45.421510925577422 0 -45.421510925577422 -153.40375495492822 0 0 0 0 56.598590670459089 97.18973109844319 0 97.18973109844319 47.91855441712687 0 0 0 0 145.9250529336723 145.96975099856627 0 145.96975099856627 -113.09463393513579 0 0 0 0 -7.934975933170648 9.4964836765859744 0 9.4964836765859744 -13.893681309690756 0 0 0 0 26.522435894004957 54.739255063218025 0 54.739255063218025 5.2510256413206662 0 0 0 0 41.444558538067213 50.743371458045658 0 50.743371458045658 22.979547510830344 0 0 0 0 40.57681932817286 40.332314305036562 0 40.332314305036562 -85.638799029697111 0 0 0 0 13.453135639827451 61.261832748722099 0 61.261832748722099 37.105924454739579 0 0 0 0 30.537662174981236 57.352364964416878 0 57.352364964416878 29.598660385488905 0 0 0 0 49.469834250323174 130.20314601455289 0 130.20314601455289 -174.68721861234008 0 0 0 0 -10.624362118651334 96.9146026544704 0 96.9146026544704 2.557357493213658 0 0 0 0 21.476540694121979 56.112065185487111 0 56.112065185487111 28.140124427520398 0 0 0 0 -6.803390428511193 97.354872051751954 0 97.354872051751954 -3.1271098486486153 0 0 0 0 -19.351994023614679 118.18395653445805 0 118.18395653445805 -9.2945503254186406 0 0 0 0 -60.268729831877863 87.682229118298892 0 87.682229118298892 28.303243402645876 0 0 0 0 20.952158644393421 59.947603826776685 0 59.947603826776685 12.108079790239572 0 0 0 0 0.12651886375897448 104.58761634605025 0 104.58761634605025 -25.134893968879624 0 0 0 0 -6.8634744816807256 100.55377907017444 0 100.55377907017444 -18.514809670981776 0 0 0 0 14.600384973418841 114.54591868514763 0 114.54591868514763 -73.300698791914783 0 0 0 0 5.4547879661658953 105.19519757306534 0 105.19519757306534 -17.234393299977455 0 0 0 0 4.440186634166821 109.42174942222755 0 109.42174942222755 29.941418946580598 0 0 0 0 42.431269394641276 94.088514050999947 0 94.088514050999947 -25.478894249767109 0 0 0 0 41.379057268395627 42.827144885308371 0 42.827144885308371 -44.404862323623092 0 0 0 0 33.704411203325435 40.96587482898758 0 40.96587482898758 -6.7451194683617359 0 0 0 0 37.96145373309264 72.53809675388311 0 72.53809675388311 -55.188585710777261 0 0 0 0 -4.5215549696331436 114.47658533563936 0 114.47658533563936 -25.862145434626655 0 0 0 0 33.204602211542806 63.366718042254433 0 63.366718042254433 -55.279333492191654 0 0 0 0 52.799211746132642 39.963988171658457 0 39.963988171658457 -92.137268790635062 0 0 0 0 50.962148544913362 35.990140087746568 0 35.990140087746568 -44.425311082413828 0 0 0 0 -17.764960688560677 119.49382879276527 0 119.49382879276527 -28.268824894847057 0 0 0 0 -16.284697133014561 121.13785529994493 0 121.13785529994493 -27.35597988851805 0 0 0 0 -5.7663078925979789 108.9663858674885 0 108.9663858674885 -31.987111631195148 0 0 0 0 -17.63302018865943 131.0621007059508 0 131.0621007059508 -45.686879539162874 0 0 0 0 53.970514308733982 82.432408955382016 0 82.432408955382016 -114.93203966642341 0 0 0 0 28.934556871816312 99.127219959122158 0 99.127219959122158 -123.63248490390288 0 0 0 0 52.569736593897687 115.03879196513753 0 115.03879196513753 -225.59728593397267 0 0 0 0 -97.321604625467444 219.36428899887778 0 219.36428899887778 -113.41901589016015 0 0 0 0 48.490235245411895 -26.460393826078871 0 -26.460393826078871 -249.2430064858595 0 0 0 0 -23.711368597549153 -64.187003834219468 0 -64.187003834219468 59.705652917044063 0 0 0 0 91.290782363877952 173.53503328159877 0 173.53503328159877 -780.60697820455971 0 0 0 0 109.72918490014945 68.638787855572218 0 68.638787855572218 -190.15461150084957 0 0 0 0 63.054164567802218 35.631038041019565 0 35.631038041019565 -155.87318788782795 0 0 0 0 49.777564320034799 -8.6345302573793106 0 -8.6345302573793106 -80.278166024878374 0 0 0 0 41.766231926209002 18.070312984420525 0 18.070312984420525 -46.364227045833104 0 0 0 0 13.782683652300875 0.64128515575809075 0 0.64128515575809075 1.7801459913326596 0 0 0 0 6.3780848832175252 26.35704968986829 0 26.35704968986829 22.715679485969304 0 0 0 0 2.0798185527957429 -2.0518733790262189 0 -2.0518733790262189 1.3032397878689856 0 0 0 0 4.8559307229752449 20.555328582113361 0 20.555328582113361 52.853183059287403 0 0 0 0 54.495271417123149 -0.44548242637483781 0 -0.44548242637483781 30.166532026184541 0 0 0 0 49.69986877222982 49.665503805912522 0 49.665503805912522 -95.079498478109144 0 0 0 0 57.001261201731808 17.098503962850302 0 17.098503962850302 -8.6217366636132695 0 0 0 0 59.749045991624371 69.729855180022696 0 69.729855180022696 -128.56335757595662 0 0 0 0 54.618049628224981 37.714078128873098 0 37.714078128873098 -70.804591704056293 0 0 0 0 44.222888197316934 4.2916117590166323 0 4.2916117590166323 -61.282278611955462 0 0 0 0 17.273945633576659 100.42560864251209 0 100.42560864251209 -7.6284496109856264 0 0 0 0 50.101735853140511 17.479346103329746 0 17.479346103329746 -12.944369500141796 0 0 0 0 18.724561847102905 72.516022963852947 0 72.516022963852947 -43.197002743501798 0 0 0 0 34.251825258004828 125.95267396744202 0 125.95267396744202 -5.0519099720546592 0 0 0 0 61.183747423830937 106.3123120844275 0 106.3123120844275 -41.857265006252419 0 0 0 0 -67.290229763879324 68.568157439310198 0 68.568157439310198 133.19411496024532 0 0 0 0 27.559050958123407 33.795440382978086 0 33.795440382978086 49.444122754646742 0 0 0 0 2.5810020375857192 4.4471619661507624 0 4.4471619661507624 2.9755350823139839 0 0 0 0 -23.727211312315958 33.706199300877884 0 33.706199300877884 -19.158539776521071 0 0 0 0 1.2472689338101191 15.78447237900582 0 15.78447237900582 153.53551838444037 0 0 0 0 -80.414198243419378 100.87336888630762 0 100.87336888630762 206.61409046785957 0 0 0 0 -39.383596967898484 87.633806977198219 0 87.633806977198219 195.80347456394338 0 0 0 0 -69.883231301908381 128.00205810459556 0 128.00205810459556 161.16687675112826 0 0 0 0 -81.474075263253326 84.843964863021483 0 84.843964863021483 153.18729484635332 0 0 0 0 40.174163635660079 113.87805055896752 0 113.87805055896752 99.027985007605821 0 0 0 0 -16.061780733100022 53.932965079870883 0 53.932965079870883 122.51051775340966 0 0 0 0 170.07907976635033 -27.903738328683175 0 -27.903738328683175 -30.0255008668355 0 0 0 0 265.91002221121016 69.411520644635857 0 69.411520644635857 -1.9485558909686915 0 0 0 0 -3.293016137062736 14.650250194050301 0 14.650250194050301 -4.9191054520293278 0 0 0 0 330.1362428681914 234.02286391965663 0 234.02286391965663 119.05065964168898 0 0 0 0 1.3819956489313938 25.574812548035695 0 25.574812548035695 11.731699995693365 0 0 0 0 48.275210774558218 -56.57456918312937 0 -56.57456918312937 259.52347401153202 0 0 0 0 -69.18814293613832 96.67203528095979 0 96.67203528095979 353.01351532624449 0 0 0 0 7.874116052807949 105.46691650557932 0 105.46691650557932 243.73078999308927 0 0 0 0 -1.1333935732181999 -94.343185293938632 0 -94.343185293938632 522.70438665600159 0 0 0 0 -20.769885618639819 196.99730409557924 0 196.99730409557924 598.59489807591535 0 0 0 0 1.706237051867646 5.4236622149409683 0 5.4236622149409683 4.4871640983934746 0 0 0 0 -0.24532273802469717 130.80930260315472 0 130.80930260315472 521.84146933987631 0 0 0 0 184.39075314196089 347.74734684826126 0 347.74734684826126 331.21228661044279 0 0 0 0 108.78191750402766 228.2754409624149 0 228.2754409624149 159.39187036753037 0 0 0 0 87.26863784926536 213.53181379883654 0 213.53181379883654 174.09768021034961 0 0 0 0 38.599140955710027 90.204527480512752 0 90.204527480512752 95.82797373686617 0 0 0 0 42.861824064140819 129.54667182370281 0 129.54667182370281 125.19198869364209 0 0 0 0 101.3424709338542 190.81951129963159 0 190.81951129963159 181.05308295811483 0 0 0 0 -9.8206619540869724 14.812116473059177 0 14.812116473059177 122.99791924296733 0 0 0 0 -41.163815688607428 -67.980093814265274 0 -67.980093814265274 -0.7485498791252212 0 0 0 0 22.63273496486363 30.652136301502651 0 30.652136301502651 53.843981273262671 0 0 0 0 -26.549256799988143 -49.9119868827338 0 -49.9119868827338 9.7531315944561356 0 0 0 0 -5.7972437062417157 -4.2991693751314415 0 -4.2991693751314415 172.14362044323116 0 0 0 0 -40.667684343567089 64.226197955818861 0 64.226197955818861 43.778742230559146 0 0 0 0 -1.4578898787924359 -2.0629030331789195 0 -2.0629030331789195 -5.1414300414063234 0 0 0 0 108.30699076097517 39.519076732206941 0 39.519076732206941 17.150521804387608 0 0 0 0 74.813402482021047 375.9572287791193 0 375.9572287791193 613.46640436783127 0 0 0 0 243.45257201321874 460.27180213125212 0 460.27180213125212 -249.87877514898582 0 0 0 0 -61.517399320455297 -261.36952734415297 0 -261.36952734415297 410.69349552319909 0 0 0 0 -6.1442726691496006 11.414978992744469 0 11.414978992744469 -7.7849974788092897 0 0 0 0 92.735896838508779 -22.10089009233252 0 -22.10089009233252 -452.22765212455442 0 0 0 0 92.34192891739076 -33.265847862220653 0 -33.265847862220653 -187.15389741588297 0 0 0 0 -52.831834602729941 330.47791212155971 0 330.47791212155971 -647.21151752830201 0 0 0 0 30.315468167704239 -402.40512646932984 0 -402.40512646932984 -446.15464148036426 0 0 0 0 -486.4477122040098 359.78759595230622 0 359.78759595230622 72.080793492768862 0 0 0 0 -5.3808198298250005 12.936003835035581 0 12.936003835035581 -10.090844998697003 0 0 0 0 -176.9613148505523 163.28363990612706 0 163.28363990612706 -20.413037525877371 0 0 0 0 56.977140056129429 -31.535652024332194 0 -31.535652024332194 67.604229154983614 0 0 0 0 200.51686603531925 221.55179365428967 0 221.55179365428967 64.473192772235507 0 0 0 0 138.17288428693428 283.56576706493502 0 283.56576706493502 204.80348363667599 0 0 0 0 61.311971840703336 87.701945402008278 0 87.701945402008278 95.716975476390871 0 0 0 0 72.307488944545184 130.01536648199544 0 130.01536648199544 128.95619898186987 0 0 0 0 -2.4050345197894529 0.46419363676292846 0 0.46419363676292846 3.6774633927961702 0 0 0 0 -23.756644586778748 -214.82289327271383 0 -214.82289327271383 154.68825659961112 0 0 0 0 74.717573972680839 69.286179412873025 0 69.286179412873025 93.691617180436879 0 0 0 0 61.356076599753578 95.591278169584257 0 95.591278169584257 46.938541946403348 0 0 0 0 -0.051799495424347697 106.78173717901336 0 106.78173717901336 104.77852702428754 0 0 0 0 13.178022488467832 86.903896457120936 0 86.903896457120936 49.00796902210277 0 0 0 0 0.090278667095844867 140.92820496672812 0 140.92820496672812 -55.177999592910055 0 0 0 0 -11.636236209902563 100.17667213731693 0 100.17667213731693 -61.619500683420483 0 0 0 0 11.974712955863652 131.31922030957867 0 131.31922030957867 -75.942271539122885 0 0 0 0 61.028090309308027 158.83853662378351 0 158.83853662378351 -66.747910968213546 0 0 0 0 -5.7778779569453036 161.10812122776406 0 161.10812122776406 53.794141098131149 0 0 0 0 -19.883124303445584 169.26532669254766 0 169.26532669254766 -66.368045322467879 0 0 0 0 25.28263314544165 140.06489426390181 0 140.06489426390181 -68.034382367068247 0 0 0 0 -50.427878088381021 117.3719895542547 0 117.3719895542547 -68.576610907068243 0 0 0 0 183.78172461770737 199.10441845220794 0 199.10441845220794 47.94778226721553 0 0 0 0 -66.615885061233712 1.1830797325710591 0 1.1830797325710591 -82.421102138743663 0 0 0 0 -1.1194182818515088 0.34717762374263827 0 0.34717762374263827 1.893511227405547 0 0 0 0 89.805227892618859 123.62659395157061 0 123.62659395157061 -27.718251755867641 0 0 0 0 -4.1455720936501166 93.751595742194695 0 93.751595742194695 -9.3699911049352522 0 0 0 0 -33.199558960954164 44.206611717046826 0 44.206611717046826 247.84576068759998 0 0 0 0 -100.89088578346127 80.909313053090955 0 80.909313053090955 1.5390514097507548 0 0 0 0 -82.310763251538447 121.73915103895797 0 121.73915103895797 -77.988838787943678 0 0 0 0 -189.17022491696844 125.81043551430957 0 125.81043551430957 -104.06645960136848 0 0 0 0 -179.61772042204393 158.66154987798654 0 158.66154987798654 -25.757059184654281 0 0 0 0 -208.33232083037365 228.54419965636771 0 228.54419965636771 -123.8998880529216 0 0 0 0 -77.637944429880008 12.584653882589919 0 12.584653882589919 37.291112166766652 0 0 0 0 -6.4558453731629584 3.6320579693148964 0 3.6320579693148964 -1.3689223347188815 0 0 0 0 -114.75305951579139 91.157945306028523 0 91.157945306028523 -51.508165135783202 0 0 0 0 -230.71816840051179 154.98564851253104 0 154.98564851253104 -32.355237179059259 0 0 0 0 -167.55513566626178 134.22422670513333 0 134.22422670513333 -22.610170055515482 0 0 0 0 -100.46594496239413 180.60766892785796 0 180.60766892785796 -32.097023201483807 0 0 0 0 -121.89801667678694 119.34323112899438 0 119.34323112899438 -39.214728747931076 0 0 0 0 -75.534331902083522 156.39405650511742 0 156.39405650511742 -74.382796433383191 0 0 0 0 28.234889955143164 34.814352827945228 0 34.814352827945228 -18.802105249762462 0 0 0 0 -6.9769551636529599 10.252800168859494 0 10.252800168859494 0.48021094377675411 0 0 0 0 -102.20041976353241 88.599758480711898 0 88.599758480711898 -32.175794308070181 0 0 0 0 -113.10530374935843 37.853394413355545 0 37.853394413355545 -6.639749941714399 0 0 0 0 -145.44840309737265 93.59887538262501 0 93.59887538262501 -0.90560209835894057 0 0 0 0 -5.5653391182204359 58.178789397097717 0 58.178789397097717 -80.966900196406641 0 0 0 0 -32.881636769074248 -6.9127868303403375 0 -6.9127868303403375 75.551574598368461 0 0 0 0 3.4241806844399534 0.55208710635273661 0 0.55208710635273661 -0.16857249162747934 0 0 0 0 -4.813408534771952 39.90465969678371 0 39.90465969678371 -36.980368960588748 0 0 0 0 -1.0043974251384498 36.423394664354419 0 36.423394664354419 -41.637289530910493 0 0 0 0 49.814931757788145 48.284161432055043 0 48.284161432055043 -80.125108844821625 0 0 0 0 150.00642708513988 27.42716288212705 0 27.42716288212705 -36.554955350395403 0 0 0 0 80.719157478753914 156.26593232820051 0 156.26593232820051 73.431389909383142 0 0 0 0 186.67801399577002 125.38994399103194 0 125.38994399103194 -98.884605815752366 0 0 0 0 51.090287280458142 -7.8371263027711393 0 -7.8371263027711393 100.56119495880102 0 0 0 0 -133.24049925518011 122.47753537784956 0 122.47753537784956 54.31451956064484 0 0 0 0 -104.10654183267616 71.724135798811403 0 71.724135798811403 100.37706563163738 0 0 0 0 32.499314420095828 34.139259627247114 0 34.139259627247114 -14.89056465746625 0 0 0 0 -238.72741025716095 151.36635793276855 0 151.36635793276855 -59.886801631888375 0 0 0 0 51.439390836156079 25.065540652773663 0 25.065540652773663 -8.9842690960911646 0 0 0 0 9.5595219901743818 -0.50243268074771663 0 -0.50243268074771663 -4.6532297181756306 0 0 0 0 87.63624366089789 29.826550800393306 0 29.826550800393306 -46.65364216614762 0 0 0 0 -2.0635858613641176 160.87441725692679 0 160.87441725692679 -94.668301036621415 0 0 0 0 84.439226338974549 23.591430963973835 0 23.591430963973835 -114.676063376206 0 0 0 0 139.96823602937366 -53.386583079185584 0 -53.386583079185584 -17.669306344973847 0 0 0 0 75.609357636858476 49.871245611296217 0 49.871245611296217 -110.97526049325461 0 0 0 0 -0.32536216395865836 0.12207355259594976 0 0.12207355259594976 -1.362724705651857 0 0 0 0 -415.83782065058767 231.23800981388649 0 231.23800981388649 -63.292240019301971 0 0 0 0 -241.80584306405217 98.675536974069473 0 98.675536974069473 -78.349723400383482 0 0 0 0 -95.625875162193779 10.861844583750894 0 10.861844583750894 1.6788760169620218 0 0 0 0 -137.63027832984517 149.68379095568798 0 149.68379095568798 -198.28163948183555 0 0 0 0 -85.934333541605156 141.02969013606162 0 141.02969013606162 -8.2303089982506208 0 0 0 0 42.605093726320774 94.453623526884257 0 94.453623526884257 -126.33412552534173 0 0 0 0 -48.391275058689644 138.91265074244257 0 138.91265074244257 140.81618525228578 0 0 0 0 -1.9389165416941978 42.693449008660082 0 42.693449008660082 90.538415269478719 0 0 0 0 -12.403958331182167 20.543814007714587 0 20.543814007714587 -18.642579763451693 0 0 0 0 15.467465774458105 152.7381433566477 0 152.7381433566477 46.76098758299122 0 0 0 0 10.834848955106281 85.895878140953755 0 85.895878140953755 44.789937707244462 0 0 0 0 -63.575833948787476 -7.2408543620872479 0 -7.2408543620872479 90.221528806378046 0 0 0 0 -10.583574122796563 -29.671715110528567 0 -29.671715110528567 24.36500430452179 0 0 0 0 -13.241354958052398 25.184655400138581 0 25.184655400138581 106.33804968141885 0 0 0 0 3.5325189758872995 8.1641113065551352 0 8.1641113065551352 13.280079245577411 0 0 0 0 -176.15068002724092 116.56841502132033 0 116.56841502132033 -16.489879411752554 0 0 0 0 15.146484241879079 -13.877743573391854 0 -13.877743573391854 59.928851269683264 0 0 0 0 -6.6153987551952014 -16.619435388170132 0 -16.619435388170132 59.583880997122606 0 0 0 0 -11.114727566502552 -48.655705924173162 0 -48.655705924173162 14.517746152669133 0 0 0 0 -100.48728494930674 -8.9679827341833516 0 -8.9679827341833516 -45.830434804498509 0 0 0 0 -90.560264194493357 26.95156701454107 0 26.95156701454107 31.617916860178184 0 0 0 0 -99.420134888539906 57.231803583488727 0 57.231803583488727 -34.278620403275454 0 0 0 0 -182.05553199409769 155.13019496751895 0 155.13019496751895 -79.960634914979892 0 0 0 0 -84.829953465115977 81.549277863852694 0 81.549277863852694 5.6306737655686447 0 0 0 0 -50.260880471716519 -13.742325643188906 0 -13.742325643188906 130.98743584381373 0 0 0 0 140.5842204480723 -161.55677755182569 0 -161.55677755182569 166.3393853856096 0 0 0 0 1.6755974301125036 1.8872078930676324 0 1.8872078930676324 2.0984758590526056 0 0 0 0 -4.5667374849581392 52.34497975512204 0 52.34497975512204 -62.809150130764465 0 0 0 0 45.362051463063835 94.434710145971621 0 94.434710145971621 -43.323789321650111 0 0 0 0 -4.5447074492585671 -26.495061539734706 0 -26.495061539734706 77.918148575334271 0 0 0 0 82.764093988123932 -15.172936762944119 0 -15.172936762944119 24.771653487481672 0 0 0 0 -121.57925695963786 107.41529565860174 0 107.41529565860174 -24.556794857913701 0 0 0 0 2.441470110645497 4.5133717860480118 0 4.5133717860480118 8.5632853444431021 0 0 0 0 70.402049828353483 -82.426079516407754 0 -82.426079516407754 44.906211307414196 0 0 0 0 -33.720218238886446 75.91271303283429 0 75.91271303283429 -55.242999530378256 0 0 0 0 -55.598721033369657 75.031577712878061 0 75.031577712878061 -34.653943110046384 0 0 0 0 -165.16046769157401 67.556124770379938 0 67.556124770379938 -16.831103151887874 0 0 0 0 58.102012460964033 70.361781921525107 0 70.361781921525107 -27.38947612190168 0 0 0 0 -3.4470159443735611 42.159663063541302 0 42.159663063541302 -12.953008538539507 0 0 0 0 33.064152719387494 50.662734488689239 0 50.662734488689239 -38.748077403943171 0 0 0 0 -24.302333529340103 93.009028164759002 0 93.009028164759002 -24.490554921871535 0 0 0 0 29.203036149749096 31.538308150542434 0 31.538308150542434 -23.361516819457393 0 0 0 0 44.196181400890055 65.421300074980536 0 65.421300074980536 -44.723337297367834 0 0 0 0 47.785523379097867 26.875738954377084 0 26.875738954377084 1.0381294204307778 0 0 0 0 28.63043545302844 38.183263150533833 0 38.183263150533833 -5.6354508096264908 0 0 0 0 173.52405702802935 -11.961135383226065 0 -11.961135383226065 -22.665454923517245 0 0 0 0 89.097437060772791 51.367996235463579 0 51.367996235463579 -27.787518523931794 0 0 0 0 80.313464738968833 -10.342273225988492 0 -10.342273225988492 14.213116067086958 0 0 0 0 69.916972207807703 14.125422303089181 0 14.125422303089181 -4.4953995517416843 0 0 0 0 1.9459125253262428 2.7452665632872026 0 2.7452665632872026 -0.51652548460324255 0 0 0 0 -0.045211414799268823 19.071800481294758 0 19.071800481294758 -23.476466475505731 0 0 0 0 -55.725784740006929 66.290465372640483 0 66.290465372640483 -50.527319307049765 0 0 0 0 1.6072708865298821 3.3659578831351666 0 3.3659578831351666 0.48709843387724305 0 0 0 0 71.690266072222585 -1.6558087126136343 0 -1.6558087126136343 -4.844315146394365 0 0 0 0 -14.412650731494068 14.390940072493322 0 14.390940072493322 -9.0670545703142125 0 0 0 0 54.066941338402103 26.727204425236778 0 26.727204425236778 -6.9000248887405178 0 0 0 0 20.073926357305027 45.110882712335297 0 45.110882712335297 94.832860746073493 0 0 0 0 -0.00081921786477323622 2.057275916386061 0 2.057275916386061 0.9245266996731516 0 0 0 0 -45.439491525568883 26.742631315455583 0 26.742631315455583 5.7518870035946748 0 0 0 0 -3.0298690410658367 1.4766261743045135 0 1.4766261743045135 3.92471246421308 0 0 0 0 -0.31141964359457575 1.2732367615159319 0 1.2732367615159319 1.9257151512340513 0 0 0 0 0.20043259940571545 1.106733166525288 0 1.106733166525288 -0.674866456269406 0 0 0 0 31.096954892520444 -7.5741685397588299 0 -7.5741685397588299 9.1030777341984503 0 0 0 0 1.4268482861516532 8.3944890319180558 0 8.3944890319180558 11.966645920751944 0 0 0 0 11.309098763522343 81.83491673100616 0 81.83491673100616 -17.942899960671639 0 0 0 0 -24.591337322577601 50.672411248793651 0 50.672411248793651 2.6903513045408545 0 0 0 0 10.249404964386486 77.691127081242485 0 77.691127081242485 -6.1174401291682443 0 0 0 0 -63.247586484896601 88.473953239963521 0 88.473953239963521 -7.3628245598779358 0 0 0 0 6.623473857074714 140.14211320879713 0 140.14211320879713 20.892057992790797 0 0 0 0 0.075084897049113961 58.057698239901747 0 58.057698239901747 86.819023215641209 0 0 0 0 9.4886754218314309 85.837656149580425 0 85.837656149580425 100.39856282468509 0 0 0 0 8.3702300611548708 99.106892437840315 0 99.106892437840315 106.76967341482032 0 0 0 0 11.376657311113377 73.877420572769552 0 73.877420572769552 67.157829832719472 0 0 0 0 47.516826571942147 85.691816269026504 0 85.691816269026504 53.708652801380595 0 0 0 0 40.615103705709771 107.35496031278853 0 107.35496031278853 -3.0850913587210016 0 0 0 0 -0.016562775810598396 121.17531504348062 0 121.17531504348062 67.927659418558505 0 0 0 0 -127.58237229923543 129.41718321460621 0 129.41718321460621 -5.6786318899876278 0 0 0 0 -0.055023740188980506 66.147966171236632 0 66.147966171236632 -57.974024199385894 0 0 0 0 92.770430263786693 -4.4374067396338432 0 -4.4374067396338432 25.820833765792486 0 0 0 0 1.1646920754864141 1.5775959903084242 0 1.5775959903084242 -0.70330105880316296 0 0 0 0 115.2643187606518 42.892961511259728 0 42.892961511259728 5.4734053125976061 0 0 0 0 323.72093885705544 14.641007312804277 0 14.641007312804277 -30.179373096718336 0 0 0 0 80.292606363611412 77.981062996830588 0 77.981062996830588 27.180169879711684 0 0 0 0 30.006415370018658 23.68977698134222 0 23.68977698134222 17.514941447834644 0 0 0 0 122.43281189498521 48.739372372256184 0 48.739372372256184 -23.318592424475355 0 0 0 0 8.6789765446810634 78.10609624857716 0 78.10609624857716 23.572156969948992 0 0 0 0 14.281388398820127 60.640416652935528 0 60.640416652935528 -2.696300442032225 0 0 0 0 -148.68858889084368 116.10495709257884 0 116.10495709257884 -35.009943336486685 0 0 0 0 -32.550390848533425 101.34750231237695 0 101.34750231237695 -24.268739361021289 0 0 0 0 -64.516475015996548 89.769646913104225 0 89.769646913104225 -24.236290134256706 0 0 0 0 -16.004758604278322 40.536887412650685 0 40.536887412650685 -7.9352608008298375 0 0 0 0 -91.796147393775755 60.38179749424171 0 60.38179749424171 -35.247463020037685 0 0 0 0 -76.180277216339164 63.239328123430823 0 63.239328123430823 -11.70802560330776 0 0 0 0 -62.24884272532654 22.762968189015737 0 22.762968189015737 10.481400341736844 0 0 0 0 -19.983112372276082 58.168767297232989 0 58.168767297232989 32.507068462366078 0 0 0 0 4.8585881647777569 70.389475278610462 0 70.389475278610462 77.904481183161806 0 0 0 0 -63.134535965666146 82.344585373081827 0 82.344585373081827 77.383089890967312 0 0 0 0 -6.7241691618546611 34.126410748989656 0 34.126410748989656 36.96106145293254 0 0 0 0 14.83432317977713 63.47208875434535 0 63.47208875434535 66.147535970652825 0 0 0 0 30.175595754662936 62.582939321740923 0 62.582939321740923 23.369039884022186 0 0 0 0 8.798004789648985 67.059795615688472 0 67.059795615688472 67.731316261628308 0 0 0 0 -9.9268362836373853 69.341274246078683 0 69.341274246078683 105.61653141569877 0 0 0 0 -29.471826740395045 122.50829078265724 0 122.50829078265724 79.732221037547788 0 0 0 0 60.649067051817838 87.538920376376154 0 87.538920376376154 90.413494337536576 0 0 0 0 33.563000207992445 155.57695858117449 0 155.57695858117449 68.164209068939044 0 0 0 0 22.021285610113409 17.344906208823431 0 17.344906208823431 -6.9316076451768822 0 0 0 0 -15.720784992299969 11.492365240169114 0 11.492365240169114 -8.1254642341483443 0 0 0 0 -18.707492029738205 21.82607501941709 0 21.82607501941709 -2.2240948106007181 0 0 0 0 -13.420048499290303 14.375526689281422 0 14.375526689281422 -13.930391607886554 0 0 0 0 29.391028432306484 174.30312896972373 0 174.30312896972373 26.10778216293329 0 0 0 0 70.938617071398767 133.02314362654033 0 133.02314362654033 52.18619256290367 0 0 0 0 91.583229098418087 156.48325049582036 0 156.48325049582036 -73.164310584221312 0 0 0 0 114.28891956068401 206.87122313452983 0 206.87122313452983 38.417729110543405 0 0 0 0 -18.352512409866904 137.5834942680558 0 137.5834942680558 89.974686256322457 0 0 0 0 -154.61734727051225 135.1384974441371 0 135.1384974441371 109.334448153827 0 0 0 0 -72.106953605216404 72.118095659834125 0 72.118095659834125 66.942721766883551 0 0 0 0 -169.81412123063637 60.643493888062949 0 60.643493888062949 68.946969571324416 0 0 0 0 -59.820834139020008 221.45333796322529 0 221.45333796322529 77.301683760542801 0 0 0 0 -338.95171654800288 237.0719522548211 0 237.0719522548211 164.26012606824588 0 0 0 0 -751.60279180129874 90.352323757360864 0 90.352323757360864 119.0844255228676 0 0 0 0 -217.53604075309704 5.2854624196643272 0 5.2854624196643272 7.4114990101479634 0 0 0 0 -176.26769784843782 65.446478935202322 0 65.446478935202322 -35.071215470992684 0 0 0 0 -144.27363390440587 16.68327796129779 0 16.68327796129779 -35.187091987514577 0 0 0 0 -147.26737088740629 97.718673079616565 0 97.718673079616565 -51.629626587023267 0 0 0 0 -147.81762284619617 110.94092327002363 0 110.94092327002363 -113.1150216201986 0 0 0 0 -207.16818394076836 65.599112071677155 0 65.599112071677155 -92.178399508546136 0 0 0 0 -266.37654481991194 7.6252619739243528 0 7.6252619739243528 -71.594095321779605 0 0 0 0 -318.589105614461 -75.364867710666658 0 -75.364867710666658 -201.38528059925011 0 0 0 0 -479.23504013135971 49.542668282953855 0 49.542668282953855 121.20821387501928 0 0 0 0 -1160.1328221975418 -435.99369342761202 0 -435.99369342761202 -191.91820568381263 0 0 0 0 -49.834487120810081 -88.743639986113521 0 -88.743639986113521 -472.98580130694609 0 0 0 0 3.768279965693722 1.6629068940356859 0 1.6629068940356859 -5.7791978663949664 0 0 0 0 -214.96776529624185 158.4398209046376 0 158.4398209046376 -116.38457135774661 0 0 0 0 0.11232151672916757 0.70023878819726804 0 0.70023878819726804 2.0845263612561276 0 0 0 0 -231.51242468124838 121.48105169750488 0 121.48105169750488 -196.75793232505896 0 0 0 0 -274.95678623743879 100.0698448952553 0 100.0698448952553 -34.582283777708653 0 0 0 0 -175.18825904166442 96.593856531540951 0 96.593856531540951 -39.828766750870273 0 0 0 0 812.88478858330927 -238.29087292686199 0 -238.29087292686199 -122.24820365005689 0 0 0 0 2.5446794268761153 12.940114658806273 0 12.940114658806273 -12.625779747331212 0 0 0 0 -1458.1912785369495 181.38346212374108 0 181.38346212374108 263.79007088718572 0 0 0 0 46.850076913775411 985.28015785718526 0 985.28015785718526 153.64371945693347 0 0 0 0 -1402.4956702252966 605.12698863961123 0 605.12698863961123 308.57491908692464 0 0 0 0 1425.4286510120291 683.2533560419588 0 683.2533560419588 -281.9509709914073 0 0 0 0 946.28518401727706 -210.07908044215583 0 -210.07908044215583 -26.019567038329114 0 0 0 0 108.69534862910223 421.89544999062855 0 421.89544999062855 -38.025799520320959 0 0 0 0 307.72995863440156 458.08091225353201 0 458.08091225353201 -39.810499822209749 0 0 0 0 -189.75084242052981 767.35950277625307 0 767.35950277625307 257.20168013826697 0 0 0 0 -102.07075621459808 236.63945812448765 0 236.63945812448765 86.792408799482473 0 0 0 0 457.29927376574778 204.72968984950967 0 204.72968984950967 -75.631355176778015 0 0 0 0 40.85392836725805 103.56932886609502 0 103.56932886609502 -28.922309213694462 0 0 0 0 168.60189828088915 -94.172952656858797 0 -94.172952656858797 -19.1228965718268 0 0 0 0 -17.817747925379081 5.4285838976029481 0 5.4285838976029481 81.379226677276165 0 0 0 0 5.191531570543745 22.713539959083416 0 22.713539959083416 -1.2130350016190583 0 0 0 0 -91.865864315968793 42.933413420792931 0 42.933413420792931 172.3647565493302 0 0 0 0 -29.958198146909126 78.545377037953585 0 78.545377037953585 155.0718431985033 0 0 0 0 4.5620400889064854 4.4856104539630621 0 4.4856104539630621 3.7398819640922589 0 0 0 0 -123.64974600430287 270.55538734103538 0 270.55538734103538 101.22972463052156 0 0 0 0 -31.759523159133096 -126.19041698787169 0 -126.19041698787169 524.04684386422196 0 0 0 0 -158.61226619216177 125.32799053122017 0 125.32799053122017 443.08831156551605 0 0 0 0 -54.363724920796813 125.4212305213714 0 125.4212305213714 253.95604668526175 0 0 0 0 -65.50210777510074 79.808201707248372 0 79.808201707248372 220.90637524473095 0 0 0 0 -55.066305671887676 138.51940449789709 0 138.51940449789709 187.87867793146324 0 0 0 0 -13.518969540509715 33.235357894310027 0 33.235357894310027 -70.481884190448909 0 0 0 0 -3.6387785657401821 1.4037493766857807 0 1.4037493766857807 5.4966293036238341 0 0 0 0 9.8091858957159275 122.61504014859133 0 122.61504014859133 184.84162039549847 0 0 0 0 -0.33795520991407102 77.19794060726872 0 77.19794060726872 142.08732801344377 0 0 0 0 -55.904378922976321 33.972654937004336 0 33.972654937004336 112.72486088237201 0 0 0 0 0.069747575612922219 7.3495918502537521 0 7.3495918502537521 -6.1758369784090439 0 0 0 0 -17.399236187450015 42.802556135448128 0 42.802556135448128 -20.836157950079507 0 0 0 0 7.4056441842403729 62.547071132907149 0 62.547071132907149 -64.024916790391785 0 0 0 0 6.5264969347226724 52.210471568149842 0 52.210471568149842 -100.75338103216836 0 0 0 0 -0.14166687210503426 10.34420612180427 0 10.34420612180427 -3.097753966183439 0 0 0 0 -8.1717398776099799 29.845495235160854 0 29.845495235160854 -43.366602070580939 0 0 0 0 82.448311907130119 125.71722974131944 0 125.71722974131944 11.515817546811377 0 0 0 0 -54.150550382961228 91.223304295302114 0 91.223304295302114 -46.84021290230703 0 0 0 0 86.464795373023662 53.907235072780622 0 53.907235072780622 -14.639008628505735 0 0 0 0 -29.122347455772001 32.804999663138773 0 32.804999663138773 -26.105247213941979 0 0 0 0 11.2369830726835 2.8625179655799116 0 2.8625179655799116 -10.452440462234403 0 0 0 0 -78.537368395073372 15.08017771848435 0 15.08017771848435 -12.506950786259949 0 0 0 0 -22.244790810116683 13.272852870810311 0 13.272852870810311 -18.271306460358232 0 0 0 0 -45.653750289820891 33.30184360160365 0 33.30184360160365 -14.611938966568232 0 0 0 0 -26.564975889858033 47.800618782981019 0 47.800618782981019 -29.656012250626759 0 0 0 0 -24.054014733883378 41.118678797460461 0 41.118678797460461 -22.611605128410247 0 0 0 0 -75.482991513601291 66.624231875691336 0 66.624231875691336 -35.054896715548239 0 0 0 0 19.612092448756812 38.705044433544288 0 38.705044433544288 -38.222229094426439 0 0 0 0 14.565141657411004 11.256941898841774 0 11.256941898841774 -13.507965739488782 0 0 0 0 -11.379510092301643 38.657256240269817 0 38.657256240269817 -26.82843206011421 0 0 0 0 -21.670781432310832 31.3799191568433 0 31.3799191568433 -20.599849387640006 0 0 0 0 -16.587891768356712 18.696966533848808 0 18.696966533848808 -8.5391281456513752 0 0 0 0 -25.009220701402228 12.930771461545078 0 12.930771461545078 1.3870510245728838 0 0 0 0 -22.289811117734644 17.90016554384988 0 17.90016554384988 -6.5103064038044067 0 0 0 0 -9.7446195843076566 10.671131615107015 0 10.671131615107015 -3.1988822370394701 0 0 0 0 -24.650602962814446 20.419702150707309 0 20.419702150707309 -5.4691211400879638 0 0 0 0 -22.031441251318029 7.5922520593222202 0 7.5922520593222202 6.4904105740179148 0 0 0 0 -21.411260981993109 13.305198622445118 0 13.305198622445118 -1.3583418305704527 0 0 0 0 -24.834206895917305 11.949309563354291 0 11.949309563354291 1.5063147582445424 0 0 0 0 -28.857329379003204 16.206401200262235 0 16.206401200262235 7.1539401578456676 0 0 0 0 17.353559767630941 20.324329269684085 0 20.324329269684085 2.4962624313894253 0 0 0 0 -11.729789951281418 2.8016829299876349 0 2.8016829299876349 6.5439711443103761 0 0 0 0 -9.7343498879927211 9.9461306895357779 0 9.9461306895357779 5.8049458787336334 0 0 0 0 1.572108941465558 -2.3768985427049643 0 -2.3768985427049643 6.9410349770947164 0 0 0 0 -24.461103054891282 15.996835213496752 0 15.996835213496752 4.8449569299029918 0 0 0 0 20.988692429898947 3.2301364225084512 0 3.2301364225084512 -3.2597061586833433 0 0 0 0 -30.952731156969094 12.725648769556045 0 12.725648769556045 -0.06968682543661231 0 0 0 0 58.074361570896144 77.345290837097082 0 77.345290837097082 92.036496119939329 0 0 0 0 -5.7532582869160649 9.5482717829005601 0 9.5482717829005601 -2.6791408138353674 0 0 0 0 -0.99637140203906682 0.15198138187538035 0 0.15198138187538035 3.5037495438344308 0 0 0 0 -18.707332396075799 5.1911120153094998 0 5.1911120153094998 19.955179076840523 0 0 0 0 -19.148383749186905 6.9481005245640972 0 6.9481005245640972 17.997264304804048 0 0 0 0 -9.1734141814558825 23.078637118958596 0 23.078637118958596 7.3942072252539219 0 0 0 0 -84.493312737147789 84.641182285177877 0 84.641182285177877 3.4990169480523434 0 0 0 0 -10.612197128502885 3.2865377914758938 0 3.2865377914758938 13.621759795396429 0 0 0 0 -45.77741173360846 54.332417471435932 0 54.332417471435932 -27.546014395961606 0 0 0 0 -26.50535879801464 17.341553286521048 0 17.341553286521048 -7.9073671825559586 0 0 0 0 -55.921195026894566 36.553224875128819 0 36.553224875128819 -6.4380929355393164 0 0 0 0 -26.702579481512657 12.260406770788904 0 12.260406770788904 -0.38216901889978772 0 0 0 0 -34.487803481129959 37.168782357440008 0 37.168782357440008 -28.237980566926126 0 0 0 0 -6.3374263525183778 6.2383268014257283 0 6.2383268014257283 -48.667573385092751 0 0 0 0 -17.239203063669265 26.39068531903456 0 26.39068531903456 -32.704467979723404 0 0 0 0 -0.5346228093037837 0.62060219683316831 0 0.62060219683316831 0.17731795157417932 0 0 0 0 -6.5594101914321072 34.943019857683595 0 34.943019857683595 -71.226284272484264 0 0 0 0 -7.7238634499517502 21.938780643936298 0 21.938780643936298 7.5438539849674271 0 0 0 0 -7.0704515222969349 20.267701622787172 0 20.267701622787172 9.113044574531159 0 0 0 0 60.368265647659427 -31.888388114438328 0 -31.888388114438328 60.946781803228532 0 0 0 0 -28.921991879222332 4.3651966588546429 0 4.3651966588546429 75.825816171263327 0 0 0 0 -8.135220524383783 9.4549346963665535 0 9.4549346963665535 -1.3752402741772878 0 0 0 0 17.660620959373773 14.558919985878674 0 14.558919985878674 31.44796256256484 0 0 0 0 -9.1301258101666463 8.2450174279361477 0 8.2450174279361477 -5.2833832463129511 0 0 0 0 -6.9224651721960981 18.866562648265699 0 18.866562648265699 7.5080803105338418 0 0 0 0 0.86601696608704515 6.953896497749497 0 6.953896497749497 -18.691831501658374 0 0 0 0 0.16945560467502219 10.573605144551358 0 10.573605144551358 -11.328125950499555 0 0 0 0 -9.3323804092033242 0.040109251508511079 0 0.040109251508511079 -18.639362636124133 0 0 0 0 -0.94218721217475832 10.939858220233759 0 10.939858220233759 -3.0685870538875406 0 0 0 0 -4.5522079244328779 25.78709039032708 0 25.78709039032708 -2.3213645701697416 0 0 0 0 -16.848437450280471 17.00016679150167 0 17.00016679150167 -2.4251763644465427 0 0 0 0 -9.9907639045481318 9.6724325731030163 0 9.6724325731030163 -8.4203946027569767 0 0 0 0 -17.690403995457018 10.0149865506678 0 10.0149865506678 -0.45801277615441904 0 0 0 0 -22.904833373733709 10.727089243944988 0 10.727089243944988 1.9112267443938435 0 0 0 0 -27.22657257821993 30.780412236616257 0 30.780412236616257 9.502608957933262 0 0 0 0 -14.745997605606433 9.9228348405545574 0 9.9228348405545574 -6.2201937966467362 0 0 0 0 6.0888827350572683 97.390946154656831 0 97.390946154656831 116.92882250704997 0 0 0 0 12.386563044492505 73.743241866055996 0 73.743241866055996 103.77571221494577 0 0 0 0 -6.4485377804157906 57.134602196800984 0 57.134602196800984 94.207223226578208 0 0 0 0 -2.6662127727176994 30.847847793185565 0 30.847847793185565 88.334874679647072 0 0 0 0 -9.7460262312675923 6.9832987666714317 0 6.9832987666714317 -3.6748456927766178 0 0 0 0 -13.697120579054172 12.735344988379268 0 12.735344988379268 -0.045201868418985214 0 0 0 0 -11.512402436135744 9.4825199345315241 0 9.4825199345315241 -1.738244282082178 0 0 0 0 -10.023231762966986 7.204302915552212 0 7.204302915552212 -4.8183126134912602 0 0 0 0 9.3739437290205387 14.523486345059062 0 14.523486345059062 -15.904752767009825 0 0 0 0 -1.822622663149474 2.135250743149669 0 2.135250743149669 -0.56410801232705343 0 0 0 0 -2.5944664687704062 11.604374502338032 0 11.604374502338032 -13.841271737010629 0 0 0 0 -11.379500250230194 11.104540369579581 0 11.104540369579581 34.312953924348818 0 0 0 0 -16.944002174786874 10.566143744830072 0 10.566143744830072 30.990188868976091 0 0 0 0 -10.045871931306465 9.9946869291359555 0 9.9946869291359555 -2.1236285473653518 0 0 0 0 -2.7208232235660432 2.2689182811788626 0 2.2689182811788626 0.71479516727492864 0 0 0 0 8.1220012823760044 2.1559004886205457 0 2.1559004886205457 0.062345271304366179 0 0 0 0 -21.476416785386391 5.8602723581116152 0 5.8602723581116152 -9.2870799193943867 0 0 0 0 -10.023473023735278 14.853644409139179 0 14.853644409139179 -9.888588836175586 0 0 0 0 -12.01830663984947 15.390847558433961 0 15.390847558433961 3.0694952398837358 0 0 0 0 -10.677635265281424 14.01249510955995 0 14.01249510955995 3.9963547015031509 0 0 0 0 -11.735476914334924 12.096060993526756 0 12.096060993526756 -6.5173675898260512 0 0 0 0 -11.134243489535734 2.432635271428353 0 2.432635271428353 7.4456563307184656 0 0 0 0 -10.272900465875864 12.116109863601878 0 12.116109863601878 11.53981662270462 0 0 0 0 -6.9885679626604542 6.5508750682023447 0 6.5508750682023447 32.424300593331623 0 0 0 0 -4.7107246897555228 6.5276230752990827 0 6.5276230752990827 -2.8004327992079938 0 0 0 0 -7.6844830947004255 6.3677124476198959 0 6.3677124476198959 -0.88925184558184367 0 0 0 0 -5.3995792037749197 5.5238449057162597 0 5.5238449057162597 -0.0066238945460099785 0 0 0 0 -11.152218879447901 8.7777937075778709 0 8.7777937075778709 -0.36466515776851338 0 0 0 0 -3.3691727104596794 4.833393773919795 0 4.833393773919795 3.0780754910949781 0 0 0 0 -8.4323816417890214 6.0474631999775497 0 6.0474631999775497 -0.067898817574587711 0 0 0 0 -5.3461900299631964 3.9905272933585678 0 3.9905272933585678 0.5967331570413168 0 0 0 0 -3.667168619743407 9.0161851516396894 0 9.0161851516396894 0.42215103422475042 0 0 0 0 0.65448671310639384 1.7783140636529211 0 1.7783140636529211 -1.4195974541353387 0 0 0 0 2.9293567984132096 11.421051038980067 0 11.421051038980067 -11.842832800440647 0 0 0 0 -6.7570196783499625 4.2754422405756358 0 4.2754422405756358 0.22424804522387287 0 0 0 0 -12.295200738373069 11.623467400632983 0 11.623467400632983 0.73345819269184176 0 0 0 0 -13.759729246252959 7.6458024280752355 0 7.6458024280752355 -3.5709174672372703 0 0 0 0 -32.344820365655323 32.319672179803206 0 32.319672179803206 12.177350746289221 0 0 0 0 -9.7539666856168878 7.2133734817992377 0 7.2133734817992377 -3.070069398313378 0 0 0 0 -0.042940901844474411 -0.33888254020560094 0 -0.33888254020560094 -1.2714124849573698 0 0 0 0 9.5565441483886389 22.809833188210519 0 22.809833188210519 -39.062975483292121 0 0 0 0 -18.324822100345045 10.561424494001358 0 10.561424494001358 15.153548298536577 0 0 0 0 0.0092095925120153892 28.687344422673792 0 28.687344422673792 -20.726624194668602 0 0 0 0 -21.941056587886123 20.42781528814885 0 20.42781528814885 313.23895102594565 0 0 0 0 1.5328930423894462 -0.44519773726446843 0 -0.44519773726446843 -0.65540316830692724 0 0 0 0 -2.7527048920487687 30.794847061418082 0 30.794847061418082 104.10170058650874 0 0 0 0 -22.695111358996655 33.901313239880892 0 33.901313239880892 109.7396692281709 0 0 0 0 -12.168172861374842 61.230098014054988 0 61.230098014054988 147.80891049472393 0 0 0 0 0.062964884597208906 114.62792051423793 0 114.62792051423793 154.72858905655721 0 0 0 0 655.6157128137238 342.82531926194144 0 342.82531926194144 3.6181580705949727 0 0 0 0 213.58758672906697 -0.43049316317490138 0 -0.43049316317490138 -119.6952005607161 0 0 0 0 -94.663126848317916 152.71337339294359 0 152.71337339294359 522.1974339781475 0 0 0 0 -246.3855568962681 -84.092815023127514 0 -84.092815023127514 437.74193757879272 0 0 0 0 35.570862370659597 320.28860120188438 0 320.28860120188438 339.70020793780895 0 0 0 0 -148.76845615294951 -135.58484229914609 0 -135.58484229914609 2.1058660587482336 0 0 0 0 -106.71150054226746 132.0288580359279 0 132.0288580359279 90.648668807234117 0 0 0 0 -41.222934647164948 181.89013404479715 0 181.89013404479715 84.88799122470482 0 0 0 0 112.42789395309228 168.92107139911764 0 168.92107139911764 -59.158154536008624 0 0 0 0 102.23965399044391 54.523344521432364 0 54.523344521432364 -122.93420648843812 0 0 0 0 125.1890949480221 86.333518400573894 0 86.333518400573894 -83.618125622487696 0 0 0 0 395.17984997633175 188.53260463344736 0 188.53260463344736 -71.003077132340195 0 0 0 0 222.4358432886911 35.993381764640617 0 35.993381764640617 -149.16754834334552 0 0 0 0 -27.677841409155008 28.971381088897942 0 28.971381088897942 -69.10107518560244 0 0 0 0 100.84423151739611 -30.864602984161593 0 -30.864602984161593 -102.99728168726597 0 0 0 0 -27.491352291268413 260.9306888405473 0 260.9306888405473 -21.115278697352867 0 0 0 0 19.55823007134893 9.2523048181466301 0 9.2523048181466301 6.0536090265333833 0 0 0 0 16.015596083518176 82.190544645189959 0 82.190544645189959 -135.95650759612249 0 0 0 0 -14.875167450463778 33.083576571520105 0 33.083576571520105 125.20334323087189 0 0 0 0 37.576917646852962 157.10577885032649 0 157.10577885032649 219.53089334325603 0 0 0 0 6.6723431393883601 3.6018474133333207 0 3.6018474133333207 1.6468698554006636 0 0 0 0 -153.0904658311556 -29.863065457579637 0 -29.863065457579637 561.82870834215771 0 0 0 0 -21.322322485459154 -0.66694097899329563 0 -0.66694097899329563 346.76749469603988 0 0 0 0 -170.03109798222431 116.58539443689688 0 116.58539443689688 320.45704619304854 0 0 0 0 -198.31177688556636 -13.081016452753147 0 -13.081016452753147 401.28046205954774 0 0 0 0 25.432177331771527 -2.9728786936748293 0 -2.9728786936748293 -106.50558230695196 0 0 0 0 18.493413463248771 20.066691341715909 0 20.066691341715909 -12.695575156048479 0 0 0 0 -76.85045386490674 141.69021404762168 0 141.69021404762168 304.40752815898054 0 0 0 0 -15.950087446704856 -15.092750917522835 0 -15.092750917522835 -66.525353048512898 0 0 0 0 3.0571422117256049 2.2216557000407846 0 2.2216557000407846 0.79082000773337802 0 0 0 0 -6.1958345673511985 -47.620824940914531 0 -47.620824940914531 -71.627284126485392 0 0 0 0 19.097966425476571 19.510744638706662 0 19.510744638706662 -12.235722286196312 0 0 0 0 -9.5363500958058012 -4.5592802092928082 0 -4.5592802092928082 -96.749160749313887 0 0 0 0 2.1610737193186651 -32.755819345407872 0 -32.755819345407872 -76.430720812173604 0 0 0 0 -3.3658152099815197 -101.84922462002396 0 -101.84922462002396 -216.30537602008917 0 0 0 0 -94.360060843682732 -87.762501799160418 0 -87.762501799160418 -53.795139606522753 0 0 0 0 -51.247194660689274 22.267814201721194 0 22.267814201721194 131.29460226061201 0 0 0 0 30.488152859688853 -128.80940775052761 0 -128.80940775052761 -87.804511162164999 0 0 0 0 -40.598701385628374 15.901373867186521 0 15.901373867186521 -214.54377009700693 0 0 0 0 2.8434246630495181 -5.6234756340832064 0 -5.6234756340832064 -96.254974468091405 0 0 0 0 96.027813197208161 -153.20366730648584 0 -153.20366730648584 -431.72806995536212 0 0 0 0 346.84246508570504 22.326558116701335 0 22.326558116701335 -196.09897648290894 0 0 0 0 6.6920121342975136 1.1881290400542297 0 1.1881290400542297 -4.7291612567718175 0 0 0 0 17.192979837670805 24.120776976754684 0 24.120776976754684 -6.8421309712034999 0 0 0 0 131.74344082665448 187.47455086965215 0 187.47455086965215 -338.64587887581729 0 0 0 0 -46.808859467138973 -176.00644856854251 0 -176.00644856854251 -137.1836312817486 0 0 0 0 213.33998930002417 -206.26875171495067 0 -206.26875171495067 207.20530802268149 0 0 0 0 50.468607621251522 33.614020313562776 0 33.614020313562776 -19.837443418069597 0 0 0 0 548.77008145179934 321.91095519728674 0 321.91095519728674 133.14005544844986 0 0 0 0 93.829736638115719 51.437615052555884 0 51.437615052555884 -16.583572780770737 0 0 0 0 202.82611031059059 173.01804510840202 0 173.01804510840202 -133.7856319706807 0 0 0 0 -40.998071899128263 202.77983839382523 0 202.77983839382523 286.44503052345408 0 0 0 0 -7.9506605106980714 190.46709890994634 0 190.46709890994634 76.086795700548464 0 0 0 0 -39.107678741289419 123.96872866719241 0 123.96872866719241 27.399268493934869 0 0 0 0 165.29353880249982 151.77958035123083 0 151.77958035123083 -172.36848889141402 0 0 0 0 -255.34485969677189 44.488750703734695 0 44.488750703734695 -155.81406003277152 0 0 0 0 -15.457770231136237 31.345907088901185 0 31.345907088901185 -8.2210422496907327 0 0 0 0 49.362749963402166 145.87603728650629 0 145.87603728650629 -198.3919146615699 0 0 0 0 -58.738615612179274 194.80436660303167 0 194.80436660303167 -3.2563165027386276 0 0 0 0 -11.76644466156722 4.4264427473713113 0 4.4264427473713113 37.051631395976528 0 0 0 0 35.235296600250877 50.958024392056359 0 50.958024392056359 68.185938415446913 0 0 0 0 13.555985471861888 25.475280754068958 0 25.475280754068958 -6.7294525787687665 0 0 0 0 -36.238644279903383 -82.600090350967548 0 -82.600090350967548 -134.57066349904539 0 0 0 0 236.78127571023651 60.728127858646985 0 60.728127858646985 -497.82874997284682 0 0 0 0 1.3862825711705966 2.7499926013777234 0 2.7499926013777234 5.3694961700105868 0 0 0 0 -79.669327569310553 -36.204592852795031 0 -36.204592852795031 -265.17346813061158 0 0 0 0 -24.632479932828574 -84.111587375664385 0 -84.111587375664385 -261.63038791152576 0 0 0 0 -44.193523920548614 144.13769432337176 0 144.13769432337176 82.66729030408419 0 0 0 0 -30.880663159310643 119.94132066122984 0 119.94132066122984 108.88662945670694 0 0 0 0 -39.867496463870339 134.99003163557609 0 134.99003163557609 93.535636266731672 0 0 0 0 -59.689205742510239 125.1842153039679 0 125.1842153039679 116.29863393703636 0 0 0 0 -88.441627201580559 141.86249805206353 0 141.86249805206353 222.9488834837066 0 0 0 0 -66.597738708973338 140.18864161788133 0 140.18864161788133 125.93483157712399 0 0 0 0 -27.339566730493971 174.88254668146328 0 174.88254668146328 14.372259413485153 0 0 0 0 20.829370595311048 93.343851545487269 0 93.343851545487269 -160.55476975421516 0 0 0 0 -3.0671833877944152 27.691798380500408 0 27.691798380500408 0.30233037076782365 0 0 0 0 -34.321136159553134 54.479730493261741 0 54.479730493261741 -53.050836110087403 0 0 0 0 -54.385321096451662 74.726646296105173 0 74.726646296105173 88.598525571305231 0 0 0 0 -46.84091847439413 50.329442199711139 0 50.329442199711139 -35.244119007435017 0 0 0 0 -68.426076572988677 34.454742865648768 0 34.454742865648768 33.75292714311945 0 0 0 0 -21.89772703943548 29.465457458937291 0 29.465457458937291 -4.908975744081328 0 0 0 0 -32.099008099467028 68.289615576460847 0 68.289615576460847 -52.056979347182505 0 0 0 0 -71.084782505276962 25.756255049072934 0 25.756255049072934 -45.404724228001214 0 0 0 0 -10.635934377853118 35.613817335834767 0 35.613817335834767 -13.685284237085853 0 0 0 0 -16.944885230099317 40.09417143457631 0 40.09417143457631 -2.6983860028371964 0 0 0 0 -0.25140718531838502 43.97743339314377 0 43.97743339314377 -47.570507205717263 0 0 0 0 36.281317245058744 66.532213949910215 0 66.532213949910215 -66.003206895581002 0 0 0 0 2.2435395902868578 0.71754357241450606 0 0.71754357241450606 2.6797770333475048 0 0 0 0 -38.640673148234782 47.447801878442533 0 47.447801878442533 53.013119421652846 0 0 0 0 -28.667040520480441 53.842526092049923 0 53.842526092049923 -22.865602333957213 0 0 0 0 -23.284282507935131 45.230277642964438 0 45.230277642964438 -32.450189144207798 0 0 0 0 -19.326031306951336 49.46641792868445 0 49.46641792868445 -43.105768069657643 0 0 0 0 -72.530131236340821 31.272719846956875 0 31.272719846956875 6.0183103487520384 0 0 0 0 -97.643992509765667 121.15612354292193 0 121.15612354292193 97.300739244380566 0 0 0 0 -98.754502914234763 18.677969893122963 0 18.677969893122963 155.27949466261998 0 0 0 0 23.634689838436316 37.303315219310662 0 37.303315219310662 0.7946505313657326 0 0 0 0 -18.052043560572201 59.325695883642084 0 59.325695883642084 30.651387102342596 0 0 0 0 -16.494080548931379 42.347814741387538 0 42.347814741387538 -10.58842100369526 0 0 0 0 0.20422243770008208 64.951518290592048 0 64.951518290592048 -8.0229493481755298 0 0 0 0 -2.2539986101473914 49.485983104512457 0 49.485983104512457 -50.950724407319285 0 0 0 0 -4.2253335713394335 65.287677694207105 0 65.287677694207105 13.581370431182677 0 0 0 0 -37.183323257078882 97.74405703587945 0 97.74405703587945 2.6961820075007381 0 0 0 0 58.302920921400073 95.955610919390438 0 95.955610919390438 -47.033682873063754 0 0 0 0 -3.2574233172927052 124.23149048068683 0 124.23149048068683 -26.291290916795788 0 0 0 0 30.104143609278253 85.474291760723645 0 85.474291760723645 -44.891306760768884 0 0 0 0 47.076495998517203 137.73775602519572 0 137.73775602519572 -25.330875901852778 0 0 0 0 -81.462885126238689 152.64571947388549 0 152.64571947388549 -6.8202906879073453 0 0 0 0 -48.548355531671405 108.31283021052661 0 108.31283021052661 30.625837927612793 0 0 0 0 -77.730336304703087 112.464471207212 0 112.464471207212 -9.28932814406744 0 0 0 0 -99.660812636153423 104.28923756041195 0 104.28923756041195 -133.07372040848304 0 0 0 0 -34.228981904707325 142.81185982518332 0 142.81185982518332 -227.89277575669166 0 0 0 0 -63.927266563237936 25.291071401747558 0 25.291071401747558 -273.57504326653861 0 0 0 0 10.058855310249783 70.470616825742582 0 70.470616825742582 -292.39229346959428 0 0 0 0 -72.372191494119761 68.522108600362344 0 68.522108600362344 -64.478640467334571 0 0 0 0 -32.379676302298321 -65.898320644783325 0 -65.898320644783325 -77.841073719843962 0 0 0 0 -30.139863625077851 133.88555705220836 0 133.88555705220836 16.807960618955804 0 0 0 0 140.53167960141764 -42.492073670925862 0 -42.492073670925862 -200.25488261737473 0 0 0 0 169.0393915187442 140.99825270710593 0 140.99825270710593 -209.73225321821974 0 0 0 0 -115.40301355735573 -23.540780385339986 0 -23.540780385339986 -201.65720260722549 0 0 0 0 2.0834183383049094 -1.0412355741202646 0 -1.0412355741202646 -9.730785643258514 0 0 0 0 43.563492318720819 -50.043720861701559 0 -50.043720861701559 -400.20910878473433 0 0 0 0 0.56501901965710033 2.4037204369283591 0 2.4037204369283591 -0.050310601471963423 0 0 0 0 -5.0979570126219187 4.5772547424887762 0 4.5772547424887762 -6.9144515745892932 0 0 0 0 81.266110435739392 104.34016951936064 0 104.34016951936064 -315.8340137414325 0 0 0 0 47.563382422093127 125.9294077648683 0 125.9294077648683 -278.62071200234823 0 0 0 0 19.987703939827043 65.37355435927293 0 65.37355435927293 178.28215554929966 0 0 0 0 45.968002871217323 80.663702472348177 0 80.663702472348177 185.89376529253826 0 0 0 0 0.22519463300774589 1.0319683729045792 0 1.0319683729045792 -1.0848928742391177 0 0 0 0 -19.77232643320167 97.87841813530099 0 97.87841813530099 219.04019947957522 0 0 0 0 46.977399230938431 24.325481492976866 0 24.325481492976866 263.71751347289955 0 0 0 0 -19.360388370776491 59.259069987042039 0 59.259069987042039 -30.189939979281917 0 0 0 0 -8.4196795128955273 47.093522986566541 0 47.093522986566541 -26.162264426607408 0 0 0 0 -6.3212410293926951 56.007504928611525 0 56.007504928611525 -29.65310861796695 0 0 0 0 -17.337695931622875 50.69056415452178 0 50.69056415452178 -27.476454976031164 0 0 0 0 -19.215560880435078 61.891988852209806 0 61.891988852209806 -17.616544741509642 0 0 0 0 -16.993262245028745 78.812040065844258 0 78.812040065844258 -27.174036070039165 0 0 0 0 -8.3017540766777529 63.225094824379426 0 63.225094824379426 -55.832728934205988 0 0 0 0 7.6813761613302631 170.32083158477462 0 170.32083158477462 -13.477635765234709 0 0 0 0 -22.473838813421025 58.547626831516482 0 58.547626831516482 -105.14885514567595 0 0 0 0 -11.860958225806826 64.488152072172852 0 64.488152072172852 -113.4767958417342 0 0 0 0 -12.201125628314912 83.669283957014386 0 83.669283957014386 -53.16029091105338 0 0 0 0 -0.92461135849589482 98.491917074730736 0 98.491917074730736 -128.27839363417115 0 0 0 0 49.168260241160169 77.848397652945096 0 77.848397652945096 -222.0004219836037 0 0 0 0 75.766144032662851 42.958058734704537 0 42.958058734704537 -296.61987700782356 0 0 0 0 -1.6889884973934386 2.1816132038711658 0 2.1816132038711658 -5.8181312845213142 0 0 0 0 102.10053420827899 10.047100724197662 0 10.047100724197662 -366.39689331591831 0 0 0 0 0.5087057990375996 2.0009316134111543 0 2.0009316134111543 -0.81128587487636383 0 0 0 0 0.447882023465354 1.4245473724890871 0 1.4245473724890871 -7.5349364242806587 0 0 0 0 -0.93895964015359823 3.0827623963913116 0 3.0827623963913116 -2.9074381588895175 0 0 0 0 47.247978351573693 55.681619946275077 0 55.681619946275077 43.951407695285525 0 0 0 0 53.802399849897483 54.972985421714839 0 54.972985421714839 42.537599776278512 0 0 0 0 1.2435340773445205 0.96109589214393054 0 0.96109589214393054 -7.3032491717606263 0 0 0 0 -1.359341299670632 0.7348402855045606 0 0.7348402855045606 -5.2513856026971553 0 0 0 0 -1.3593412995105609 0.7348402854690903 0 0.7348402854690903 -5.2513856026738495 0 0 0 0 -8.2976873068255372 3.4799224188627704 0 3.4799224188627704 -172.0619883980944 0 0 0 0 -1.3593412990448996 0.73484028545863112 0 0.73484028545863112 -5.2513856026835128 0 0 0 0 -0.084541626197449204 2.538236529203191 0 2.538236529203191 -1.531970137047072 0 0 0 0 -126.05064699758077 33.371181917590548 0 33.371181917590548 -171.37389504738621 0 0 0 0 -7.4449635202763602 46.098171682700013 0 46.098171682700013 -175.4478410515494 0 0 0 0 -21.269303631677758 42.032955613817194 0 42.032955613817194 -96.85277009665333 0 0 0 0 -26.825760841195006 1.6534707736796008 0 1.6534707736796008 -127.57722869564168 0 0 0 0 -28.319958879248588 16.860295372161545 0 16.860295372161545 -102.17131639949912 0 0 0 0 -5.5807881257569534 50.174383663316121 0 50.174383663316121 -41.789040534904416 0 0 0 0 21.720640331957838 15.109746431938333 0 15.109746431938333 -0.60921849808107709 0 0 0 0 1.0976691767718876 2.3190667600795223 0 2.3190667600795223 -8.0897195249073235 0 0 0 0 0.1971002914314397 0.87502889883957202 0 0.87502889883957202 -0.59215253835260306 0 0 0 0 0.5686048804358137 0.99093169332731179 0 0.99093169332731179 -2.0701189366638868 0 0 0 0 -16.983206841963693 41.973683498618811 0 41.973683498618811 -47.544126401080234 0 0 0 0 -0.60210584649463783 2.1108340554740863 0 2.1108340554740863 -2.835829460768327 0 0 0 0 8.1261396808404243 50.246651049165621 0 50.246651049165621 -44.669656735626631 0 0 0 0 -13.504869195414358 6.1111218231462772 0 6.1111218231462772 21.771315287902326 0 0 0 0 20.953137301832612 1.0979750038663241 0 1.0979750038663241 -18.055299583344436 0 0 0 0 21.252067410394375 -1.5213861950146281 0 -1.5213861950146281 -14.747369550001508 0 0 0 0 -2.1527100048604879 6.0308007544338693 0 6.0308007544338693 -8.6725575038000855 0 0 0 0 0.3884756258475619 1.0526852131499398 0 1.0526852131499398 -1.2878680818689796 0 0 0 0 62.139132958058326 24.337060787549945 0 24.337060787549945 -36.920662759577226 0 0 0 0 50.043349247736842 85.618504577928206 0 85.618504577928206 51.445143961243957 0 0 0 0 44.836126059017261 50.383022898888157 0 50.383022898888157 50.076258849550868 0 0 0 0 30.180813614293584 58.281647693652303 0 58.281647693652303 47.25804650889495 0 0 0 0 53.10139024509408 72.719245042707371 0 72.719245042707371 71.510295408228558 0 0 0 0 71.926354918155994 73.560206518454834 0 73.560206518454834 87.153480755505825 0 0 0 0 86.605278965129401 72.585051975590432 0 72.585051975590432 80.436927230719903 0 0 0 0 77.146257935877657 81.5387079517036 0 81.5387079517036 72.216193078595381 0 0 0 0 62.442377441700955 83.978564340181038 0 83.978564340181038 102.1072993354677 0 0 0 0 74.863564712388325 81.86053445998391 0 81.86053445998391 89.396607529573885 0 0 0 0 62.729818169631471 78.229442252049921 0 78.229442252049921 90.394374680412511 0 0 0 0 60.964040238701273 65.479406091238616 0 65.479406091238616 62.925976602650735 0 0 0 0 -44.167836920889386 91.494693339870537 0 91.494693339870537 186.33542006044823 0 0 0 0 45.801969300198834 116.53565064552549 0 116.53565064552549 77.008796213502592 0 0 0 0 -21.338540254910185 138.87938671609879 0 138.87938671609879 110.3205689597844 0 0 0 0 23.987714285074617 62.52376269471506 0 62.52376269471506 78.768448301792887 0 0 0 0 75.135164013830945 98.544795677202728 0 98.544795677202728 70.216112407239962 0 0 0 0 -0.57043729878894567 0.63333443610353868 0 0.63333443610353868 -0.12999243533788629 0 0 0 0 -6.1923847582474991 81.527374576113289 0 81.527374576113289 68.036548760951518 0 0 0 0 91.609255939307332 115.808225479047 0 115.808225479047 73.935267108500739 0 0 0 0 46.817514835616748 117.11371347770751 0 117.11371347770751 46.671545378874725 0 0 0 0 -6.107542633824778 81.160394882288983 0 81.160394882288983 36.561637714775316 0 0 0 0 32.985767975973431 48.082201648209548 0 48.082201648209548 41.392594357201233 0 0 0 0 7.3902379154300206 24.643523701862996 0 24.643523701862996 -32.976571508982168 0 0 0 0 65.167498960589 50.918483181840202 0 50.918483181840202 71.269983532625247 0 0 0 0 59.722691638977267 34.893882607966589 0 34.893882607966589 -15.094001458682669 0 0 0 0 46.868167265503871 82.278025921435983 0 82.278025921435983 36.726217452749552 0 0 0 0 17.888080502176308 84.037098842015894 0 84.037098842015894 39.102456682222282 0 0 0 0 57.477200806817564 50.965335239402975 0 50.965335239402975 66.693731706742255 0 0 0 0 76.851053933300136 113.35007494501997 0 113.35007494501997 80.472732398682638 0 0 0 0 83.33592222975858 141.91313206950144 0 141.91313206950144 190.33411541520854 0 0 0 0 94.834302224116072 65.611038227045441 0 65.611038227045441 143.4524391949808 0 0 0 0 -0.70248491555685177 140.40484835770235 0 140.40484835770235 502.6667984818514 0 0 0 0 1.5620330471158184 0.44879433480564312 0 0.44879433480564312 -0.62894663752537094 0 0 0 0 -66.965179539518431 196.83327420107707 0 196.83327420107707 -459.62078880302977 0 0 0 0 -1.1103737898460366 0.38985506784528212 0 0.38985506784528212 0.14701863505187784 0 0 0 0 25.095583717513364 40.445788719114262 0 40.445788719114262 -666.11375474493627 0 0 0 0 242.5684627192968 274.30927004950217 0 274.30927004950217 -216.04839565336806 0 0 0 0 210.72386705457757 85.845063125451816 0 85.845063125451816 -605.54306824475179 0 0 0 0 128.03792980639264 234.14521085321212 0 234.14521085321212 226.1726076216155 0 0 0 0 54.024780811669189 128.9118532505363 0 128.9118532505363 96.654225570933022 0 0 0 0 112.55291985231997 140.76713390317536 0 140.76713390317536 31.224795755612831 0 0 0 0 22.682485320467094 80.599657871038289 0 80.599657871038289 23.555075469637814 0 0 0 0 98.622178904955945 138.35723430277221 0 138.35723430277221 -51.444040506400597 0 0 0 0 94.35011784285598 151.464239825292 0 151.464239825292 -87.672979391596527 0 0 0 0 97.003465203262749 178.46140808511745 0 178.46140808511745 79.037254583382946 0 0 0 0 82.96842212221236 55.355601185043042 0 55.355601185043042 -126.14921729802882 0 0 0 0 115.36118289518345 102.55603119430543 0 102.55603119430543 -107.03166549263847 0 0 0 0 163.59134135278146 100.59224453763477 0 100.59224453763477 -209.74589276394545 0 0 0 0 135.42074695028714 54.907040802926076 0 54.907040802926076 -267.65924131236443 0 0 0 0 114.25630210893632 99.789546420585964 0 99.789546420585964 -66.759906277227856 0 0 0 0 144.03386556188343 47.100520534077077 0 47.100520534077077 -142.65325695895262 0 0 0 0 152.3300057093511 39.785986736860195 0 39.785986736860195 -191.10088966032981 0 0 0 0 41.077208025977598 22.445554302301616 0 22.445554302301616 -210.53480046424374 0 0 0 0 106.32115232718206 91.340073027408607 0 91.340073027408607 -139.36918362940105 0 0 0 0 5.7954586806299631 120.19420574155629 0 120.19420574155629 -167.92453325310271 0 0 0 0 -29.204112705599982 79.944553257575535 0 79.944553257575535 -114.89855252032703 0 0 0 0 -1.4149771742377197 162.15148602933186 0 162.15148602933186 -109.36578546058035 0 0 0 0 -5.266945246476098 64.359801517211054 0 64.359801517211054 -298.74454112728563 0 0 0 0 -106.43773725147184 197.78714097686679 0 197.78714097686679 -338.0527918390344 0 0 0 0 -103.99569672024518 0.13270828445502048 0 0.13270828445502048 -273.77005662262673 0 0 0 0 83.697285226844542 101.80296311334996 0 101.80296311334996 -251.96328201547749 0 0 0 0 82.749346719239838 57.805536913692094 0 57.805536913692094 -63.478331298043031 0 0 0 0 29.083565507045932 74.185989918463861 0 74.185989918463861 19.749577266731194 0 0 0 0 7.330942667555064 38.056787019873809 0 38.056787019873809 -27.647832702173218 0 0 0 0 7.7144118051344037 70.168445539162036 0 70.168445539162036 -13.34440683210596 0 0 0 0 -24.105127536962755 48.260194399465036 0 48.260194399465036 45.132481483382435 0 0 0 0 3.2336162849853025 27.103866335500946 0 27.103866335500946 -34.393717551342213 0 0 0 0 7.3948553648924644 36.386373402913279 0 36.386373402913279 15.022366507153492 0 0 0 0 -43.958312939343159 78.327443680376746 0 78.327443680376746 25.637401583844621 0 0 0 0 26.251662271170062 54.86488336277398 0 54.86488336277398 6.9768284536221472 0 0 0 0 -12.912769370661408 65.449138814205071 0 65.449138814205071 -85.905903813527402 0 0 0 0 -12.52000927595509 28.723352995210007 0 28.723352995210007 33.848562021463295 0 0 0 0 1.8539468108065194 56.446551992441528 0 56.446551992441528 68.962570097875869 0 0 0 0 -37.994101386182592 69.453388649824774 0 69.453388649824774 19.247158332687832 0 0 0 0 -105.8477673877278 92.761671389858748 0 92.761671389858748 41.209951228873251 0 0 0 0 -40.281685947044025 20.795020682598988 0 20.795020682598988 62.475534376981159 0 0 0 0 -29.149712878255741 105.70863482359891 0 105.70863482359891 150.60223756317282 0 0 0 0 -41.86619057122482 74.726922933110529 0 74.726922933110529 161.11687368682033 0 0 0 0 5.3767293831988354 50.037248316550176 0 50.037248316550176 172.44770456416745 0 0 0 0 47.269445465561148 -62.117743700157007 0 -62.117743700157007 57.624319546155675 0 0 0 0 -38.53515835030521 34.54284887171525 0 34.54284887171525 38.663308429247991 0 0 0 0 380.34871247426054 -108.7622081338468 0 -108.7622081338468 293.92295580685459 0 0 0 0 88.503535906353136 77.704672764045426 0 77.704672764045426 700.15491365196067 0 0 0 0 -8.248370913141116 92.072094210250725 0 92.072094210250725 358.92194270939763 0 0 0 0 83.117727720415132 151.20103979161286 0 151.20103979161286 264.17293060138036 0 0 0 0 27.964569733634562 -62.65151884048646 0 -62.65151884048646 234.67510949997268 0 0 0 0 197.18011177442531 87.383993043025839 0 87.383993043025839 95.725050672446741 0 0 0 0 56.745599675945414 -77.32769812305196 0 -77.32769812305196 -19.915589831000034 0 0 0 0 73.913992325443814 70.79133206054621 0 70.79133206054621 -233.27020761427775 0 0 0 0 14.238755112575319 7.3691517916680667 0 7.3691517916680667 -14.091830429198511 0 0 0 0 7.5611578357966209 35.413981278325991 0 35.413981278325991 -104.27585677056231 0 0 0 0 -0.23279932887089672 37.496571951804071 0 37.496571951804071 -57.019113612733236 0 0 0 0 -48.959778968270257 -46.120210919389137 0 -46.120210919389137 3.9004943739491864 0 0 0 0 -1.5111543412801751 29.154644130914594 0 29.154644130914594 -36.134334473285392 0 0 0 0 -24.637188491258712 39.135380760852058 0 39.135380760852058 -13.589323942512237 0 0 0 0 20.007290398705663 -69.485963088140124 0 -69.485963088140124 -97.04414795725279 0 0 0 0 14.795596139669215 68.21646853239929 0 68.21646853239929 -88.648136269326869 0 0 0 0 -1.9485576152298449 35.325038509642233 0 35.325038509642233 -36.927333385558072 0 0 0 0 29.429402101276509 14.336998623249841 0 14.336998623249841 -10.819180406546922 0 0 0 0 -0.075734220019512577 25.217903510284145 0 25.217903510284145 -53.70843889363482 0 0 0 0 20.16196490569564 -75.916583181911506 0 -75.916583181911506 278.75405828106318 0 0 0 0 -164.31598020257661 177.59093351298441 0 177.59093351298441 394.18525269851165 0 0 0 0 -75.268503393177525 -98.252192392212038 0 -98.252192392212038 446.26377256347183 0 0 0 0 -0.16327876785655349 0.60971841506072622 0 0.60971841506072622 5.4222750893628939 0 0 0 0 231.57214124204984 -246.75064466279537 0 -246.75064466279537 140.38037460477778 0 0 0 0 487.98803019947445 302.71287130517089 0 302.71287130517089 148.88920334258057 0 0 0 0 -50.197971653804416 -174.43046051438682 0 -174.43046051438682 341.14508652184327 0 0 0 0 271.62986987678596 189.81269655210548 0 189.81269655210548 -374.65299491597011 0 0 0 0 468.29954413068845 18.60639640157143 0 18.60639640157143 -296.02408606478343 0 0 0 0 -19.447677973264945 -125.6457794126911 0 -125.6457794126911 -178.679643911281 0 0 0 0 10.278144000822408 36.859743503573299 0 36.859743503573299 -41.776716893224744 0 0 0 0 -90.866071984704831 3.8116470333538643 0 3.8116470333538643 -20.373615287048324 0 0 0 0 -104.37593094080148 -23.145569000072669 0 -23.145569000072669 54.189330963681982 0 0 0 0 -94.363105581585842 -15.890315676362661 0 -15.890315676362661 -79.628008825204688 0 0 0 0 6.4224393839832032 32.477040153533636 0 32.477040153533636 -43.68974553860199 0 0 0 0 -0.52608160773920076 0.26526980605684836 0 0.26526980605684836 0.050240619942832909 0 0 0 0 -80.072194415140984 78.575903694917031 0 78.575903694917031 16.632014682731437 0 0 0 0 -65.60728239688433 62.997510049891503 0 62.997510049891503 -122.90334555764673 0 0 0 0 -79.671582747825596 2.7511982389628429 0 2.7511982389628429 178.70109743577143 0 0 0 0 -5.826596268787398 148.97843621869896 0 148.97843621869896 467.57233526968992 0 0 0 0 20.064009352252469 214.06130394448132 0 214.06130394448132 184.72923489565346 0 0 0 0 177.81026379926561 194.33563305831598 0 194.33563305831598 99.642210403378613 0 0 0 0 60.102846782174311 150.73200227107691 0 150.73200227107691 90.601888137047013 0 0 0 0 4.6352065872197272 129.28487461030772 0 129.28487461030772 153.33906422983387 0 0 0 0 -90.792019729016829 101.61829666264549 0 101.61829666264549 156.85708724481287 0 0 0 0 24.540194232118665 117.38321142349412 0 117.38321142349412 149.98035100454945 0 0 0 0 -40.849733511786326 192.12791662602831 0 192.12791662602831 290.42224030852617 0 0 0 0 14.386534201153154 132.76679092517395 0 132.76679092517395 103.95358000546935 0 0 0 0 15.238730467228379 139.29580070641924 0 139.29580070641924 153.79695723451778 0 0 0 0 -63.394968701810285 285.57428993549138 0 285.57428993549138 116.12024415690672 0 0 0 0 35.864057324241003 77.617142626931468 0 77.617142626931468 226.98279138754538 0 0 0 0 136.9611653864049 117.83843117273079 0 117.83843117273079 87.941982485124299 0 0 0 0 58.320292508402417 62.206512089932801 0 62.206512089932801 95.529981297576796 0 0 0 0 8.2898610260890564 -1.8312415063919616 0 -1.8312415063919616 -25.317923781375839 0 0 0 0 2.4372561366162273 1.5085144340797498 0 1.5085144340797498 -2.4382558131869549 0 0 0 0 91.370855489349196 59.202595515097016 0 59.202595515097016 45.136982824310962 0 0 0 0 56.554499770620168 73.978300343298088 0 73.978300343298088 56.385308924084768 0 0 0 0 122.81522498178674 8.5626711524253096 0 8.5626711524253096 -117.6834143113839 0 0 0 0 4.5176720923855171 8.2116697380009498 0 8.2116697380009498 8.355257116989069 0 0 0 0 -77.824765917543118 149.77298775517067 0 149.77298775517067 98.319775746315372 0 0 0 0 25.775973122355936 -161.31941351084504 0 -161.31941351084504 121.54275075375404 0 0 0 0 164.36844214345138 103.90410081553111 0 103.90410081553111 28.018883078417502 0 0 0 0 85.402054148302341 65.437034359983556 0 65.437034359983556 46.003761524573406 0 0 0 0 11.859558026872037 94.276932901960834 0 94.276932901960834 -9.6625084480401711 0 0 0 0 -11.383568492194172 42.542246817888213 0 42.542246817888213 -17.200704711321578 0 0 0 0 10.730514764218242 62.755163366624629 0 62.755163366624629 -49.664003971559396 0 0 0 0 35.785418160368863 53.519146782192934 0 53.519146782192934 -26.945769647179628 0 0 0 0 23.360772860898578 31.993406834169491 0 31.993406834169491 -18.303852713906281 0 0 0 0 34.146685524545774 62.948632653370296 0 62.948632653370296 1.5301607505780339 0 0 0 0 27.296837551172075 40.637176951566651 0 40.637176951566651 -3.8429482868646119 0 0 0 0 27.862483447635896 30.834397188427602 0 30.834397188427602 -27.068694032282202 0 0 0 0 30.754020831082016 25.224733195443378 0 25.224733195443378 -10.646210601539224 0 0 0 0 36.670734617589915 44.179633583941481 0 44.179633583941481 -23.610396331908078 0 0 0 0 33.47467560068344 24.035831864364695 0 24.035831864364695 -14.517371667871885 0 0 0 0 57.508502959288307 39.598389828074914 0 39.598389828074914 -24.144043354718406 0 0 0 0 84.976107528149441 88.970878830728907 0 88.970878830728907 -82.519605925647738 0 0 0 0 10.418900551820116 98.617420773967297 0 98.617420773967297 -19.980487384178105 0 0 0 0 41.750240613895585 126.57073615088507 0 126.57073615088507 -36.080150339247439 0 0 0 0 -16.697518538967415 109.87718830493179 0 109.87718830493179 135.90812455403773 0 0 0 0 -31.867132160357869 156.27367454718251 0 156.27367454718251 28.25972291067103 0 0 0 0 37.222336760739381 146.18628087919262 0 146.18628087919262 -5.1408101237125265 0 0 0 0 34.843853156053228 230.73027667335418 0 230.73027667335418 -70.491338242056372 0 0 0 0 6.1513177633969462 90.248432690939921 0 90.248432690939921 89.689012477508982 0 0 0 0 -31.818221647561586 41.583274153213665 0 41.583274153213665 217.76518769315499 0 0 0 0 4.0438519566960167 55.897965244323927 0 55.897965244323927 70.584668580052323 0 0 0 0 11.831275033440761 49.366121594395736 0 49.366121594395736 46.146820511746569 0 0 0 0 4.237094459036598 105.3424067972378 0 105.3424067972378 -8.6085506456975054 0 0 0 0 24.44878540996433 163.61516263132944 0 163.61516263132944 -37.337571530206333 0 0 0 0 -1.2894296440503297 0.33373141874479595 0 0.33373141874479595 -10.507029975531474 0 0 0 0 6.8951703984821648 36.00685294745405 0 36.00685294745405 -32.108288163429769 0 0 0 0 0.63592433908343082 54.165239925563185 0 54.165239925563185 77.781953858684119 0 0 0 0 -8.8469340625597397 11.123476145949894 0 11.123476145949894 -69.624337302764161 0 0 0 0 -8.872079732529528 7.8751672816244991 0 7.8751672816244991 -73.443098866847549 0 0 0 0 65.22563262008407 6.433323883227331 0 6.433323883227331 -71.713615647513507 0 0 0 0 46.494844498025486 41.635242696100249 0 41.635242696100249 -59.072071126822266 0 0 0 0 118.21919359855019 49.660778254881734 0 49.660778254881734 -123.92865286245251 0 0 0 0 -67.341673710543546 189.48134933244364 0 189.48134933244364 -26.082967986214499 0 0 0 0 -114.40747349912272 -0.059763637011201354 0 -0.059763637011201354 3.2674831180120236 0 0 0 0 -41.05912839636585 56.212605920213605 0 56.212605920213605 40.489248774169141 0 0 0 0 7.0338825933131943 40.755195837599885 0 40.755195837599885 -8.6894357539535871 0 0 0 0 -0.9392542739618932 5.248135031163387 0 5.248135031163387 10.053273908635198 0 0 0 0 -50.530290803730168 33.539962260040056 0 33.539962260040056 82.886527502587342 0 0 0 0 -1.1394490948407565 2.7071085197912446 0 2.7071085197912446 10.08994362692499 0 0 0 0 -5.4224055187945908 23.262586748994586 0 23.262586748994586 2.1927396940468284 0 0 0 0 -113.58488363827206 74.958687997316375 0 74.958687997316375 256.40174997805661 0 0 0 0 159.28344196156831 246.05948736202663 0 246.05948736202663 132.363586981146 0 0 0 0 -37.564070330075992 124.87406326923701 0 124.87406326923701 71.126060638402123 0 0 0 0 42.138777138370642 138.18448337538211 0 138.18448337538211 66.365281731043069 0 0 0 0 -177.03684362726926 30.407567288406426 0 30.407567288406426 70.766989677228594 0 0 0 0 21.183730093136546 294.08767636260927 0 294.08767636260927 59.349042399389873 0 0 0 0 -212.8436305655091 271.34232256498785 0 271.34232256498785 131.61781818369855 0 0 0 0 -453.31099331920996 223.44727082640566 0 223.44727082640566 128.61926940129342 0 0 0 0 -85.600691845142137 588.26244383485664 0 588.26244383485664 134.10756903692527 0 0 0 0 228.78948814768955 -70.698784812098893 0 -70.698784812098893 -263.21789889447246 0 0 0 0 43.98548367021067 105.67867641419616 0 105.67867641419616 -248.22223396180198 0 0 0 0 -380.19563851354178 16.060013188931407 0 16.060013188931407 70.421682157732903 0 0 0 0 -2.7793018021201448 3.4595176140987594 0 3.4595176140987594 -4.5015702142037952 0 0 0 0 189.40105399862296 -59.525740157369 0 -59.525740157369 -59.104766159631254 0 0 0 0 21.034800146901034 2.3363564529436189 0 2.3363564529436189 -69.387456618056603 0 0 0 0 -61.871737308398224 125.09559232792253 0 125.09559232792253 -105.42674058099146 0 0 0 0 419.40111164886912 198.77699994955765 0 198.77699994955765 -100.76586624182528 0 0 0 0 208.98692682135152 358.24500889910087 0 358.24500889910087 25.932685241641593 0 0 0 0 37.874683445289065 273.56716554028435 0 273.56716554028435 111.9525618560765 0 0 0 0 5.0756948568156162 2.276249456738654 0 2.276249456738654 3.2760566280519967 0 0 0 0 265.11148294608938 210.90978080397326 0 210.90978080397326 128.62893292366243 0 0 0 0 507.44324896512626 267.585022238276 0 267.585022238276 -37.679277025625197 0 0 0 0 270.61946609603183 160.15549216627642 0 160.15549216627642 -68.129117467695323 0 0 0 0 -4.8012987738875381 233.80317025947261 0 233.80317025947261 503.80838384828712 0 0 0 0 7.298656060284884 173.64084874469472 0 173.64084874469472 793.34105331047249 0 0 0 0 523.9431636000154 339.92598881273716 0 339.92598881273716 189.7729546135206 0 0 0 0 -439.03352066157822 219.99712534818809 0 219.99712534818809 144.51251927994963 0 0 0 0 -70.631426650856156 260.68616047957403 0 260.68616047957403 -229.24628748026794 0 0 0 0 -13.7378218904596 107.79398156278785 0 107.79398156278785 294.35820855333805 0 0 0 0 -342.14956036560034 -182.17836013926535 0 -182.17836013926535 104.06259337505435 0 0 0 0 -196.31897672647756 -0.6155492461321046 0 -0.6155492461321046 266.44416188093601 0 0 0 0 -21.73000943858824 -64.454141596702044 0 -64.454141596702044 243.26545248619732 0 0 0 0 -12.068972318353417 135.13643501449121 0 135.13643501449121 98.340516479962389 0 0 0 0 -97.189398589871416 94.546994927701235 0 94.546994927701235 79.480355101468376 0 0 0 0 -60.522919888317574 171.54720166693801 0 171.54720166693801 -28.643508731278416 0 0 0 0 -27.891404499943746 88.477816957367395 0 88.477816957367395 -44.467565119913161 0 0 0 0 -113.34362366533969 47.002023567625201 0 47.002023567625201 -55.468305194597633 0 0 0 0 -0.48147942342704303 -2.342045440689958 0 -2.342045440689958 1.1109164633398052 0 0 0 0 -312.09115134502645 38.186997836955015 0 38.186997836955015 176.57606237092114 0 0 0 0 264.08013882839487 130.41938492034461 0 130.41938492034461 57.380918616847339 0 0 0 0 -58.055921605202457 0.73950111904741789 0 0.73950111904741789 146.23929203375337 0 0 0 0 9.5894021724507184 95.634264452763091 0 95.634264452763091 19.555164875497212 0 0 0 0 -11.847935921522549 41.334400985489083 0 41.334400985489083 1.5421289878959215 0 0 0 0 11.597497201796337 14.722138381811558 0 14.722138381811558 18.495694346077748 0 0 0 0 25.01830439195146 10.312930500836046 0 10.312930500836046 38.222317580257368 0 0 0 0 -9.9744264752728213 36.502734046813885 0 36.502734046813885 22.044158837563373 0 0 0 0 72.54015135582631 43.316551415534377 0 43.316551415534377 -33.095377695686693 0 0 0 0 15.061550389433037 20.912475644036004 0 20.912475644036004 20.205567725661524 0 0 0 0 1.2368085877096746 38.42776045644132 0 38.42776045644132 12.274192007273086 0 0 0 0 -6.933417603906264 27.06424959589458 0 27.06424959589458 16.231538635114703 0 0 0 0 -0.060128958734821936 26.464703812108382 0 26.464703812108382 14.43304753679331 0 0 0 0 3.1706572538005275 30.633444832752502 0 30.633444832752502 17.460771449684216 0 0 0 0 -2.8381592749865376 38.683569161515152 0 38.683569161515152 22.529448102030074 0 0 0 0 -17.589288828952704 123.94650926737813 0 123.94650926737813 145.27770986328335 0 0 0 0 0.90721443824710235 21.087059344360981 0 21.087059344360981 -7.1843479189827022 0 0 0 0 106.98707252687927 32.608278875576161 0 32.608278875576161 37.03341828858629 0 0 0 0 -6.3338864089060873 18.462520749913434 0 18.462520749913434 44.035633756733077 0 0 0 0 -19.86413047078895 11.908898382687767 0 11.908898382687767 22.123976507260522 0 0 0 0 102.7356444547404 12.615976260787647 0 12.615976260787647 93.47112881650537 0 0 0 0 1.0946903786530271 25.792673986713417 0 25.792673986713417 45.227540186198894 0 0 0 0 4.4114115273169681 27.140723366592738 0 27.140723366592738 24.61038656097503 0 0 0 0 15.802098373784247 33.893672539241969 0 33.893672539241969 33.716008300482478 0 0 0 0 -4.0126272228660156 21.358421940444487 0 21.358421940444487 4.9058986706077121 0 0 0 0 6.0880892899172423 35.543407307035736 0 35.543407307035736 22.075737407181606 0 0 0 0 5.0597124361993338 36.189385631846562 0 36.189385631846562 56.065533440967556 0 0 0 0 0.1842594755034952 20.395172460415779 0 20.395172460415779 47.1152189626564 0 0 0 0 -10.114783451073841 12.25279694275779 0 12.25279694275779 30.717077562976819 0 0 0 0 -9.8725231948912153 11.38311551164024 0 11.38311551164024 -5.1790745949432591 0 0 0 0 -18.822167092672316 69.955954739863955 0 69.955954739863955 82.832486655504908 0 0 0 0 63.55919392350188 21.162960695304719 0 21.162960695304719 3.2787805269799719 0 0 0 0 -52.122383509413339 11.544604752998566 0 11.544604752998566 59.037708536272021 0 0 0 0 46.206315768630986 12.166322279289147 0 12.166322279289147 -72.647588723521039 0 0 0 0 -71.244903931801673 47.719363832791714 0 47.719363832791714 89.695268502734507 0 0 0 0 -28.380922537147853 114.42405170542042 0 114.42405170542042 -164.49899370741696 0 0 0 0 -61.787552910953963 76.177795470858257 0 76.177795470858257 -31.175801109595341 0 0 0 0 -22.814636132057785 1.0209022807994188 0 1.0209022807994188 35.157178401776036 0 0 0 0 4.4183509371646181 5.5948837478795319 0 5.5948837478795319 4.7506229625927929 0 0 0 0 3.0292825660284728 2.2270635228018065 0 2.2270635228018065 2.6908734651771198 0 0 0 0 157.30560496646558 193.60605692301851 0 193.60605692301851 65.817246454137603 0 0 0 0 64.337611540157695 181.95243932088397 0 181.95243932088397 119.64470148445071 0 0 0 0 195.03986208209608 287.17818526214069 0 287.17818526214069 203.93128301086108 0 0 0 0 343.02270573995065 168.02034583069508 0 168.02034583069508 26.428106872856006 0 0 0 0 172.76220575243497 211.06429924711665 0 211.06429924711665 149.72829298684019 0 0 0 0 136.92177641551996 72.4062636173378 0 72.4062636173378 -10.156466364043808 0 0 0 0 91.135292296181433 77.92575856064559 0 77.92575856064559 19.486741318443819 0 0 0 0 163.88082850204592 -51.874369183534327 0 -51.874369183534327 -27.588959281535153 0 0 0 0 7.0893713797197719 9.7926510552786112 0 9.7926510552786112 12.910731491540375 0 0 0 0 -16.219454313653841 58.776129133091672 0 58.776129133091672 11.691774019127479 0 0 0 0 -53.499994366924511 -18.21544285334312 0 -18.21544285334312 151.00414808520281 0 0 0 0 56.993760029208715 1.3287072118591823 0 1.3287072118591823 4.7497764219475584 0 0 0 0 -10.164557053032865 21.632604586311402 0 21.632604586311402 18.970186539414499 0 0 0 0 21.524539689059566 17.543619325142572 0 17.543619325142572 11.908733788321115 0 0 0 0 42.363918628442207 40.44687747683156 0 40.44687747683156 2.2535327401383256 0 0 0 0 9.9422418005287909 45.47789774247758 0 45.47789774247758 1.6280390709462154 0 0 0 0 29.003771674885684 46.490168436012027 0 46.490168436012027 8.2123636600745158 0 0 0 0 53.880926443259568 134.19366225359045 0 134.19366225359045 26.652882767310075 0 0 0 0 64.105858109279325 85.677992754574916 0 85.677992754574916 -42.350257108480037 0 0 0 0 61.569590328719642 129.75358358947506 0 129.75358358947506 28.223950950170547 0 0 0 0 -15.371471875940188 62.897768441406697 0 62.897768441406697 111.96189392810629 0 0 0 0 8.6004284117707357 3.9332624911103267 0 3.9332624911103267 0.96319227999083523 0 0 0 0 0.024493106150625721 0.65578475292653948 0 0.65578475292653948 -0.56380544871820248 0 0 0 0 13.760006602500653 -30.96825439069562 0 -30.96825439069562 -93.978333915102667 0 0 0 0 -12.119916094970982 9.6370153476775204 0 9.6370153476775204 -5.4712889348365437 0 0 0 0 -16.425807345955207 45.624614538941728 0 45.624614538941728 18.135199751866821 0 0 0 0 -7.346352879702458 18.352361147560249 0 18.352361147560249 -18.398138277899484 0 0 0 0 -87.058940830982465 -15.656283983144931 0 -15.656283983144931 -96.303718182646662 0 0 0 0 134.56691419159324 1.8048461963970794 0 1.8048461963970794 300.40551953139982 0 0 0 0 -14.177267619921622 217.07537123609063 0 217.07537123609063 520.77860699447592 0 0 0 0 11.435954948052313 31.133178107426829 0 31.133178107426829 16.311988368911443 0 0 0 0 -6.7944282244148226 17.190116535108313 0 17.190116535108313 -19.281565508150006 0 0 0 0 -178.19593954154698 40.389051261401619 0 40.389051261401619 -81.535426052898401 0 0 0 0 78.146911459363764 415.89069002349606 0 415.89069002349606 374.22981200785762 0 0 0 0 133.62853978729981 178.35796695772115 0 178.35796695772115 670.37965254512483 0 0 0 0 75.952995379615459 167.33996651207826 0 167.33996651207826 -308.78419387452868 0 0 0 0 -0.02831946464090862 -0.9945309685965249 0 -0.9945309685965249 0.41245902406709745 0 0 0 0 -7.4701407907905732 5.9557700684110939 0 5.9557700684110939 -3.4987035231817263 0 0 0 0 116.55175025492281 -87.754880409184807 0 -87.754880409184807 -136.85019165654012 0 0 0 0 20.354420571235096 23.427069832177949 0 23.427069832177949 127.83115013937419 0 0 0 0 -14.3901251481293 347.05695333693939 0 347.05695333693939 39.915900962259002 0 0 0 0 -29.54456525576461 38.036541639842653 0 38.036541639842653 -104.01770908802951 0 0 0 0 20.873975485891606 38.069543939410877 0 38.069543939410877 101.5429184238352 0 0 0 0 -7.6811772949031365 13.419861035422741 0 13.419861035422741 124.24326104070929 0 0 0 0 -61.914482677995693 83.792088217568335 0 83.792088217568335 99.54605402640982 0 0 0 0 -2.7274568307291105 1.4385689095996455 0 1.4385689095996455 -0.90511183734702794 0 0 0 0 -78.079670962273667 2.8555975370228452 0 2.8555975370228452 89.906692499327278 0 0 0 0 -81.984945201555092 190.19065552458216 0 190.19065552458216 56.159894532251442 0 0 0 0 48.401913382684143 -3.1788811614435417 0 -3.1788811614435417 144.98080659843845 0 0 0 0 68.190639364507661 98.366159514914045 0 98.366159514914045 179.26430167177523 0 0 0 0 2.0427624588674007 115.97891672260852 0 115.97891672260852 230.35966218483372 0 0 0 0 151.60195405283139 132.15443440594751 0 132.15443440594751 207.40703015039821 0 0 0 0 31.625079192688645 200.49032524446352 0 200.49032524446352 341.37656494725854 0 0 0 0 -47.370318711917207 -17.852576710178255 0 -17.852576710178255 -74.454691348846609 0 0 0 0 -7.612082377247134 62.722897536033997 0 62.722897536033997 284.30157399908001 0 0 0 0 112.88302248929358 148.2800955374604 0 148.2800955374604 83.69219754031559 0 0 0 0 57.316595985215827 96.735628551923611 0 96.735628551923611 81.122006259493901 0 0 0 0 65.989936991215473 176.03206448819188 0 176.03206448819188 -240.18906148022472 0 0 0 0 -42.351831638712611 113.77932484336671 0 113.77932484336671 85.315443652821742 0 0 0 0 16.924687569764501 209.06625735569281 0 209.06625735569281 -15.779162346742524 0 0 0 0 79.807419722492341 70.711966695308277 0 70.711966695308277 -188.28581702360071 0 0 0 0 73.71110061635045 112.65044688011511 0 112.65044688011511 -58.973951624320648 0 0 0 0 7.3245666414368316 88.181593343375482 0 88.181593343375482 171.53343765974759 0 0 0 0 3.1533619057045144 223.84936462562962 0 223.84936462562962 242.47625445115077 0 0 0 0 -20.448231062531704 -19.930948931832972 0 -19.930948931832972 -76.591974400726031 0 0 0 0 -7.7473246169780623 18.676933411622354 0 18.676933411622354 -17.894942322835607 0 0 0 0 -13.624189501529784 12.124269862373451 0 12.124269862373451 -14.038204139179372 0 0 0 0 34.440852105366503 43.672208792839911 0 43.672208792839911 52.93746895200502 0 0 0 0 117.26772561686812 -146.67521681437574 0 -146.67521681437574 -651.51672847378359 0 0 0 0 -69.341398968143039 249.89553662446269 0 249.89553662446269 245.5272539020516 0 0 0 0 16.854509151121377 33.044221965396225 0 33.044221965396225 2.4571912999126395 0 0 0 0 -448.57646312525503 166.64733331383832 0 166.64733331383832 1541.1870613047504 0 0 0 0 13.163094568403999 16.656088370973059 0 16.656088370973059 -6.6003047825979024 0 0 0 0 -215.8223710081802 450.64849648913514 0 450.64849648913514 508.25937300526493 0 0 0 0 -260.78295414466993 -1256.4438041217654 0 -1256.4438041217654 1508.1901346536833 0 0 0 0 14.748713763177701 33.744534806084211 0 33.744534806084211 18.144443884528521 0 0 0 0 32.648501537112679 7.7035769023825651 0 7.7035769023825651 -14.86081831577394 0 0 0 0 15.52414191281423 29.074595831041734 0 29.074595831041734 -3.9072505810438543 0 0 0 0 14.190891711165023 31.713679690709796 0 31.713679690709796 1.4935299772332655 0 0 0 0 12.564577631750659 23.875507768843036 0 23.875507768843036 -8.3563821276259453 0 0 0 0 316.04038844804018 85.007993703555258 0 85.007993703555258 -16.474755924352849 0 0 0 0 6.673529760003305 27.555697043519373 0 27.555697043519373 4.9830874836720636 0 0 0 0 -10.670892812122474 31.928075761472428 0 31.928075761472428 21.738978350684647 0 0 0 0 4.2851654869761262 4.6549838002267503 0 4.6549838002267503 0.3824857520440208 0 0 0 0 -218.96136513633974 -10.221704866715299 0 -10.221704866715299 255.1008966997797 0 0 0 0 -32.405474899278488 31.4057982461145 0 31.4057982461145 31.621804301389602 0 0 0 0 25.81380618102412 46.64944484697844 0 46.64944484697844 17.945374032334485 0 0 0 0 -17.650444388531469 -19.275948167616662 0 -19.275948167616662 255.29332089007221 0 0 0 0 213.99969395265362 47.652719695757696 0 47.652719695757696 5.886229098894546 0 0 0 0 -3.1016303596212822 3.0750861041165649 0 3.0750861041165649 2.4595069083357259 0 0 0 0 -8.8186444874672532 10.670489440309236 0 10.670489440309236 22.19894254596462 0 0 0 0 -15.875394148341002 11.682090777452686 0 11.682090777452686 55.416850813788187 0 0 0 0 319.44778887505527 270.14403676550683 0 270.14403676550683 203.5685360237112 0 0 0 0 -300.01837976578099 235.8390777937293 0 235.8390777937293 183.9392098703247 0 0 0 0 -9.915226556116286 -11.27779256273093 0 -11.27779256273093 4.9935123415868077 0 0 0 0 -25.046822224154901 -2.0701415851932206 0 -2.0701415851932206 46.826292859066371 0 0 0 0 88.099110540111724 35.032208009089572 0 35.032208009089572 72.268513158027417 0 0 0 0 -133.04264637571578 -43.252252497863083 0 -43.252252497863083 229.14033692883822 0 0 0 0 0.35723589346889639 107.07467099105861 0 107.07467099105861 139.9891522962314 0 0 0 0 -489.05864821188879 11.304190461270991 0 11.304190461270991 162.29210064818335 0 0 0 0 83.747776697211521 71.680513874235203 0 71.680513874235203 -57.014555779198417 0 0 0 0 32.745358183288772 175.15916593500606 0 175.15916593500606 -25.732805975333804 0 0 0 0 -21.63588189308939 202.95893958754777 0 202.95893958754777 193.81542703877312 0 0 0 0 39.051127549399098 133.46625144124118 0 133.46625144124118 124.95321299097077 0 0 0 0 354.17550911441867 -56.000257846172644 0 -56.000257846172644 -417.85805968219029 0 0 0 0 -31.659124875368434 147.55987819908296 0 147.55987819908296 452.19875093662722 0 0 0 0 -2.8550329361885574 1.5108366547480701 0 1.5108366547480701 -0.58535575883409052 0 0 0 0 10.064186254116066 48.890206065128041 0 48.890206065128041 291.11570397222567 0 0 0 0 -28.963918839417602 70.729564618007544 0 70.729564618007544 -10.702853637578301 0 0 0 0 -1.5244702058289761 3.3190565089826123 0 3.3190565089826123 13.755002650625308 0 0 0 0 -37.691028181012371 -28.514605847990424 0 -28.514605847990424 440.50423112037146 0 0 0 0 -54.158806798834121 74.753850008242694 0 74.753850008242694 9.9290897586665778 0 0 0 0 37.441555079149481 43.677863118576099 0 43.677863118576099 13.185373111925953 0 0 0 0 94.317026502038061 92.849060681204264 0 92.849060681204264 16.15079810399402 0 0 0 0 37.975755544910498 56.898013062693508 0 56.898013062693508 34.958926724696965 0 0 0 0 16.846923372766469 47.97830278705851 0 47.97830278705851 284.5355098996547 0 0 0 0 33.138612979772006 39.447554804713491 0 39.447554804713491 -26.571518735668178 0 0 0 0 -0.42173436366122985 5.8708720633246898 0 5.8708720633246898 14.034763259198975 0 0 0 0 -9.2254363128804968 10.90448683083736 0 10.90448683083736 0.24862839675159609 0 0 0 0 18.545774524100125 100.05526162468857 0 100.05526162468857 72.659986764248515 0 0 0 0 -14.977126124991628 30.846421247064995 0 30.846421247064995 34.287544803406035 0 0 0 0 60.689355202095612 57.242370516960307 0 57.242370516960307 43.38614351729484 0 0 0 0 -37.733319515254152 74.498295982601121 0 74.498295982601121 97.360628882526953 0 0 0 0 -42.834482162586937 53.18642803420471 0 53.18642803420471 155.18879147011705 0 0 0 0 4.1798268176135025 17.717347179108174 0 17.717347179108174 52.172558349904648 0 0 0 0 -43.570455946857692 97.749200429717575 0 97.749200429717575 28.44605291445248 0 0 0 0 -5.0161638184072217 51.163562502640843 0 51.163562502640843 -93.759434085404195 0 0 0 0 -1.3894208462697861 38.499770635358573 0 38.499770635358573 -94.943026699625079 0 0 0 0 -8.1374774821196212 4.0775289050635983 0 4.0775289050635983 -2.7315464650410846 0 0 0 0 9.1773683059855102 53.808113216157722 0 53.808113216157722 -126.40974105988789 0 0 0 0 -13.487275522176787 54.536404940795819 0 54.536404940795819 -60.259228692158331 0 0 0 0 5.1217519096021533 -5.6872457724062428 0 -5.6872457724062428 7.3390746011136798 0 0 0 0 -12.547486729512457 42.354408748067726 0 42.354408748067726 -67.510771276292303 0 0 0 0 -42.284094441900379 72.150978857586324 0 72.150978857586324 0.060893909544120106 0 0 0 0 5.527049495021096 10.417076126980337 0 10.417076126980337 -0.56331249762062452 0 0 0 0 20.223923784071303 25.385834912388646 0 25.385834912388646 -73.136314152992213 0 0 0 0 1.7682888447543519 17.412609320687011 0 17.412609320687011 2.2176287265701831 0 0 0 0 14.443239072432334 13.479421063783775 0 13.479421063783775 0.83363510987419431 0 0 0 0 10.994573786847468 10.910082585015743 0 10.910082585015743 -0.2414945059663296 0 0 0 0 -7.0051263833629491 20.676901624754748 0 20.676901624754748 17.460237790502106 0 0 0 0 3.5797206906924472 3.2366566956464311 0 3.2366566956464311 1.2394972343456641 0 0 0 0 0.75088382622395322 14.445360400184846 0 14.445360400184846 11.421566716709155 0 0 0 0 14.259781974320504 16.922134873623804 0 16.922134873623804 17.219725655085632 0 0 0 0 7.2044293426424701 18.644128982879124 0 18.644128982879124 2.711888794463448 0 0 0 0 10.170228346517646 13.090918400941145 0 13.090918400941145 3.2740742005883834 0 0 0 0 1.1279052293607936 18.837073659589713 0 18.837073659589713 13.597282414703749 0 0 0 0 6.478165964337677 20.239248130782471 0 20.239248130782471 6.7293571761081239 0 0 0 0 8.488775768508674 21.112901790094334 0 21.112901790094334 9.6018506728537272 0 0 0 0 23.725696707042516 27.822768646285112 0 27.822768646285112 -9.5626804764483495 0 0 0 0 -0.30082981149936927 18.123588723103957 0 18.123588723103957 -15.147202484033778 0 0 0 0 1.8448734671765123 45.174795252600234 0 45.174795252600234 36.301070809199246 0 0 0 0 30.886520582953381 14.349762597407562 0 14.349762597407562 -4.5286127701101577 0 0 0 0 16.61595802879674 24.685845723950024 0 24.685845723950024 -10.73027383394151 0 0 0 0 3.6815855385918681 13.809462966572163 0 13.809462966572163 -4.4157017349723224 0 0 0 0 36.756844841816928 17.896112550547286 0 17.896112550547286 -2.5733688645500479 0 0 0 0 10.721359369319543 11.424454514474405 0 11.424454514474405 -1.1993927155626807 0 0 0 0 11.057440956345154 13.151133211996616 0 13.151133211996616 1.2320942122000069 0 0 0 0 5.6542951303886184 12.862823019662915 0 12.862823019662915 2.0552041848510498 0 0 0 0 32.178185209661024 18.634679649270424 0 18.634679649270424 7.1177161919754326 0 0 0 0 1.3798350238480594 -1.3444149819889049 0 -1.3444149819889049 -7.4667308440064364 0 0 0 0 18.425185591414454 14.751240799686027 0 14.751240799686027 7.2341890529113639 0 0 0 0 4.3611133736054963 -1.2034727209890832 0 -1.2034727209890832 -2.6026812263988699 0 0 0 0 49.433185260731989 0.85657063970472791 0 0.85657063970472791 -54.857569355326632 0 0 0 0 -98.921294762763864 411.98155940461646 0 411.98155940461646 -625.37770981597077 0 0 0 0 15.116643647661476 -10.738560385916799 0 -10.738560385916799 -29.272408849712633 0 0 0 0 -280.80638730949704 245.7975092793053 0 245.7975092793053 -164.90104681568209 0 0 0 0 -119.78574749883774 80.608655531232159 0 80.608655531232159 -88.016824504594297 0 0 0 0 -1.5001777539579351 2.0685003257823293 0 2.0685003257823293 -1.7694609893524911 0 0 0 0 -46.71184177326063 57.380664532352895 0 57.380664532352895 -80.750828049948723 0 0 0 0 -42.061736771566302 72.570869058166096 0 72.570869058166096 -97.165551641652655 0 0 0 0 -39.803533966350187 119.58672406223859 0 119.58672406223859 -77.246898696539574 0 0 0 0 -0.9232213824293467 92.247004642790472 0 92.247004642790472 -131.33867829041856 0 0 0 0 -2.2133418963749136 90.496833479204497 0 90.496833479204497 -89.170503626642812 0 0 0 0 -11.658471958071459 110.33106058770454 0 110.33106058770454 -129.38899957679723 0 0 0 0 32.995302429832009 89.256409236998394 0 89.256409236998394 -226.32647575460464 0 0 0 0 31.374749831738882 91.066748789043345 0 91.066748789043345 -155.42350488206057 0 0 0 0 -3.5490043043919286 92.37648094184101 0 92.37648094184101 -91.554968790705288 0 0 0 0 10.944448611585692 23.320861797543657 0 23.320861797543657 10.37786479145805 0 0 0 0 26.177758771453227 82.326319038172073 0 82.326319038172073 -150.98364241287032 0 0 0 0 25.666253090434111 112.74524989581664 0 112.74524989581664 -233.14128375254074 0 0 0 0 -79.82184643108485 143.92804622314247 0 143.92804622314247 -134.68618610118074 0 0 0 0 28.502444258088872 57.411061967136447 0 57.411061967136447 -59.77099647266914 0 0 0 0 40.547466152400375 6.7108058383992102 0 6.7108058383992102 -21.005508194298272 0 0 0 0 -6.642532221651436 33.167354568623523 0 33.167354568623523 57.890783289480169 0 0 0 0 19.120126816168668 32.691349399675396 0 32.691349399675396 15.50876734887305 0 0 0 0 5.8803419529949679 42.05811165173418 0 42.05811165173418 42.922998790802012 0 0 0 0 18.321819375100219 27.734358647305655 0 27.734358647305655 14.017600383737321 0 0 0 0 -441.69227190485253 288.34685381549241 0 288.34685381549241 31.135138079135274 0 0 0 0 -277.76568348203728 996.44294496019484 0 996.44294496019484 -104.81922797292395 0 0 0 0 11.218749884412816 22.995610578423012 0 22.995610578423012 9.812987290304175 0 0 0 0 22.252808260777783 40.400695325671677 0 40.400695325671677 -12.969538049552284 0 0 0 0 550.08058486830123 -26.42944303535478 0 -26.42944303535478 -1139.3580033483395 0 0 0 0 -36.469424520326356 37.208841085554923 0 37.208841085554923 -134.76671059631462 0 0 0 0 10.301444791117319 32.941708900254525 0 32.941708900254525 9.1866515949473069 0 0 0 0 17.80567554072401 25.237062276984698 0 25.237062276984698 11.574589388765741 0 0 0 0 21.715312140344395 39.169987777893766 0 39.169987777893766 -9.9823589108709712 0 0 0 0 43.588127466975493 -15.418213393173502 0 -15.418213393173502 -98.864760850394362 0 0 0 0 22.648143490259827 14.225959656475737 0 14.225959656475737 -140.82844366260437 0 0 0 0 16.855045071049972 65.821834437377646 0 65.821834437377646 -131.64361471486518 0 0 0 0 4.1391235009859031 3.4383080931781507 0 3.4383080931781507 -7.6883048928829991 0 0 0 0 97.574144667312794 17.331547049283813 0 17.331547049283813 -329.21710617073904 0 0 0 0 20.452102512507281 38.181576467436344 0 38.181576467436344 -10.076218440102821 0 0 0 0 25.213084349452402 22.098176350700669 0 22.098176350700669 -9.0160804499391816 0 0 0 0 -56.412538696151387 14.076869596466736 0 14.076869596466736 -6.2266749726074408 0 0 0 0 34.142113147485361 41.314715493963377 0 41.314715493963377 -55.265801726533937 0 0 0 0 10.887397192427891 23.586460183255777 0 23.586460183255777 9.7925967446456745 0 0 0 0 14.479525718848013 13.656474228227747 0 13.656474228227747 -4.1261321828793314 0 0 0 0 -185.87595096678706 247.94180957811864 0 247.94180957811864 -179.4917003505027 0 0 0 0 2.1852534336449025 6.5239143346139485 0 6.5239143346139485 -169.08636525440284 0 0 0 0 56.142913135445269 -37.964673274307415 0 -37.964673274307415 -437.20722494051313 0 0 0 0 -5.3634720872032631 146.63404514926356 0 146.63404514926356 -163.92166311998733 0 0 0 0 -9.836595562279399 43.251441197856821 0 43.251441197856821 32.454482169934636 0 0 0 0 4.875246523898813 6.4133945457263728 0 6.4133945457263728 -10.571793672038126 0 0 0 0 19.122785857752692 33.93950621556484 0 33.93950621556484 17.77700585162955 0 0 0 0 68.775524187716655 59.332291670725681 0 59.332291670725681 -66.543802823594888 0 0 0 0 -5.7871237567132994 -1.6208040936148791 0 -1.6208040936148791 64.801471695360306 0 0 0 0 26.97140804071023 61.374199177316768 0 61.374199177316768 -78.971281597048801 0 0 0 0 -22.118046338542626 119.17644508254489 0 119.17644508254489 -72.390361305748229 0 0 0 0 48.279196552964095 16.657290483999532 0 16.657290483999532 -45.740658485403401 0 0 0 0 2.4725955888065272 21.943337013027168 0 21.943337013027168 13.489264901200816 0 0 0 0 4.5418784856256025 35.277174522008863 0 35.277174522008863 -31.937300919449626 0 0 0 0 49.537718614973528 -1.4873422671989829 0 -1.4873422671989829 -24.599225888159708 0 0 0 0 13.252791945018441 19.028409363389812 0 19.028409363389812 3.2153163852342743 0 0 0 0 13.560280154481312 22.421648237078664 0 22.421648237078664 7.5423453284669328 0 0 0 0 -28.66924517886946 18.673817982635228 0 18.673817982635228 -67.976018177541846 0 0 0 0 3.9290332970631425 41.745829120103735 0 41.745829120103735 -8.5225940903019364 0 0 0 0 4.0532577683261479 23.223916050061234 0 23.223916050061234 -8.530068543539528 0 0 0 0 6.8873896752079418 41.057622942187095 0 41.057622942187095 -10.555507752473204 0 0 0 0 25.117774195642596 26.863007598286003 0 26.863007598286003 -66.733954759227345 0 0 0 0 28.611231097027485 9.9321412432364014 0 9.9321412432364014 -7.3332427082059439 0 0 0 0 13.259470214599787 37.422443300765735 0 37.422443300765735 -21.599607430145625 0 0 0 0 15.137291738803469 10.953831120479663 0 10.953831120479663 6.3494907942313148 0 0 0 0 -0.50947377022896845 -0.45694981845124261 0 -0.45694981845124261 -1.7015575383255523 0 0 0 0 16.707554205796441 11.183287172512792 0 11.183287172512792 1.3785171390245523 0 0 0 0 22.358109217253514 19.26608749895604 0 19.26608749895604 -10.118525241567113 0 0 0 0 14.958692591095314 -15.579282837825303 0 -15.579282837825303 -104.94029120611958 0 0 0 0 -0.90925390001999062 4.0989149094924713 0 4.0989149094924713 9.6248290962684848 0 0 0 0 18.442112369987257 14.842481983098441 0 14.842481983098441 -2.9506955865511308 0 0 0 0 25.484014158073478 35.570478415396792 0 35.570478415396792 29.012927846168168 0 0 0 0 75.776910962992588 72.153858884164947 0 72.153858884164947 54.493075184505869 0 0 0 0 77.451106435107249 74.658613703284573 0 74.658613703284573 36.302964401205827 0 0 0 0 25.846295560198996 19.22345262732415 0 19.22345262732415 1.6791743581898118 0 0 0 0 -0.18629696928299033 0.22528405557343234 0 0.22528405557343234 0.32718135537379567 0 0 0 0 22.789252391379705 16.187900281296606 0 16.187900281296606 48.154419728874927 0 0 0 0 16.172343140061912 26.328991763777594 0 26.328991763777594 22.407117522750923 0 0 0 0 27.674790915072663 4.2761448457313236 0 4.2761448457313236 35.074832135320321 0 0 0 0 18.277777552465523 46.361355984934562 0 46.361355984934562 143.14953296619569 0 0 0 0 -11.352783142412591 108.77134181489237 0 108.77134181489237 76.85009850429924 0 0 0 0 -11.884867812877928 101.27617375782575 0 101.27617375782575 257.29188933794831 0 0 0 0 156.09817214457053 -17.211716660556704 0 -17.211716660556704 -18.06920765682753 0 0 0 0 30.770201218318107 -45.375277684713183 0 -45.375277684713183 214.32910816148069 0 0 0 0 27.32314121266586 169.49517991834909 0 169.49517991834909 185.77467241043632 0 0 0 0 -4.8412382326114312 -36.677452982816249 0 -36.677452982816249 271.42147773225224 0 0 0 0 0.23858526120989509 1.8835059992623613 0 1.8835059992623613 1.1553294535757885 0 0 0 0 -1.0261073158415073 0.6913052132829236 0 0.6913052132829236 0.41456141349841857 0 0 0 0 150.19087617439618 80.688838653812127 0 80.688838653812127 40.609822571677796 0 0 0 0 -27.933172025823296 64.2203142773933 0 64.2203142773933 -118.22538492237072 0 0 0 0 -22.04470422602617 31.491726668548836 0 31.491726668548836 -16.632261117723829 0 0 0 0 -73.748799448545 59.635852698722744 0 59.635852698722744 5.5322064142383169 0 0 0 0 -74.2263797387306 36.453971309380137 0 36.453971309380137 -9.7869571147930401 0 0 0 0 -0.21042363331434899 153.0429914572851 0 153.0429914572851 12.925900852120321 0 0 0 0 0.56303448843499737 0.59219822812489653 0 0.59219822812489653 0.26003789604742167 0 0 0 0 52.421815357197829 45.775408140738364 0 45.775408140738364 -10.031963840570825 0 0 0 0 9.5986316292346601 202.55783763813815 0 202.55783763813815 131.33825818180776 0 0 0 0 66.565637528528896 133.40454420573224 0 133.40454420573224 -66.443192629900295 0 0 0 0 68.082649944197328 120.4149502634391 0 120.4149502634391 35.02736219389044 0 0 0 0 47.529448670562488 109.53634482645066 0 109.53634482645066 61.499464889333467 0 0 0 0 59.098335899623635 83.587310131882987 0 83.587310131882987 15.373168411340885 0 0 0 0 49.669953555075153 76.879363705884316 0 76.879363705884316 53.378469992523605 0 0 0 0 32.245760619494831 88.86965252520622 0 88.86965252520622 50.35797873861884 0 0 0 0 50.151509986932069 83.953786532008962 0 83.953786532008962 22.798223929162305 0 0 0 0 47.021740619676279 96.965910036954483 0 96.965910036954483 53.842670711434039 0 0 0 0 98.432780097569776 97.829596431100072 0 97.829596431100072 36.172031920341396 0 0 0 0 64.969765329925394 97.552521121715472 0 97.552521121715472 41.080678690239438 0 0 0 0 188.12379783582509 121.31376203008085 0 121.31376203008085 29.91244360597193 0 0 0 0 98.323877695871488 96.47453122767547 0 96.47453122767547 26.267487464978331 0 0 0 0 93.490251613669898 72.403145945529104 0 72.403145945529104 35.856476088909403 0 0 0 0 91.994174459234273 94.294197216775501 0 94.294197216775501 32.903344327933155 0 0 0 0 49.93682404176559 90.082519057047875 0 90.082519057047875 42.59195000147156 0 0 0 0 6.2916140626784909 40.74120634979954 0 40.74120634979954 74.45632679339451 0 0 0 0 -7.3973050917161345 33.706742211509209 0 33.706742211509209 71.230291618951014 0 0 0 0 -5.4820877061417939 15.28798222967886 0 15.28798222967886 17.080300677989271 0 0 0 0 8.0679948638432322 1.8672415742663802 0 1.8672415742663802 4.1876958803055722 0 0 0 0 21.315125516586704 32.467082247325379 0 32.467082247325379 -13.574720558877289 0 0 0 0 7.408264090145849 42.733733178422881 0 42.733733178422881 65.936523457403382 0 0 0 0 9.2354382694420565 48.736463228753564 0 48.736463228753564 60.176748300287727 0 0 0 0 16.506553238280098 35.38418745589712 0 35.38418745589712 21.820900002578711 0 0 0 0 5.7972171870023885 50.429996093742375 0 50.429996093742375 71.485648971549381 0 0 0 0 10.759563297657223 61.689682241016271 0 61.689682241016271 -4.1946902750432855 0 0 0 0 6.4253344151338752 56.557890231937563 0 56.557890231937563 -48.850062993487882 0 0 0 0 -3.9814322929024684 89.229476379426615 0 89.229476379426615 90.755715604540455 0 0 0 0 -19.472841332309144 16.295285820320714 0 16.295285820320714 102.14837661978891 0 0 0 0 -2.0750384061884688 20.488107632501851 0 20.488107632501851 93.572203581734584 0 0 0 0 -3.839029134730481 6.1203386033157585 0 6.1203386033157585 0.38634971513420169 0 0 0 0 -2.7590479344247321 3.5291563409667361 0 3.5291563409667361 -0.10702506771049869 0 0 0 0 1.8377790553969149 2.1380043129584756 0 2.1380043129584756 1.1043392940908063 0 0 0 0 -2.7846360587568597 4.351861868081869 0 4.351861868081869 3.2825910719075182 0 0 0 0 4.1426241677186226 9.1025594831626222 0 9.1025594831626222 3.1295843344159948 0 0 0 0 -3.713265512747018 5.5812182681380307 0 5.5812182681380307 -1.0740669293708862 0 0 0 0 -4.9516208852382508 2.7858847625530103 0 2.7858847625530103 5.2323926866539097 0 0 0 0 66.675928225366988 80.955188838851427 0 80.955188838851427 39.532988528713759 0 0 0 0 34.979081227428651 73.733281345696923 0 73.733281345696923 125.91407480043563 0 0 0 0 -17.37372475662778 138.55941700821131 0 138.55941700821131 -10.421878714370905 0 0 0 0 50.867546213518835 72.48305939382044 0 72.48305939382044 45.021123809001438 0 0 0 0 -22.086259760144799 19.864331912385524 0 19.864331912385524 16.735338764905464 0 0 0 0 -0.97286713261760838 0.79427313849195968 0 0.79427313849195968 0.18575780698061806 0 0 0 0 44.67062506657021 77.980175138221966 0 77.980175138221966 41.815312857972458 0 0 0 0 -2.4242899866093666 1.8555953212482095 0 1.8555953212482095 -6.5240430529546103 0 0 0 0 -18.826571045731725 22.891817968396936 0 22.891817968396936 53.741674229284399 0 0 0 0 33.395256851461454 24.746575336692331 0 24.746575336692331 101.22217803370586 0 0 0 0 -2.5920877909448024 0.92058833691454112 0 0.92058833691454112 -1.6426142353903117 0 0 0 0 120.99203907677111 70.224877315999038 0 70.224877315999038 -23.354813908918004 0 0 0 0 56.116168868724344 0.83061501942938776 0 0.83061501942938776 117.75484892797613 0 0 0 0 80.760881399915888 45.592547456832108 0 45.592547456832108 66.973516822410602 0 0 0 0 15.32957651227116 18.433441246040275 0 18.433441246040275 -40.173465333653439 0 0 0 0 2.0029967118073841 -1.7430499905184931 0 -1.7430499905184931 0.39213874757661316 0 0 0 0 47.042930174948197 3.4818320495105581 0 3.4818320495105581 -58.9249520409453 0 0 0 0 -74.471416624484846 371.8151710802158 0 371.8151710802158 359.17824179585659 0 0 0 0 157.58459720062956 111.65259257059188 0 111.65259257059188 -117.31596866702967 0 0 0 0 113.40468486688042 113.25419286407714 0 113.25419286407714 -48.835670877449957 0 0 0 0 7.044092135705796 87.322690756215081 0 87.322690756215081 131.4734267961212 0 0 0 0 53.298868301603996 49.768845695022684 0 49.768845695022684 11.996779225424195 0 0 0 0 26.054027269179642 73.464256709988149 0 73.464256709988149 76.707346566319302 0 0 0 0 39.766780677077257 49.787837704476992 0 49.787837704476992 30.071361883584792 0 0 0 0 8.3207484635022411 85.099542495171818 0 85.099542495171818 68.79601500571539 0 0 0 0 54.25777206030034 67.643789228886817 0 67.643789228886817 42.022582389977742 0 0 0 0 36.298929340220639 65.924916048666091 0 65.924916048666091 42.913778662541517 0 0 0 0 91.882184974216216 113.84971132554529 0 113.84971132554529 -48.042393867887313 0 0 0 0 178.23253988516808 120.94028229326068 0 120.94028229326068 -89.522195612547492 0 0 0 0 83.540090447699185 149.18698715802975 0 149.18698715802975 110.04977325330492 0 0 0 0 26.311111947172321 -2.6881118491101006 0 -2.6881118491101006 -95.509231270028792 0 0 0 0 27.511398961435169 29.882127472440395 0 29.882127472440395 -13.682537471424229 0 0 0 0 5.1733292297966074 34.216897390630606 0 34.216897390630606 36.471395098435494 0 0 0 0 52.505061402815045 52.87002012697485 0 52.87002012697485 31.736102756549371 0 0 0 0 90.392818238731707 71.664263465077966 0 71.664263465077966 30.288312480333843 0 0 0 0 112.43418031709371 -106.74400449390851 0 -106.74400449390851 258.82631515242247 0 0 0 0 7.8373955064774279 13.946661222702499 0 13.946661222702499 -3.8824004334607025 0 0 0 0 5.4085676288413822 12.599128632602536 0 12.599128632602536 6.4170680909165299 0 0 0 0 34.475316014718906 38.395307498826753 0 38.395307498826753 -5.0503570412381649 0 0 0 0 52.013667545376222 46.507219571661196 0 46.507219571661196 21.278950492219003 0 0 0 0 56.422340566501589 64.590295321838767 0 64.590295321838767 29.605058400447888 0 0 0 0 77.486352304052161 66.596152254524895 0 66.596152254524895 0.26007604024198372 0 0 0 0 77.480205407291578 72.792539767851849 0 72.792539767851849 14.930436563518015 0 0 0 0 43.780821694765109 61.299406467649533 0 61.299406467649533 14.076846622770972 0 0 0 0 28.149819570538966 76.523207241527416 0 76.523207241527416 81.861331928528671 0 0 0 0 81.899142096667674 74.86740326182553 0 74.86740326182553 12.519217161530833 0 0 0 0 85.34775754695147 56.56104086358755 0 56.56104086358755 30.03211721632033 0 0 0 0 161.06921795215203 82.528301509639277 0 82.528301509639277 2.6287198616628302 0 0 0 0 137.53894755501096 85.82839558897831 0 85.82839558897831 18.353298613939842 0 0 0 0 145.773584227838 50.289453186524042 0 50.289453186524042 10.586057217566122 0 0 0 0 93.582215623100637 62.357090137814339 0 62.357090137814339 21.829359298062627 0 0 0 0 49.902118334312036 64.349160003937868 0 64.349160003937868 25.001934435731528 0 0 0 0 93.34365583733188 64.712643801613922 0 64.712643801613922 4.2329691881677718 0 0 0 0 19.704215319632567 63.094436645355017 0 63.094436645355017 11.064904282484349 0 0 0 0 48.463996250013224 69.591205236047244 0 69.591205236047244 6.3116429104320559 0 0 0 0 24.506455571252445 63.434634022554746 0 63.434634022554746 -11.394219224013796 0 0 0 0 -22.193042755885472 27.712313410274874 0 27.712313410274874 -15.075909852348559 0 0 0 0 18.473663479418974 55.854982860950258 0 55.854982860950258 -0.57739559091351111 0 0 0 0 13.58603462129031 42.779701048913921 0 42.779701048913921 41.761917191091925 0 0 0 0 6.0043293546532368 56.010625597467879 0 56.010625597467879 31.476102726497629 0 0 0 0 9.648465723083973 64.741121963427759 0 64.741121963427759 24.636580952013901 0 0 0 0 44.351618737688113 58.088148508832091 0 58.088148508832091 25.900691948578242 0 0 0 0 29.388680160867807 58.350943778048531 0 58.350943778048531 10.859599053888815 0 0 0 0 20.861648024456372 75.314817816526556 0 75.314817816526556 32.809934833975149 0 0 0 0 22.059237206070975 70.713789219342289 0 70.713789219342289 32.198039374699874 0 0 0 0 82.064171542788245 89.545016030988336 0 89.545016030988336 27.014685106689285 0 0 0 0 26.515645489194867 81.87401631607645 0 81.87401631607645 39.000839412386995 0 0 0 0 84.282757050004875 72.141741698735132 0 72.141741698735132 42.570047049564891 0 0 0 0 193.13458050834743 4.9970438808777544 0 4.9970438808777544 53.803702364202763 0 0 0 0 7.4020168863318077 10.117461166495008 0 10.117461166495008 1.144721384983086 0 0 0 0 96.57857097856413 57.624364993038398 0 57.624364993038398 -39.278806842339691 0 0 0 0 114.91187139859358 83.322685634238951 0 83.322685634238951 -9.949162621582218 0 0 0 0 33.93450573297693 46.312214002291583 0 46.312214002291583 26.356422637289892 0 0 0 0 26.89318989831736 100.41334995415991 0 100.41334995415991 -8.5911349119287479 0 0 0 0 -197.58397233692813 96.478489737124619 0 96.478489737124619 -8.5798491234428731 0 0 0 0 -57.048123025237146 -100.70423633244809 0 -100.70423633244809 196.34891670055413 0 0 0 0 10.224950553269114 14.648103143999819 0 14.648103143999819 9.408728638779202 0 0 0 0 233.99978390796969 -44.011731856924598 0 -44.011731856924598 -17.452519466200101 0 0 0 0 393.46171397732178 156.6428447798362 0 156.6428447798362 -541.06511148678965 0 0 0 0 0.60713511164935774 -2.0392147973777526 0 -2.0392147973777526 0.98073748601654387 0 0 0 0 -285.4841363788255 54.469859711603021 0 54.469859711603021 141.20241835455272 0 0 0 0 250.31241876726199 106.59325730383443 0 106.59325730383443 -5.1054761437735579 0 0 0 0 -111.96523539266491 329.44413446771705 0 329.44413446771705 -687.50535054752072 0 0 0 0 132.52226575915483 -50.323298697588598 0 -50.323298697588598 -1061.7650954050587 0 0 0 0 34.738218628015602 44.674554217339391 0 44.674554217339391 25.259480706674367 0 0 0 0 80.147320956682961 65.073043534754106 0 65.073043534754106 -22.626105602210373 0 0 0 0 43.94452117828429 42.825952228426935 0 42.825952228426935 19.075778371609211 0 0 0 0 64.516472567669098 67.407443250244796 0 67.407443250244796 16.44264743644635 0 0 0 0 47.73954281690385 60.323434398275822 0 60.323434398275822 38.66667090750343 0 0 0 0 119.46727803823887 39.918593406211585 0 39.918593406211585 21.602977986248561 0 0 0 0 65.67057849180128 64.246891888154096 0 64.246891888154096 51.604617604486975 0 0 0 0 64.367036447500141 85.685430680355694 0 85.685430680355694 57.435568063739993 0 0 0 0 29.61097295592117 57.951818649206871 0 57.951818649206871 63.537600915411531 0 0 0 0 28.794119604182924 54.729806590426278 0 54.729806590426278 46.363541257998804 0 0 0 0 29.354924986284459 55.181154462166887 0 55.181154462166887 46.60737820875238 0 0 0 0 39.29352294698765 50.626677797948105 0 50.626677797948105 41.375843551930302 0 0 0 0 67.67873211013648 48.609162288326843 0 48.609162288326843 40.010477280249688 0 0 0 0 23.555974411050556 22.347878287838284 0 22.347878287838284 39.040336783364182 0 0 0 0 21.901957005749864 50.551196912861997 0 50.551196912861997 57.382434943652697 0 0 0 0 -10.463447126534447 60.433372148259878 0 60.433372148259878 54.669434436818847 0 0 0 0 28.880009498167055 85.769941237700777 0 85.769941237700777 50.095351444202606 0 0 0 0 102.05534404961691 149.70609060793049 0 149.70609060793049 32.039096667032936 0 0 0 0 33.775263609417379 140.11135764517121 0 140.11135764517121 11.778124859903983 0 0 0 0 2.3505885790655157 68.730835175724678 0 68.730835175724678 40.484986803436186 0 0 0 0 -12.754841478345043 83.725164338506147 0 83.725164338506147 50.119854823695519 0 0 0 0 -86.005862976031494 97.151174481400631 0 97.151174481400631 32.013666148003267 0 0 0 0 -7.4271185889556364 94.579238496134622 0 94.579238496134622 21.833809258492693 0 0 0 0 -25.383553193569242 149.54533949871939 0 149.54533949871939 -113.33335807227013 0 0 0 0 -2.6158015241302905 0.69348822070950433 0 0.69348822070950433 0.78027193723727351 0 0 0 0 -59.451846515970828 33.007783848192958 0 33.007783848192958 37.991404957925624 0 0 0 0 57.626496962788224 -52.113314997255884 0 -52.113314997255884 -75.349385879349938 0 0 0 0 -3.3686775301426053 4.3948131977422307 0 4.3948131977422307 -2.8076076309550793 0 0 0 0 -239.98084657125582 110.04815012543713 0 110.04815012543713 916.21561566769208 0 0 0 0 -148.80115691001993 538.06962450062656 0 538.06962450062656 962.8896518734964 0 0 0 0 12.810612793742621 188.90864022704591 0 188.90864022704591 175.96145867662381 0 0 0 0 -12.378532384631399 252.56944398288033 0 252.56944398288033 345.16782761399554 0 0 0 0 3.0924708841885149 479.69630043434336 0 479.69630043434336 229.05990448481498 0 0 0 0 35.968108076565841 133.56908646822285 0 133.56908646822285 28.611926636594262 0 0 0 0 101.18922996631045 224.25623744157883 0 224.25623744157883 75.628693202294016 0 0 0 0 33.476214932279618 148.12163323478671 0 148.12163323478671 -123.77418203287107 0 0 0 0 64.668055844524133 143.21018552734608 0 143.21018552734608 -149.92797710171908 0 0 0 0 36.780041521913517 78.408868818976771 0 78.408868818976771 30.498378646918354 0 0 0 0 105.87835971740424 167.38808814901131 0 167.38808814901131 -289.72988350292826 0 0 0 0 1.5367634325739346 62.280459806067938 0 62.280459806067938 167.61174264928741 0 0 0 0 -253.04837367596338 341.20776258346632 0 341.20776258346632 -170.46368458088568 0 0 0 0 -75.831248114847767 92.868026691791556 0 92.868026691791556 -149.40904205839342 0 0 0 0 23.923892765116761 170.4668225236619 0 170.4668225236619 -144.95590858671414 0 0 0 0 -22.13920317737211 155.97219826995934 0 155.97219826995934 -123.69947935043331 0 0 0 0 46.375545136875189 140.31917407853746 0 140.31917407853746 -229.24767106518811 0 0 0 0 68.47690087736737 90.654572982926084 0 90.654572982926084 -233.90348190551686 0 0 0 0 61.211576817138848 132.80817480431938 0 132.80817480431938 -334.15677248857537 0 0 0 0 -33.709899324519938 -21.692897024399826 0 -21.692897024399826 -37.839435846635752 0 0 0 0 1.6821061415291112 -3.6680187858459163 0 -3.6680187858459163 -18.965920378856055 0 0 0 0 31.177422947185732 52.13916995447687 0 52.13916995447687 -133.90766547873591 0 0 0 0 -17.582447214139393 53.878839245792733 0 53.878839245792733 -122.63485401256867 0 0 0 0 -463.67648581298272 273.09408354287052 0 273.09408354287052 -94.178244316384962 0 0 0 0 -235.75982967862365 78.123341351755244 0 78.123341351755244 57.027658975735449 0 0 0 0 -14.552810604742263 98.195935521144293 0 98.195935521144293 -123.61537181586823 0 0 0 0 75.064502632340009 174.6251519309003 0 174.6251519309003 -221.71581972365232 0 0 0 0 -235.8302827550433 238.6934133100558 0 238.6934133100558 -202.36001807548473 0 0 0 0 -257.12527940710424 490.30628157689853 0 490.30628157689853 -515.44632541011015 0 0 0 0 278.29646924912959 -148.12018507416497 0 -148.12018507416497 -214.58609076683069 0 0 0 0 252.15952254410695 182.96745276935013 0 182.96745276935013 -829.17724333314845 0 0 0 0 -1.4854052702559173 2.4201639521176048 0 2.4201639521176048 -3.7522182164526487 0 0 0 0 60.892135003992735 -142.47336404334783 0 -142.47336404334783 -599.42261420649538 0 0 0 0 -0.23072070836978753 0.87986898108187894 0 0.87986898108187894 -0.38047414103044863 0 0 0 0 -686.50392169630504 164.57689963557277 0 164.57689963557277 -657.20627961410355 0 0 0 0 7.6709737190067244 302.53549062248067 0 302.53549062248067 -240.9640570657366 0 0 0 0 127.92716779539478 153.63031168958446 0 153.63031168958446 -322.61357280398443 0 0 0 0 127.26375424221624 15.792125164789013 0 15.792125164789013 -192.59175949059727 0 0 0 0 103.63212292142452 12.487337106767313 0 12.487337106767313 -76.764993969183706 0 0 0 0 114.80557933863747 65.381242222361607 0 65.381242222361607 -69.227209478348414 0 0 0 0 96.321681508045003 41.2088166538324 0 41.2088166538324 -36.732683064672528 0 0 0 0 87.884043933794601 61.824240299914891 0 61.824240299914891 -20.860900147732991 0 0 0 0 168.13965560435472 -27.54016544010798 0 -27.54016544010798 -23.290646801263392 0 0 0 0 168.11810984106705 44.739770037684366 0 44.739770037684366 -55.372973041756723 0 0 0 0 161.01939004122687 -24.73383587197668 0 -24.73383587197668 -18.813181328232076 0 0 0 0 178.46911437840754 11.779701089236369 0 11.779701089236369 -23.277066734730852 0 0 0 0 151.4941309811984 75.661327548432837 0 75.661327548432837 -19.4392993094948 0 0 0 0 128.43340032167544 20.091457579646431 0 20.091457579646431 -70.454122726625883 0 0 0 0 142.06159902504442 47.358118620084269 0 47.358118620084269 -112.31121376481269 0 0 0 0 112.59453626658978 82.809013598352692 0 82.809013598352692 -88.507847714651234 0 0 0 0 141.97937529977935 110.64889017121277 0 110.64889017121277 -204.30914215318398 0 0 0 0 54.708954492525663 45.199534025146363 0 45.199534025146363 -35.118201500475152 0 0 0 0 70.793380462353525 26.404250985973249 0 26.404250985973249 -33.034616462783447 0 0 0 0 67.260122530073204 34.18583179263976 0 34.18583179263976 -49.775525225345973 0 0 0 0 105.90379949623457 18.673983584254984 0 18.673983584254984 -51.900017080448379 0 0 0 0 114.81031305249053 5.095632709768779 0 5.095632709768779 -34.23787275616337 0 0 0 0 39.442767138629279 15.360241059030159 0 15.360241059030159 -4.6409846535807446 0 0 0 0 44.662015972542576 9.2316074007295583 0 9.2316074007295583 -1.3251617694572815 0 0 0 0 33.068127087819448 7.2999400082287593 0 7.2999400082287593 11.472650029363081 0 0 0 0 32.005262006343401 3.1032623379901452 0 3.1032623379901452 -2.8284885152272636 0 0 0 0 66.2546550400657 -25.616038505226925 0 -25.616038505226925 16.39311209747575 0 0 0 0 63.958294802236196 -15.371491260388666 0 -15.371491260388666 19.141335529212142 0 0 0 0 135.06452413713851 6.2973672631328554 0 6.2973672631328554 -57.396721123458292 0 0 0 0 70.866933214929304 4.7522263040884809 0 4.7522263040884809 -24.851837905796401 0 0 0 0 112.39531762406841 -32.831682565035635 0 -32.831682565035635 6.0969902741990154 0 0 0 0 108.41263792602695 -38.285683581725607 0 -38.285683581725607 7.296597512747212 0 0 0 0 147.39015404856036 -76.007830944480247 0 -76.007830944480247 40.022459378722488 0 0 0 0 -740.21189261967083 -164.96825174154492 0 -164.96825174154492 -298.69624927720361 0 0 0 0 -240.31976399283667 171.09299980665924 0 171.09299980665924 -902.739039637102 0 0 0 0 125.92967285494524 -96.748648308449901 0 -96.748648308449901 126.81807791395931 0 0 0 0 70.313829891558271 -43.301345964184748 0 -43.301345964184748 76.796873892017629 0 0 0 0 58.007066701327858 -14.029601916403863 0 -14.029601916403863 49.087301821147321 0 0 0 0 -1233.7082871957973 604.96665933241798 0 604.96665933241798 87.546783378751115 0 0 0 0 19.855869055212679 508.0384559045176 0 508.0384559045176 -530.2171240619889 0 0 0 0 3.4346673998571262 6.4427840514572523 0 6.4427840514572523 2.1261339030910937 0 0 0 0 169.67541106902354 -64.381082409929718 0 -64.381082409929718 -333.30170312399747 0 0 0 0 10.147052940184366 5.57699928914219 0 5.57699928914219 2.6381923197554134 0 0 0 0 183.3380528286325 98.060899405031478 0 98.060899405031478 -365.44627242946171 0 0 0 0 195.33446687099786 122.66506083966601 0 122.66506083966601 -571.821322160205 0 0 0 0 218.84888970384782 -101.96120033607161 0 -101.96120033607161 -582.51013701270813 0 0 0 0 1.6935712537851941 48.963874420669072 0 48.963874420669072 110.79674977828563 0 0 0 0 -10.421748998710605 17.629258850246863 0 17.629258850246863 41.521909725085706 0 0 0 0 12.782002681138692 45.394200349607672 0 45.394200349607672 29.906948568874213 0 0 0 0 0.87663359952966857 5.2287878505636627 0 5.2287878505636627 282.61269205427834 0 0 0 0 -1.4409482941628085 45.090424526526476 0 45.090424526526476 114.82521845912515 0 0 0 0 -5.8585128702965932 7.2439773538338059 0 7.2439773538338059 6.9803416448181075 0 0 0 0 -1.6285086966017843 23.619992366882798 0 23.619992366882798 156.97810605058203 0 0 0 0 56.800980283529498 173.50737243464982 0 173.50737243464982 252.79930808635163 0 0 0 0 102.08032735769302 117.19631008714953 0 117.19631008714953 125.04417766098322 0 0 0 0 -0.70868765079160312 0.85689778433499431 0 0.85689778433499431 0.19231327314195079 0 0 0 0 814.39463850716129 368.99343911048527 0 368.99343911048527 -880.89994746909474 0 0 0 0 -35.339962999278214 93.092509801201913 0 93.092509801201913 553.61783506510392 0 0 0 0 -21.432923657033825 555.18911110855061 0 555.18911110855061 -409.83340859453392 0 0 0 0 -91.409872108105446 174.91560613148152 0 174.91560613148152 -79.778474823213401 0 0 0 0 145.7751861495417 295.46623065884023 0 295.46623065884023 323.89592554149931 0 0 0 0 1.1602243656646536 10.48954863737648 0 10.48954863737648 -12.823287017729035 0 0 0 0 2.9354234209683128 4.3922015952395839 0 4.3922015952395839 -1.1169101120627936 0 0 0 0 85.490344208024908 4.2095136140615068 0 4.2095136140615068 -38.920706361543125 0 0 0 0 33.33480511203561 30.104115848897322 0 30.104115848897322 112.81918811618925 0 0 0 0 61.577876536794065 67.593274169703363 0 67.593274169703363 39.389630217923695 0 0 0 0 30.023031938093482 79.083828268000616 0 79.083828268000616 -40.847342861879952 0 0 0 0 269.61975981774867 -28.06910389502923 0 -28.06910389502923 4.4407809995427669 0 0 0 0 109.61399184785841 100.18450092530566 0 100.18450092530566 -63.746438651012113 0 0 0 0 38.821158478913276 69.569762014464914 0 69.569762014464914 14.390277316797437 0 0 0 0 74.184671905990399 71.157914696525495 0 71.157914696525495 -49.205907159450817 0 0 0 0 -2.430420919484213 4.5236767489575982 0 4.5236767489575982 -10.863993037465439 0 0 0 0 62.344121285990695 54.77452453748333 0 54.77452453748333 -2.8496137588263082 0 0 0 0 68.573295332669659 56.662650825499213 0 56.662650825499213 12.764382812986696 0 0 0 0 77.194573689957906 49.590347728860252 0 49.590347728860252 -9.6560453541956122 0 0 0 0 118.83815548121856 55.159659377783328 0 55.159659377783328 0.44913437835293735 0 0 0 0 98.733328809124941 80.118644081967432 0 80.118644081967432 -7.1060502571317556 0 0 0 0 2.6309033935310282 1.129564471831344 0 1.129564471831344 -0.12584937738996516 0 0 0 0 401.65195119842247 -264.99192248400459 0 -264.99192248400459 113.6341920922182 0 0 0 0 259.76006473452435 2.3874644758725481 0 2.3874644758725481 -5.0606012623416063 0 0 0 0 279.5207312348648 -90.944479541305554 0 -90.944479541305554 15.258231991304001 0 0 0 0 254.91923144796601 35.974492863356772 0 35.974492863356772 -31.523856794506173 0 0 0 0 631.38035120908171 -19.307572554863327 0 -19.307572554863327 -168.89223616143499 0 0 0 0 433.82671154223499 307.30259263755443 0 307.30259263755443 -275.90233188109823 0 0 0 0 114.01462222863483 80.561150595070103 0 80.561150595070103 -5.439772828900459 0 0 0 0 236.55823066728044 115.01692888719617 0 115.01692888719617 -23.25909612412579 0 0 0 0 
</DataArray>
<DataArray type="Float64" Name="cross_section_updated" format="ascii">
1 1 1 1 1 0.0091397866862665336 1 1 0.0112180275514446 1 1 1 1 0.010015209966233063 1 1 0.0098242440192146292 1 1 1 1 1 1 1 0.0088663847767332486 1 1 1 1 1 1 1 1 0.0097461619524906694 0.0077784239343204609 0.0088775443772927242 1 1 1 1 1 1 0.0092534015865714924 1 1 1 1 1 1 1 1 1 1 1 1 1 1 0.0068721322651163486 1 1 1 1 1 1 1 1 1 1 0.0088180172933919471 1 1 1 1 1 0.012055330048918714 1 1 0.010047159397155869 0.011226156640420665 1 0.0081468280562555506 1 1 1 1 1 1 1 1 1 1 0.010943391088483601 1 1 1 1 0.010313444666834572 1 1 1 1 1 0.010593210523929556 1 1 1 1 1 1 1 1 0.0078396094932931103 1 0.011672690301164699 1 1 1 1 0.010131255181864661 1 1 0.010023561458866993 1 1 0.0098418649810421508 1 0.0091990956153156778 1 1 0.010008169971951839 1 1 0.0093843448980624224 1 1 1 1 1 1 1 0.010032435766455133 1 0.010080660606176656 1 1 1 0.0098042388560967697 1 1 1 0.0099446273502003003 1 1 1 1 1 1 1 1 0.0097710649034541113 1 1 1 0.010407565917558368 1 1 1 1 1 1 1 1 1 1 0.0095472476172123837 0.011519683006412131 1 0.0071457935409398217 1 0.010565538895453712 1 1 1 1 1 1 1 1 0.010114527396124605 1 1 1 1 1 1 1 1 1 1 1 1 1 0.010071202458396936 1 1 1 0.010026821596229188 1 0.0099551442117797734 1 1 0.010006070040559353 1 1 1 1 0.0084893062575387302 1 1 1 0.0077292544463077734 1 0.010336875289046536 1 0.0078952111341624217 1 1 0.006370194550277479 1 1 1 1 1 1 1 1 1 0.010023873032405794 1 1 1 1 1 0.013852868698815681 1 1 1 0.012821820556399329 1 1 0.0090871711889315455 1 1 1 1 1 1 1 1 1 0.010014123578864779 1 1 1 0.0055688518809282744 1 1 1 1 0.0054906076817487952 0.0096956423632585456 1 1 1 1 0.0086077784618599686 1 0.0076262048177739112 1 1 1 1 0.010808041349679654 1 1 0.0069506112942274061 1 1 0.0099642107561002322 1 1 1 0.0098376936304595888 1 0.008657118559820931 0.00695632602943332 0.0070485555745710294 0.0091426926803029641 1 1 1 1 1 1 1 1 0.0095448670195075972 1 0.0099429965312948215 1 0.0086637704473322592 1 0.010255149807052125 1 1 1 1 0.0089624463509395107 0.0092962831870432548 0.010478444160292267 1 1 0.0075536631929302312 1 1 1 0.0095891716074044311 0.0082670216801351941 1 1 0.0065204385383143505 1 1 1 0.0099727692516438995 1 1 1 1 1 1 1 1 1 0.005447870908719718 1 1 1 0.0064163260764371847 0.0095748034991915837 0.0098503202873908742 1 1 1 1 1 1 1 1 0.010058292179783337 1 1 1 1 1 1 1 1 1 1 1 1 1 1 1 1 1 1 1 1 1 1 1 1 1 1 1 1 1 1 1 1 1 1 1 1 1 1 1 1 1 0.0097525844960467175 1 1 1 1 1 1 1 1 1 1 1 1 1 1 1 1 1 1 1 1 0.010683030717555515 1 0.010051305533800792 1 1 1 1 1 1 1 1 1 0.011918227172292996 0.013002182217160718 1 1 1 1 1 0.0090512277554454634 1 0.0099810671065311725 0.0099323699818205866 1 0.01142497848015692 1 1 1 1 1 1 1 1 1 1 1 0.01058329952001404 1 1 1 1 1 1 1 1 1 0.011656668845483361 1 1 1 1 1 1 1 1 1 0.010070500519865652 1 1 1 1 1 1 0.012605008254595557 1 1 1 1 1 0.01046986374015209 1 1 1 0.010239968777421575 1 0.0097400110046225782 1 0.0098284163379307749 1 0.0096216008411578527 0.010176467605928096 1 1 1 0.01000421606413936 1 1 1 1 1 1 1 1 1 1 1 1 1 1 0.010280289810150136 1 1 1 1 1 1 0.010266429565257765 1 1 1 0.010450552869315004 1 1 1 1 1 1 1 1 1 1 1 0.010217466319106938 1 1 1 0.010422111665435158 1 1 0.0099799688971115002 1 1 1 0.0093241180293646281 1 1 1 0.0088305340950041045 0.0097035218497688938 1 1 1 1 1 1 1 1 1 1 1 1 1 1 1 1 1 1 1 1 0.0089527293469344911 1 1 1 1 1 0.0088385293746354402 1 1 0.0090128979942272324 0.012046121011457089 1 0.0091710820340745978 1 0.010010129945082356 1 1 0.0088335141650648652 1 1 1 1 1 1 0.0099338885836670401 1 1 0.0099764944783267712 1 1 0.0096054737534581984 1 1 1 1 0.0098374718109886638 1 1 1 0.0089102095929692697 1 0.0098610503795738061 1 0.010057413978414002 1 1 1 0.0099450252480519918 1 1 1 0.0099025367037134625 1 1 1 1 1 1 1 1 1 1 1 1 1 1 1 1 1 1 1 1 1 0.009598426558880227 1 1 1 1 0.0098813890999149764 1 1 1 1 1 0.0099475005162479417 1 1 1 0.0091553568343676305 1 1 1 1 1 1 1 1 1 0.0099500305835414412 1 0.0099166738972318834 1 1 1 0.009421969717914945 1 1 0.0099377556667301515 1 1 0.0095569302754874002 1 1 1 1 1 1 1 1 1 1 1 0.0089442264714346287 1 1 1 1 1 0.010131760784308533 1 1 1 1 0.010054552813806475 1 1 1 1 0.0086286820688171208 1 1 1 0.008563711480308326 1 0.0089821207916514906 1 1 1 1 1 1 1 0.0099375382812774797 1 1 1 1 1 1 1 1 1 1 1 1 1 1 1 1 1 1 1 1 1 1 1 1 1 1 1 1 1 1 1 1 1 1 1 1 1 1 1 1 1 1 1 1 1 1 1 1 1 1 1 0.010564108778072522 1 1 1 1 1 1 1 0.0099539692405710943 1 1 1 1 1 1 1 0.011470038458026837 1 1 1 0.0089744867484203936 1 0.0099942491041093776 1 0.011416553628698776 1 0.011526829828906775 1 0.0088036529856622536 1 1 0.0085092136705748785 1 1 1 1 1 1 1 1 0.0094504845370197363 1 1 1 1 1 1 1 1 1 1 1 1 1 1 1 1 0.010085857049302704 1 1 1 1 1 1 1 1 1 1 1 1 1 1 1 1 1 0.010100859103894709 1 1 1 1 1 1 1 1 1 0.010029704454420234 1 0.0099709666079396374 1 0.010009994538137888 1 1 1 1 1 1 1 0.0095669068898356878 1 1 0.010022396710065587 1 1 1 0.0089801461394506555 1 1 1 1 1 1 1 0.010338455320859051 1 1 1 1 0.010255577341972473 1 1 1 0.0099758303861157624 1 1 1 1 0.010145884042079436 1 1 1 1 1 1 1 1 1 1 1 1 1 1 1 1 1 1 1 1 1 1 1 1 1 1 1 0.010232420115336318 1 1 1 1 0.010388478140405964 1 1 1 1 1 1 0.010077786145705654 1 1 1 0.0099478273580336767 1 1 0.0099656130327668152 1 1 0.0099141864800603979 1 1 1 1 0.0099573176630733621 1 1 1 1 1 1 1 1 1 1 1 1 1 0.0099485734472935742 1 1 1 1 1 1 1 1 1 1 1 1 1 1 1 1 1 1 1 0.0098876961843194534 1 1 0.0098495014735081703 1 1 1 0.010134397789768226 1 1 0.0097971709105226408 1 0.010023889980058862 1 1 1 1 1 1 1 0.0099308880334122891 1 1 1 1 1 1 0.0082958526876835501 1 1 1 1 1 1 1 1 1 1 1 0.0081635531202167329 0.010037102214509597 1 1 1 0.0078783923743965638 1 1 1 1 1 1 0.0098103317755790891 1 1 1 0.0099058685823335477 1 1 1 1 1 1 1 0.010065463731061122 1 1 1 1 1 1 1 1 1 1 1 1 1 0.0083884640877334091 1 1 1 1 1 1 1 1 1 1 1 1 1 1 1 1 1 1 1 1 1 1 1 1 1 1 1 0.010310105350517519 1 0.0082764022669810644 1 1 1 1 1 1 0.00755021756012785 1 1 1 1 0.010584643718791309 0.0099976563718020359 1 0.010119308291951727 1 0.010042846526156156 1 1 1 1 1 1 1 1 1 1 1 1 0.0086066714768698559 1 1 1 1 0.011493326550574248 1 1 0.012347583930174981 1 1 1 1 1 0.010000420111748568 0.0084465235901868638 1 1 1 0.0099999372048733305 1 1 1 0.0082447184346606979 1 1 1 1 1 1 1 1 0.0098853656393111354 1 1 1 1 1 1 1 0.0085099075026767185 1 0.0085992576233456172 1 1 0.014413516396654388 1 1 1 1 1 1 1 1 1 1 0.013533414565140579 1 1 0.012522653901900486 1 1 1 1 0.011767147032168589 1 1 1 1 1 1 1 1 1 1 1 1 1 1 0.014966097608298232 1 1 0.010688459238559741 1 1 1 1 1 1 1 1 1 1 1 1 1 1 0.0085488062148949204 1 1 1 1 1 0.0098945597579284585 1 1 1 1 1 1 1 1 1 1 1 0.0099511550251569179 1 1 1 1 1 1 0.01005659526722846 1 1 1 1 1 1 1 1 1 1 1 1 1 0.010728330229960985 1 1 1 1 1 1 1 1 0.0097933228543644994 1 1 1 1 1 1 1 1 1 0.012421455904751617 1 1 1 1 1 1 1 1 1 1 1 1 1 1 1 1 1 1 0.0095130676614450949 1 0.0097197448070805957 1 1 1 1 1 1 1 1 1 0.010762252460224751 1 1 1 1 1 0.012195918994861813 1 1 1 1 1 1 1 1 1 1 0.01049798057424609 1 1 1 1 0.0099300330498278792 1 0.01355725780954219 1 1 1 1 1 1 1 1 1 1 1 1 1 1 1 1 1 1 1 1 1 1 1 1 1 1 1 1 1 1 1 1 1 1 1 1 1 1 1 1 1 0.010493604937257863 1 1 0.0099082122650793331 1 1 1 1 1 1 1 1 1 1 1 1 1 1 0.0091719213071256994 1 1 0.0097255098443552023 1 1 1 1 1 0.0099057909144491269 1 1 1 0.010056754435901937 1 1 1 1 1 1 1 1 1 1 0.0096456008680676376 1 0.0094929259585885706 1 1 1 1 1 1 1 1 1 1 1 1 1 1 0.0098892590015086483 1 1 1 1 1 1 1 1 1 1 0.010088551623246612 1 0.010708582427368664 1 1 1 0.010025191792961444 1 1 1 1 0.010050304866012728 1 1 1 1 1 1 1 0.010069179995602853 1 1 1 1 1 1 1 1 1 1 1 1 1 1 1 1 1 1 1 1 1 1 1 1 1 1 0.010654774937329341 1 0.010472929797598373 1 1 1 1 0.01022154639120274 1 1 1 1 0.010458070397798338 1 0.01017431547641511 1 1 1 1 0.01076176063325855 1 1 1 0.0058344288915228 1 1 1 0.008407430015922578 1 1 0.0082449598208591806 1 1 0.011160607923765354 1 0.010026958126194953 0.010564337331948224 1 1 1 1 1 1 1 1 0.0071405233718868444 1 0.0068519669503156969 1 1 0.0087715476041748588 1 1 1 1 1 1 1 1 0.010013125566320695 1 0.0099888214616804857 0.0079055896070940757 1 1 0.007789781067821514 1 1 0.011976646089864625 1 1 1 1 1 0.011649138618486911 1 1 0.011336245661906651 1 1 1 1 0.010000364618869084 1 1 1 1 1 1 1 1 1 1 1 1 1 0.0091670617380547898 0.0095971988231475375 1 1 1 1 1 1 1 1 1 1 0.0097786049339529859 1 1 0.012061772339204276 1 1 0.010952640354531178 1 1 1 0.010373242870900745 1 1 1 1 1 1 1 1 1 1 1 1 1 1 1 1 1 1 0.0099814251161550425 1 1 1 1 1 1 1 1 0.0099241793369071272 1 1 0.010257014679011835 1 1 1 1 1 0.010202971974485987 1 1 1 1 1 0.0076612593744024588 1 1 1 0.014877963317737178 1 1 1 1 1 0.0086839597893162319 1 1 1 0.010160290219403035 0.0099983912587745562 1 0.010027552014543934 1 1 1 1 0.009037502774603726 0.010012498471308423 1 1 1 1 1 1 1 1 1 1 1 1 1 1 1 1 1 1 1 1 0.008673566351071171 1 1 1 1 1 1 0.014662497743378257 1 1 1 1 1 1 1 1 1 1 0.014497963106339697 1 1 1 1 1 1 1 1 1 1 1 1 1 1 1 1 1 1 1 1 1 1 1 1 1 1 1 1 1 1 1 1 1 1 1 1 1 1 1 1 1 1 1 1 1 1 1 1 1 1 0.010053883864901338 1 0.0057964804758076933 1 1 1 1 1 0.014648689276398008 1 0.01003021403649605 1 1 1 1 1 0.0047851794054284223 0.007705700917687343 1 1 1 0.0098289392356350706 0.012387854211624584 1 0.0060207661804219286 0.0096053301556597633 0.0099065711920969524 1 1 1 1 1 1 1 1 1 1 1 1 1 1 1 1 1 1 1 1 1 1 1 1 0.0053726038623361921 1 0.0066297528015358863 1 1 1 1 0.0053019890753053748 1 1 1 0.011582724438100744 1 1 1 1 1 1 1 0.0087978618819530771 1 1 1 1 1 1 1 1 0.0095229153201086252 1 1 0.0065678827431348025 1 1 1 1 1 1 1 0.010318289982080411 1 0.0077974366362490392 1 1 1 0.010054917799219434 1 1 1 1 1 1 1 1 1 0.0099771483643019462 1 1 1 1 0.0094345683816498879 1 1 0.009563302860995878 1 1 0.003362410679612321 1 1 0.0052418500457415071 1 1 1 1 0.010067865817219645 1 1 0.010335858432331207 0.012306835329969899 1 1 1 1 1 0.010774688201697477 1 1 1 1 1 1 1 1 1 1 1 1 1 1 1 1 1 0.0096134562119242779 1 1 1 1 1 1 1 -4.7704895589362195e-18 1 1 1 0.013817643731350438 1 0.010275947579872557 1 1 1 0.012181960375872177 1 0.0014205469896551395 1 1 1 0.011216038513897013 0.012059020838376532 1 1 1 1 1 1 1 0.010790170923455628 1 0.011680283306093667 1 1 1 0.0045546409986705685 1 1 1 0.012399925012692497 1 0.0099190672796163129 1 1 1 1 1 1 1 1 1 0.0097954313474805637 1 1 1 1 1 1 1 1 1 1 1 1 1 1 1 1 1 1 1 1 0.0096883425596383677 1 1 1 1 1 1 1 1 1 1 1 1 1 1 1 1 0.0098481222875769318 1 1 1 0.010219413428446809 0.009997678952614825 1 1 1 0.011107026114848664 0.0096556096906615461 1 1 1 0.010199873624686251 1 1 1 1 0.0098984830279637698 1 0.010859321420683984 1 1 0.00997883595892066 1 1 0.011973090547709989 1 1 1 1 1 1 1 1 1 1 1 1 1 1 1 1 0.010010936869160011 1 0.0092319209163912227 1 1 1 1 1 1 1 0.010008208504814736 0.0091696951345314817 0.012017317423099487 1 0.0084628849952697732 1 0.010354706099366187 1 1 1 0.0089337950772566902 1 1 1 1 0.013494149832851233 1 1 1 0.009647297208795395 1 1 1 1 1 1 1 0.0098804532850829893 1 1 1 1 1 1 1 1 1 1 0.0051524776853798353 1 1 1 1 1 1 1 1 1 1 1 0.0089314241496338716 1 1 1 1 1 1 1 1 1 1 1 1 0.0070465656870006693 1 1 1 1 1 1 1 1 1 1 1 1 1 1 1 0.0098950861232785878 1 1 1 1 1 0.013002305818664357 1 1 1 1 0.0099807205398777816 1 1 0.0069903053850524019 1 0.0064520390368168227 1 1 1 1 1 1 0.0059312606623020117 0.0083655408017978203 0.0057327492806090582 1 1 1 1 1 1 1 1 1 0.009826530522915421 1 1 1 0.0076520686592094775 1 0.010049206651057215 0.010074338390975296 1 1 0.010068083953599621 1 1 1 1 1 1 1 1 1 1 1 1 1 1 1 1 1 1 1 1 1 1 0.0093664093391527901 1 1 1 1 1 1 1 1 1 1 1 1 1 1 1 1 0.009948051876148941 0.010750742387602527 0.0070845180908171738 1 1 1 1 1 1 0.0043856035389674237 0.012176754337385961 1 1 1 1 1 1 1 1 1 1 1 1 1 1 1 1 1 1 1 1 1 0.010025701579497615 1 1 1 1 1 0.0024537758229256842 1 1 1 1 0.0072872929508928166 0.004904145376887172 1 1 1 1 1 1 1 1 0.0013471405083028652 1 1 1 1 0.010000833799295653 1 1 1 1 1 0.0085026121753149567 0.0030682826583063047 0.011285704588775975 1 1 1 1 1 1 1 1 1 1 0.0053205906745029509 1 1 1 1 1 1 1 0.0085485705021483491 1 1 1 1 1 1 1 1 1 0.0082638596187880348 1 1 1 1 1 1 1 1 1 1 1 1 1 1 1 1 1 1 1 1 1 1 1 1 0.010058995709024979 0.010125179713317618 1 1 0.010037138923254502 1 1 1 1 0.010058490422564742 1 0.010013234068708646 1 1 1 1 1 0.010033111786610094 1 1 1 1 0.010011760287299849 1 1 1 1 1 1 1 1 1 1 1 1 1 1 1 1 1 0.010083585767172894 1 1 1 1 1 1 1 1 0.010183639151051686 1 1 1 1 1 1 1 1 1 1 1 1 1 1 1 1 0.011005249030496832 1 1 1 1 1 1 0.011430860451800459 1 1 1 1 1 1 0.01181188119627332 1 0.010258434219882479 1 1 1 1 1 1 1 1 1 1 1 1 1 0.01004636733021652 1 1 1 1 1 1 1 1 1 1 1 1 1 1 1 1 1 1 1 1 1 1 1 1 1 1 1 1 1 1 1 1 0.010123604232359388 1 1 1 1 1 1 1 1 1 1 1 1 1 1 1 1 1 1 1 1 1 1 1 1 1 1 1 1 1 1 1 1 1 1 1 1 1 1 1 0.010057420228066747 1 1 1 0.01005299191031171 1 1 1 1 1 1 1 1 1 1 1 1 1 1 1 1 1 1 1 1 1 1 0.010026129176546252 1 1 1 1 1 1 1 1 0.0099863748157391422 1 1 1 0.0098503906986659104 1 1 1 1 1 1 1 1 1 1 1 1 1 1 1 1 1 1 1 1 1 1 1 1 1 1 1 1 1 0.0097362501652292054 1 1 1 1 1 1 1 1 0.0098858594665632935 1 1 1 1 1 1 1 1 1 0.010363290277389279 1 1 1 1 0.010669276433707499 1 1 1 1 1 1 0.010235429487679613 1 1 1 0.009981672609367824 1 1 1 0.0095977806356747353 1 1 1 1 1 0.010383783314486431 1 1 1 1 1 0.010308849392975057 1 1 1 0.010323041139951359 1 1 0.0092638860743413706 1 1 1 1 1 1 1 1 1 0.010000175147753398 0.010063752211697828 0.01015591313020065 0.0098942593250948545 0.010347097217906807 1 1 1 1 1 1 1 1 1 1 1 1 1 1 1 1 1 1 1 1 1 1 1 0.010018420389067743 1 0.0095297028934182293 1 1 0.0096547481790635256 0.0096892874228260793 0.010694562961190075 1 1 1 0.0099793253389464705 1 0.009484993804864162 1 1 1 1 0.0098996384119338209 1 1 1 0.0099674985001899086 1 1 0.0099993138067620002 1 1 1 1 1 1 1 1 0.010581475359833835 1 1 1 1 0.010239081421052862 0.0089572896889759581 1 1 1 1 0.00871105333600025 1 1 1 1 1 1 0.010042290178232022 1 1 1 0.010124122041313483 1 1 1 1 1 1 1 0.0092311459986304037 1 1 1 1 1 1 1 1 1 1 0.0099963427689904877 1 1 1 1 1 1 1 1 1 1 1 1 1 0.0092539256038505976 1 1 1 1 1 1 1 1 1 0.010001878529829075 1 1 1 1 1 1 1 1 0.0096271352325251296 1 1 1 1 1 0.010066732760817361 1 1 0.010119018837595056 1 1 0.0099005411149148542 1 1 1 1 1 1 1 1 1 1 1 1 1 1 1 0.010001886989610553 1 1 1 1 1 1 1 0.0099396884381005163 1 1 1 1 1 1 1 1 1 1 0.0097316633254173265 0.010636521840401172 1 1 0.010081346378422713 1 1 0.010041542338562141 1 1 1 1 1 0.010282531244712532 1 0.0091628214809456338 1 1 1 1 1 1 0.010036143238162466 0.0099138043692639927 1 0.010786527661415145 1 1 1 1 0.010236497691623409 1 1 1 1 1 1 1 0.01030983894527264 1 1 1 1 1 1 0.0093687108940685056 1 1 1 1 1 1 1 1 1 1 1 1 1 1 1 1 1 1 1 1 1 1 1 0.010572382039796113 1 1 1 0.011067010344121192 1 0.010751053189605422 1 1 1 1 1 1 1 1 1 1 1 1 1 1 1 1 1 1 0.011305357067611269 1 1 0.0087521526004042758 0.010564970086956357 1 1 1 1 1 1 1 1 1 1 1 1 1 1 1 1 0.00953858268056639 1 1 1 1 0.0096749913102730199 1 1 1 1 1 1 1 1 1 1 1 1 1 0.010099945063425573 1 1 1 1 1 1 1 1 1 1 1 1 1 1 1 1 1 1 1 1 0.0096743362768492575 1 1 1 1 1 0.010469404482457052 1 1 1 0.010177843871177159 1 1 1 1 1 1 1 1 1 1 1 1 1 1 1 1 1 0.009864141225871547 1 1 1 1 1 1 1 1 1 1 1 1 1 1 1 1 1 1 1 1 1 1 1 1 1 1 1 1 1 1 0.0097158449973565666 1 1 1 0.010402691597244013 1 1 1 1 1 1 1 1 1 1 1 1 1 1 1 1 1 1 1 1 1 1 1 1 1 1 1 1 1 1 1 1 1 1 1 1 1 1 1 1 1 1 1 1 1 1 1 1 1 1 1 1 1 1 1 1 1 1 1 1 1 1 1 1 1 1 1 1 1 1 1 1 1 1 1 1 1 1 1 1 0.010036746646456799 1 1 1 1 1 1 1 1 1 1 1 1 1 1 1 0.0062470402432725797 1 1 1 1 1 1 1 0.0053247743815001414 1 1 1 1 0.0085351743614786105 1 0.013477072996622456 0.010775479445313728 1 1 0.0099315567609791905 1 1 1 1 1 1 1 1 1 1 1 1 1 1 1 1 1 1 1 1 1 0.013096419713569927 1 1 1 1 1 1 1 1 0.013867195950217834 1 1 0.0099423227693249509 1 1 1 1 1 0.0084938312785374434 1 1 1 1 0.0095806886620657863 1 1 1 1 1 0.0098984744571805946 1 0.008784795356442561 1 1 1 1 1 1 1 1 1 1 1 1 1 1 1 1 1 1 1 1 1 0.0098871740885407549 1 0.0097211606223901702 0.0084323166971711667 1 1 1 1 0.010040381057628098 1 0.0099386323785723273 1 1 1 1 0.012064220741035187 1 1 0.0079381360775028133 0.010439638667700942 1 0.010255268096121945 0.010001369358922454 1 1 1 1 1 1 1 0.0092743541914719081 1 1 1 1 1 0.0088171363862515808 1 1 1 0.0095093036580114546 1 1 1 1 1 1 1 1 1 1 1 1 1 1 1 1 1 1 1 1 1 1 1 1 1 1 1 0.0098050152549960853 1 1 1 0.0064502033676346378 1 1 0.0099997318679532349 1 0.0095486807605617511 1 1 1 1 1 1 1 1 1 1 0.0060183718192402362 1 1 1 1 0.0095908655532716373 1 1 1 1 0.0098899334708307599 1 1 1 1 1 0.0098658809637263093 1 0.010020552478792074 1 1 1 1 1 1 1 1 1 1 1 1 1 1 1 1 1 0.0096374334278837362 1 1 1 1 1 1 1 1 1 1 1 1 1 1 0.010153715901385562 1 1 1 1 1 1 0.0098634861924477724 1 1 1 1 1 1 1 1 1 1 1 1 1 1 1 1 1 1 1 1 0.010716801123758574 1 1 1 1 1 1 1 1 1 1 1 1 1 1 1 1 1 1 0.0098210232158724778 1 1 1 1 1 0.0096224971465084935 1 1 0.0098008330251379023 1 1 1 0.010898690574727886 1 1 1 1 1 1 1 1 1 1 1 0.0092869053746042381 1 1 1 0.012428065818865698 1 1 0.00972152972164342 1 1 0.013598806630969025 1 0.011488413714105007 0.0092947413377655625 1 1 1 0.0080848893954642738 1 1 1 1 1 1 1 1 1 1 1 0.0099294970120373544 1 1 1 1 1 1 0.012218859444774771 1 1 1 0.015841826754623974 1 1 1 1 1 1 1 1 1 1 1 1 1 1 1 1 1 1 1 1 1 1 1 0.010549448249925666 1 1 1 1 1 1 1 1 1 1 1 1 1 1 1 1 1 1 1 1 1 1 1 1 1 1 1 1 1 1 1 1 1 1 1 1 1 0.009749225754745636 1 1 1 0.010280821428516213 1 1 1 1 1 1 1 1 1 1 1 1 1 1 1 1 1 1 1 1 1 1 1 1 1 1 1 1 1 1 1 1 1 1 0.0099036107391563873 1 1 1 1 1 1 0.01015115981344405 1 1 1 1 0.0098179785473074006 1 0.0104291282088262 1 1 1 1 1 0.0092892544073783119 1 1 1 0.011158123608247585 1 1 1 1 1 1 0.0090936965852565013 0.012821781269766491 1 1 1 1 0.01013804458168879 1 1 1 1 0.0099649317038914293 1 1 1 0.0099694016849454104 1 1 1 1 1 0.010406738456443358 1 0.009948996664183694 1 1 0.013450491813516994 1 0.012263068981164221 1 1 1 1 0.011724158543398571 1 1 0.010464268207901337 1 0.011405671666435675 1 0.012652123911103581 1 1 0.01301914925872168 1 0.013278977450346605 1 1 1 1 1 1 0.010416796262745415 1 1 1 1 1 0.0091887436199578273 1 0.010153762060024395 1 1 1 1 1 0.0078690025607653404 1 0.010380314516343877 1 1 1 0.0099016992544260548 1 0.0099374040670419349 1 1 1 1 1 1 1 1 1 1 1 1 1 1 1 1 0.010046470409312586 1 0.008522800908018496 1 1 0.012083733308330033 1 1 1 0.009136025907973442 0.012836199524926479 1 1 0.009040450407083336 0.016067244233146406 0.0098483964759948726 1 1 1 1 0.012141811389083041 1 1 1 1 1 1 1 1 1 1 1 1 1 1 1 1 1 1 1 1 1 1 1 0.010013025933980003 1 1 1 0.0089357768319887412 1 0.012119399498324988 0.013332405295968863 1 1 0.0093529314327906801 1 0.0097166684829261066 1 1 0.0097818517436826635 1 1 1 1 1 1 1 0.018273973894768557 1 1 0.02017461635737839 1 1 1 1 1 1 1 1 0.010813122152442067 1 1 1 1 1 1 1 1 1 1 1 1 1 0.010105378264637418 1 1 1 1 1 1 1 1 1 1 1 1 1 1 1 1 1 0.0099065021721856505 1 1 1 1 0.0098252035802683674 1 1 1 0.0099783831922645415 0.010260622358885953 1 1 1 1 1 1 1 1 1 1 1 1 0.0099833824370732412 1 1 1 1 1 1 0.009824301927410059 1 1 1 1 1 0.0095069442804480899 1 1 1 1 1 0.0099998439679779821 1 1 0.0092033330271827085 1 1 0.010984741775790834 1 1 1 1 0.010378753972768127 1 1 1 1 1 1 1 1 1 1 1 1 1 1 1 1 1 0.011529251581300581 1 1 1 1 1 0.0098349885578118672 1 1 1 1 1 1 0.0099757124210489035 1 1 1 1 1 1 0.010792688433698508 1 0.011008711038427823 1 1 1 0.010588691791604227 0.010818013809329691 1 1 1 1 1 0.010094767593679594 1 1 1 1 1 1 1 1 1 1 1 0.010516565548181932 0.010527216586874468 1 1 1 1 1 0.009824534612942833 1 0.0099993876575413167 0.0099242202962305653 1 0.010102044194024789 1 1 1 1 1 0.010103917446696403 0.0097724858136382878 0.010314069727139774 1 1 1 0.0097423497205922985 0.010222482972797946 0.010125936925226724 1 1 0.0096725864477558154 1 0.009730233945266677 1 0.0098775055094876621 1 1 0.0099727730273423826 1 1 1 1 0.01025590189277231 0.0099999173984680785 0.0099614264338617337 1 0.0099073491773279676 1 1 1 1 1 1 1 1 1 1 1 1 1 1 0.0099417794639874591 1 1 1 1 1 1 1 0.0097134368392686066 1 1 0.0094386292181421732 0.0095453384508854665 1 1 1 0.0098747056549537988 0.0095177759029156581 1 0.009312456800900825 1 1 1 1 1 1 1 0.011153511839827926 1 1 1 0.0091409598726917285 1 0.0094684087663277454 1 0.010490417744081982 1 0.010440893340830905 1 1 0.0097291356040490641 1 1 1 1 1 0.011662446793121974 1 0.0090320583933821922 1 1 1 0.0058802738941497925 0.0099899474890752585 1 1 1 1 1 1 1 1 1 1 0.0099699890682274951 1 1 1 0.011889494817411988 1 1 0.0086426683193605129 1 1 1 1 1 1 0.0099825986698750188 1 1 1 1 0.010202915809566226 1 1 1 1 1 1 1 1 1 1 1 1 0.0097096510094691509 1 0.010785565112470122 1 0.009850629992251194 1 0.010900818292813499 0.0096695878752337417 1 1 1 1 1 1 0.010699250941188775 0.0096464136317134363 0.010310077817475281 1 1 0.01010253444635429 1 0.011923430392996422 1 1 1 0.009940595491504934 1 0.0083489650494898322 0.011078135749811702 0.0093191061571522051 1 0.009023291744006675 0.0083743574747448552 0.011215346805234064 1 1 0.0099984031180994151 0.011107495605292606 1 1 1 1 1 0.0072963918951689122 1 1 1 1 1 1 1 1 1 1 1 1 1 1 0.0099963455916694862 1 1 0.0098016903666392156 1 0.0083023215954515176 0.0097612403948312033 1 1 0.0099482769783747187 1 1 0.010226351866855141 1 0.0084429443190359946 1 0.0090414040926419074 0.0095606299457721838 1 1 1 0.0083647355195713164 1 1 0.0091321425624189562 0.0088801111729380142 0.0084629766144576034 1 1 0.010149571383226943 1 1 1 1 1 1 0.010056398548731287 1 1 1 1 1 1 1 1 1 1 1 0.01001393584669793 1 1 1 1 0.0085748749700313136 0.0095638254412965234 1 1 0.0080958427738004584 0.0099989354781984622 1 1 0.0081734721975561895 1 0.0085443422400153027 1 1 1 1 1 1 0.0090822066778275239 1 0.0095863176616901424 1 1 1 1 1 1 1 0.0087769065981034098 1 1 1 1 1 1 1 1 1 0.0086822481037017174 1 1 1 1 1 0.0097008337122413569 1 1 1 1 1 0.0077969300931757489 1 1 0.0096152172625663824 1 1 1 1 1 1 1 1 0.0088695151478245526 1 1 1 1 1 1 0.010350493002521267 1 1 1 1 1 0.0085299265045943404 1 0.0099826450743440466 1 1 1 0.0078407363643002628 0.011788286000769754 0.0068401201711740505 1 1 0.0091372619932095899 1 0.01200497923613968 1 1 1 1 0.007868352421704871 1 1 1 1 1 1 1 1 1 1 0.0079734640862774431 1 1 1 1 0.0088546244459581404 1 1 1 1 0.0080483126836520726 1 0.010132266563559311 1 1 1 0.010276386581515353 1 1 1 1 1 1 1 1 1 1 1 1 1 1 1 0.0099216166476579926 1 1 1 1 1 1 1 0.010087332901009743 1 1 1 1 1 1 1 1 1 1 1 1 1 1 1 1 0.009752020694264155 0.0084002713546903179 1 1 1 0.0099971543036070157 1 1 1 0.012550166693735985 0.0091955104507655192 1 1 1 1 1 1 1 1 1 1 1 1 1 1 1 1 1 1 1 1 1 1 0.010152309822263412 1 1 1 1 1 0.0097366468674202015 1 1 1 1 1 1 1 1 0.010447828184296225 0.010452214378353928 1 1 0.010191358127935866 1 1 1 1 1 1 1 1 1 1 1 1 1 1 1 1 1 1 1 1 1 1 1 1 1 1 1 1 1 1 1 1 1 1 1 0.012447847320341605 1 1 1 1 1 1 1 1 1 1 1 1 0.010607146936625882 1 1 1 1 1 1 1 1 1 1 0.010490844038214443 1 1 1 1 1 1 1 1 1 1 1 1 1 1 1 1 1 1 1 1 1 1 1 1 1 1 1 1 1 1 1 1 1 1 1 1 1 1 1 1 1 1 1 1 1 1 1 1 1 1 1 1 1 1 1 1 1 1 1 1 1 1 1 1 0.011261990445140785 1 0.011186755130963911 1 1 1 1 0.010001944931959338 1 1 1 1 1 0.01004744821379026 1 1 1 1 1 1 1 0.0109121374825644 1 1 1 1 0.0096063405086952644 1 1 0.010337410004458937 1 0.010085130908841583 1 1 1 1 1 1 1 1 0.0099597499826222652 1 1 1 1 1 1 1 1 1 1 1 1 0.010145331626867857 1 0.013205104675082888 1 1 0.01138553009674074 0.011418075050325643 1 1 1 0.012538061151947352 1 1 0.0095272861368577138 0.010016770912389171 1 1 0.0098076416235961007 1 1 1 1 1 1 1 0.0090824068884482051 1 1 1 0.0099892324439843864 1 1 1 1 1 1 1 0.0095411978945525062 1 0.012135764543214253 1 1 1 0.011100216588485031 1 1 1 1 0.010382669571534768 1 1 1 1 1 1 1 1 1 1 1 1 1 1 1 1 1 1 1 1 1 1 1 1 1 0.0099751507417174413 1 1 1 1 1 1 1 1 1 1 0.009942109516461798 1 1 1 1 1 1 1 1 1 0.009926526735447333 1 1 1 1 1 1 1 1 1 1 1 1 1 1 1 1 1 1 1 1 1 1 1 1 1 1 1 1 1 1 1 1 1 1 1 1 1 1 1 1 1 1 0.0098766754731550097 1 1 1 1 1 1 1 1 1 1 1 1 1 1 1 1 1 1 1 0.0099220778453628141 1 1 1 1 1 0.0099595679607029711 1 1 1 1 1 1 1 1 1 1 1 1 1 0.009857209894945488 1 1 1 1 1 1 1 1 1 1 1 1 1 1 1 1 1 1 1 1 1 1 1 1 1 1 1 0.0062116239825350406 1 1 1 1 1 1 1 1 1 1 0.010071793041993175 1 1 1 1 1 1 1 1 0.0062002656347099868 0.011583704130540284 1 1 1 1 0.0061372148943712474 1 1 1 0.011199278127372161 1 1 0.0095931738795897569 1 1 1 0.0099079615072660884 1 1 1 0.010815337909004288 1 1 0.010082637102221808 1 0.01010542037933319 1 1 1 1 1 1 1 1 0.010369998967758231 1 1 1 0.0097099233853715251 0.0099867233691150747 1 1 0.0074491152082589752 1 1 0.0070752758646554434 1 1 1 1 0.0084066769493574937 1 1 1 1 1 0.010245512377610387 1 1 1 1 1 1 1 1 1 1 1 1 1 0.0075674842138118443 1 1 1 1 1 1 1 0.0091225803946036969 1 1 0.0087804125182691876 1 1 1 1 1 1 1 1 0.0080506094296688216 1 1 0.0081734436138969288 1 1 1 1 1 1 0.010252332435715191 1 1 1 1 1 1 1 1 0.010686299920592501 1 1 1 0.011022944538488958 0.011043339764778046 1 1 1 1 1 0.010182904259786567 1 1 1 1 1 1 1 1 1 1 1 1 0.011731023581166939 0.010112551139446889 1 0.01235548673912874 1 0.0078966720298949133 1 1 1 1 0.0095428590268269633 1 1 0.0099996759380669015 1 1 0.014144134582991467 0.0079904004687357776 0.010327115655265832 1 1 1 1 1 1 1 1 1 0.010444262911670079 1 0.0078947702994522587 1 1 1 1 1 1 1 1 0.0095647593393060979 1 0.011060168343111045 1 1 1 0.010011943388794081 1 1 1 1 1 0.0081151469291508155 0.01116207817018065 1 1 1 0.01068253596218012 1 0.0097213519155527218 1 0.010006539544255495 0.0093552606225198072 1 0.008755441806526678 0.011752224330483573 1 1 1 1 1 0.012049073927858631 1 1 0.0099958782809289014 1 1 0.0081019864386091649 1 1 0.0099177859860445864 1 0.011349699360346875 1 1 1 0.010590791802022449 1 1 1 1 1 0.0062038422894538682 1 0.0099734778361134126 1 1 1 1 1 1 1 1 1 1 0.0099641666432000505 1 1 1 1 0.013685952433440864 0.0087884220698226292 1 0.012368889972401105 1 1 0.0099740088253624307 1 1 1 1 1 0.0096381758182850618 1 1 0.012517450920190338 1 1 1 0.0086201915152315685 1 1 1 1 0.011793965227691548 1 1 0.0067455925690208347 1 1 1 0.011204713100805352 1 1 1 1 1 1 1 1 0.0098869613171852274 1 1 1 0.008195859445839844 0.0099970780972680282 1 1 1 1 1 1 0.0081209097161271358 1 1 1 0.0099191723138634998 1 1 1 1 1 1 1 1 0.010156278810143721 1 1 1 1 1 1 1 1 1 1 1 1 1 1 1 1 1 1 1 1 1 1 1 1 1 1 1 1 1 1 1 1 1 1 1 1 1 1 0.010163680605332326 0.010786667504985668 1 1 0.010001687424685084 1 1 0.0097976430922820032 0.011510219193367944 1 1 0.010219532892181991 0.0095871812641205503 1 1 1 0.009868739907549778 1 1 1 1 1 1 0.0089675165362943336 1 1 0.01001290636220215 1 1 1 1 1 1 1 1 1 1 1 0.0094988242027419234 1 1 1 1 1 1 1 1 1 1 1 1 1 1 1 1 1 1 1 1 1 1 1 1 1 1 1 0.0082729288990343736 1 1 1 1 1 1 1 0.009908162377440001 1 1 1 1 1 1 1 1 0.009795476782513593 1 1 1 0.0098514707420250605 1 1 1 1 1 1 1 1 0.0099986065672190028 1 1 1 1 1 1 1 1 1 1 1 1 1 1 0.015225782732405387 1 0.01059559316400956 1 1 1 1 1 0.010168002163603076 1 1 1 1 1 0.0097435461568204079 1 1 1 1 0.010246507444256007 1 1 1 1 1 1 1 1 1 1 1 0.0099963099331688513 1 0.0092965476577354725 1 1 1 1 1 1 0.015166847237434909 1 1 0.015056836389989538 1 1 1 1 1 1 1 1 1 1 1 1 1 1 1 1 1 1 0.010006801929681407 1 0.0099323412405948261 1 1 1 1 1 1 1 1 1 1 1 1 1 1 1 1 0.0094595161251129611 1 1 0.0094168942095883938 1 1 1 1 0.0098857194989534474 1 1 1 1 1 0.0098108639894878766 1 1 1 1 1 1 0.0097467419915720169 1 1 1 1 1 1 1 1 1 0.010049325875800839 1 1 1 1 1 1 1 1 1 1 0.010054075417732523 1 1 0.010090494931331214 1 1 1 1 0.0073028388965360501 1 1 0.01003760110999081 0.010467196654361681 1 1 0.0065370266635037446 1 1 1 1 1 1 1 1 1 1 1 0.0081959210248819248 1 1 1 1 1 1 1 1 0.010148260006361067 1 1 1 1 1 1 1 1 1 1 1 1 1 0.0095125079767425843 1 1 1 1 1 1 1 1 1 1 1 1 1 0.0099251444905344276 1 1 1 1 1 1 1 1 1 1 1 1 1 1 1 1 1 1 1 1 1 0.0098506566715262141 0.0099211449690206378 1 1 1 1 1 1 1 1 1 1 1 0.01009705066663741 1 0.010236393203100052 1 1 1 1 1 1 0.0043738938329374562 1 1 1 1 1 1 0.0046249023638695978 1 1 1 1 0.0073196139539436099 1 1 1 1 1 1 0.010548071198653995 1 1 1 1 1 1 1 0.010284221371655061 1 1 0.010848686071727476 1 1 1 1 1 1 1 1 1 1 1 1 1 1 1 1 1 1 1 1 1 1 1 1 1 1 1 1 1 1 1 1 1 1 1 1 1 1 1 1 1 1 1 1 1 0.009801449609231936 1 1 1 1 1 1 1 1 1 1 1 1 0.0094626852502460168 1 1 1 1 1 1 1 1 1 1 1 0.0097893639070965842 1 0.0091513318860777654 1 1 1 1 1 1 1 1 1 1 1 1 1 1 1 1 1 1 1 1 1 1 1 1 1 1 1 1 1 1 1 1 1 1 0.0089414816001913474 1 1 1 1 1 1 1 0.010002943859744835 1 1 1 0.010004778237082384 0.010077682227497428 1 1 1 1 1 1 1 1 1 1 1 1 1 1 1 1 1 1 1 1 1 1 1 1 1 1 1 0.0088935580186603955 1 1 1 1 1 1 1 1 0.0085326611526414086 1 1 1 1 1 0.013681074466254314 1 0.0092689893004698938 0.011975882305304685 1 0.0094684542720058079 1 1 1 0.012968246102725138 1 1 1 1 1 1 0.010475267356339744 1 0.010644862764725434 1 0.010002568828230363 1 1 1 1 0.013224387893128541 1 0.014149473339867255 1 1 1 0.010757702198653414 0.014537858057592746 1 0.010778716058271349 1 0.014131025715465911 1 0.01488224906525802 1 0.01389272990097392 0.0070137101398506738 1 1 1 1 1 0.0097354820199903706 1 1 1 1 1 1 1 1 0.011353615672508418 1 1 0.0091603923278308613 0.01212752993897616 1 1 0.0099968781269835494 1 1 0.013335038571627496 0.0056840582236829407 1 0.014723865091750776 1 1 1 0.0092625932515025978 1 1 0.011670861241931483 1 0.016014353791903232 1 1 1 1 1 1 1 1 1 1 1 1 1 1 1 1 1 1 1 1 1 1 1 1 1 1 0.0099313603517738758 1 1 1 1 0.010274021664160249 1 1 1 0.010939439848333737 1 1 1 1 1 1 1 1 1 1 1 1 1 1 1 1 1 1 1 1 1 0.0140785985587793 1 1 1 0.00998927628535708 1 1 1 1 0.015643636863864191 1 1 1 1 0.010001936739928859 1 0.0088109562735606359 1 1 0.0072560099048235181 1 1 0.011000163721517582 0.01567660037326133 0.010748777700223493 1 1 0.013130092297017568 1 1 1 1 1 1 1 1 1 1 1 1 1 1 0.009959424685988677 1 1 1 1 1 0.010249155510705059 1 0.010713917938209468 1 1 1 1 1 1 1 0.013126106835942213 1 1 1 0.012899451434039611 0.010929445324223023 1 1 1 1 1 0.0098000756885243071 1 1 1 1 1 1 1 1 1 1 1 1 1 1 1 1 1 1 1 1 1 1 0.0096418609105277733 1 1 1 0.012552899331397967 1 1 1 0.0099940966484407239 1 1 1 0.011536167372872559 1 1 0.0097279021246061293 1 1 0.0098354808520960454 1 1 1 0.0087319776079761227 1 1 1 1 1 1 1 1 0.0098925142467345649 1 0.0071936556078404882 0.011055192339415711 1 1 0.0099959797490504314 1 1 1 1 1 1 0.012207830017624125 1 1 1 1 1 1 1 1 1 1 1 1 1 1 1 0.010019093027355175 1 1 1 1 1 1 1 0.01032587787976832 1 1 0.010008951246756643 1 1 1 1 1 1 1 1 1 1 0.009960522500651145 1 0.0099219339462594813 1 1 1 1 0.01004564530994842 1 1 1 1 0.010732880695940339 1 0.011046740685475381 1 1 1 1 1 1 0.010017775417067078 1 1 1 1 1 0.010041146718841503 1 0.0096691204111754008 1 1 0.0095835714177010516 0.0098311800410527707 1 1 1 0.0098725258013093887 1 0.0099656791595621637 1 1 1 1 1 0.010754451891827058 1 1 1 0.0099766953059556348 1 0.0091548334829745538 0.011322012635569031 1 0.010419889491293586 1 1 1 1 1 1 1 0.0099997769540744862 1 1 1 1 0.012250033021848752 1 1 1 1 0.012744033811898247 1 1 1 1 0.0099886780723289336 1 1 1 0.0094578507899345174 1 0.010050718379127072 1 0.010074487093112976 1 1 1 0.0086148295909181972 0.0095264368498453548 1 0.0076555242146840825 1 0.012407410655188708 1 0.013161148716070393 1 1 0.013094170412168468 1 1 0.011890709308927164 1 1 0.011389291877861248 1 1 0.0070295110611771671 0.0065938164688423518 1 0.010958184979753068 1 0.010802947441503181 1 0.0051207261515936065 1 1 1 1 1 1 1 0.0055727357587720822 1 1 1 0.016930746833463815 1 1 1 0.016874985396676326 1 1 1 1 1 1 1 1 1 1 1 1 1 0.0056259653325041025 1 1 1 1 1 0.0097907993987942903 1 1 1 1 1 1 0.0094585825348861147 1 1 1 1 1 0.010023639133039613 1 0.011745223905688247 1 0.0052627023063526466 1 1 1 1 1 1 1 1 1 1 0.01001014178059853 0.010138109084428235 1 1 1 1 1 1 1 1 1 1 1 1 1 1 1 1 1 1 1 1 1 1 1 1 0.010032287006150354 1 1 1 1 1 1 1 1 1 1 1 0.010101230168000894 0.010182797592839169 1 1 1 0.014445188263391577 1 1 1 0.01329852381423368 1 1 0.009878812748737616 1 1 1 1 1 1 1 1 1 1 1 1 1 0.010092074574056333 1 1 1 1 1 1 1 0.011052424305606007 0.013051493390667171 1 0.010008257298964518 0.008854808772370746 1 1 1 0.010013781405878705 0.010339654161914793 0.010028877767934317 1 1 1 0.010265304324371534 1 0.0096818845169674948 1 1 1 1 1 1 1 1 1 1 1 1 1 1 1 1 1 1 1 1 0.011642981256808309 1 1 1 0.0088936704207256915 1 1 1 0.0084184631339804701 1 1 1 0.0098587034020895387 1 1 1 1 1 1 1 1 0.0099865972224190084 1 1 1 1 1 0.0099818928118423009 1 1 1 1 1 0.01191062627742832 1 0.0073149333656371048 0.010885708544866975 0.0082756581564333593 1 0.011328960555269279 1 1 0.011278467037407943 1 1 1 1 0.010084588995789092 1 1 0.004014213422139817 1 1 0.010093989999546159 1 1 1 0.012819216171161376 1 0.0096246747024104351 0.011584230741816711 1 1 0.010056136952007851 1 0.0086637949448954924 1 0.008942351700135881 1 0.010525101999894248 0.011222683933945619 1 0.010677089468751471 1 1 1 0.010003349642943124 0.011587830472216893 1 1 1 1 0.011987750095725527 1 1 1 1 1 1 0.0094148127242751328 1 1 1 1 0.0099582858139484476 1 1 0.010530215374039991 1 1 0.01166574975732431 1 0.010009664305779334 0.0078874746564082353 1 0.010453653654295741 1 1 0.011044514570750915 0.010734492726991821 1 1 0.0099030437813026877 1 1 1 0.012068551841173921 0.010528903848958271 1 0.010693929930305178 1 1 1 0.0081308263098938231 0.010559677122116081 1 1 1 1 1 1 1 1 1 0.010188300147784221 1 1 1 1 1 1 1 1 1 1 1 1 1 1 1 1 1 1 1 1 1 1 1 1 0.010151842340365251 1 1 1 0.0098425720121739085 1 1 1 1 0.0095053632813671858 1 1 1 1 0.010497681762058017 1 1 1 1 1 1 1 1 1 1 1 1 1 1 1 1 1 1 1 1 1 1 1 1 1 1 1 1 1 1 1 1 1 1 1 1 1 1 1 1 1 1 1 1 0.0088892830599353184 1 1 1 1 0.0098183757593124782 1 1 1 1 1 0.012093281147375897 1 0.009308635000120264 1 0.010171471879101049 1 1 1 1 0.010726466488550756 1 1 1 1 1 0.0078933884330448286 1 1 1 1 1 0.0099641334362685526 1 1 0.0077217325040704584 1 1 0.010135230379942371 1 1 1 1 0.010550961240358044 1 1 1 1 1 1 1 1 0.0099820496203966262 0.014521632413031005 1 1 1 0.0061551293620261049 1 1 0.011083480194214025 1 1 1 1 1 1 1 1 1 0.010004663706029159 1 0.010001464417518912 1 1 0.010327634011623435 1 1 1 0.0097900076871910886 1 1 1 1 1 1 1 1 0.0092669819143534563 0.015021747999435526 1 0.011544785411521211 0.0076213782801045115 1 1 0.013814157177158858 1 1 1 0.010032367806579246 1 1 1 0.0097210054673442323 1 1 1 1 1 1 1 1 1 1 1 1 1 1 1 1 1 1 0.012224198085298864 1 1 1 1 1 1 1 1 1 1 1 1 1 1 0.010755875392259175 1 1 1 0.0099900859301846213 1 1 1 1 1 1 0.009168966279890358 1 1 1 1 1 1 1 1 1 0.010558549326403549 1 1 1 1 1 1 0.011419600268502915 1 1 0.0082965476169910395 1 1 0.0116649143936579 0.0083047124245291537 1 1 1 1 0.010589788959989372 1 1 1 1 1 1 1 1 1 1 1 1 0.0090896786647849011 1 1 1 1 1 1 1 1 1 1 1 1 0.0085084228426608437 1 1 0.0087369602171018107 1 1 1 0.0093395839434702935 0.010130554786327437 1 0.0073106383644417332 1 0.0086739177970746682 1 1 1 1 1 1 1 0.0099857805604881208 1 1 0.009854469038948226 1 1 1 1 1 1 1 1 1 1 1 1 1 0.0096111696449970047 1 1 1 0.013597474052801773 1 1 1 0.0076765509084512759 1 1 1 0.0089083276865158465 1 1 1 1 0.0047510656075500915 1 1 1 1 1 1 1 0.0095966272348499814 1 1 1 0.0080032342830138135 1 1 1 1 1 0.0076386492173654416 1 1 1 1 1 1 1 1 1 1 0.007710089607192017 1 1 0.0097645653070219888 1 1 1 0.0082931412318415672 1 1 0.0081528590883632127 1 1 1 1 0.01006989239168477 1 1 1 1 1 1 1 0.010811758554224508 0.009979179255491407 1 0.0071830501353384729 1 1 0.007409932953147581 1 0.0073312681786699054 0.010264482267179843 0.0052287843257113418 1 1 1 1 0.009987675891824704 0.0046546002355280346 1 1 0.006302468516942366 1 1 1 0.0072983688020416297 1 0.010000447636299942 1 1 1 1 1 1 1 1 1 1 0.0075021167583259989 1 1 1 0.0074640157098995498 1 1 1 1 0.0099524394170113772 1 1 0.0050408758766908885 1 1 0.0078454574894257275 1 1 1 1 0.010002979545740788 1 0.010019873590304183 1 1 1 1 1 1 1 1 1 1 1 1 1 1 1 1 1 1 1 1 1 1 1 1 1 1 1 1 1 1 0.00998546033088492 1 1 0.0099854070854273249 1 1 1 1 1 1 1 1 1 1 1 1 0.0099020237940850419 1 1 1 1 1 1 0.013178734916458809 1 1 1 0.0078821423291379842 0.010742759873580025 1 1 1 1 1 0.010250557067046657 1 1 1 1 0.0096766202984663527 1 1 0.0080472867020357532 1 1 1 1 1 1 0.0099897503438875143 0.0095342990413341266 0.0052011394138923401 0.0072792574570850338 1 0.010002192214172728 1 1 0.0059512746191201487 1 0.0062563780779012305 1 1 1 1 1 0.0060172607951475372 1 1 1 1 1 1 1 0.0055202777605929971 1 0.010078515172802581 0.0099427081885020349 1 1 1 1 1 1 0.0099743723000809154 1 1 1 1 1 1 1 1 1 1 1 1 1 1 1 1 1 1 0.010491547338867657 1 1 1 1 1 1 1 1 1 1 1 1 1 1 1 0.010160813972904383 1 1 1 1 1 1 1 1 1 1 1 1 1 1 1 1 1 0.013613358815711591 1 1 1 1 1 1 0.0036760228507378258 0.013922237365083504 1 1 1 1 0.0049131701889633004 1 1 1 1 1 1 1 1 1 1 1 1 1 1 1 1 1 0.010860369012716036 1 0.011878108801781509 1 1 1 1 1 1 1 1 1 0.0099583965915898062 1 1 1 1 1 1 0.0098690566469505272 1 1 1 1 1 1 1 0.0096365778849484725 1 1 1 1 1 1 1 1 1 1 1 1 1 1 0.0097042632515848513 1 1 1 1 1 1 1 1 1 1 1 1 1 1 1 1 0.0090618075790531542 0.010189319122823386 1 0.011285257685381824 1 1 0.0095130704317740004 1 1 1 0.010972390060352709 1 1 1 1 1 0.010327381606314849 1 1 1 1 1 1 1 1 1 1 1 1 1 1 0.010165907062706982 1 1 1 1 1 1 1 1 1 1 1 1 1 1 1 1 1 1 1 1 1 1 1 1 0.01042200157518469 1 0.010647067133655543 1 1 1 0.010270968217874162 1 1 1 1 1 1 1 1 0.010085406482351018 1 1 1 1 1 1 1 0.010392188073854877 1 1 0.0098649891832959767 1 1 0.0091914268814960055 1 1 1 1 1 1 1 1 1 0.0095687764802664509 1 0.009547934803177123 1 1 1 1 0.010311401781835596 0.0098186552580697799 1 1 1 1 1 1 1 1 1 1 1 1 1 1 1 1 1 1 0.011112127003682637 1 1 1 1 1 1 1 0.0099718440670442821 1 1 1 1 0.01054477763004002 1 1 1 1 1 0.0090769488441474547 1 1 0.009365288233318815 1 0.0095413131070964247 1 1 1 1 1 0.0097244478879693671 1 0.0098597083570554512 1 1 0.0099981760196299497 1 1 1 0.0098019767399938878 1 1 1 0.0094015912616457718 1 1 1 1 1 1 1 1 0.0094121435193300004 1 1 1 1 1 1 1 0.0097864539110475296 1 1 1 0.010478217234483554 0.010000040482664278 1 1 1 1 0.0084212796097446266 1 1 1 1 1 1 0.010126921928130002 1 1 1 1 1 1 0.010044869693238352 1 1 1 1 1 1 1 0.0084197983280762754 1 1 1 1 1 1 1 1 0.010097778593051013 1 1 0.0088430214413587616 1 1 1 1 1 1 1 1 1 1 1 1 1 1 1 0.0096018628707100432 1 1 1 1 0.0096595202037414174 1 1 1 1 1 1 1 1 1 1 0.010002491541789031 1 1 1 1 0.010100270134840042 1 1 1 1 1 1 1 1 1 1 1 1 1 1 1 1 1 1 1 1 1 1 1 1 1 1 1 1 1 1 1 1 1 1 1 1 1 1 1 1 1 1 0.0094101346399392584 0.0086300992899811003 1 1 1 1 0.01000892893772593 1 1 1 0.0099642123323402249 1 1 1 1 1 1 1 1 1 1 1 1 1 1 1 1 1 1 1 0.0085441244118230168 1 1 1 1 1 1 1 1 1 1 1 1 0.0063071690585756613 1 1 1 1 1 1 1 1 1 1 1 0.011928657420443932 1 0.010560867107990892 1 0.0087570578867933336 1 1 1 1 1 1 0.0093106049697144703 1 1 1 0.007071724534542894 1 1 1 1 1 1 1 1 1 0.010024721677606353 1 1 1 1 1 1 0.010001096417715322 1 1 1 1 1 1 1 1 1 1 1 1 1 1 1 1 1 0.010153135332590619 0.0090389417704391534 1 1 1 1 1 1 1 0.0092637357356203289 1 1 1 1 1 1 1 0.0097597805539438656 1 1 0.012618781142857034 1 1 1 1 0.012350078767119363 1 1 1 1 0.010058036185643113 1 1 1 1 1 1 1 1 1 1 1 1 0.0098967740842971844 1 1 1 1 1 1 1 0.0096567438889629872 1 1 1 1 1 1 1 1 1 1 1 1 1 0.0085495521509564368 1 1 1 1 1 1 0.0093842996251817731 1 1 1 1 1 1 1 0.010759927999528834 1 1 1 1 1 1 1 1 0.010433231650459623 0.0099174516915108511 1 1 0.0099287532082961844 1 1 1 1 1 1 1 1 1 1 1 1 1 1 1 1 1 0.0099213351953664642 1 1 0.010299853640523632 1 1 1 1 1 1 1 1 1 1 1 1 1 1 1 1 1 1 1 1 1 1 1 1 1 1 0.012274284831322157 1 1 1 0.012021699783745817 1 1 1 1 1 0.013407590842394684 1 1 1 1 1 1 1 0.0096043837174716023 1 1 1 1 1 0.01062807335080878 0.01357467721136638 1 1 0.0088324827048099509 1 1 1 1 1 1 1 1 1 1 0.010532821102828273 1 1 1 1 1 1 1 1 0.010081354066677478 1 1 1 1 1 1 1 1 0.010164792512020068 1 0.009867601127970865 1 1 1 1 0.010259219071352004 1 1 1 1 1 1 1 1 1 1 1 1 0.010093312008645024 1 1 1 1 0.011154848858752051 1 1 1 0.011101654812340019 1 1 1 1 1 1 1 1 1 0.010140063471423285 1 1 1 1 1 0.01041571636776281 1 1 1 0.010689965607413331 1 0.010959552047467661 1 1 1 0.0077344912390431269 1 1 0.012405013323611306 1 1 1 1 1 1 0.010023685851534599 0.0081214439855379714 1 1 1 1 1 1 0.009923873473252803 1 0.0087836691726164394 1 0.010083438445342595 1 1 1 1 1 1 1 1 0.0099159575785371951 1 1 1 1 1 1 1 1 1 1 1 1 1 1 1 1 1 0.010341774780207697 0.009986015170365084 1 1 0.010560302016722976 0.010488721533385269 1 1 1 1 1 0.010168289083668491 1 1 0.0096697170413303484 1 1 1 0.0088381471329273299 0.013387307554886154 1 1 1 0.0081527505441034553 1 1 1 1 1 1 1 1 0.011159522154769128 1 1 0.0093262498274137798 0.011272265661242321 1 0.01007536687072774 1 1 1 0.0098614305851852796 1 0.0099961946128891161 1 1 1 1 1 1 1 1 1 1 1 1 1 1 1 0.0093171269791614882 1 1 1 1 1 1 1 1 0.0087758004328013506 1 0.0097783564106974294 1 1 1 1 0.0099942801156016996 1 1 1 1 1 1 0.011107624593259965 1 1 1 1 0.0096888740063039262 0.0084314343579412199 1 1 0.0099749364901962675 1 0.0087569877913503125 1 1 1 1 1 0.0099949643932470099 1 1 1 1 1 1 1 1 1 0.008856274374086778 1 1 1 1 0.010232982678453385 1 1 1 1 0.010326096991334899 1 1 1 1 1 1 1 1 1 0.010116326664028332 1 0.0089618836160423997 1 0.0086397949269204667 1 0.009598139820445984 1 1 1 1 1 1 1 1 1 1 1 0.010161589377870988 1 1 1 1 1 1 1 0.010084559188988002 0.010226362828482435 1 1 1 1 0.010621239521415887 1 1 0.0095338491546535439 1 1 1 1 1 1 1 1 0.011890794627314188 1 1 1 1 0.0099654098023708657 1 1 1 1 1 1 0.0099462958144634576 1 1 1 1 1 1 1 1 1 1 1 1 1 1 1 1 1 1 1 0.0099679253674008119 1 1 1 1 1 1 1 1 1 1 1 1 1 1 1 1 1 1 1 1 1 1 1 1 1 0.012517460616767093 1 1 1 0.012939163299943605 1 1 1 1 1 1 1 1 0.013235057101803876 1 1 1 0.010048706324234331 1 1 1 0.010106742509877443 1 1 1 0.012208491611581881 1 1 1 1 1 0.012055284675555118 1 1 1 1 1 1 1 1 1 1 0.011978048115320959 1 1 1 0.011508879654881555 1 1 1 0.010003006228509293 1 1 1 0.010001381932273741 0.009467575425510865 1 1 1 0.0110919141010137 0.012011939005678511 1 0.012026035404154565 1 1 1 1 1 1 1 1 1 0.0098841216109932795 1 1 1 1 0.010082885333089724 1 1 0.011255760465764464 1 0.009895552222801151 1 1 0.009693610080743674 1 1 0.0099967259197562865 1 1 0.010070667429809886 1 1 1 0.010150461406018945 1 1 1 1 1 1 1 1 1 1 1 1 1 1 1 1 1 1 1 1 1 0.0097729990270620792 1 1 1 1 1 1 1 1 1 1 0.0094019543117737636 1 1 1 1 1 1 1 1 0.010185055247595994 1 1 1 1 0.0096611419216175703 1 1 1 0.010615485674676257 1 0.0097913884504192139 1 1 1 1 1 1 1 1 1 1 1 1 1 1 1 1 1 0.0099173711623883141 1 1 1 1 1 1 1 1 1 1 1 1 1 1 1 1 1 1 1 1 1 1 1 1 1 1 1 1 1 1 1 0.0093758459445246693 0.0096295442611105918 1 1 1 1 1 1 1 1 1 1 1 1 1 0.0097501427602013791 1 1 1 1 1 0.009427840456704778 1 0.0086416855805225897 1 1 1 1 0.0083807117446430407 1 1 1 1 1 1 1 1 1 1 1 1 1 1 1 0.0082171673690455936 1 1 1 1 1 1 0.007098591724008587 1 1 1 1 0.0099103645735659582 1 1 1 1 1 1 1 0.0097662138620186831 1 1 1 1 1 1 1 1 1 1 1 1 1 1 1 1 1 1 1 1 0.010021869602333798 1 1 1 1 1 1 0.010066113183603596 1 1 1 1 1 0.0099952054719406307 1 1 1 1 1 1 1 1 1 1 1 1 1 1 1 1 0.0101202384866153 1 1 1 1 1 1 1 1 1 1 0.010041287284850415 1 1 0.0098920743427051497 1 1 1 1 1 1 1 0.010011764627072589 0.010084067349580788 1 1 1 1 1 1 1 1 1 1 1 1 1 1 1 1 1 1 1 1 1 1 1 1 1 1 1 1 0.010972675620412979 0.010314449778799797 1 1 1 0.010386303151941001 1 1 1 1 1 1 1 1 1 1 0.010801164498995099 1 1 1 1 0.0099634989359362533 1 1 1 1 1 1 1 1 1 1 1 1 1 1 1 1 1 1 0.010244365997049761 1 1 1 1 0.010109091976224473 1 0.010845369031927697 1 1 1 1 1 0.010087692100116114 1 0.01002592642497498 1 1 1 1 1 1 1 0.011394858564847465 1 1 1 1 0.010019394065362366 1 0.0093687970230602914 1 1 1 1 1 1 1 0.0099999374456911008 1 0.010731837759783636 1 1 1 0.010230588378413619 1 1 1 1 1 1 1 1 1 1 1 1 1 1 1 1 1 1 0.010314467934363757 1 1 1 1 1 1 1 1 1 1 1 1 1 1 1 0.0060074449800478196 1 1 1 0.0062148119061826435 1 1 1 1 1 1 1 1 1 1 1 1 0.0058291555241013534 1 1 1 1 1 1 0.011014903161730899 1 1 0.0099843006378472765 0.0053801905677142714 1 1 1 1 1 1 1 1 1 1 0.0099525702861365736 1 1 1 1 1 1 1 1 1 1 1 1 1 1 1 1 1 1 1 1 1 1 0.0097427758258697809 1 1 1 1 1 1 1 1 1 1 1 1 1 1 1 1 0.0064053687723192622 1 1 1 1 1 1 1 1 1 1 0.0065676419779960409 1 1 1 1 1 1 0.0068579779070254681 1 1 1 1 1 1 1 1 1 1 1 1 1 1 1 1 1 1 1 1 1 1 0.010031549086166169 1 1 1 1 1 1 1 1 1 1 1 1 1 1 1 1 1 1 1 1 1 0.010420343585676799 1 1 1 1 1 1 0.010002534718813207 1 1 1 1 1 1 1 1 1 1 1 1 0.0094985182837180691 1 0.009930082726628639 1 1 0.010005606365588521 1 1 1 1 1 1 1 1 1 1 1 1 1 1 1 1 1 1 1 0.0098360788056938188 1 1 1 1 1 1 1 1 1 1 1 1 1 1 1 1 1 1 1 1 1 1 1 1 1 1 1 1 1 1 1 1 1 1 1 1 1 1 1 1 1 1 1 1 1 1 1 1 1 1 1 1 1 1 1 1 1 1 1 1 1 1 1 1 1 1 1 1 1 1 1 1 1 1 1 1 1 1 1 1 1 1 1 1 1 1 1 1 1 1 1 1 1 1 1 1 1 1 1 1 1 1 1 1 1 1 1 1 1 1 1 1 1 1 1 1 1 1 1 1 1 1 1 1 1 1 1 1 1 1 1 1 1 0.0092745885532131145 1 0.0099970708367941412 1 1 1 1 1 1 0.0096928701649139012 1 1 1 0.009937301278069844 1 0.0089553411311790888 1 1 0.0099897800725663403 1 1 1 1 1 1 1 1 1 1 1 1 1 1 0.0099709562505312845 1 1 1 0.0090181491522050017 1 1 1 1 1 0.0092456268195919861 1 1 0.0094513908197463581 1 1 1 1 1 0.010005551744013517 1 1 1 1 1 1 1 1 1 1 1 1 1 1 0.0081012854490732072 1 0.0085648924187467119 1 0.0099872453537531401 1 1 1 1 1 1 1 1 1 1 1 1 1 1 1 0.0092400138398942427 1 0.0094032055234500329 1 1 1 0.010000204540446049 1 1 1 0.0097401257951032216 1 1 0.0099713174598401767 1 1 1 0.0099068017761425459 1 1 0.0096040382957492381 1 0.0099993310385796987 1 1 1 1 0.0084039184901975421 1 1 1 0.0085891158760692081 1 1 1 1 1 0.0099796123808887829 0.010791799218086836 1 1 0.0094564029499950887 1 1 0.009753629399015076 1 0.010463042615718867 1 1 1 1 1 1 0.00991521150185911 1 1 1 1 1 1 0.0091356094926541027 0.010024359282676282 1 1 0.010078780589114844 1 1 0.010970674713986901 1 1 1 1 1 1 1 1 0.010018072638100797 1 1 1 0.010273593397255351 1 1 1 0.010062264001160868 1 1 1 1 1 1 1 1 1 1 1 1 1 1 1 1 1 0.010684140208218312 1 1 1 1 1 1 1 0.010349471035932183 1 1 1 1 1 1 0.010128922045928293 1 1 1 1 1 1 1 1 1 1 1 1 1 1 1 1 1 0.010945220069747536 0.009998482402390995 1 1 1 1 1 1 1 1 0.0083307201653448227 0.010033793494700696 1 1 1 0.0099461148109629468 1 1 0.0061025908172391459 1 1 0.010024643484918494 1 0.010557100962413435 1 1 1 0.0099800472286435318 1 1 1 0.009758983225711778 0.0068043923774544143 1 1 1 1 1 1 1 1 1 1 0.0074025222835637124 0.00928101843782329 1 1 1 1 1 1 1 1 1 1 1 1 0.0098940400453534777 1 1 1 1 1 1 1 1 0.0079883946187521877 1 1 1 1 0.0089514392195321237 1 0.0084971651023673812 1 1 0.010003614223485023 1 0.0088070066070073689 1 1 0.011194454000119864 1 1 0.0096822777871038868 1 1 1 1 1 1 1 1 1 1 1 1 1 1 1 1 1 1 1 1 1 1 1 1 1 1 1 1 1 1 0.01008675131868975 1 1 1 1 1 1 1 1 1 1 0.010069260578974931 1 1 1 0.010156011897664678 1 1 1 1 0.013471136085566306 1 1 1 1 1 0.010070326628773149 1 1 1 1 0.012272810082304755 1 1 0.010435794482082511 1 1 1 0.009711459715890474 1 1 1 1 1 1 0.010155972887986222 1 1 1 0.010120282537707807 1 1 1 0.010530185552003432 1 1 1 1 1 0.010050173689129489 0.014467171625838975 1 1 1 1 1 0.015124461397814114 1 1 1 0.016307096066157434 0.0099919706014674307 0.010848570774290675 0.0091284704987119273 1 1 1 1 1 1 0.016627382340942194 1 1 1 1 1 1 1 1 1 1 0.010203441433247994 1 1 1 1 1 1 1 1 1 1 1 0.010032077758757319 1 1 1 1 1 1 1 1 1 1 1 1 0.01003074498242942 1 0.0099442318530001666 1 1 1 1 1 0.011328050636155494 1 1 1 1 1 1 1 0.012865413834169469 1 1 1 1 0.010452134612159963 0.011202740130335599 1 1 0.009324774530710133 0.013232109977796093 1 0.01104489623333175 1 0.014431565952841213 1 1 1 1 1 0.014523471748014371 1 1 1 1 1 0.0094623447981728118 1 0.0098433168135410361 1 1 0.014609475681729312 1 1 1 0.0083363628457324424 1 1 1 1 1 1 1 0.0091241264549312955 0.010996688165677204 0.011952772658247388 1 1 0.01269400981156921 1 1 1 1 1 1 1 1 1 1 1 1 1 0.0100203725119544 1 1 1 0.0099079130293418301 0.0095371272390306974 1 0.011354870800682261 1 1 1 0.010388567000624177 1 1 1 1 1 1 1 1 1 1 1 1 1 1 1 1 1 1 1 0.010097372959762117 1 1 1 1 0.010899890499539336 1 1 0.010820568486397911 0.010136972969379543 1 1 1 1 1 1 1 1 1 1 1 1 1 1 1 1 1 1 1 0.0099914383842099521 1 1 1 1 1 1 1 1 1 1 1 1 1 1 1 1 1 1 1 1 1 1 1 1 1 1 1 1 1 1 1 1 1 1 1 1 1 1 1 1 1 1 1 1 1 1 1 1 1 1 1 1 1 1 1 1 1 1 1 1 1 1 1 1 1 1 1 1 1 1 1 1 1 0.013997000396766405 1 1 1 1 1 1 1 1 1 1 0.010319941705143342 1 1 1 1 1 0.010776460941946127 1 1 1 1 1 1 1 1 0.0052887250025733488 1 0.016744735053398366 1 0.0069741563357619187 1 1 0.015853548932576768 1 1 1 1 1 1 1 0.0092516487168225799 1 1 1 1 0.0079480494687024852 1 1 1 1 0.015916877977652955 1 1 0.014999708357174348 1 1 1 1 1 1 1 1 1 1 1 1 1 1 1 1 1 1 1 1 1 1 1 1 1 1 1 1 1 1 1 1 0.011079391048835045 1 0.010357910358461999 1 1 1 0.014724215678796051 1 1 1 1 0.014175873780640516 1 1 1 1 1 0.0099502494448678504 0.0049958763149636487 1 1 1 1 1 1 1 1 1 0.0086139867914288293 1 0.013067185477970582 1 1 1 1 1 0.010815479570348653 1 1 1 1 1 1 1 1 1 1 1 1 1 0.0093949930597589954 1 1 1 1 0.0085567821994923451 1 1 1 1 1 0.0084812241396331374 1 1 1 1 1 1 0.010126021393364966 1 1 1 1 1 1 1 1 1 1 1 1 1 1 1 0.010058623833759861 1 1 1 1 1 1 1 1 1 0.0099166822028568715 1 1 1 1 1 1 0.010507472815577236 0.010690797092668835 1 1 1 1 1 0.010222464508589697 1 1 1 1 1 1 1 1 1 0.010863468998447005 1 0.015160354638538176 0.0096313861642074033 1 1 1 1 1 0.0098797842647632729 1 1 1 1 1 1 1 1 0.0069700667026179122 1 1 1 1 1 0.011791053462237012 1 1 1 1 1 1 1 1 1 1 1 0.010363789267433641 1 1 1 1 1 0.011093528932580438 1 1 1 1 1 1 1 1 1 1 1 1 1 1 1 1 0.010133029182398435 1 1 0.010257050243176243 1 1 1 1 1 1 0.010027422195582435 0.010000316467963186 0.010005847460762629 1 1 1 1 1 1 1 1 1 1 1 1 1 1 1 1 1 0.010040115426575484 1 1 1 1 1 1 1 1 1 1 1 1 1 1 1 1 1 1 1 1 1 1 1 1 1 1 0.0077287951695726147 1 0.0072266269232263459 1 1 1 1 1 1 1 1 1 1 1 1 1 1 1 1 1 1 1 1 1 1 0.009811936590053123 1 0.0099952018554380559 1 1 1 1 0.0088959276687220392 1 1 1 1 1 1 1 1 1 1 1 1 1 0.012484315294185765 1 1 0.010861473872587301 1 1 1 1 1 1 1 0.010022946225201935 1 1 1 0.0099902597123252904 0.0038309500871331024 1 1 0.010879282203784615 1 1 1 1 0.0040183055987227864 0.0099667296101161595 1 1 1 1 1 1 1 1 1 1 1 1 1 1 1 1 1 1 1 1 1 1 1 1 1 1 1 0.0092539103720455651 0.010211337841857676 1 1 1 1 1 1 1 1 1 1 1 1 0.0099525954731910435 1 1 1 1 1 0.0090204698801647342 1 1 1 1 1 1 1 1 1 0.0081350732717689854 1 1 1 0.0078959779924970049 1 1 1 1 0.008585304936745735 1 1 0.0085849316009566599 1 0.009838310691399229 1 1 1 0.0088261670513850188 0.009998805303362784 1 1 1 1 1 0.007930875242096189 0.009715065004142558 1 1 0.010123730513980829 0.0092935922150001269 1 1 1 0.0092161144683842403 0.0094128043678834549 0.010488419980373857 0.010167447568497997 1 0.0091867026352087464 1 0.0082852336305080081 1 0.0085866804187178791 0.0099922080934984787 1 1 1 1 0.010065095439399102 1 1 1 1 1 1 1 1 1 1 1 1 1 1 1 1 1 1 1 1 0.012385873042164958 1 1 1 0.010837189334065876 1 1 1 1 1 0.01066917735096193 1 1 0.010300656702560355 1 0.010755889686980692 1 1 1 1 1 1 1 1 1 1 0.010666365711092451 0.010386591303011852 1 1 1 1 1 1 1 1 1 1 1 1 1 1 1 1 1 0.011297678032205775 1 1 0.010029604649126174 1 1 1 1 1 1 1 1 1 1 0.0096306472842125155 1 1 1 1 0.007743752873753066 1 1 1 1 1 1 0.010311215238052524 1 1 1 1 1 1 1 1 1 1 1 1 1 1 1 1 1 1 1 1 1 1 1 1 1 1 1 1 1 1 1 1 1 0.0099670492107314726 1 1 1 1 1 0.010019265025041978 1 1 1 1 1 1 1 1 1 1 1 1 1 1 1 1 1 1 0.010023486549859567 1 0.0097873501531832094 1 1 1 1 1 1 1 0.0099569106413520351 1 1 1 1 1 1 1 1 0.010026057556165289 0.010011831118993932 1 0.0095893880850549604 1 1 1 1 0.0087736577613419589 0.010018347171807045 1 1 1 1 1 1 1 1 1 1 1 1 1 1 1 1 1 0.0099044631932455433 1 1 1 1 1 0.0074257074212907975 1 1 1 1 1 1 1 1 1 0.010154748445518327 1 0.0098790935917126236 1 1 1 1 1 1 1 1 1 1 1 1 1 1 1 1 1 1 1 1 1 1 1 1 1 1 1 1 1 1 1 0.0068656752537223876 1 1 1 1 1 1 1 1 1 1 1 1 1 1 1 1 1 1 1 1 1 1 0.011573788897366342 1 1 1 0.0062907080300818596 1 1 1 0.0056859038691995881 0.013397566906627072 1 1 1 1 0.010510636873791813 1 1 1 1 1 1 0.0063012161556411667 1 1 1 0.0063607001922135198 0.0099506741455563565 1 1 1 1 1 1 1 1 1 1 1 1 1 1 1 1 1 1 0.010138851526591731 1 1 1 0.01133792113344213 1 1 1 1 1 1 1 1 1 1 1 1 1 1 1 1 1 1 1 1 1 1 1 1 1 1 1 1 1 0.0098718097054906334 0.0063985297847602273 1 1 1 1 1 1 1 1 1 0.011172259655947413 0.0097867790520838431 1 0.0099534360299109882 0.0075084040494995397 1 1 1 1 1 1 1 1 1 1 1 1 0.0093090696069609638 1 1 1 1 1 1 0.010630058862382157 1 1 1 1 1 1 1 1 1 1 1 1 1 1 1 1 1 0.010110832878139336 1 1 1 1 1 0.012993674119591072 1 1 1 0.013865615874970771 1 1 1 1 1 1 0.0080847090423870477 1 0.014405601345242042 1 1 1 0.012464036204371001 0.0091077708270931104 1 0.015001253234692483 1 1 0.012366269653073258 0.008085955031534019 1 1 1 1 1 1 1 1 0.0099698786785875886 0.010269333374705437 1 1 1 1 1 1 1 1 0.011993849833672618 1 1 1 1 1 1 1 1 1 1 1 1 1 0.0099295117025055731 1 0.008162172279111337 1 0.0074220039196171332 1 1 1 1 0.0075420128123604505 1 1 1 1 0.0099857457815686369 0.0088636631005174094 1 1 1 1 1 1 1 0.0096490711715224685 1 1 1 1 1 1 1 1 1 1 1 1 1 1 1 1 1 1 1 0.0073760451867989525 0.0077289450651643211 1 1 1 0.012065050801033473 1 0.010033785570759606 1 1 0.013062831710936477 1 1 1 0.010059672194826962 1 0.010987406082517142 1 0.0099906746895180414 1 1 1 1 1 0.010290288603174016 0.0093596065207662369 1 1 1 0.010498104951176333 0.010697314894915856 1 1 1 1 1 1 1 1 1 1 0.009639146338946445 1 1 0.0098913614519950226 1 1 0.014244135961988407 1 1 1 1 0.0099818490441480057 0.0084029627935361482 1 1 1 1 1 1 1 1 1 0.0089691861071847755 1 1 1 1 1 0.010354895881824757 1 1 1 1 1 0.0099692661222898944 0.011643196783504259 1 1 0.0095336461673930662 0.01197572800358611 1 0.0092179212180202186 1 0.0077331587600320559 1 1 1 0.010063786291114417 1 1 0.010611068119727811 0.011661520557772736 1 0.0092351284153811709 0.012859627424455528 0.0097196117947730993 1 1 1 1 1 0.010036758685769125 1 1 1 1 1 1 1 1 1 0.012139422507103072 1 1 1 1 1 1 0.013523377556543176 1 0.013055561576905199 1 1 0.012147761037820396 1 1 1 1 0.012881446960185318 1 1 1 1 0.0098546363211140971 1 1 1 1 1 0.012142835901046648 0.011299837519941461 1 1 1 1 1 0.0099276717777641316 0.013601287252408931 1 1 1 1 1 0.011419009185227503 1 1 0.012279852514961595 0.012437444216922333 1 1 1 1 1 1 1 1 0.0099597574759375043 1 1 1 0.0099963710428985046 0.012443301432629365 1 1 1 1 0.010005773248804025 1 1 1 1 1 1 1 1 1 1 0.010262874835588064 0.0098834680272815133 1 1 1 1 1 1 0.01009531435758833 1 1 1 1 1 1 1 1 1 1 1 1 1 1 1 1 1 1 1 0.0099851999254412568 0.010758863774839542 1 1 1 0.01345661768600654 1 1 1 1 1 1 1 0.0096467732356568022 0.010338331958300244 1 1 0.009504324361761669 0.010081271144440993 1 1 1 1 1 0.0098970736014704214 1 0.0092760985902416333 1 1 0.0097099569119983367 1 1 1 1 0.01023808871309274 1 1 1 1 1 0.017542840007233947 1 0.016402591203909397 1 1 1 1 1 1 1 0.0073025698701736797 0.010908439482754304 1 1 1 0.0088206921854060462 0.0093785860223625332 0.015103368238160006 0.017322020039216193 1 1 1 1 1 1 1 1 1 1 1 1 1 1 1 1 1 1 1 1 1 1 1 1 1 1 1 1 1 0.0099126287524466603 1 1 0.015659676487381934 1 1 1 0.010639790934571361 1 1 0.010139709256959688 1 1 1 1 1 1 0.016370274517297969 1 1 1 1 1 1 1 1 1 1 1 1 1 1 1 1 1 1 1 1 1 0.0098807646822972536 1 1 0.0093613954388656502 1 1 1 1 1 1 1 1 1 1 1 1 1 1 1 1 1 1 1 1 0.0081250848070517877 1 1 1 1 1 1 1 1 1 1 0.00949060101453977 1 0.0099329544929216626 1 1 1 1 1 1 1 1 1 1 1 1 1 1 1 1 1 1 1 1 1 1 1 1 1 1 1 1 1 1 1 1 1 1 1 1 1 1 1 1 0.009714608624107831 1 0.011287915185749738 1 1 1 1 0.011618944640530223 1 1 1 0.0098081505859454951 1 1 1 0.0099724438096190984 1 1 1 1 1 0.0081913707786024602 0.009616368041669163 1 1 1 1 1 1 1 1 0.0087185599067950773 1 1 1 1 1 0.010276450435653336 1 1 1 1 1 1 1 1 
</DataArray>
</CellData>
</Piece>
</UnstructuredGrid>
</VTKFile>
