<?xml version="1.0"?>
<VTKFile type="UnstructuredGrid" version="0.1" byte_order="LittleEndian">
<UnstructuredGrid>
<Piece NumberOfPoints="31002" NumberOfCells="10845">
<Points>
<DataArray type="Float64" NumberOfComponents="3" format="ascii">
-0.5 -0.5 0 -0.48151076082361371 -0.48595296808925548 0 -0.5 -0.43933529444290198 0 -0.5 -0.5 0 -0.47148678034791708 -0.49680415014755352 0 -0.45198732224700489 -0.5 0 -0.48151076082361371 -0.48595296808925548 0 -0.47811262387597719 -0.45967441005418058 0 -0.47228957227868579 -0.47160151072803141 0 -0.48151076082361371 -0.48595296808925548 0 -0.47811262387597719 -0.45967441005418058 0 -0.47228957227868579 -0.47160151072803141 0 -0.48151076082361371 -0.48595296808925548 0 -0.46528977505179392 -0.47883365632809588 0 -0.5 -0.5 0 -0.47148678034791708 -0.49680415014755352 0 -0.48151076082361371 -0.48595296808925548 0 -0.47148678034791708 -0.49680415014755352 0 -0.48151076082361371 -0.48595296808925548 0 -0.46528977505179392 -0.47883365632809588 0 -0.47148678034791708 -0.49680415014755352 0 -0.45742666788856978 -0.48517724163720261 0 -0.46528977505179392 -0.47883365632809588 0 -0.47148678034791708 -0.49680415014755352 0 -0.45742666788856978 -0.48517724163720261 0 -0.44510661451528277 -0.49114606240659853 0 -0.44510661451528277 -0.49114606240659853 0 -0.45198732224700489 -0.5 0 -0.4175102280155607 -0.50000000000000111 0 -0.47148678034791708 -0.49680415014755352 0 -0.44510661451528277 -0.49114606240659853 0 -0.45198732224700489 -0.5 0 -0.47148678034791708 -0.49680415014755352 0 -0.44510661451528277 -0.49114606240659853 0 -0.46528977505179392 -0.47883365632809588 0 -0.44782350163928553 -0.47392509766656238 0 -0.46424512936335849 -0.46194500844059377 0 -0.47228957227868579 -0.47160151072803141 0 -0.46528977505179392 -0.47883365632809588 0 -0.46424512936335849 -0.46194500844059377 0 -0.45742666788856978 -0.48517724163720261 0 -0.46528977505179392 -0.47883365632809588 0 -0.44782350163928553 -0.47392509766656238 0 -0.44782350163928553 -0.47392509766656238 0 -0.44510661451528277 -0.49114606240659853 0 -0.43328919874247551 -0.47649739707579619 0 -0.45742666788856978 -0.48517724163720261 0 -0.44782350163928553 -0.47392509766656238 0 -0.44510661451528277 -0.49114606240659853 0 -0.44782350163928553 -0.47392509766656238 0 -0.43328919874247551 -0.47649739707579619 0 -0.4346689776767394 -0.4630732060703181 0 -0.44771418536577928 -0.45799830971730748 0 -0.45504656838262292 -0.44373378228418359 0 -0.43678674976689008 -0.44731445412487941 0 -0.44301089450225167 -0.43773481489950039 0 -0.45504656838262292 -0.44373378228418359 0 -0.43678674976689008 -0.44731445412487941 0 -0.44301089450225167 -0.43773481489950039 0 -0.43436225245760629 -0.43436846706116522 0 -0.43678674976689008 -0.44731445412487941 0 -0.44771418536577928 -0.45799830971730748 0 -0.4346689776767394 -0.4630732060703181 0 -0.43678674976689008 -0.44731445412487941 0 -0.44782350163928553 -0.47392509766656238 0 -0.44771418536577928 -0.45799830971730748 0 -0.4346689776767394 -0.4630732060703181 0 -0.44782350163928553 -0.47392509766656238 0 -0.4346689776767394 -0.4630732060703181 0 -0.44782350163928553 -0.47392509766656238 0 -0.44771418536577928 -0.45799830971730748 0 -0.46424512936335849 -0.46194500844059377 0 -0.44771418536577928 -0.45799830971730748 0 -0.46424512936335849 -0.46194500844059377 0 -0.45504656838262292 -0.44373378228418359 0 -0.46424512936335849 -0.46194500844059377 0 -0.46802970213757478 -0.44968726319951591 0 -0.45504656838262292 -0.44373378228418359 0 -0.46424512936335849 -0.46194500844059377 0 -0.45504656838262292 -0.44373378228418359 0 -0.46802970213757478 -0.44968726319951591 0 -0.45504656838262292 -0.44373378228418359 0 -0.47471448692834067 -0.43339585201910558 0 -0.47811262387597719 -0.45967441005418058 0 -0.47471448692834067 -0.43339585201910558 0 -0.46802970213757478 -0.44968726319951591 0 -0.47811262387597719 -0.45967441005418058 0 -0.47471448692834067 -0.43339585201910558 0 -0.48151076082361371 -0.48595296808925548 0 -0.47811262387597719 -0.45967441005418058 0 -0.5 -0.43933529444290198 0 -0.47811262387597719 -0.45967441005418058 0 -0.5 -0.43933529444290198 0 -0.47471448692834067 -0.43339585201910558 0 -0.47228957227868579 -0.47160151072803141 0 -0.46424512936335849 -0.46194500844059377 0 -0.47811262387597719 -0.45967441005418058 0 -0.46424512936335849 -0.46194500844059377 0 -0.46802970213757478 -0.44968726319951591 0 -0.47811262387597719 -0.45967441005418058 0 -0.5 -0.43933529444290198 0 -0.47131634998070432 -0.40711729398403063 0 -0.47471448692834067 -0.43339585201910558 0 -0.5 -0.43933529444290198 0 -0.47131634998070432 -0.40711729398403063 0 -0.5 -0.39297041269338617 0 -0.47131634998070432 -0.40711729398403063 0 -0.47471448692834067 -0.43339585201910558 0 -0.47131634998070432 -0.40711729398403063 0 -0.5 -0.39297041269338617 0 -0.46791821303306769 -0.38083873594895562 0 -0.5 -0.39297041269338617 0 -0.46791821303306769 -0.38083873594895562 0 -0.47911643867925868 -0.35535761501186852 0 -0.47131634998070432 -0.40711729398403063 0 -0.46791821303306769 -0.38083873594895562 0 -0.46791821303306769 -0.38083873594895562 0 -0.45079697851140332 -0.38962909827856279 0 -0.44600954305540619 -0.37828215798421561 0 -0.46791821303306769 -0.38083873594895562 0 -0.44600954305540619 -0.37828215798421561 0 -0.4508545684080375 -0.36594782411886789 0 -0.46791821303306769 -0.38083873594895562 0 -0.45860971845162363 -0.39830558916607672 0 -0.45079697851140332 -0.38962909827856279 0 -0.47131634998070432 -0.40711729398403063 0 -0.46791821303306769 -0.38083873594895562 0 -0.45860971845162363 -0.39830558916607672 0 -0.47131634998070432 -0.40711729398403063 0 -0.45860971845162363 -0.39830558916607672 0 -0.4534406868032495 -0.41059936641546502 0 -0.4471589905132633 -0.39962434207104358 0 -0.44224237122483118 -0.390953934311006 0 -0.43664944642115222 -0.40731132997136299 0 -0.4471589905132633 -0.39962434207104358 0 -0.4534406868032495 -0.41059936641546502 0 -0.43664944642115222 -0.40731132997136299 0 -0.45860971845162363 -0.39830558916607672 0 -0.4471589905132633 -0.39962434207104358 0 -0.4534406868032495 -0.41059936641546502 0 -0.4471589905132633 -0.39962434207104358 0 -0.44224237122483118 -0.390953934311006 0 -0.45079697851140332 -0.38962909827856279 0 -0.45860971845162363 -0.39830558916607672 0 -0.4471589905132633 -0.39962434207104358 0 -0.45079697851140332 -0.38962909827856279 0 -0.44224237122483118 -0.390953934311006 0 -0.45079697851140332 -0.38962909827856279 0 -0.44600954305540619 -0.37828215798421561 0 -0.44224237122483118 -0.390953934311006 0 -0.44600954305540619 -0.37828215798421561 0 -0.43059689762293102 -0.37992274324984532 0 -0.45504656838262292 -0.44373378228418359 0 -0.47471448692834067 -0.43339585201910558 0 -0.4600732198993609 -0.42407377016611159 0 -0.45504656838262292 -0.44373378228418359 0 -0.4600732198993609 -0.42407377016611159 0 -0.44584800740188729 -0.42552255612777351 0 -0.47131634998070432 -0.40711729398403063 0 -0.4600732198993609 -0.42407377016611159 0 -0.4534406868032495 -0.41059936641546502 0 -0.47131634998070432 -0.40711729398403063 0 -0.47471448692834067 -0.43339585201910558 0 -0.4600732198993609 -0.42407377016611159 0 -0.43851799670713382 -0.4157667680450135 0 -0.44584800740188729 -0.42552255612777351 0 -0.43664944642115222 -0.40731132997136299 0 -0.4534406868032495 -0.41059936641546502 0 -0.44584800740188729 -0.42552255612777351 0 -0.43664944642115222 -0.40731132997136299 0 -0.4600732198993609 -0.42407377016611159 0 -0.4534406868032495 -0.41059936641546502 0 -0.44584800740188729 -0.42552255612777351 0 -0.44584800740188729 -0.42552255612777351 0 -0.43664944642115222 -0.40731132997136299 0 -0.43851799670713382 -0.4157667680450135 0 -0.43664944642115222 -0.40731132997136299 0 -0.43851799670713382 -0.4157667680450135 0 -0.44584800740188729 -0.42552255612777351 0 -0.43184961346180611 -0.42354009015530308 0 -0.45504656838262292 -0.44373378228418359 0 -0.44584800740188729 -0.42552255612777351 0 -0.44301089450225167 -0.43773481489950039 0 -0.45504656838262292 -0.44373378228418359 0 -0.44584800740188729 -0.42552255612777351 0 -0.44301089450225167 -0.43773481489950039 0 -0.44584800740188729 -0.42552255612777351 0 -0.43436225245760629 -0.43436846706116522 0 -0.43436225245760629 -0.43436846706116522 0 -0.42440804435841728 -0.43020935270746657 0 -0.42246852162415899 -0.44083731315358587 0 -0.42440804435841728 -0.43020935270746657 0 -0.43184961346180611 -0.42354009015530308 0 -0.41903151057635962 -0.42168652973888943 0 -0.44584800740188729 -0.42552255612777351 0 -0.43436225245760629 -0.43436846706116522 0 -0.43184961346180611 -0.42354009015530308 0 -0.43436225245760629 -0.43436846706116522 0 -0.42440804435841728 -0.43020935270746657 0 -0.43184961346180611 -0.42354009015530308 0 -0.43851799670713382 -0.4157667680450135 0 -0.43184961346180611 -0.42354009015530308 0 -0.42814992792232109 -0.41362380412717431 0 -0.43664944642115222 -0.40731132997136299 0 -0.42814992792232109 -0.41362380412717431 0 -0.42447514795651808 -0.40273017995059551 0 -0.43851799670713382 -0.4157667680450135 0 -0.43664944642115222 -0.40731132997136299 0 -0.42814992792232109 -0.41362380412717431 0 -0.43184961346180611 -0.42354009015530308 0 -0.42814992792232109 -0.41362380412717431 0 -0.41903151057635962 -0.42168652973888943 0 -0.42814992792232109 -0.41362380412717431 0 -0.41903151057635962 -0.42168652973888943 0 -0.4118441350607594 -0.40705581618646891 0 -0.42814992792232109 -0.41362380412717431 0 -0.4118441350607594 -0.40705581618646891 0 -0.42447514795651808 -0.40273017995059551 0 -0.41903151057635962 -0.42168652973888943 0 -0.4118441350607594 -0.40705581618646891 0 -0.40407452031221541 -0.42079739804836352 0 -0.4143283236721555 -0.43061436342838971 0 -0.4016819056908697 -0.43586035288859948 0 -0.40407452031221541 -0.42079739804836352 0 -0.41903151057635962 -0.42168652973888943 0 -0.4143283236721555 -0.43061436342838971 0 -0.40407452031221541 -0.42079739804836352 0 -0.4143283236721555 -0.43061436342838971 0 -0.4016819056908697 -0.43586035288859948 0 -0.42246852162415899 -0.44083731315358587 0 -0.42440804435841728 -0.43020935270746657 0 -0.4143283236721555 -0.43061436342838971 0 -0.42246852162415899 -0.44083731315358587 0 -0.42440804435841728 -0.43020935270746657 0 -0.41903151057635962 -0.42168652973888943 0 -0.4143283236721555 -0.43061436342838971 0 -0.43059689762293102 -0.37992274324984532 0 -0.41976824431489668 -0.38164515934213061 0 -0.41849582317032641 -0.37149004025368959 0 -0.43059689762293102 -0.37992274324984532 0 -0.42874126550129521 -0.39165478635340711 0 -0.41976824431489668 -0.38164515934213061 0 -0.43664944642115222 -0.40731132997136299 0 -0.42874126550129521 -0.39165478635340711 0 -0.42447514795651808 -0.40273017995059551 0 -0.44224237122483118 -0.390953934311006 0 -0.43664944642115222 -0.40731132997136299 0 -0.43059689762293102 -0.37992274324984532 0 -0.43664944642115222 -0.40731132997136299 0 -0.42874126550129521 -0.39165478635340711 0 -0.43664944642115222 -0.40731132997136299 0 -0.43059689762293102 -0.37992274324984532 0 -0.42874126550129521 -0.39165478635340711 0 -0.43664944642115222 -0.40731132997136299 0 -0.43059689762293102 -0.37992274324984532 0 -0.42874126550129521 -0.39165478635340711 0 -0.42447514795651808 -0.40273017995059551 0 -0.41699096487706228 -0.39400516311456413 0 -0.4118441350607594 -0.40705581618646891 0 -0.42447514795651808 -0.40273017995059551 0 -0.41699096487706228 -0.39400516311456413 0 -0.4118441350607594 -0.40705581618646891 0 -0.40707173147595072 -0.39220472029769798 0 -0.41699096487706228 -0.39400516311456413 0 -0.42874126550129521 -0.39165478635340711 0 -0.41699096487706228 -0.39400516311456413 0 -0.41976824431489668 -0.38164515934213061 0 -0.41699096487706228 -0.39400516311456413 0 -0.41110783726522709 -0.38389233920490867 0 -0.41976824431489668 -0.38164515934213061 0 -0.40707173147595072 -0.39220472029769798 0 -0.41699096487706228 -0.39400516311456413 0 -0.41110783726522709 -0.38389233920490867 0 -0.41110783726522709 -0.38389233920490867 0 -0.41976824431489668 -0.38164515934213061 0 -0.40967758180956421 -0.37468652489877702 0 -0.41110783726522709 -0.38389233920490867 0 -0.40036988105319621 -0.38425385595817779 0 -0.40967758180956421 -0.37468652489877702 0 -0.41976824431489668 -0.38164515934213061 0 -0.41849582317032641 -0.37149004025368959 0 -0.40967758180956421 -0.37468652489877702 0 -0.40036988105319621 -0.38425385595817779 0 -0.39630578674568701 -0.39700349803553753 0 -0.38031762403277253 -0.38699117948675471 0 -0.40036988105319621 -0.38425385595817779 0 -0.38031762403277253 -0.38699117948675471 0 -0.39782740373590603 -0.37110995483687531 0 -0.40036988105319621 -0.38425385595817779 0 -0.40967758180956421 -0.37468652489877702 0 -0.39782740373590603 -0.37110995483687531 0 -0.40707173147595072 -0.39220472029769798 0 -0.41110783726522709 -0.38389233920490867 0 -0.40036988105319621 -0.38425385595817779 0 -0.4118441350607594 -0.40705581618646891 0 -0.39630578674568701 -0.39700349803553753 0 -0.39571188920560207 -0.41006793474470898 0 -0.40707173147595072 -0.39220472029769798 0 -0.40036988105319621 -0.38425385595817779 0 -0.39630578674568701 -0.39700349803553753 0 -0.4118441350607594 -0.40705581618646891 0 -0.40707173147595072 -0.39220472029769798 0 -0.39630578674568701 -0.39700349803553753 0 -0.39630578674568701 -0.39700349803553753 0 -0.38461131217957067 -0.40417477908719268 0 -0.39571188920560207 -0.41006793474470898 0 -0.38461131217957067 -0.40417477908719268 0 -0.38031762403277253 -0.38699117948675471 0 -0.36906810181453648 -0.40671757514639217 0 -0.39630578674568701 -0.39700349803553753 0 -0.38461131217957067 -0.40417477908719268 0 -0.38031762403277253 -0.38699117948675471 0 -0.38031762403277253 -0.38699117948675471 0 -0.38058003607877883 -0.36540077443778901 0 -0.37211561333191889 -0.37679763683352541 0 -0.38031762403277253 -0.38699117948675471 0 -0.39782740373590603 -0.37110995483687531 0 -0.4016819056908697 -0.43586035288859948 0 -0.38184935766754607 -0.41949939130312519 0 -0.4016819056908697 -0.43586035288859948 0 -0.40407452031221541 -0.42079739804836352 0 -0.38184935766754607 -0.41949939130312519 0 -0.40407452031221541 -0.42079739804836352 0 -0.39571188920560207 -0.41006793474470898 0 -0.38184935766754607 -0.41949939130312519 0 -0.4118441350607594 -0.40705581618646891 0 -0.40407452031221541 -0.42079739804836352 0 -0.39571188920560207 -0.41006793474470898 0 -0.38461131217957067 -0.40417477908719268 0 -0.39571188920560207 -0.41006793474470898 0 -0.38184935766754607 -0.41949939130312519 0 -0.38461131217957067 -0.40417477908719268 0 -0.38184935766754607 -0.41949939130312519 0 -0.36906810181453648 -0.40671757514639217 0 -0.4016819056908697 -0.43586035288859948 0 -0.38184935766754607 -0.41949939130312519 0 -0.38317430405380581 -0.4397587035842328 0 -0.38184935766754607 -0.41949939130312519 0 -0.38317430405380581 -0.4397587035842328 0 -0.36749281017212798 -0.43207252531200568 0 -0.38317430405380581 -0.4397587035842328 0 -0.39198423914777047 -0.45856220494985589 0 -0.37286320759071467 -0.45279904346757782 0 -0.4016819056908697 -0.43586035288859948 0 -0.38317430405380581 -0.4397587035842328 0 -0.39198423914777047 -0.45856220494985589 0 -0.4016819056908697 -0.43586035288859948 0 -0.39198423914777047 -0.45856220494985589 0 -0.40833792948659497 -0.45735209779153091 0 -0.39198423914777047 -0.45856220494985589 0 -0.40638859768172109 -0.47126197207526538 0 -0.40833792948659497 -0.45735209779153091 0 -0.39198423914777047 -0.45856220494985589 0 -0.37868365968749412 -0.47054838073484578 0 -0.37286320759071467 -0.45279904346757782 0 -0.39198423914777047 -0.45856220494985589 0 -0.37868365968749412 -0.47054838073484578 0 -0.39122084417573 -0.47958849986114371 0 -0.37868365968749412 -0.47054838073484578 0 -0.37854747592645499 -0.48533166709335762 0 -0.39122084417573 -0.47958849986114371 0 -0.37854747592645499 -0.48533166709335762 0 -0.39443961091387242 -0.5 0 -0.37136899381218402 -0.5 0 -0.37854747592645499 -0.48533166709335762 0 -0.39443961091387242 -0.5 0 -0.39122084417573 -0.47958849986114371 0 -0.39443961091387242 -0.5 0 -0.40597491946471659 -0.4917262743206105 0 -0.4175102280155607 -0.50000000000000111 0 -0.39443961091387242 -0.5 0 -0.40597491946471659 -0.4917262743206105 0 -0.39122084417573 -0.47958849986114371 0 -0.40597491946471659 -0.4917262743206105 0 -0.39122084417573 -0.47958849986114371 0 -0.41872644868264858 -0.48548797466564331 0 -0.39198423914777047 -0.45856220494985589 0 -0.39122084417573 -0.47958849986114371 0 -0.40638859768172109 -0.47126197207526538 0 -0.39122084417573 -0.47958849986114371 0 -0.40638859768172109 -0.47126197207526538 0 -0.41872644868264858 -0.48548797466564331 0 -0.39122084417573 -0.47958849986114371 0 -0.41872644868264858 -0.48548797466564331 0 -0.42012045119842079 -0.46885464456985881 0 -0.41872644868264858 -0.48548797466564331 0 -0.40638859768172109 -0.47126197207526538 0 -0.42012045119842079 -0.46885464456985881 0 -0.41872644868264858 -0.48548797466564331 0 -0.41872644868264858 -0.48548797466564331 0 -0.4175102280155607 -0.50000000000000111 0 -0.40597491946471659 -0.4917262743206105 0 -0.41872644868264858 -0.48548797466564331 0 -0.4175102280155607 -0.50000000000000111 0 -0.44510661451528277 -0.49114606240659853 0 -0.41872644868264858 -0.48548797466564331 0 -0.4175102280155607 -0.50000000000000111 0 -0.44510661451528277 -0.49114606240659853 0 -0.41872644868264858 -0.48548797466564331 0 -0.44510661451528277 -0.49114606240659853 0 -0.41872644868264858 -0.48548797466564331 0 -0.43328919874247551 -0.47649739707579619 0 -0.42012045119842079 -0.46885464456985881 0 -0.41872644868264858 -0.48548797466564331 0 -0.43328919874247551 -0.47649739707579619 0 -0.42012045119842079 -0.46885464456985881 0 -0.43328919874247551 -0.47649739707579619 0 -0.4346689776767394 -0.4630732060703181 0 -0.4346689776767394 -0.4630732060703181 0 -0.43678674976689008 -0.44731445412487941 0 -0.42151445371419272 -0.45222131447407438 0 -0.42012045119842079 -0.46885464456985881 0 -0.4346689776767394 -0.4630732060703181 0 -0.42151445371419272 -0.45222131447407438 0 -0.4346689776767394 -0.4630732060703181 0 -0.42151445371419272 -0.45222131447407438 0 -0.43436225245760629 -0.43436846706116522 0 -0.43678674976689008 -0.44731445412487941 0 -0.42246852162415899 -0.44083731315358587 0 -0.42246852162415899 -0.44083731315358587 0 -0.42151445371419272 -0.45222131447407438 0 -0.43678674976689008 -0.44731445412487941 0 -0.42246852162415899 -0.44083731315358587 0 -0.42151445371419272 -0.45222131447407438 0 -0.4016819056908697 -0.43586035288859948 0 -0.42246852162415899 -0.44083731315358587 0 -0.42151445371419272 -0.45222131447407438 0 -0.4016819056908697 -0.43586035288859948 0 -0.42151445371419272 -0.45222131447407438 0 -0.40833792948659497 -0.45735209779153091 0 -0.4016819056908697 -0.43586035288859948 0 -0.42151445371419272 -0.45222131447407438 0 -0.42012045119842079 -0.46885464456985881 0 -0.42151445371419272 -0.45222131447407438 0 -0.40833792948659497 -0.45735209779153091 0 -0.42012045119842079 -0.46885464456985881 0 -0.42151445371419272 -0.45222131447407438 0 -0.40638859768172109 -0.47126197207526538 0 -0.42012045119842079 -0.46885464456985881 0 -0.40833792948659497 -0.45735209779153091 0 -0.45279766724497078 -0.26029206042762237 0 -0.44567620935325958 -0.25506078956309941 0 -0.44215056262092522 -0.26481847360975458 0 -0.45279766724497078 -0.26029206042762237 0 -0.44567620935325958 -0.25506078956309941 0 -0.45391541490318738 -0.25408904925972792 0 -0.44567620935325958 -0.25506078956309941 0 -0.45391541490318738 -0.25408904925972792 0 -0.44267691711508628 -0.2409902549262577 0 -0.44567620935325958 -0.25506078956309941 0 -0.43684048488212812 -0.25511410959213449 0 -0.44267691711508628 -0.2409902549262577 0 -0.44567620935325958 -0.25506078956309941 0 -0.44215056262092522 -0.26481847360975458 0 -0.43684048488212812 -0.25511410959213449 0 -0.45610220007416752 -0.27222830322808411 0 -0.4347324317336404 -0.28171853496668098 0 -0.44215056262092522 -0.26481847360975458 0 -0.45610220007416752 -0.27222830322808411 0 -0.4347324317336404 -0.28171853496668098 0 -0.45279766724497078 -0.26029206042762237 0 -0.44215056262092522 -0.26481847360975458 0 -0.45610220007416752 -0.27222830322808411 0 -0.45610220007416752 -0.27222830322808411 0 -0.46515391269128797 -0.26718784359319842 0 -0.45279766724497078 -0.26029206042762237 0 -0.45610220007416752 -0.27222830322808411 0 -0.45610220007416752 -0.27222830322808411 0 -0.46515391269128797 -0.26718784359319842 0 -0.46080440806740702 -0.26478531056816318 0 -0.45279766724497078 -0.26029206042762237 0 -0.45610220007416752 -0.27222830322808411 0 -0.46080440806740702 -0.26478531056816318 0 -0.45610220007416752 -0.27222830322808411 0 -0.46080440806740702 -0.26478531056816318 0 -0.45610220007416752 -0.27222830322808411 0 -0.46455062989314427 -0.27845106751622611 0 -0.46515391269128797 -0.26718784359319842 0 -0.46515391269128797 -0.26718784359319842 0 -0.45391541490318738 -0.25408904925972792 0 -0.46889051345328431 -0.25261131866275738 0 -0.46515391269128797 -0.26718784359319842 0 -0.46080440806740702 -0.26478531056816318 0 -0.45391541490318738 -0.25408904925972792 0 -0.45279766724497078 -0.26029206042762237 0 -0.46080440806740702 -0.26478531056816318 0 -0.45391541490318738 -0.25408904925972792 0 -0.46515391269128797 -0.26718784359319842 0 -0.45391541490318738 -0.25408904925972792 0 -0.46515391269128797 -0.26718784359319842 0 -0.48257695634564463 -0.25886580067620391 0 -0.46889051345328431 -0.25261131866275738 0 -0.48257695634564463 -0.25886580067620391 0 -0.48043400229726219 -0.2392761789037407 0 -0.46515391269128797 -0.26718784359319842 0 -0.46889051345328431 -0.25261131866275738 0 -0.48257695634564463 -0.25886580067620391 0 -0.48257695634564463 -0.25886580067620391 0 -0.50000000000000022 -0.25054375775920767 0 -0.48634051927089361 -0.27200185458527482 0 -0.48257695634564463 -0.25886580067620391 0 -0.50000000000000022 -0.25054375775920767 0 -0.48634051927089361 -0.27200185458527482 0 -0.5 -0.27917286215314813 0 -0.48257695634564429 -0.28749490507014308 0 -0.50000000000000022 -0.25054375775920767 0 -0.48634051927089361 -0.27200185458527482 0 -0.5 -0.27917286215314813 0 -0.46515391269128797 -0.26718784359319842 0 -0.48257695634564463 -0.25886580067620391 0 -0.48634051927089361 -0.27200185458527482 0 -0.46515391269128797 -0.26718784359319842 0 -0.48257695634564429 -0.28749490507014308 0 -0.46515391269128797 -0.26718784359319842 0 -0.48634051927089361 -0.27200185458527482 0 -0.48257695634564429 -0.28749490507014308 0 -0.46455062989314427 -0.27845106751622611 0 -0.46515391269128797 -0.26718784359319842 0 -0.48257695634564429 -0.28749490507014308 0 -0.46455062989314427 -0.27845106751622611 0 -0.48257695634564429 -0.28749490507014308 0 -0.46216919174964349 -0.29414277327571131 0 -0.48257695634564429 -0.28749490507014308 0 -0.48031009526050561 -0.3055255011148964 0 -0.46216919174964349 -0.29414277327571131 0 -0.5 -0.27917286215314813 0 -0.48257695634564429 -0.28749490507014308 0 -0.50000000000000011 -0.30780196654708841 0 -0.48257695634564429 -0.28749490507014308 0 -0.50000000000000011 -0.30780196654708841 0 -0.48031009526050561 -0.3055255011148964 0 -0.48257695634564429 -0.28749490507014308 0 -0.50000000000000011 -0.30780196654708841 0 -0.50000000000000011 -0.30780196654708841 0 -0.48031009526050561 -0.3055255011148964 0 -0.48456989075724372 -0.31956153840216017 0 -0.48031009526050561 -0.3055255011148964 0 -0.46216919174964349 -0.29414277327571131 0 -0.46823618342511869 -0.31605724332333868 0 -0.46216919174964349 -0.29414277327571131 0 -0.44599406848540801 -0.31155261087488723 0 -0.46823618342511869 -0.31605724332333868 0 -0.46216919174964349 -0.29414277327571131 0 -0.46823618342511869 -0.31605724332333868 0 -0.45610220007416752 -0.27222830322808411 0 -0.46216919174964349 -0.29414277327571131 0 -0.45610220007416752 -0.27222830322808411 0 -0.46455062989314427 -0.27845106751622611 0 -0.46216919174964349 -0.29414277327571131 0 -0.45610220007416752 -0.27222830322808411 0 -0.44071744770325122 -0.29658039465747599 0 -0.4347324317336404 -0.28171853496668098 0 -0.45610220007416752 -0.27222830322808411 0 -0.44071744770325122 -0.29658039465747599 0 -0.45610220007416752 -0.27222830322808411 0 -0.46216919174964349 -0.29414277327571131 0 -0.44071744770325122 -0.29658039465747599 0 -0.46216919174964349 -0.29414277327571131 0 -0.44071744770325122 -0.29658039465747599 0 -0.44599406848540801 -0.31155261087488723 0 -0.44071744770325122 -0.29658039465747599 0 -0.44599406848540801 -0.31155261087488723 0 -0.43187220271377869 -0.31880401711558898 0 -0.5 -0.39297041269338617 0 -0.499999999999997 -0.33045126765451149 0 -0.47911643867925868 -0.35535761501186852 0 -0.44599406848540801 -0.31155261087488723 0 -0.44598939116744452 -0.3274274325577371 0 -0.44075648188775107 -0.32012693940371167 0 -0.44599406848540801 -0.31155261087488723 0 -0.44075648188775107 -0.32012693940371167 0 -0.43187220271377869 -0.31880401711558898 0 -0.44598939116744452 -0.3274274325577371 0 -0.44075648188775107 -0.32012693940371167 0 -0.43391069977787322 -0.32638851578629108 0 -0.44598939116744452 -0.3274274325577371 0 -0.43474624046224258 -0.33762487679456032 0 -0.44598939116744452 -0.3274274325577371 0 -0.43474624046224258 -0.33762487679456032 0 -0.43391069977787322 -0.32638851578629108 0 -0.44598939116744452 -0.3274274325577371 0 -0.459533587903388 -0.33235227149095792 0 -0.44942376196265132 -0.34525293494964582 0 -0.44598939116744452 -0.3274274325577371 0 -0.44942376196265132 -0.34525293494964582 0 -0.43474624046224258 -0.33762487679456032 0 -0.459533587903388 -0.33235227149095792 0 -0.47430317510059378 -0.3379717133709661 0 -0.44942376196265132 -0.34525293494964582 0 -0.459533587903388 -0.33235227149095792 0 -0.46823618342511869 -0.31605724332333868 0 -0.47430317510059378 -0.3379717133709661 0 -0.47430317510059378 -0.3379717133709661 0 -0.44942376196265132 -0.34525293494964582 0 -0.44599406848540801 -0.31155261087488723 0 -0.44598939116744452 -0.3274274325577371 0 -0.46823618342511869 -0.31605724332333868 0 -0.44598939116744452 -0.3274274325577371 0 -0.459533587903388 -0.33235227149095792 0 -0.46823618342511869 -0.31605724332333868 0 -0.46823618342511869 -0.31605724332333868 0 -0.48456989075724372 -0.31956153840216017 0 -0.47430317510059378 -0.3379717133709661 0 -0.48031009526050561 -0.3055255011148964 0 -0.46823618342511869 -0.31605724332333868 0 -0.48456989075724372 -0.31956153840216017 0 -0.46823618342511869 -0.31605724332333868 0 -0.47430317510059378 -0.3379717133709661 0 -0.50000000000000011 -0.30780196654708841 0 -0.48456989075724372 -0.31956153840216017 0 -0.499999999999997 -0.33045126765451149 0 -0.48456989075724372 -0.31956153840216017 0 -0.499999999999997 -0.33045126765451149 0 -0.47430317510059378 -0.3379717133709661 0 -0.499999999999997 -0.33045126765451149 0 -0.47430317510059378 -0.3379717133709661 0 -0.499999999999997 -0.33045126765451149 0 -0.47430317510059378 -0.3379717133709661 0 -0.47911643867925868 -0.35535761501186852 0 -0.47430317510059378 -0.3379717133709661 0 -0.47911643867925868 -0.35535761501186852 0 -0.46273558140393622 -0.35661700443781158 0 -0.47430317510059378 -0.3379717133709661 0 -0.47911643867925868 -0.35535761501186852 0 -0.46791821303306769 -0.38083873594895562 0 -0.47911643867925868 -0.35535761501186852 0 -0.46273558140393622 -0.35661700443781158 0 -0.46791821303306769 -0.38083873594895562 0 -0.46273558140393622 -0.35661700443781158 0 -0.4508545684080375 -0.36594782411886789 0 -0.46273558140393622 -0.35661700443781158 0 -0.44942376196265132 -0.34525293494964582 0 -0.4508545684080375 -0.36594782411886789 0 -0.47430317510059378 -0.3379717133709661 0 -0.46273558140393622 -0.35661700443781158 0 -0.44942376196265132 -0.34525293494964582 0 -0.44942376196265132 -0.34525293494964582 0 -0.4381566521994848 -0.36457646372368357 0 -0.4508545684080375 -0.36594782411886789 0 -0.44600954305540619 -0.37828215798421561 0 -0.4381566521994848 -0.36457646372368357 0 -0.4508545684080375 -0.36594782411886789 0 -0.44600954305540619 -0.37828215798421561 0 -0.43059689762293102 -0.37992274324984532 0 -0.4381566521994848 -0.36457646372368357 0 -0.43059689762293102 -0.37992274324984532 0 -0.42014632568526877 -0.36423069457994112 0 -0.41849582317032641 -0.37149004025368959 0 -0.43059689762293102 -0.37992274324984532 0 -0.4381566521994848 -0.36457646372368357 0 -0.42454434882470932 -0.35253415652832781 0 -0.43059689762293102 -0.37992274324984532 0 -0.42454434882470932 -0.35253415652832781 0 -0.43059689762293102 -0.37992274324984532 0 -0.42454434882470932 -0.35253415652832781 0 -0.42014632568526877 -0.36423069457994112 0 -0.44942376196265132 -0.34525293494964582 0 -0.42454434882470932 -0.35253415652832781 0 -0.44942376196265132 -0.34525293494964582 0 -0.42454434882470932 -0.35253415652832781 0 -0.43474624046224258 -0.33762487679456032 0 -0.44942376196265132 -0.34525293494964582 0 -0.4381566521994848 -0.36457646372368357 0 -0.42454434882470932 -0.35253415652832781 0 -0.42350308975704021 -0.347822321031383 0 -0.42454434882470932 -0.35253415652832781 0 -0.43474624046224258 -0.33762487679456032 0 -0.42350308975704021 -0.347822321031383 0 -0.42454434882470932 -0.35253415652832781 0 -0.41533718343903908 -0.35522873018699558 0 -0.39795860975890901 -0.36031475231239207 0 -0.42454434882470932 -0.35253415652832781 0 -0.41533718343903908 -0.35522873018699558 0 -0.42014632568526877 -0.36423069457994112 0 -0.42454434882470932 -0.35253415652832781 0 -0.41533718343903908 -0.35522873018699558 0 -0.42350308975704021 -0.347822321031383 0 -0.42454434882470932 -0.35253415652832781 0 -0.41533718343903908 -0.35522873018699558 0 -0.41533718343903908 -0.35522873018699558 0 -0.40692454943793371 -0.35194590844396828 0 -0.39795860975890901 -0.36031475231239207 0 -0.42350308975704021 -0.347822321031383 0 -0.41533718343903908 -0.35522873018699558 0 -0.41227100889217311 -0.34617715899237927 0 -0.42350308975704021 -0.347822321031383 0 -0.41533718343903908 -0.35522873018699558 0 -0.41227100889217311 -0.34617715899237927 0 -0.40213139566161349 -0.34606299228410609 0 -0.40699694722114588 -0.33966816179756498 0 -0.41227100889217311 -0.34617715899237927 0 -0.40692454943793371 -0.35194590844396828 0 -0.40213139566161349 -0.34606299228410609 0 -0.41533718343903908 -0.35522873018699558 0 -0.41227100889217311 -0.34617715899237927 0 -0.40692454943793371 -0.35194590844396828 0 -0.41533718343903908 -0.35522873018699558 0 -0.41224781918632247 -0.36686088110849141 0 -0.39782740373590603 -0.37110995483687531 0 -0.41533718343903908 -0.35522873018699558 0 -0.39782740373590603 -0.37110995483687531 0 -0.41533718343903908 -0.35522873018699558 0 -0.41224781918632247 -0.36686088110849141 0 -0.42014632568526877 -0.36423069457994112 0 -0.41224781918632247 -0.36686088110849141 0 -0.42014632568526877 -0.36423069457994112 0 -0.41849582317032641 -0.37149004025368959 0 -0.41224781918632247 -0.36686088110849141 0 -0.41849582317032641 -0.37149004025368959 0 -0.40967758180956421 -0.37468652489877702 0 -0.41224781918632247 -0.36686088110849141 0 -0.40967758180956421 -0.37468652489877702 0 -0.39782740373590603 -0.37110995483687531 0 -0.41533718343903908 -0.35522873018699558 0 -0.39795860975890901 -0.36031475231239207 0 -0.39782740373590603 -0.37110995483687531 0 -0.39795860975890901 -0.36031475231239207 0 -0.39782740373590603 -0.37110995483687531 0 -0.38058003607877883 -0.36540077443778901 0 -0.38058003607877883 -0.36540077443778901 0 -0.3873438066438436 -0.35031176192425051 0 -0.36689630100625109 -0.3640867011268818 0 -0.39795860975890901 -0.36031475231239207 0 -0.38058003607877883 -0.36540077443778901 0 -0.38031762403277253 -0.38699117948675471 0 -0.39782740373590603 -0.37110995483687531 0 -0.38058003607877883 -0.36540077443778901 0 -0.39795860975890901 -0.36031475231239207 0 -0.38058003607877883 -0.36540077443778901 0 -0.3873438066438436 -0.35031176192425051 0 -0.3873438066438436 -0.35031176192425051 0 -0.3783035782392114 -0.33623945198516991 0 -0.36689630100625109 -0.3640867011268818 0 -0.39795860975890901 -0.36031475231239207 0 -0.3873438066438436 -0.35031176192425051 0 -0.40213139566161349 -0.34606299228410609 0 -0.40692454943793371 -0.35194590844396828 0 -0.39795860975890901 -0.36031475231239207 0 -0.40213139566161349 -0.34606299228410609 0 -0.40213139566161349 -0.34606299228410609 0 -0.39819291911829757 -0.32976589939916318 0 -0.40699694722114588 -0.33966816179756498 0 -0.3873438066438436 -0.35031176192425051 0 -0.40213139566161349 -0.34606299228410609 0 -0.39819291911829757 -0.32976589939916318 0 -0.39819291911829757 -0.32976589939916318 0 -0.3783035782392114 -0.33623945198516991 0 -0.39819291911829757 -0.32976589939916318 0 -0.3783035782392114 -0.33623945198516991 0 -0.38532354110872868 -0.31910243926943838 0 -0.3873438066438436 -0.35031176192425051 0 -0.39819291911829757 -0.32976589939916318 0 -0.3783035782392114 -0.33623945198516991 0 -0.3783035782392114 -0.33623945198516991 0 -0.37557530933891758 -0.32698211692153711 0 -0.37300669737805497 -0.33796347275614658 0 -0.3783035782392114 -0.33623945198516991 0 -0.37300669737805497 -0.33796347275614658 0 -0.3783035782392114 -0.33623945198516991 0 -0.38532354110872868 -0.31910243926943838 0 -0.3783035782392114 -0.33623945198516991 0 -0.37557530933891758 -0.32698211692153711 0 -0.38532354110872868 -0.31910243926943838 0 -0.37557530933891758 -0.32698211692153711 0 -0.38532354110872868 -0.31910243926943838 0 -0.37250190652398102 -0.3114426814370666 0 -0.39819291911829757 -0.32976589939916318 0 -0.38532354110872868 -0.31910243926943838 0 -0.40054032002718148 -0.31553609635166302 0 -0.39819291911829757 -0.32976589939916318 0 -0.40054032002718148 -0.31553609635166302 0 -0.40892144188554552 -0.31974384780342852 0 -0.40892144188554552 -0.31974384780342852 0 -0.41749048264260291 -0.32061447573081547 0 -0.4103012276422619 -0.3095104207223448 0 -0.39819291911829757 -0.32976589939916318 0 -0.40892144188554552 -0.31974384780342852 0 -0.41808225999738341 -0.32329234681315527 0 -0.39819291911829757 -0.32976589939916318 0 -0.41808225999738341 -0.32329234681315527 0 -0.40054032002718148 -0.31553609635166302 0 -0.40892144188554552 -0.31974384780342852 0 -0.4103012276422619 -0.3095104207223448 0 -0.41749048264260291 -0.32061447573081547 0 -0.42533269533233647 -0.32093248608686881 0 -0.42203775468505161 -0.3053320825833919 0 -0.41808225999738341 -0.32329234681315527 0 -0.41749048264260291 -0.32061447573081547 0 -0.42533269533233647 -0.32093248608686881 0 -0.40892144188554552 -0.31974384780342852 0 -0.41808225999738341 -0.32329234681315527 0 -0.41749048264260291 -0.32061447573081547 0 -0.41808225999738341 -0.32329234681315527 0 -0.41957483406573848 -0.33004644259532739 0 -0.42533269533233647 -0.32093248608686881 0 -0.41808225999738341 -0.32329234681315527 0 -0.41957483406573848 -0.33004644259532739 0 -0.41808225999738341 -0.32329234681315527 0 -0.42533269533233647 -0.32093248608686881 0 -0.41808225999738341 -0.32329234681315527 0 -0.41749048264260291 -0.32061447573081547 0 -0.42350308975704021 -0.347822321031383 0 -0.41957483406573848 -0.33004644259532739 0 -0.39819291911829757 -0.32976589939916318 0 -0.40699694722114588 -0.33966816179756498 0 -0.41539246521249928 -0.33666659651461123 0 -0.39819291911829757 -0.32976589939916318 0 -0.41808225999738341 -0.32329234681315527 0 -0.41539246521249928 -0.33666659651461123 0 -0.42350308975704021 -0.347822321031383 0 -0.41539246521249928 -0.33666659651461123 0 -0.41957483406573848 -0.33004644259532739 0 -0.41227100889217311 -0.34617715899237927 0 -0.40699694722114588 -0.33966816179756498 0 -0.41539246521249928 -0.33666659651461123 0 -0.42350308975704021 -0.347822321031383 0 -0.41227100889217311 -0.34617715899237927 0 -0.41539246521249928 -0.33666659651461123 0 -0.41808225999738341 -0.32329234681315527 0 -0.41539246521249928 -0.33666659651461123 0 -0.41957483406573848 -0.33004644259532739 0 -0.41539246521249928 -0.33666659651461123 0 -0.41957483406573848 -0.33004644259532739 0 -0.41957483406573848 -0.33004644259532739 0 -0.43474624046224258 -0.33762487679456032 0 -0.43391069977787322 -0.32638851578629108 0 -0.42350308975704021 -0.347822321031383 0 -0.41957483406573848 -0.33004644259532739 0 -0.43474624046224258 -0.33762487679456032 0 -0.42350308975704021 -0.347822321031383 0 -0.43474624046224258 -0.33762487679456032 0 -0.44075648188775107 -0.32012693940371167 0 -0.43391069977787322 -0.32638851578629108 0 -0.43187220271377869 -0.31880401711558898 0 -0.43391069977787322 -0.32638851578629108 0 -0.43187220271377869 -0.31880401711558898 0 -0.42533269533233647 -0.32093248608686881 0 -0.43187220271377869 -0.31880401711558898 0 -0.42533269533233647 -0.32093248608686881 0 -0.41957483406573848 -0.33004644259532739 0 -0.42533269533233647 -0.32093248608686881 0 -0.41957483406573848 -0.33004644259532739 0 -0.43391069977787322 -0.32638851578629108 0 -0.42533269533233647 -0.32093248608686881 0 -0.44071744770325122 -0.29658039465747599 0 -0.42533269533233647 -0.32093248608686881 0 -0.44071744770325122 -0.29658039465747599 0 -0.43187220271377869 -0.31880401711558898 0 -0.42533269533233647 -0.32093248608686881 0 -0.44071744770325122 -0.29658039465747599 0 -0.42533269533233647 -0.32093248608686881 0 -0.42203775468505161 -0.3053320825833919 0 -0.4347324317336404 -0.28171853496668098 0 -0.41353796785594499 -0.29184198076019541 0 -0.41792053233873577 -0.27374721522778911 0 -0.4347324317336404 -0.28171853496668098 0 -0.41353796785594499 -0.29184198076019541 0 -0.44071744770325122 -0.29658039465747599 0 -0.42203775468505161 -0.3053320825833919 0 -0.4347324317336404 -0.28171853496668098 0 -0.42203775468505161 -0.3053320825833919 0 -0.4347324317336404 -0.28171853496668098 0 -0.41353796785594499 -0.29184198076019541 0 -0.42203775468505161 -0.3053320825833919 0 -0.41353796785594499 -0.29184198076019541 0 -0.4103012276422619 -0.3095104207223448 0 -0.41749048264260291 -0.32061447573081547 0 -0.42203775468505161 -0.3053320825833919 0 -0.4103012276422619 -0.3095104207223448 0 -0.38532354110872868 -0.31910243926943838 0 -0.40054032002718148 -0.31553609635166302 0 -0.39234350397824902 -0.30196542655370823 0 -0.41353796785594499 -0.29184198076019541 0 -0.39234350397824902 -0.30196542655370823 0 -0.41353796785594499 -0.29184198076019541 0 -0.4103012276422619 -0.3095104207223448 0 -0.39234350397824902 -0.30196542655370823 0 -0.40054032002718148 -0.31553609635166302 0 -0.4103012276422619 -0.3095104207223448 0 -0.39234350397824902 -0.30196542655370823 0 -0.39234350397824902 -0.30196542655370823 0 -0.37250190652398102 -0.3114426814370666 0 -0.38532354110872868 -0.31910243926943838 0 -0.39234350397824902 -0.30196542655370823 0 -0.37250190652398102 -0.3114426814370666 0 -0.38532354110872868 -0.31910243926943838 0 -0.39234350397824902 -0.30196542655370823 0 -0.39234350397824902 -0.30196542655370823 0 -0.37625165153131751 -0.28508947972484677 0 -0.37250190652398102 -0.3114426814370666 0 -0.39234350397824902 -0.30196542655370823 0 -0.37625165153131751 -0.28508947972484677 0 -0.40221245288197871 -0.27787351809241478 0 -0.41353796785594499 -0.29184198076019541 0 -0.39234350397824902 -0.30196542655370823 0 -0.40221245288197871 -0.27787351809241478 0 -0.39234350397824902 -0.30196542655370823 0 -0.40221245288197871 -0.27787351809241478 0 -0.37625165153131751 -0.28508947972484677 0 -0.40221245288197871 -0.27787351809241478 0 -0.3844619747157258 -0.26299495770959769 0 -0.3844619747157258 -0.26299495770959769 0 -0.39363452607216942 -0.24725580575093389 0 -0.3783366107969115 -0.24065819538696351 0 -0.3844619747157258 -0.26299495770959769 0 -0.36317355787862798 -0.25226458865137968 0 -0.3783366107969115 -0.24065819538696351 0 -0.40221245288197871 -0.27787351809241478 0 -0.3844619747157258 -0.26299495770959769 0 -0.41208140178570951 -0.25378160963112179 0 -0.3844619747157258 -0.26299495770959769 0 -0.41208140178570951 -0.25378160963112179 0 -0.39363452607216942 -0.24725580575093389 0 -0.41208140178570951 -0.25378160963112179 0 -0.41792053233873577 -0.27374721522778911 0 -0.42703840743640559 -0.26352043268853259 0 -0.40221245288197871 -0.27787351809241478 0 -0.41208140178570951 -0.25378160963112179 0 -0.40221245288197871 -0.27787351809241478 0 -0.41208140178570951 -0.25378160963112179 0 -0.41792053233873577 -0.27374721522778911 0 -0.41353796785594499 -0.29184198076019541 0 -0.40221245288197871 -0.27787351809241478 0 -0.41792053233873577 -0.27374721522778911 0 -0.44215056262092522 -0.26481847360975458 0 -0.4347324317336404 -0.28171853496668098 0 -0.42703840743640559 -0.26352043268853259 0 -0.4347324317336404 -0.28171853496668098 0 -0.41792053233873577 -0.27374721522778911 0 -0.42703840743640559 -0.26352043268853259 0 -0.41208140178570951 -0.25378160963112179 0 -0.42703840743640559 -0.26352043268853259 0 -0.42959489208381713 -0.24497902144412209 0 -0.43684048488212812 -0.25511410959213449 0 -0.42703840743640559 -0.26352043268853259 0 -0.42959489208381713 -0.24497902144412209 0 -0.44215056262092522 -0.26481847360975458 0 -0.43684048488212812 -0.25511410959213449 0 -0.42703840743640559 -0.26352043268853259 0 -0.31338265002433102 -0.26328516000962687 0 -0.33753352001786852 -0.26071015104661871 0 -0.32670296132123322 -0.2431470757685274 0 -0.31338265002433102 -0.26328516000962687 0 -0.33433198427967098 -0.2833264279033918 0 -0.30949616997756157 -0.28943015802128891 0 -0.33753352001786852 -0.26071015104661871 0 -0.35672265794876179 -0.27023713517394599 0 -0.33433198427967098 -0.2833264279033918 0 -0.31338265002433102 -0.26328516000962687 0 -0.33753352001786852 -0.26071015104661871 0 -0.33433198427967098 -0.2833264279033918 0 -0.33753352001786852 -0.26071015104661871 0 -0.36317355787862798 -0.25226458865137968 0 -0.35672265794876179 -0.27023713517394599 0 -0.33753352001786852 -0.26071015104661871 0 -0.36317355787862798 -0.25226458865137968 0 -0.34462164936043937 -0.24399584175618619 0 -0.3844619747157258 -0.26299495770959769 0 -0.36317355787862798 -0.25226458865137968 0 -0.35672265794876179 -0.27023713517394599 0 -0.37625165153131751 -0.28508947972484677 0 -0.3844619747157258 -0.26299495770959769 0 -0.35672265794876179 -0.27023713517394599 0 -0.35672265794876179 -0.27023713517394599 0 -0.35469148350923968 -0.29557853574718601 0 -0.33433198427967098 -0.2833264279033918 0 -0.35672265794876179 -0.27023713517394599 0 -0.35469148350923968 -0.29557853574718601 0 -0.37625165153131751 -0.28508947972484677 0 -0.35672265794876179 -0.27023713517394599 0 -0.35469148350923968 -0.29557853574718601 0 -0.35469148350923968 -0.29557853574718601 0 -0.37250190652398102 -0.3114426814370666 0 -0.35266030906971318 -0.32091993632042548 0 -0.37625165153131751 -0.28508947972484677 0 -0.35469148350923968 -0.29557853574718601 0 -0.37250190652398102 -0.3114426814370666 0 -0.35469148350923968 -0.29557853574718601 0 -0.3391556140666187 -0.30155709680839687 0 -0.34501078597933171 -0.3130037996952354 0 -0.35469148350923968 -0.29557853574718601 0 -0.35266030906971318 -0.32091993632042548 0 -0.35469148350923968 -0.29557853574718601 0 -0.34501078597933171 -0.3130037996952354 0 -0.35266030906971318 -0.32091993632042548 0 -0.32572379757769282 -0.30185623154070379 0 -0.32468676999667678 -0.31763523804897231 0 -0.33602001898715861 -0.31402048915546771 0 -0.3391556140666187 -0.30155709680839687 0 -0.33602001898715861 -0.31402048915546771 0 -0.34501078597933171 -0.3130037996952354 0 -0.3391556140666187 -0.30155709680839687 0 -0.32572379757769282 -0.30185623154070379 0 -0.33602001898715861 -0.31402048915546771 0 -0.35469148350923968 -0.29557853574718601 0 -0.3391556140666187 -0.30155709680839687 0 -0.33433198427967098 -0.2833264279033918 0 -0.3391556140666187 -0.30155709680839687 0 -0.33433198427967098 -0.2833264279033918 0 -0.32572379757769282 -0.30185623154070379 0 -0.33433198427967098 -0.2833264279033918 0 -0.32572379757769282 -0.30185623154070379 0 -0.30949616997756157 -0.28943015802128891 0 -0.32572379757769282 -0.30185623154070379 0 -0.3107239038406987 -0.31127910036705531 0 -0.30949616997756157 -0.28943015802128891 0 -0.32572379757769282 -0.30185623154070379 0 -0.32468676999667678 -0.31763523804897231 0 -0.3107239038406987 -0.31127910036705531 0 -0.32468676999667678 -0.31763523804897231 0 -0.31548017412897511 -0.3268037450728854 0 -0.32829254601240893 -0.32845795090551128 0 -0.32468676999667678 -0.31763523804897231 0 -0.31548017412897511 -0.3268037450728854 0 -0.3107239038406987 -0.31127910036705531 0 -0.31548017412897511 -0.3268037450728854 0 -0.3239557538926221 -0.34046547697498319 0 -0.30737816102346988 -0.34117057917186849 0 -0.31548017412897511 -0.3268037450728854 0 -0.3239557538926221 -0.34046547697498319 0 -0.32829254601240893 -0.32845795090551128 0 -0.32829254601240893 -0.32845795090551128 0 -0.33574784234441091 -0.33587315280146168 0 -0.33637834350680712 -0.3278900468035158 0 -0.3239557538926221 -0.34046547697498319 0 -0.32829254601240893 -0.32845795090551128 0 -0.33574784234441091 -0.33587315280146168 0 -0.3239557538926221 -0.34046547697498319 0 -0.33574784234441091 -0.33587315280146168 0 -0.33656745161270152 -0.34361877643326438 0 -0.34229363820767511 -0.33682507374177889 0 -0.34028205127900701 -0.34072539064298601 0 -0.34651927295124058 -0.34658455959543932 0 -0.33656745161270152 -0.34361877643326438 0 -0.34028205127900701 -0.34072539064298601 0 -0.34651927295124058 -0.34658455959543932 0 -0.33574784234441091 -0.33587315280146168 0 -0.33656745161270152 -0.34361877643326438 0 -0.34028205127900701 -0.34072539064298601 0 -0.33574784234441091 -0.33587315280146168 0 -0.34229363820767511 -0.33682507374177889 0 -0.34028205127900701 -0.34072539064298601 0 -0.33574784234441091 -0.33587315280146168 0 -0.34024976301913118 -0.33195439456368542 0 -0.33637834350680712 -0.3278900468035158 0 -0.34024976301913118 -0.33195439456368542 0 -0.34180863970208952 -0.32750202011382062 0 -0.33637834350680712 -0.3278900468035158 0 -0.33574784234441091 -0.33587315280146168 0 -0.34229363820767511 -0.33682507374177889 0 -0.34024976301913118 -0.33195439456368542 0 -0.34229363820767511 -0.33682507374177889 0 -0.34024976301913118 -0.33195439456368542 0 -0.34435576386300432 -0.33198664051670751 0 -0.34024976301913118 -0.33195439456368542 0 -0.34180863970208952 -0.32750202011382062 0 -0.34435576386300432 -0.33198664051670751 0 -0.34180863970208952 -0.32750202011382062 0 -0.34474763456805102 -0.32741745629996499 0 -0.34435576386300432 -0.33198664051670751 0 -0.34180863970208952 -0.32750202011382062 0 -0.3392768050989779 -0.32105525842141752 0 -0.34485165448363492 -0.32464970706992691 0 -0.3392768050989779 -0.32105525842141752 0 -0.33637834350680712 -0.3278900468035158 0 -0.33293089672040582 -0.3218117966669769 0 -0.34180863970208952 -0.32750202011382062 0 -0.3392768050989779 -0.32105525842141752 0 -0.33637834350680712 -0.3278900468035158 0 -0.32829254601240893 -0.32845795090551128 0 -0.33637834350680712 -0.3278900468035158 0 -0.33293089672040582 -0.3218117966669769 0 -0.32468676999667678 -0.31763523804897231 0 -0.32829254601240893 -0.32845795090551128 0 -0.33293089672040582 -0.3218117966669769 0 -0.32468676999667678 -0.31763523804897231 0 -0.33293089672040582 -0.3218117966669769 0 -0.33602001898715861 -0.31402048915546771 0 -0.3392768050989779 -0.32105525842141752 0 -0.34501078597933171 -0.3130037996952354 0 -0.34485165448363492 -0.32464970706992691 0 -0.3392768050989779 -0.32105525842141752 0 -0.33602001898715861 -0.31402048915546771 0 -0.34501078597933171 -0.3130037996952354 0 -0.3392768050989779 -0.32105525842141752 0 -0.33293089672040582 -0.3218117966669769 0 -0.33602001898715861 -0.31402048915546771 0 -0.34501078597933171 -0.3130037996952354 0 -0.34485165448363492 -0.32464970706992691 0 -0.35266030906971318 -0.32091993632042548 0 -0.34180863970208952 -0.32750202011382062 0 -0.34474763456805102 -0.32741745629996499 0 -0.34485165448363492 -0.32464970706992691 0 -0.34474763456805102 -0.32741745629996499 0 -0.34485165448363492 -0.32464970706992691 0 -0.34797448022347538 -0.32553145749940487 0 -0.34485165448363492 -0.32464970706992691 0 -0.35266030906971318 -0.32091993632042548 0 -0.34485165448363492 -0.32464970706992691 0 -0.34797448022347538 -0.32553145749940487 0 -0.35266030906971318 -0.32091993632042548 0 -0.37250190652398102 -0.3114426814370666 0 -0.35266030906971318 -0.32091993632042548 0 -0.37557530933891758 -0.32698211692153711 0 -0.37250190652398102 -0.3114426814370666 0 -0.36318727443417309 -0.32941518475604648 0 -0.37250190652398102 -0.3114426814370666 0 -0.35266030906971318 -0.32091993632042548 0 -0.36318727443417309 -0.32941518475604648 0 -0.37300669737805497 -0.33796347275614658 0 -0.35071262319591168 -0.34521971430038928 0 -0.37300669737805497 -0.33796347275614658 0 -0.36318727443417309 -0.32941518475604648 0 -0.35071262319591168 -0.34521971430038928 0 -0.37557530933891758 -0.32698211692153711 0 -0.37300669737805497 -0.33796347275614658 0 -0.36318727443417309 -0.32941518475604648 0 -0.37557530933891758 -0.32698211692153711 0 -0.37300669737805497 -0.33796347275614658 0 -0.34797448022347538 -0.32553145749940487 0 -0.34651927295124058 -0.34658455959543932 0 -0.35071262319591168 -0.34521971430038928 0 -0.35266030906971318 -0.32091993632042548 0 -0.36318727443417309 -0.32941518475604648 0 -0.35071262319591168 -0.34521971430038928 0 -0.35266030906971318 -0.32091993632042548 0 -0.35071262319591168 -0.34521971430038928 0 -0.34797448022347538 -0.32553145749940487 0 -0.34651927295124058 -0.34658455959543932 0 -0.34797448022347538 -0.32553145749940487 0 -0.34435576386300432 -0.33198664051670751 0 -0.34651927295124058 -0.34658455959543932 0 -0.34797448022347538 -0.32553145749940487 0 -0.35266030906971318 -0.32091993632042548 0 -0.35071262319591168 -0.34521971430038928 0 -0.34474763456805102 -0.32741745629996499 0 -0.34797448022347538 -0.32553145749940487 0 -0.34435576386300432 -0.33198664051670751 0 -0.34229363820767511 -0.33682507374177889 0 -0.34435576386300432 -0.33198664051670751 0 -0.34651927295124058 -0.34658455959543932 0 -0.35071262319591168 -0.34521971430038928 0 -0.34865155975354029 -0.37093401696376549 0 -0.34651927295124058 -0.34658455959543932 0 -0.35071262319591168 -0.34521971430038928 0 -0.34865155975354029 -0.37093401696376549 0 -0.35071262319591168 -0.34521971430038928 0 -0.35682669503396841 -0.35773681929523993 0 -0.34865155975354029 -0.37093401696376549 0 -0.34651927295124058 -0.34658455959543932 0 -0.35071262319591168 -0.34521971430038928 0 -0.37300669737805497 -0.33796347275614658 0 -0.35682669503396841 -0.35773681929523993 0 -0.36689630100625109 -0.3640867011268818 0 -0.37300669737805497 -0.33796347275614658 0 -0.36689630100625109 -0.3640867011268818 0 -0.3783035782392114 -0.33623945198516991 0 -0.37300669737805497 -0.33796347275614658 0 -0.36689630100625109 -0.3640867011268818 0 -0.37300669737805497 -0.33796347275614658 0 -0.35071262319591168 -0.34521971430038928 0 -0.35682669503396841 -0.35773681929523993 0 -0.3783035782392114 -0.33623945198516991 0 -0.36689630100625109 -0.3640867011268818 0 -0.38058003607877883 -0.36540077443778901 0 -0.36689630100625109 -0.3640867011268818 0 -0.37211561333191889 -0.37679763683352541 0 -0.35682669503396841 -0.35773681929523993 0 -0.36689630100625109 -0.3640867011268818 0 -0.35812665690840911 -0.36790595466336379 0 -0.36689630100625109 -0.3640867011268818 0 -0.36326256325122858 -0.37295731928696291 0 -0.35812665690840911 -0.36790595466336379 0 -0.36689630100625109 -0.3640867011268818 0 -0.36326256325122858 -0.37295731928696291 0 -0.3559965630733089 -0.37317772921080788 0 -0.35812665690840911 -0.36790595466336379 0 -0.34865155975354029 -0.37093401696376549 0 -0.34651927295124058 -0.34658455959543932 0 -0.34865155975354029 -0.37093401696376549 0 -0.34449849282330453 -0.37582004457345253 0 -0.3559965630733089 -0.37317772921080788 0 -0.34865155975354029 -0.37093401696376549 0 -0.35554610850206092 -0.37989412603608091 0 -0.34651927295124058 -0.34658455959543932 0 -0.34449849282330453 -0.37582004457345253 0 -0.36326256325122858 -0.37295731928696291 0 -0.3559965630733089 -0.37317772921080788 0 -0.35812665690840911 -0.36790595466336379 0 -0.35682669503396841 -0.35773681929523993 0 -0.35812665690840911 -0.36790595466336379 0 -0.34865155975354029 -0.37093401696376549 0 -0.33537053325569421 -0.36964306052444712 0 -0.33814394631602163 -0.36091491929254582 0 -0.34449849282330453 -0.37582004457345253 0 -0.34651927295124058 -0.34658455959543932 0 -0.33814394631602163 -0.36091491929254582 0 -0.34449849282330453 -0.37582004457345253 0 -0.33537053325569421 -0.36964306052444712 0 -0.34449849282330453 -0.37582004457345253 0 -0.33295684068605691 -0.37792026334128492 0 -0.33537053325569421 -0.36964306052444712 0 -0.33081263036297193 -0.36150429565560382 0 -0.32639930586791782 -0.37104445263619679 0 -0.33537053325569421 -0.36964306052444712 0 -0.32639930586791782 -0.37104445263619679 0 -0.33295684068605691 -0.37792026334128492 0 -0.33537053325569421 -0.36964306052444712 0 -0.33081263036297193 -0.36150429565560382 0 -0.33814394631602163 -0.36091491929254582 0 -0.33656745161270152 -0.34361877643326438 0 -0.34651927295124058 -0.34658455959543932 0 -0.33026784298885192 -0.35187405043874509 0 -0.34651927295124058 -0.34658455959543932 0 -0.33814394631602163 -0.36091491929254582 0 -0.33026784298885192 -0.35187405043874509 0 -0.34651927295124058 -0.34658455959543932 0 -0.33026784298885192 -0.35187405043874509 0 -0.3239557538926221 -0.34046547697498319 0 -0.33656745161270152 -0.34361877643326438 0 -0.33026784298885192 -0.35187405043874509 0 -0.33081263036297193 -0.36150429565560382 0 -0.33814394631602163 -0.36091491929254582 0 -0.33026784298885192 -0.35187405043874509 0 -0.33081263036297193 -0.36150429565560382 0 -0.33026784298885192 -0.35187405043874509 0 -0.31401641302646383 -0.35716354128205252 0 -0.3239557538926221 -0.34046547697498319 0 -0.31401641302646383 -0.35716354128205252 0 -0.30737816102346988 -0.34117057917186849 0 -0.3239557538926221 -0.34046547697498319 0 -0.33026784298885192 -0.35187405043874509 0 -0.31401641302646383 -0.35716354128205252 0 -0.33026784298885192 -0.35187405043874509 0 -0.31401641302646383 -0.35716354128205252 0 -0.33081263036297193 -0.36150429565560382 0 -0.31401641302646383 -0.35716354128205252 0 -0.32639930586791782 -0.37104445263619679 0 -0.31401641302646383 -0.35716354128205252 0 -0.32639930586791782 -0.37104445263619679 0 -0.31521447539440861 -0.37545248042351997 0 -0.31401641302646383 -0.35716354128205252 0 -0.302667429507676 -0.37352810989336549 0 -0.29734318129725568 -0.35668009379151278 0 -0.31401641302646383 -0.35716354128205252 0 -0.302667429507676 -0.37352810989336549 0 -0.31521447539440861 -0.37545248042351997 0 -0.31401641302646383 -0.35716354128205252 0 -0.29734318129725568 -0.35668009379151278 0 -0.30737816102346988 -0.34117057917186849 0 -0.29734318129725568 -0.35668009379151278 0 -0.29319357290283671 -0.34038927633671151 0 -0.30737816102346988 -0.34117057917186849 0 -0.29734318129725568 -0.35668009379151278 0 -0.28140233756672239 -0.35241246156753248 0 -0.29319357290283671 -0.34038927633671151 0 -0.302667429507676 -0.37352810989336549 0 -0.29734318129725568 -0.35668009379151278 0 -0.28604423919679578 -0.37634975235994039 0 -0.29734318129725568 -0.35668009379151278 0 -0.28140233756672239 -0.35241246156753248 0 -0.28604423919679578 -0.37634975235994039 0 -0.28140233756672239 -0.35241246156753248 0 -0.26449151113636499 -0.36720065029203552 0 -0.28604423919679578 -0.37634975235994039 0 -0.26449151113636499 -0.36720065029203552 0 -0.24585720646703249 -0.38759063456441939 0 -0.24357452101876009 -0.35719347634161658 0 -0.26449151113636499 -0.36720065029203552 0 -0.26416648829640338 -0.34541579369638181 0 -0.24357452101876009 -0.35719347634161658 0 -0.26416648829640338 -0.34541579369638181 0 -0.25010222103959651 -0.33837320235586071 0 -0.24357452101876009 -0.35719347634161658 0 -0.28140233756672239 -0.35241246156753248 0 -0.26449151113636499 -0.36720065029203552 0 -0.26416648829640338 -0.34541579369638181 0 -0.28140233756672239 -0.35241246156753248 0 -0.26416648829640338 -0.34541579369638181 0 -0.28206067024032427 -0.329465430139461 0 -0.26416648829640338 -0.34541579369638181 0 -0.26148858231489092 -0.32715558197996308 0 -0.28206067024032427 -0.329465430139461 0 -0.26416648829640338 -0.34541579369638181 0 -0.25010222103959651 -0.33837320235586071 0 -0.26148858231489092 -0.32715558197996308 0 -0.25010222103959651 -0.33837320235586071 0 -0.26148858231489092 -0.32715558197996308 0 -0.2461182440744682 -0.32338696670055939 0 -0.26148858231489092 -0.32715558197996308 0 -0.27209106201742422 -0.31454648787879502 0 -0.25439280822112931 -0.31174561110872101 0 -0.26148858231489092 -0.32715558197996308 0 -0.25439280822112931 -0.31174561110872101 0 -0.2461182440744682 -0.32338696670055939 0 -0.26148858231489092 -0.32715558197996308 0 -0.27209106201742422 -0.31454648787879502 0 -0.28206067024032427 -0.329465430139461 0 -0.28206067024032427 -0.329465430139461 0 -0.30027987089266639 -0.32552134157306573 0 -0.29285165056775958 -0.30621288085124349 0 -0.27209106201742422 -0.31454648787879502 0 -0.28206067024032427 -0.329465430139461 0 -0.29285165056775958 -0.30621288085124349 0 -0.28140233756672239 -0.35241246156753248 0 -0.29319357290283671 -0.34038927633671151 0 -0.28206067024032427 -0.329465430139461 0 -0.29319357290283671 -0.34038927633671151 0 -0.28206067024032427 -0.329465430139461 0 -0.30027987089266639 -0.32552134157306573 0 -0.29319357290283671 -0.34038927633671151 0 -0.30737816102346988 -0.34117057917186849 0 -0.30027987089266639 -0.32552134157306573 0 -0.31548017412897511 -0.3268037450728854 0 -0.30737816102346988 -0.34117057917186849 0 -0.30027987089266639 -0.32552134157306573 0 -0.31548017412897511 -0.3268037450728854 0 -0.30027987089266639 -0.32552134157306573 0 -0.3107239038406987 -0.31127910036705531 0 -0.30027987089266639 -0.32552134157306573 0 -0.3107239038406987 -0.31127910036705531 0 -0.29285165056775958 -0.30621288085124349 0 -0.3107239038406987 -0.31127910036705531 0 -0.30949616997756157 -0.28943015802128891 0 -0.29285165056775958 -0.30621288085124349 0 -0.30949616997756157 -0.28943015802128891 0 -0.29169374408288978 -0.28839907743193832 0 -0.29715764978327169 -0.27458933569530353 0 -0.30949616997756157 -0.28943015802128891 0 -0.29169374408288978 -0.28839907743193832 0 -0.29285165056775958 -0.30621288085124349 0 -0.29169374408288978 -0.28839907743193832 0 -0.2772179034833302 -0.29442095377854871 0 -0.27963763923620322 -0.27697727812576062 0 -0.29169374408288978 -0.28839907743193832 0 -0.29285165056775958 -0.30621288085124349 0 -0.2772179034833302 -0.29442095377854871 0 -0.27209106201742422 -0.31454648787879502 0 -0.25986703234420189 -0.29731824504312959 0 -0.2772179034833302 -0.29442095377854871 0 -0.27209106201742422 -0.31454648787879502 0 -0.29285165056775958 -0.30621288085124349 0 -0.2772179034833302 -0.29442095377854871 0 -0.27209106201742422 -0.31454648787879502 0 -0.25986703234420189 -0.29731824504312959 0 -0.25439280822112931 -0.31174561110872101 0 -0.25986703234420189 -0.29731824504312959 0 -0.25439280822112931 -0.31174561110872101 0 -0.2454931984233526 -0.29724345758954562 0 -0.25986703234420189 -0.29731824504312959 0 -0.26436359853851571 -0.28290631168445202 0 -0.24737988047014289 -0.28213889657865432 0 -0.25986703234420189 -0.29731824504312959 0 -0.24737988047014289 -0.28213889657865432 0 -0.2454931984233526 -0.29724345758954562 0 -0.26436359853851571 -0.28290631168445202 0 -0.2772179034833302 -0.29442095377854871 0 -0.27963763923620322 -0.27697727812576062 0 -0.25986703234420189 -0.29731824504312959 0 -0.26436359853851571 -0.28290631168445202 0 -0.2772179034833302 -0.29442095377854871 0 -0.26436359853851571 -0.28290631168445202 0 -0.27963763923620322 -0.27697727812576062 0 -0.25771553715869983 -0.26367618489616662 0 -0.26436359853851571 -0.28290631168445202 0 -0.25771553715869983 -0.26367618489616662 0 -0.24737988047014289 -0.28213889657865432 0 -0.25771553715869983 -0.26367618489616662 0 -0.24276391703666961 -0.24073967138033711 0 -0.27963763923620322 -0.27697727812576062 0 -0.25771553715869983 -0.26367618489616662 0 -0.28736263086272829 -0.25412544351281069 0 -0.25771553715869983 -0.26367618489616662 0 -0.28736263086272829 -0.25412544351281069 0 -0.26781619734459711 -0.2349998174638947 0 -0.29169374408288978 -0.28839907743193832 0 -0.27963763923620322 -0.27697727812576062 0 -0.29715764978327169 -0.27458933569530353 0 -0.27963763923620322 -0.27697727812576062 0 -0.28736263086272829 -0.25412544351281069 0 -0.29715764978327169 -0.27458933569530353 0 -0.31338265002433102 -0.26328516000962687 0 -0.30949616997756157 -0.28943015802128891 0 -0.29715764978327169 -0.27458933569530353 0 -0.31338265002433102 -0.26328516000962687 0 -0.28736263086272829 -0.25412544351281069 0 -0.30640174470545362 -0.23890869256144279 0 -0.31338265002433102 -0.26328516000962687 0 -0.28736263086272829 -0.25412544351281069 0 -0.29715764978327169 -0.27458933569530353 0 -0.32616868885747469 -0.46187939975631159 0 -0.3419850658207409 -0.47058746575005811 0 -0.34821287461711847 -0.44396227459426402 0 -0.31955104163450448 -0.44465729027890988 0 -0.34821287461711847 -0.44396227459426402 0 -0.33630252826639989 -0.42574962435999719 0 -0.31955104163450448 -0.44465729027890988 0 -0.32616868885747469 -0.46187939975631159 0 -0.34821287461711847 -0.44396227459426402 0 -0.31955104163450448 -0.44465729027890988 0 -0.32616868885747469 -0.46187939975631159 0 -0.30558985159001911 -0.46622120193308397 0 -0.32616868885747469 -0.46187939975631159 0 -0.32405031516893312 -0.48052206782962009 0 -0.30558985159001911 -0.46622120193308397 0 -0.32405031516893312 -0.48052206782962009 0 -0.31982602663017801 -0.5 0 -0.3051115042220825 -0.48563409811072927 0 -0.32405031516893312 -0.48052206782962009 0 -0.31982602663017801 -0.5 0 -0.33575725702436338 -0.49721265690585209 0 -0.31982602663017801 -0.5 0 -0.33575725702436338 -0.49721265690585209 0 -0.34829837671049579 -0.50000000000000033 0 -0.32616868885747469 -0.46187939975631159 0 -0.32405031516893312 -0.48052206782962009 0 -0.3419850658207409 -0.47058746575005811 0 -0.32405031516893312 -0.48052206782962009 0 -0.33575725702436338 -0.49721265690585209 0 -0.3419850658207409 -0.47058746575005811 0 -0.33575725702436338 -0.49721265690585209 0 -0.3419850658207409 -0.47058746575005811 0 -0.33575725702436338 -0.49721265690585209 0 -0.3419850658207409 -0.47058746575005811 0 -0.34777119313470112 -0.48472932474738162 0 -0.3419850658207409 -0.47058746575005811 0 -0.36058079215060529 -0.47639952173378908 0 -0.35558539495995811 -0.45972771446772259 0 -0.3419850658207409 -0.47058746575005811 0 -0.34777119313470112 -0.48472932474738162 0 -0.36058079215060529 -0.47639952173378908 0 -0.34829837671049579 -0.50000000000000033 0 -0.36058079215060529 -0.47639952173378908 0 -0.34829837671049579 -0.50000000000000033 0 -0.34777119313470112 -0.48472932474738162 0 -0.36058079215060529 -0.47639952173378908 0 -0.33575725702436338 -0.49721265690585209 0 -0.34829837671049579 -0.50000000000000033 0 -0.34777119313470112 -0.48472932474738162 0 -0.34829837671049579 -0.50000000000000033 0 -0.37136899381218402 -0.5 0 -0.36058079215060529 -0.47639952173378908 0 -0.37854747592645499 -0.48533166709335762 0 -0.37136899381218402 -0.5 0 -0.36058079215060529 -0.47639952173378908 0 -0.37868365968749412 -0.47054838073484578 0 -0.37854747592645499 -0.48533166709335762 0 -0.36058079215060529 -0.47639952173378908 0 -0.36058079215060529 -0.47639952173378908 0 -0.37286320759071467 -0.45279904346757782 0 -0.36058079215060529 -0.47639952173378908 0 -0.35558539495995811 -0.45972771446772259 0 -0.37286320759071467 -0.45279904346757782 0 -0.37868365968749412 -0.47054838073484578 0 -0.36058079215060529 -0.47639952173378908 0 -0.37286320759071467 -0.45279904346757782 0 -0.3419850658207409 -0.47058746575005811 0 -0.35558539495995811 -0.45972771446772259 0 -0.34821287461711847 -0.44396227459426402 0 -0.3419850658207409 -0.47058746575005811 0 -0.34821287461711847 -0.44396227459426402 0 -0.35558539495995811 -0.45972771446772259 0 -0.34821287461711847 -0.44396227459426402 0 -0.37286320759071467 -0.45279904346757782 0 -0.34821287461711847 -0.44396227459426402 0 -0.37286320759071467 -0.45279904346757782 0 -0.36749281017212798 -0.43207252531200568 0 -0.38317430405380581 -0.4397587035842328 0 -0.37286320759071467 -0.45279904346757782 0 -0.36749281017212798 -0.43207252531200568 0 -0.38184935766754607 -0.41949939130312519 0 -0.36749281017212798 -0.43207252531200568 0 -0.36906810181453648 -0.40671757514639217 0 -0.36749281017212798 -0.43207252531200568 0 -0.36906810181453648 -0.40671757514639217 0 -0.35444068341349599 -0.41733708343846998 0 -0.35444068341349599 -0.41733708343846998 0 -0.33630252826639989 -0.42574962435999719 0 -0.34233588039622459 -0.41541972893160412 0 -0.35444068341349599 -0.41733708343846998 0 -0.34659049631116928 -0.39664831962714159 0 -0.34247771269536348 -0.4050555295514654 0 -0.35444068341349599 -0.41733708343846998 0 -0.34247771269536348 -0.4050555295514654 0 -0.34233588039622459 -0.41541972893160412 0 -0.34821287461711847 -0.44396227459426402 0 -0.35444068341349599 -0.41733708343846998 0 -0.34821287461711847 -0.44396227459426402 0 -0.36749281017212798 -0.43207252531200568 0 -0.35444068341349599 -0.41733708343846998 0 -0.34821287461711847 -0.44396227459426402 0 -0.35444068341349599 -0.41733708343846998 0 -0.33630252826639989 -0.42574962435999719 0 -0.38031762403277253 -0.38699117948675471 0 -0.37211561333191889 -0.37679763683352541 0 -0.36066849220987351 -0.390711892282676 0 -0.36326256325122858 -0.37295731928696291 0 -0.36066849220987351 -0.390711892282676 0 -0.35554610850206092 -0.37989412603608091 0 -0.36689630100625109 -0.3640867011268818 0 -0.37211561333191889 -0.37679763683352541 0 -0.36066849220987351 -0.390711892282676 0 -0.36689630100625109 -0.3640867011268818 0 -0.36326256325122858 -0.37295731928696291 0 -0.36066849220987351 -0.390711892282676 0 -0.36689630100625109 -0.3640867011268818 0 -0.36066849220987351 -0.390711892282676 0 -0.38031762403277253 -0.38699117948675471 0 -0.36906810181453648 -0.40671757514639217 0 -0.36066849220987351 -0.390711892282676 0 -0.36906810181453648 -0.40671757514639217 0 -0.35444068341349599 -0.41733708343846998 0 -0.36066849220987351 -0.390711892282676 0 -0.34659049631116928 -0.39664831962714159 0 -0.34449849282330453 -0.37582004457345253 0 -0.34247771269536348 -0.4050555295514654 0 -0.35444068341349599 -0.41733708343846998 0 -0.36066849220987351 -0.390711892282676 0 -0.35444068341349599 -0.41733708343846998 0 -0.36066849220987351 -0.390711892282676 0 -0.34659049631116928 -0.39664831962714159 0 -0.36066849220987351 -0.390711892282676 0 -0.34659049631116928 -0.39664831962714159 0 -0.352864164194161 -0.384547088727416 0 -0.34865155975354029 -0.37093401696376549 0 -0.34659049631116928 -0.39664831962714159 0 -0.352864164194161 -0.384547088727416 0 -0.34865155975354029 -0.37093401696376549 0 -0.34659049631116928 -0.39664831962714159 0 -0.34449849282330453 -0.37582004457345253 0 -0.34865155975354029 -0.37093401696376549 0 -0.34659049631116928 -0.39664831962714159 0 -0.36066849220987351 -0.390711892282676 0 -0.352864164194161 -0.384547088727416 0 -0.35554610850206092 -0.37989412603608091 0 -0.34865155975354029 -0.37093401696376549 0 -0.352864164194161 -0.384547088727416 0 -0.35554610850206092 -0.37989412603608091 0 -0.36326256325122858 -0.37295731928696291 0 -0.3559965630733089 -0.37317772921080788 0 -0.35554610850206092 -0.37989412603608091 0 -0.34449849282330453 -0.37582004457345253 0 -0.34247771269536348 -0.4050555295514654 0 -0.34449849282330453 -0.37582004457345253 0 -0.33348597790118573 -0.38974643218444888 0 -0.34247771269536348 -0.4050555295514654 0 -0.34449849282330453 -0.37582004457345253 0 -0.33295684068605691 -0.37792026334128492 0 -0.33348597790118573 -0.38974643218444888 0 -0.33295684068605691 -0.37792026334128492 0 -0.33348597790118573 -0.38974643218444888 0 -0.32407088275357671 -0.38266549692295287 0 -0.33348597790118573 -0.38974643218444888 0 -0.34247771269536348 -0.4050555295514654 0 -0.32504968966494158 -0.40499662880096332 0 -0.32504968966494158 -0.40499662880096332 0 -0.321852025779438 -0.39360826127955723 0 -0.30949449582804772 -0.40184907452450258 0 -0.321852025779438 -0.39360826127955723 0 -0.31235851742653348 -0.3868062334954212 0 -0.30949449582804772 -0.40184907452450258 0 -0.33348597790118573 -0.38974643218444888 0 -0.32504968966494158 -0.40499662880096332 0 -0.321852025779438 -0.39360826127955723 0 -0.33348597790118573 -0.38974643218444888 0 -0.321852025779438 -0.39360826127955723 0 -0.32407088275357671 -0.38266549692295287 0 -0.321852025779438 -0.39360826127955723 0 -0.32407088275357671 -0.38266549692295287 0 -0.31235851742653348 -0.3868062334954212 0 -0.31521447539440861 -0.37545248042351997 0 -0.32407088275357671 -0.38266549692295287 0 -0.31235851742653348 -0.3868062334954212 0 -0.32639930586791782 -0.37104445263619679 0 -0.31521447539440861 -0.37545248042351997 0 -0.32407088275357671 -0.38266549692295287 0 -0.32639930586791782 -0.37104445263619679 0 -0.33295684068605691 -0.37792026334128492 0 -0.32407088275357671 -0.38266549692295287 0 -0.33630252826639989 -0.42574962435999719 0 -0.33352014612847852 -0.41328593149960452 0 -0.31791034617056102 -0.42027811071793408 0 -0.33630252826639989 -0.42574962435999719 0 -0.34233588039622459 -0.41541972893160412 0 -0.33352014612847852 -0.41328593149960452 0 -0.34247771269536348 -0.4050555295514654 0 -0.32504968966494158 -0.40499662880096332 0 -0.33352014612847852 -0.41328593149960452 0 -0.34247771269536348 -0.4050555295514654 0 -0.34233588039622459 -0.41541972893160412 0 -0.33352014612847852 -0.41328593149960452 0 -0.32504968966494158 -0.40499662880096332 0 -0.31791034617056102 -0.42027811071793408 0 -0.30949449582804772 -0.40184907452450258 0 -0.32504968966494158 -0.40499662880096332 0 -0.33352014612847852 -0.41328593149960452 0 -0.31791034617056102 -0.42027811071793408 0 -0.31955104163450448 -0.44465729027890988 0 -0.31791034617056102 -0.42027811071793408 0 -0.30197654079739072 -0.43342513862844989 0 -0.31955104163450448 -0.44465729027890988 0 -0.33630252826639989 -0.42574962435999719 0 -0.31791034617056102 -0.42027811071793408 0 -0.31791034617056102 -0.42027811071793408 0 -0.30197654079739072 -0.43342513862844989 0 -0.29809735003904209 -0.41730834354924928 0 -0.31791034617056102 -0.42027811071793408 0 -0.29809735003904209 -0.41730834354924928 0 -0.30949449582804772 -0.40184907452450258 0 -0.29809735003904209 -0.41730834354924928 0 -0.28365746767410238 -0.43204883159805069 0 -0.27253735733168999 -0.413027412382175 0 -0.29809735003904209 -0.41730834354924928 0 -0.28886249689486931 -0.39905002710333748 0 -0.27253735733168999 -0.413027412382175 0 -0.30197654079739072 -0.43342513862844989 0 -0.29809735003904209 -0.41730834354924928 0 -0.28365746767410238 -0.43204883159805069 0 -0.302667429507676 -0.37352810989336549 0 -0.31235851742653348 -0.3868062334954212 0 -0.29988543577078453 -0.38751663947531351 0 -0.302667429507676 -0.37352810989336549 0 -0.31521447539440861 -0.37545248042351997 0 -0.31235851742653348 -0.3868062334954212 0 -0.29809735003904209 -0.41730834354924928 0 -0.30949449582804772 -0.40184907452450258 0 -0.28886249689486931 -0.39905002710333748 0 -0.29988543577078453 -0.38751663947531351 0 -0.30949449582804772 -0.40184907452450258 0 -0.28886249689486931 -0.39905002710333748 0 -0.31235851742653348 -0.3868062334954212 0 -0.29988543577078453 -0.38751663947531351 0 -0.30949449582804772 -0.40184907452450258 0 -0.302667429507676 -0.37352810989336549 0 -0.29988543577078453 -0.38751663947531351 0 -0.28604423919679578 -0.37634975235994039 0 -0.29988543577078453 -0.38751663947531351 0 -0.28886249689486931 -0.39905002710333748 0 -0.28604423919679578 -0.37634975235994039 0 -0.28886249689486931 -0.39905002710333748 0 -0.28604423919679578 -0.37634975235994039 0 -0.26687508841770752 -0.39123707931960772 0 -0.26449151113636499 -0.36720065029203552 0 -0.28604423919679578 -0.37634975235994039 0 -0.26687508841770752 -0.39123707931960772 0 -0.28886249689486931 -0.39905002710333748 0 -0.26687508841770752 -0.39123707931960772 0 -0.27253735733168999 -0.413027412382175 0 -0.26687508841770752 -0.39123707931960772 0 -0.27253735733168999 -0.413027412382175 0 -0.24759462527076689 -0.40734984085202153 0 -0.26687508841770752 -0.39123707931960772 0 -0.24759462527076689 -0.40734984085202153 0 -0.24585720646703249 -0.38759063456441939 0 -0.26449151113636499 -0.36720065029203552 0 -0.26687508841770752 -0.39123707931960772 0 -0.24585720646703249 -0.38759063456441939 0 -0.28365746767410238 -0.43204883159805069 0 -0.25451372154721691 -0.42493116941530668 0 -0.27093113611888853 -0.44930285361863531 0 -0.28365746767410238 -0.43204883159805069 0 -0.27253735733168999 -0.413027412382175 0 -0.25451372154721691 -0.42493116941530668 0 -0.27253735733168999 -0.413027412382175 0 -0.25451372154721691 -0.42493116941530668 0 -0.24759462527076689 -0.40734984085202153 0 -0.25451372154721691 -0.42493116941530668 0 -0.27093113611888853 -0.44930285361863531 0 -0.24787284192578091 -0.45572589538625741 0 -0.27093113611888853 -0.44930285361863531 0 -0.27794129176777971 -0.47387749911493648 0 -0.24787284192578091 -0.45572589538625741 0 -0.27093113611888853 -0.44930285361863531 0 -0.29161695636295032 -0.45177226381439761 0 -0.27794129176777971 -0.47387749911493648 0 -0.30197654079739072 -0.43342513862844989 0 -0.28365746767410238 -0.43204883159805069 0 -0.29161695636295032 -0.45177226381439761 0 -0.28365746767410238 -0.43204883159805069 0 -0.27093113611888853 -0.44930285361863531 0 -0.29161695636295032 -0.45177226381439761 0 -0.29161695636295032 -0.45177226381439761 0 -0.30558985159001911 -0.46622120193308397 0 -0.27794129176777971 -0.47387749911493648 0 -0.31955104163450448 -0.44465729027890988 0 -0.29161695636295032 -0.45177226381439761 0 -0.30558985159001911 -0.46622120193308397 0 -0.31955104163450448 -0.44465729027890988 0 -0.30197654079739072 -0.43342513862844989 0 -0.29161695636295032 -0.45177226381439761 0 -0.31982602663017801 -0.5 0 -0.3051115042220825 -0.48563409811072927 0 -0.29135367654986022 -0.5 0 -0.32405031516893312 -0.48052206782962009 0 -0.30558985159001911 -0.46622120193308397 0 -0.3051115042220825 -0.48563409811072927 0 -0.30558985159001911 -0.46622120193308397 0 -0.3051115042220825 -0.48563409811072927 0 -0.27794129176777971 -0.47387749911493648 0 -0.3051115042220825 -0.48563409811072927 0 -0.29135367654986022 -0.5 0 -0.27794129176777971 -0.47387749911493648 0 -0.29135367654986022 -0.5 0 -0.27794129176777971 -0.47387749911493648 0 -0.26288132646954249 -0.5 0 -0.27794129176777971 -0.47387749911493648 0 -0.24864515142938359 -0.48077145569615959 0 -0.24787284192578091 -0.45572589538625741 0 -0.27794129176777971 -0.47387749911493648 0 -0.26288132646954249 -0.5 0 -0.24864515142938359 -0.48077145569615959 0 -0.23440897638922489 -0.5 0 -0.24864515142938359 -0.48077145569615959 0 -0.2208605813127327 -0.47353725233405758 0 -0.26288132646954249 -0.5 0 -0.23440897638922489 -0.5 0 -0.24864515142938359 -0.48077145569615959 0 -0.24864515142938359 -0.48077145569615959 0 -0.2208605813127327 -0.47353725233405758 0 -0.24787284192578091 -0.45572589538625741 0 -0.23440897638922489 -0.5 0 -0.2208605813127327 -0.47353725233405758 0 -0.20593662630890719 -0.5 0 -0.25451372154721691 -0.42493116941530668 0 -0.24787284192578091 -0.45572589538625741 0 -0.23529109787099081 -0.43710000791235581 0 -0.24787284192578091 -0.45572589538625741 0 -0.22341106674450281 -0.44997300140614038 0 -0.23529109787099081 -0.43710000791235581 0 -0.2208605813127327 -0.47353725233405758 0 -0.24787284192578091 -0.45572589538625741 0 -0.22341106674450281 -0.44997300140614038 0 -0.22341106674450281 -0.44997300140614038 0 -0.2123256323220874 -0.43010111083881802 0 -0.23529109787099081 -0.43710000791235581 0 -0.2208605813127327 -0.47353725233405758 0 -0.20070518029092191 -0.45340074055921331 0 -0.18908472825975639 -0.47670037027960849 0 -0.22341106674450281 -0.44997300140614038 0 -0.20070518029092191 -0.45340074055921331 0 -0.2123256323220874 -0.43010111083881802 0 -0.20070518029092191 -0.45340074055921331 0 -0.2123256323220874 -0.43010111083881802 0 -0.2208605813127327 -0.47353725233405758 0 -0.22341106674450281 -0.44997300140614038 0 -0.20070518029092191 -0.45340074055921331 0 -0.20070518029092191 -0.45340074055921331 0 -0.18908472825975639 -0.47670037027960849 0 -0.20070518029092191 -0.45340074055921331 0 -0.18908472825975639 -0.47670037027960849 0 -0.18376022433689579 -0.44845318651016741 0 -0.20070518029092191 -0.45340074055921331 0 -0.19277182010585761 -0.43419880922292747 0 -0.2123256323220874 -0.43010111083881802 0 -0.20070518029092191 -0.45340074055921331 0 -0.18376022433689579 -0.44845318651016741 0 -0.19277182010585761 -0.43419880922292747 0 -0.2208605813127327 -0.47353725233405758 0 -0.20593662630890719 -0.5 0 -0.18908472825975639 -0.47670037027960849 0 -0.20593662630890719 -0.5 0 -0.18908472825975639 -0.47670037027960849 0 -0.1774642762285896 -0.50000000000000322 0 -0.18908472825975639 -0.47670037027960849 0 -0.1774642762285896 -0.50000000000000322 0 -0.18908472825975639 -0.47670037027960849 0 -0.1774642762285896 -0.50000000000000322 0 -0.166169895648205 -0.47968209126715261 0 -0.1774642762285896 -0.50000000000000322 0 -0.166169895648205 -0.47968209126715261 0 -0.15007641492090021 -0.5 0 -0.18908472825975639 -0.47670037027960849 0 -0.166169895648205 -0.47968209126715261 0 -0.1684295117205476 -0.4582962909580377 0 -0.18908472825975639 -0.47670037027960849 0 -0.18376022433689579 -0.44845318651016741 0 -0.1684295117205476 -0.4582962909580377 0 -0.18376022433689579 -0.44845318651016741 0 -0.1798701253127398 -0.4322700711987425 0 -0.19277182010585761 -0.43419880922292747 0 -0.18376022433689579 -0.44845318651016741 0 -0.17116212516627449 -0.44049359215542738 0 -0.1684295117205476 -0.4582962909580377 0 -0.18376022433689579 -0.44845318651016741 0 -0.17116212516627449 -0.44049359215542738 0 -0.1798701253127398 -0.4322700711987425 0 -0.17116212516627449 -0.44049359215542738 0 -0.15727168681808179 -0.44332869992492269 0 -0.1684295117205476 -0.4582962909580377 0 -0.17116212516627449 -0.44049359215542738 0 -0.15727168681808179 -0.44332869992492269 0 -0.16705021057152089 -0.42884358398076339 0 -0.166169895648205 -0.47968209126715261 0 -0.1684295117205476 -0.4582962909580377 0 -0.1457945471112313 -0.46341379509811648 0 -0.15727168681808179 -0.44332869992492269 0 -0.1684295117205476 -0.4582962909580377 0 -0.1457945471112313 -0.46341379509811648 0 -0.15727168681808179 -0.44332869992492269 0 -0.1457945471112313 -0.46341379509811648 0 -0.1403682189407405 -0.43535001917579791 0 -0.1403682189407405 -0.43535001917579791 0 -0.1165061867790938 -0.45324147482528848 0 -0.12026651957400319 -0.42785005072799043 0 -0.1403682189407405 -0.43535001917579791 0 -0.1165061867790938 -0.45324147482528848 0 -0.1457945471112313 -0.46341379509811648 0 -0.1403682189407405 -0.43535001917579791 0 -0.1165061867790938 -0.45324147482528848 0 -0.1457945471112313 -0.46341379509811648 0 -0.122969330299361 -0.47617490011922781 0 -0.1165061867790938 -0.45324147482528848 0 -0.166169895648205 -0.47968209126715261 0 -0.1457945471112313 -0.46341379509811648 0 -0.15007641492090021 -0.5 0 -0.1457945471112313 -0.46341379509811648 0 -0.15007641492090021 -0.5 0 -0.122969330299361 -0.47617490011922781 0 -0.15007641492090021 -0.5 0 -0.122969330299361 -0.47617490011922781 0 -0.1226885536132107 -0.5 0 -0.14310011346514759 -0.40031451786258221 0 -0.14863283107806141 -0.37992025070478991 0 -0.16321700851310911 -0.39723042539923648 0 -0.14310011346514759 -0.40031451786258221 0 -0.16321700851310911 -0.39723042539923648 0 -0.14310011346514759 -0.40031451786258221 0 -0.15639144910970551 -0.41397995891470879 0 -0.16321700851310911 -0.39723042539923648 0 -0.14310011346514759 -0.40031451786258221 0 -0.14863283107806141 -0.37992025070478991 0 -0.1338535749749391 -0.38794979055585849 0 -0.14863283107806141 -0.37992025070478991 0 -0.16321700851310911 -0.39723042539923648 0 -0.14863283107806141 -0.37992025070478991 0 -0.1338535749749391 -0.38794979055585849 0 -0.13336015500516879 -0.3760855178474502 0 -0.13336015500516879 -0.3760855178474502 0 -0.12819931909928159 -0.37039398775761317 0 -0.1207838471301312 -0.38129258449690551 0 -0.1338535749749391 -0.38794979055585849 0 -0.13336015500516879 -0.3760855178474502 0 -0.1207838471301312 -0.38129258449690551 0 -0.14310011346514759 -0.40031451786258221 0 -0.1229832184171856 -0.40339861032592461 0 -0.1338535749749391 -0.38794979055585849 0 -0.1229832184171856 -0.40339861032592461 0 -0.1207838471301312 -0.38129258449690551 0 -0.14310011346514759 -0.40031451786258221 0 -0.1346024257334445 -0.41296913696565341 0 -0.1229832184171856 -0.40339861032592461 0 -0.14310011346514759 -0.40031451786258221 0 -0.1338535749749391 -0.38794979055585849 0 -0.1229832184171856 -0.40339861032592461 0 -0.1346024257334445 -0.41296913696565341 0 -0.1403682189407405 -0.43535001917579791 0 -0.12026651957400319 -0.42785005072799043 0 -0.15727168681808179 -0.44332869992492269 0 -0.1403682189407405 -0.43535001917579791 0 -0.1524256046516993 -0.42769850009608079 0 -0.1346024257334445 -0.41296913696565341 0 -0.1403682189407405 -0.43535001917579791 0 -0.1524256046516993 -0.42769850009608079 0 -0.1346024257334445 -0.41296913696565341 0 -0.1524256046516993 -0.42769850009608079 0 -0.15639144910970551 -0.41397995891470879 0 -0.1346024257334445 -0.41296913696565341 0 -0.15639144910970551 -0.41397995891470879 0 -0.14310011346514759 -0.40031451786258221 0 -0.1346024257334445 -0.41296913696565341 0 -0.15639144910970551 -0.41397995891470879 0 -0.15639144910970551 -0.41397995891470879 0 -0.1781804724859665 -0.41499078086376229 0 -0.15639144910970551 -0.41397995891470879 0 -0.1718007155779212 -0.42067455062069531 0 -0.1781804724859665 -0.41499078086376229 0 -0.15639144910970551 -0.41397995891470879 0 -0.1781804724859665 -0.41499078086376229 0 -0.16321700851310911 -0.39723042539923648 0 -0.15639144910970551 -0.41397995891470879 0 -0.1718007155779212 -0.42067455062069531 0 -0.16705021057152089 -0.42884358398076339 0 -0.15727168681808179 -0.44332869992492269 0 -0.1524256046516993 -0.42769850009608079 0 -0.16705021057152089 -0.42884358398076339 0 -0.1524256046516993 -0.42769850009608079 0 -0.15639144910970551 -0.41397995891470879 0 -0.16705021057152089 -0.42884358398076339 0 -0.17116212516627449 -0.44049359215542738 0 -0.16705021057152089 -0.42884358398076339 0 -0.1798701253127398 -0.4322700711987425 0 -0.1718007155779212 -0.42067455062069531 0 -0.16705021057152089 -0.42884358398076339 0 -0.1782357267667313 -0.42443560335303832 0 -0.16705021057152089 -0.42884358398076339 0 -0.1782357267667313 -0.42443560335303832 0 -0.1798701253127398 -0.4322700711987425 0 -0.1782357267667313 -0.42443560335303832 0 -0.18496243105894569 -0.42519935847128643 0 -0.1798701253127398 -0.4322700711987425 0 -0.1782357267667313 -0.42443560335303832 0 -0.18496243105894569 -0.42519935847128643 0 -0.18066479989427731 -0.41793946560292911 0 -0.18496243105894569 -0.42519935847128643 0 -0.1798701253127398 -0.4322700711987425 0 -0.19277182010585761 -0.43419880922292747 0 -0.1781804724859665 -0.41499078086376229 0 -0.1778356813560579 -0.405012869901483 0 -0.17314916554055329 -0.40227323283065342 0 -0.1781804724859665 -0.41499078086376229 0 -0.18299256997083299 -0.40736942656591679 0 -0.1778356813560579 -0.405012869901483 0 -0.1718007155779212 -0.42067455062069531 0 -0.17722042868122409 -0.41951010011010631 0 -0.1781804724859665 -0.41499078086376229 0 -0.1718007155779212 -0.42067455062069531 0 -0.1782357267667313 -0.42443560335303832 0 -0.17722042868122409 -0.41951010011010631 0 -0.1782357267667313 -0.42443560335303832 0 -0.17722042868122409 -0.41951010011010631 0 -0.18066479989427731 -0.41793946560292911 0 -0.17722042868122409 -0.41951010011010631 0 -0.1781804724859665 -0.41499078086376229 0 -0.18066479989427731 -0.41793946560292911 0 -0.1781804724859665 -0.41499078086376229 0 -0.18066479989427731 -0.41793946560292911 0 -0.1781804724859665 -0.41499078086376229 0 -0.18066479989427731 -0.41793946560292911 0 -0.18738316154094389 -0.41890285497039748 0 -0.18496243105894569 -0.42519935847128643 0 -0.18066479989427731 -0.41793946560292911 0 -0.18738316154094389 -0.41890285497039748 0 -0.18299256997083299 -0.40736942656591679 0 -0.18719918585412321 -0.40282313028982658 0 -0.1902514847390738 -0.41280825460144122 0 -0.1781804724859665 -0.41499078086376229 0 -0.18299256997083299 -0.40736942656591679 0 -0.1902514847390738 -0.41280825460144122 0 -0.18299256997083299 -0.40736942656591679 0 -0.18719918585412321 -0.40282313028982658 0 -0.18149602541894391 -0.40121209717307099 0 -0.18719918585412321 -0.40282313028982658 0 -0.18149602541894391 -0.40121209717307099 0 -0.1831124603379046 -0.39469450782999171 0 -0.18299256997083299 -0.40736942656591679 0 -0.18149602541894391 -0.40121209717307099 0 -0.1778356813560579 -0.405012869901483 0 -0.1831124603379046 -0.39469450782999171 0 -0.18380165764343331 -0.38582605402377468 0 -0.19496219176026369 -0.39290411036820971 0 -0.18149602541894391 -0.40121209717307099 0 -0.1831124603379046 -0.39469450782999171 0 -0.1764541347589392 -0.39795052657281499 0 -0.1831124603379046 -0.39469450782999171 0 -0.1764541347589392 -0.39795052657281499 0 -0.17489916586280449 -0.38920060286021901 0 -0.1764541347589392 -0.39795052657281499 0 -0.17005853058869319 -0.39618156141596639 0 -0.17489916586280449 -0.38920060286021901 0 -0.1764541347589392 -0.39795052657281499 0 -0.1778356813560579 -0.405012869901483 0 -0.17314916554055329 -0.40227323283065342 0 -0.18149602541894391 -0.40121209717307099 0 -0.1764541347589392 -0.39795052657281499 0 -0.1778356813560579 -0.405012869901483 0 -0.1764541347589392 -0.39795052657281499 0 -0.17314916554055329 -0.40227323283065342 0 -0.17005853058869319 -0.39618156141596639 0 -0.1781804724859665 -0.41499078086376229 0 -0.17314916554055329 -0.40227323283065342 0 -0.16321700851310911 -0.39723042539923648 0 -0.1781804724859665 -0.41499078086376229 0 -0.16321700851310911 -0.39723042539923648 0 -0.17314916554055329 -0.40227323283065342 0 -0.17005853058869319 -0.39618156141596639 0 -0.16321700851310911 -0.39723042539923648 0 -0.17005853058869319 -0.39618156141596639 0 -0.16321700851310911 -0.39723042539923648 0 -0.1655515913520352 -0.38532698114484232 0 -0.17005853058869319 -0.39618156141596639 0 -0.16321700851310911 -0.39723042539923648 0 -0.14863283107806141 -0.37992025070478991 0 -0.1655515913520352 -0.38532698114484232 0 -0.16237505464387411 -0.368938834418853 0 -0.1655515913520352 -0.38532698114484232 0 -0.17438759004052001 -0.38070489085241038 0 -0.16237505464387411 -0.368938834418853 0 -0.14863283107806141 -0.37992025070478991 0 -0.16321700851310911 -0.39723042539923648 0 -0.1655515913520352 -0.38532698114484232 0 -0.17005853058869319 -0.39618156141596639 0 -0.1655515913520352 -0.38532698114484232 0 -0.17489916586280449 -0.38920060286021901 0 -0.1655515913520352 -0.38532698114484232 0 -0.17438759004052001 -0.38070489085241038 0 -0.17489916586280449 -0.38920060286021901 0 -0.17438759004052001 -0.38070489085241038 0 -0.18380165764343331 -0.38582605402377468 0 -0.1907014556447357 -0.37526759282736161 0 -0.17438759004052001 -0.38070489085241038 0 -0.17489916586280449 -0.38920060286021901 0 -0.18380165764343331 -0.38582605402377468 0 -0.1831124603379046 -0.39469450782999171 0 -0.17489916586280449 -0.38920060286021901 0 -0.18380165764343331 -0.38582605402377468 0 -0.18380165764343331 -0.38582605402377468 0 -0.1907014556447357 -0.37526759282736161 0 -0.19496219176026369 -0.39290411036820971 0 -0.1907014556447357 -0.37526759282736161 0 -0.19496219176026369 -0.39290411036820971 0 -0.2182793310558839 -0.38142911369589072 0 -0.1907014556447357 -0.37526759282736161 0 -0.19496219176026369 -0.39290411036820971 0 -0.18719918585412321 -0.40282313028982658 0 -0.1831124603379046 -0.39469450782999171 0 -0.19496219176026369 -0.39290411036820971 0 -0.19496219176026369 -0.39290411036820971 0 -0.19922292787579149 -0.41054062790905788 0 -0.19496219176026369 -0.39290411036820971 0 -0.20887796248383839 -0.40032125819116898 0 -0.19922292787579149 -0.41054062790905788 0 -0.19496219176026369 -0.39290411036820971 0 -0.19337984544217501 -0.40656649963714009 0 -0.19922292787579149 -0.41054062790905788 0 -0.18719918585412321 -0.40282313028982658 0 -0.19496219176026369 -0.39290411036820971 0 -0.19337984544217501 -0.40656649963714009 0 -0.20887796248383839 -0.40032125819116898 0 -0.2182793310558839 -0.38142911369589072 0 -0.22394608435325289 -0.40680148111842268 0 -0.19496219176026369 -0.39290411036820971 0 -0.20887796248383839 -0.40032125819116898 0 -0.2182793310558839 -0.38142911369589072 0 -0.1907014556447357 -0.37526759282736161 0 -0.2182793310558839 -0.38142911369589072 0 -0.19277182010585761 -0.43419880922292747 0 -0.2007012791185154 -0.42640643234134767 0 -0.2123256323220874 -0.43010111083881802 0 -0.18496243105894569 -0.42519935847128643 0 -0.19277182010585761 -0.43419880922292747 0 -0.19131820280342579 -0.42383606891095132 0 -0.19277182010585761 -0.43419880922292747 0 -0.19131820280342579 -0.42383606891095132 0 -0.2007012791185154 -0.42640643234134767 0 -0.18496243105894569 -0.42519935847128643 0 -0.18738316154094389 -0.41890285497039748 0 -0.19131820280342579 -0.42383606891095132 0 -0.2007012791185154 -0.42640643234134767 0 -0.19732723058352519 -0.4220490284355678 0 -0.20551648227431779 -0.42103832772845928 0 -0.19131820280342579 -0.42383606891095132 0 -0.2007012791185154 -0.42640643234134767 0 -0.19732723058352519 -0.4220490284355678 0 -0.1781804724859665 -0.41499078086376229 0 -0.19984635841812981 -0.41599589030202477 0 -0.1781804724859665 -0.41499078086376229 0 -0.18738316154094389 -0.41890285497039748 0 -0.19984635841812981 -0.41599589030202477 0 -0.1781804724859665 -0.41499078086376229 0 -0.19984635841812981 -0.41599589030202477 0 -0.1902514847390738 -0.41280825460144122 0 -0.19732723058352519 -0.4220490284355678 0 -0.19984635841812981 -0.41599589030202477 0 -0.20551648227431779 -0.42103832772845928 0 -0.18738316154094389 -0.41890285497039748 0 -0.19732723058352519 -0.4220490284355678 0 -0.19984635841812981 -0.41599589030202477 0 -0.18738316154094389 -0.41890285497039748 0 -0.19131820280342579 -0.42383606891095132 0 -0.19732723058352519 -0.4220490284355678 0 -0.1902514847390738 -0.41280825460144122 0 -0.19337984544217501 -0.40656649963714009 0 -0.19567515411879249 -0.41147781811241602 0 -0.18719918585412321 -0.40282313028982658 0 -0.1902514847390738 -0.41280825460144122 0 -0.19337984544217501 -0.40656649963714009 0 -0.19984635841812981 -0.41599589030202477 0 -0.1902514847390738 -0.41280825460144122 0 -0.19567515411879249 -0.41147781811241602 0 -0.19337984544217501 -0.40656649963714009 0 -0.19567515411879249 -0.41147781811241602 0 -0.19922292787579149 -0.41054062790905788 0 -0.19984635841812981 -0.41599589030202477 0 -0.19567515411879249 -0.41147781811241602 0 -0.19922292787579149 -0.41054062790905788 0 -0.2123256323220874 -0.43010111083881802 0 -0.22394608435325289 -0.40680148111842268 0 -0.2120632476351787 -0.41183648293636799 0 -0.20551648227431779 -0.42103832772845928 0 -0.2123256323220874 -0.43010111083881802 0 -0.2120632476351787 -0.41183648293636799 0 -0.2123256323220874 -0.43010111083881802 0 -0.22394608435325289 -0.40680148111842268 0 -0.20887796248383839 -0.40032125819116898 0 -0.19922292787579149 -0.41054062790905788 0 -0.2120632476351787 -0.41183648293636799 0 -0.19984635841812981 -0.41599589030202477 0 -0.19922292787579149 -0.41054062790905788 0 -0.2120632476351787 -0.41183648293636799 0 -0.20887796248383839 -0.40032125819116898 0 -0.2120632476351787 -0.41183648293636799 0 -0.22394608435325289 -0.40680148111842268 0 -0.19984635841812981 -0.41599589030202477 0 -0.2120632476351787 -0.41183648293636799 0 -0.20551648227431779 -0.42103832772845928 0 -0.2007012791185154 -0.42640643234134767 0 -0.20551648227431779 -0.42103832772845928 0 -0.2123256323220874 -0.43010111083881802 0 -0.2123256323220874 -0.43010111083881802 0 -0.23194234402684141 -0.42165957222767841 0 -0.23529109787099081 -0.43710000791235581 0 -0.2123256323220874 -0.43010111083881802 0 -0.23194234402684141 -0.42165957222767841 0 -0.22394608435325289 -0.40680148111842268 0 -0.25451372154721691 -0.42493116941530668 0 -0.23194234402684141 -0.42165957222767841 0 -0.24759462527076689 -0.40734984085202153 0 -0.23194234402684141 -0.42165957222767841 0 -0.22394608435325289 -0.40680148111842268 0 -0.24759462527076689 -0.40734984085202153 0 -0.25451372154721691 -0.42493116941530668 0 -0.23194234402684141 -0.42165957222767841 0 -0.23529109787099081 -0.43710000791235581 0 -0.2182793310558839 -0.38142911369589072 0 -0.24585720646703249 -0.38759063456441939 0 -0.2182793310558839 -0.38142911369589072 0 -0.24585720646703249 -0.38759063456441939 0 -0.22680093633995591 -0.36667456383666891 0 -0.2182793310558839 -0.38142911369589072 0 -0.22394608435325289 -0.40680148111842268 0 -0.24585720646703249 -0.38759063456441939 0 -0.22394608435325289 -0.40680148111842268 0 -0.24759462527076689 -0.40734984085202153 0 -0.24585720646703249 -0.38759063456441939 0 -0.24585720646703249 -0.38759063456441939 0 -0.22680093633995591 -0.36667456383666891 0 -0.24357452101876009 -0.35719347634161658 0 -0.22680093633995591 -0.36667456383666891 0 -0.21995034101263569 -0.34680471222926817 0 -0.24357452101876009 -0.35719347634161658 0 -0.21995034101263569 -0.34680471222926817 0 -0.24357452101876009 -0.35719347634161658 0 -0.23440252406176451 -0.33391916602045452 0 -0.25010222103959651 -0.33837320235586071 0 -0.24357452101876009 -0.35719347634161658 0 -0.23440252406176451 -0.33391916602045452 0 -0.25010222103959651 -0.33837320235586071 0 -0.23440252406176451 -0.33391916602045452 0 -0.2461182440744682 -0.32338696670055939 0 -0.25439280822112931 -0.31174561110872101 0 -0.2461182440744682 -0.32338696670055939 0 -0.23983611788885081 -0.30932249351090119 0 -0.23440252406176451 -0.33391916602045452 0 -0.2461182440744682 -0.32338696670055939 0 -0.2335599364817792 -0.31904564578015859 0 -0.2461182440744682 -0.32338696670055939 0 -0.2335599364817792 -0.31904564578015859 0 -0.23983611788885081 -0.30932249351090119 0 -0.2335599364817792 -0.31904564578015859 0 -0.21984413334031619 -0.32115373788087931 0 -0.22759866304349641 -0.30744586478799862 0 -0.23440252406176451 -0.33391916602045452 0 -0.2335599364817792 -0.31904564578015859 0 -0.21984413334031619 -0.32115373788087931 0 -0.21995034101263569 -0.34680471222926817 0 -0.23440252406176451 -0.33391916602045452 0 -0.21984413334031619 -0.32115373788087931 0 -0.21995034101263569 -0.34680471222926817 0 -0.21984413334031619 -0.32115373788087931 0 -0.21995034101263569 -0.34680471222926817 0 -0.21984413334031619 -0.32115373788087931 0 -0.20520688842362869 -0.33404005033700718 0 -0.20520688842362869 -0.33404005033700718 0 -0.19606187348700199 -0.31551022077800239 0 -0.20933692613989341 -0.31173656662729782 0 -0.21984413334031619 -0.32115373788087931 0 -0.20520688842362869 -0.33404005033700718 0 -0.20933692613989341 -0.31173656662729782 0 -0.20520688842362869 -0.33404005033700718 0 -0.19606187348700199 -0.31551022077800239 0 -0.18111579256934041 -0.33558953946147491 0 -0.20520688842362869 -0.33404005033700718 0 -0.1859086241070381 -0.3554285661444182 0 -0.18111579256934041 -0.33558953946147491 0 -0.20520688842362869 -0.33404005033700718 0 -0.2063432821454671 -0.36035488235214957 0 -0.1859086241070381 -0.3554285661444182 0 -0.1907014556447357 -0.37526759282736161 0 -0.1859086241070381 -0.3554285661444182 0 -0.1907014556447357 -0.37526759282736161 0 -0.2063432821454671 -0.36035488235214957 0 -0.1859086241070381 -0.3554285661444182 0 -0.1907014556447357 -0.37526759282736161 0 -0.2182793310558839 -0.38142911369589072 0 -0.2063432821454671 -0.36035488235214957 0 -0.2182793310558839 -0.38142911369589072 0 -0.22680093633995591 -0.36667456383666891 0 -0.2063432821454671 -0.36035488235214957 0 -0.21995034101263569 -0.34680471222926817 0 -0.20520688842362869 -0.33404005033700718 0 -0.2063432821454671 -0.36035488235214957 0 -0.22680093633995591 -0.36667456383666891 0 -0.21995034101263569 -0.34680471222926817 0 -0.2063432821454671 -0.36035488235214957 0 -0.22504504768689609 -0.25050109624071037 0 -0.23745882248187969 -0.26433435028884938 0 -0.2196195744133084 -0.26691890577710209 0 -0.22504504768689609 -0.25050109624071037 0 -0.23745882248187969 -0.26433435028884938 0 -0.24276391703666961 -0.24073967138033711 0 -0.25771553715869983 -0.26367618489616662 0 -0.23745882248187969 -0.26433435028884938 0 -0.24276391703666961 -0.24073967138033711 0 -0.23745882248187969 -0.26433435028884938 0 -0.23023227230990101 -0.2815423817459457 0 -0.24737988047014289 -0.28213889657865432 0 -0.25771553715869983 -0.26367618489616662 0 -0.23745882248187969 -0.26433435028884938 0 -0.24737988047014289 -0.28213889657865432 0 -0.2196195744133084 -0.26691890577710209 0 -0.21969355112877589 -0.28478555127866989 0 -0.23023227230990101 -0.2815423817459457 0 -0.2196195744133084 -0.26691890577710209 0 -0.21969355112877589 -0.28478555127866989 0 -0.23745882248187969 -0.26433435028884938 0 -0.2196195744133084 -0.26691890577710209 0 -0.23023227230990101 -0.2815423817459457 0 -0.21969355112877589 -0.28478555127866989 0 -0.23023227230990101 -0.2815423817459457 0 -0.21969355112877589 -0.28478555127866989 0 -0.22761161200582691 -0.28980618480160292 0 -0.23023227230990101 -0.2815423817459457 0 -0.21969355112877589 -0.28478555127866989 0 -0.21973792566799721 -0.29550276353249039 0 -0.21969355112877589 -0.28478555127866989 0 -0.21973792566799721 -0.29550276353249039 0 -0.22761161200582691 -0.28980618480160292 0 -0.22761161200582691 -0.28980618480160292 0 -0.2365924384576491 -0.28987404995085558 0 -0.23264982205676499 -0.29832490522212668 0 -0.21973792566799721 -0.29550276353249039 0 -0.22761161200582691 -0.28980618480160292 0 -0.23264982205676499 -0.29832490522212668 0 -0.22761161200582691 -0.28980618480160292 0 -0.23023227230990101 -0.2815423817459457 0 -0.2365924384576491 -0.28987404995085558 0 -0.23023227230990101 -0.2815423817459457 0 -0.24737988047014289 -0.28213889657865432 0 -0.2365924384576491 -0.28987404995085558 0 -0.24737988047014289 -0.28213889657865432 0 -0.2365924384576491 -0.28987404995085558 0 -0.2454931984233526 -0.29724345758954562 0 -0.2365924384576491 -0.28987404995085558 0 -0.2454931984233526 -0.29724345758954562 0 -0.23264982205676499 -0.29832490522212668 0 -0.2454931984233526 -0.29724345758954562 0 -0.23983611788885081 -0.30932249351090119 0 -0.23264982205676499 -0.29832490522212668 0 -0.25439280822112931 -0.31174561110872101 0 -0.2454931984233526 -0.29724345758954562 0 -0.23983611788885081 -0.30932249351090119 0 -0.21984413334031619 -0.32115373788087931 0 -0.21973792566799721 -0.29550276353249039 0 -0.22759866304349641 -0.30744586478799862 0 -0.2335599364817792 -0.31904564578015859 0 -0.23983611788885081 -0.30932249351090119 0 -0.22759866304349641 -0.30744586478799862 0 -0.21984413334031619 -0.32115373788087931 0 -0.21973792566799721 -0.29550276353249039 0 -0.23983611788885081 -0.30932249351090119 0 -0.22759866304349641 -0.30744586478799862 0 -0.23264982205676499 -0.29832490522212668 0 -0.21973792566799721 -0.29550276353249039 0 -0.22759866304349641 -0.30744586478799862 0 -0.23264982205676499 -0.29832490522212668 0 -0.21973792566799721 -0.29550276353249039 0 -0.22759866304349641 -0.30744586478799862 0 -0.21984413334031619 -0.32115373788087931 0 -0.21973792566799721 -0.29550276353249039 0 -0.20933692613989341 -0.31173656662729782 0 -0.19606187348700199 -0.31551022077800239 0 -0.20933692613989341 -0.31173656662729782 0 -0.206457951564087 -0.299722328452799 0 -0.21973792566799721 -0.29550276353249039 0 -0.20933692613989341 -0.31173656662729782 0 -0.206457951564087 -0.299722328452799 0 -0.19606187348700199 -0.31551022077800239 0 -0.206457951564087 -0.299722328452799 0 -0.19362588086595711 -0.29280757525410922 0 -0.19606187348700199 -0.31551022077800239 0 -0.19362588086595711 -0.29280757525410922 0 -0.18026366670231239 -0.313688617578401 0 -0.19362588086595711 -0.29280757525410922 0 -0.20125626582531761 -0.28160537279984932 0 -0.2138646739627004 -0.28657932079871962 0 -0.19362588086595711 -0.29280757525410922 0 -0.20125626582531761 -0.28160537279984932 0 -0.18829716605620539 -0.27663550038318668 0 -0.19362588086595711 -0.29280757525410922 0 -0.2138646739627004 -0.28657932079871962 0 -0.206457951564087 -0.299722328452799 0 -0.19362588086595711 -0.29280757525410922 0 -0.2138646739627004 -0.28657932079871962 0 -0.21973792566799721 -0.29550276353249039 0 -0.2138646739627004 -0.28657932079871962 0 -0.21973792566799721 -0.29550276353249039 0 -0.206457951564087 -0.299722328452799 0 -0.2138646739627004 -0.28657932079871962 0 -0.21969355112877589 -0.28478555127866989 0 -0.2138646739627004 -0.28657932079871962 0 -0.21969355112877589 -0.28478555127866989 0 -0.21973792566799721 -0.29550276353249039 0 -0.2138646739627004 -0.28657932079871962 0 -0.21969355112877589 -0.28478555127866989 0 -0.2138646739627004 -0.28657932079871962 0 -0.21376149133266481 -0.27587663702820631 0 -0.2138646739627004 -0.28657932079871962 0 -0.20167411848008379 -0.26805777103373662 0 -0.2138646739627004 -0.28657932079871962 0 -0.21376149133266481 -0.27587663702820631 0 -0.20167411848008379 -0.26805777103373662 0 -0.2196195744133084 -0.26691890577710209 0 -0.21376149133266481 -0.27587663702820631 0 -0.20167411848008379 -0.26805777103373662 0 -0.2196195744133084 -0.26691890577710209 0 -0.21969355112877589 -0.28478555127866989 0 -0.21376149133266481 -0.27587663702820631 0 -0.20125626582531761 -0.28160537279984932 0 -0.2138646739627004 -0.28657932079871962 0 -0.20167411848008379 -0.26805777103373662 0 -0.18829716605620539 -0.27663550038318668 0 -0.20167411848008379 -0.26805777103373662 0 -0.1821854373711749 -0.26191883175872982 0 -0.20125626582531761 -0.28160537279984932 0 -0.18829716605620539 -0.27663550038318668 0 -0.20167411848008379 -0.26805777103373662 0 -0.20167411848008379 -0.26805777103373662 0 -0.18948356299746841 -0.24953622126875291 0 -0.20167411848008379 -0.26805777103373662 0 -0.1821854373711749 -0.26191883175872982 0 -0.18948356299746841 -0.24953622126875291 0 -0.20167411848008379 -0.26805777103373662 0 -0.20951704407790281 -0.24968568922956319 0 -0.18948356299746841 -0.24953622126875291 0 -0.2196195744133084 -0.26691890577710209 0 -0.20167411848008379 -0.26805777103373662 0 -0.20951704407790281 -0.24968568922956319 0 -0.22504504768689609 -0.25050109624071037 0 -0.2196195744133084 -0.26691890577710209 0 -0.20951704407790281 -0.24968568922956319 0 -0.16540822882651221 -0.25831635181877732 0 -0.15296216688699729 -0.25014707048332019 0 -0.1638725775675334 -0.24551319246672779 0 -0.16540822882651221 -0.25831635181877732 0 -0.1504580322857294 -0.26288837579272711 0 -0.15296216688699729 -0.25014707048332019 0 -0.16540822882651221 -0.25831635181877732 0 -0.1596297163148975 -0.27106783745467722 0 -0.1504580322857294 -0.26288837579272711 0 -0.16540822882651221 -0.25831635181877732 0 -0.17477946793614321 -0.2467949503106604 0 -0.1638725775675334 -0.24551319246672779 0 -0.16540822882651221 -0.25831635181877732 0 -0.1821854373711749 -0.26191883175872982 0 -0.17477946793614321 -0.2467949503106604 0 -0.16540822882651221 -0.25831635181877732 0 -0.1821854373711749 -0.26191883175872982 0 -0.17347007993063679 -0.27217219573726531 0 -0.1821854373711749 -0.26191883175872982 0 -0.17477946793614321 -0.2467949503106604 0 -0.18948356299746841 -0.24953622126875291 0 -0.18829716605620539 -0.27663550038318668 0 -0.1821854373711749 -0.26191883175872982 0 -0.17347007993063679 -0.27217219573726531 0 -0.18829716605620539 -0.27663550038318668 0 -0.17347007993063679 -0.27217219573726531 0 -0.180098805901347 -0.2858524676251058 0 -0.17347007993063679 -0.27217219573726531 0 -0.1596297163148975 -0.27106783745467722 0 -0.16191244211562281 -0.28586249458626511 0 -0.16540822882651221 -0.25831635181877732 0 -0.17347007993063679 -0.27217219573726531 0 -0.1596297163148975 -0.27106783745467722 0 -0.16191244211562281 -0.28586249458626511 0 -0.180098805901347 -0.2858524676251058 0 -0.17338708776921391 -0.29903582970949921 0 -0.16191244211562281 -0.28586249458626511 0 -0.17338708776921391 -0.29903582970949921 0 -0.15314829467247079 -0.30526408416488932 0 -0.17347007993063679 -0.27217219573726531 0 -0.16191244211562281 -0.28586249458626511 0 -0.180098805901347 -0.2858524676251058 0 -0.19362588086595711 -0.29280757525410922 0 -0.180098805901347 -0.2858524676251058 0 -0.17338708776921391 -0.29903582970949921 0 -0.19362588086595711 -0.29280757525410922 0 -0.18829716605620539 -0.27663550038318668 0 -0.180098805901347 -0.2858524676251058 0 -0.19362588086595711 -0.29280757525410922 0 -0.17338708776921391 -0.29903582970949921 0 -0.17338708776921391 -0.29903582970949921 0 -0.18026366670231239 -0.313688617578401 0 -0.16481231119180351 -0.31851014669705552 0 -0.19362588086595711 -0.29280757525410922 0 -0.17338708776921391 -0.29903582970949921 0 -0.18026366670231239 -0.313688617578401 0 -0.17338708776921391 -0.29903582970949921 0 -0.15314829467247079 -0.30526408416488932 0 -0.16481231119180351 -0.31851014669705552 0 -0.17338708776921391 -0.29903582970949921 0 -0.15314829467247079 -0.30526408416488932 0 -0.15314829467247079 -0.30526408416488932 0 -0.13806964037289779 -0.30858433523091011 0 -0.14262280884465309 -0.29302838646575302 0 -0.15314829467247079 -0.30526408416488932 0 -0.13806964037289779 -0.30858433523091011 0 -0.14497666005007301 -0.31902288742326879 0 -0.13806964037289779 -0.30858433523091011 0 -0.12627526420983151 -0.30098742859133831 0 -0.14262280884465309 -0.29302838646575302 0 -0.13806964037289779 -0.30858433523091011 0 -0.12627526420983151 -0.30098742859133831 0 -0.12530237597128949 -0.31444127409018291 0 -0.12943141328110941 -0.28137220688276432 0 -0.14262280884465309 -0.29302838646575302 0 -0.1468997984159861 -0.27609976933835129 0 -0.12627526420983151 -0.30098742859133831 0 -0.12943141328110941 -0.28137220688276432 0 -0.14262280884465309 -0.29302838646575302 0 -0.16191244211562281 -0.28586249458626511 0 -0.14262280884465309 -0.29302838646575302 0 -0.1468997984159861 -0.27609976933835129 0 -0.16191244211562281 -0.28586249458626511 0 -0.15314829467247079 -0.30526408416488932 0 -0.14262280884465309 -0.29302838646575302 0 -0.1468997984159861 -0.27609976933835129 0 -0.13445971816116911 -0.26565591510335768 0 -0.1504580322857294 -0.26288837579272711 0 -0.1596297163148975 -0.27106783745467722 0 -0.16191244211562281 -0.28586249458626511 0 -0.1468997984159861 -0.27609976933835129 0 -0.1596297163148975 -0.27106783745467722 0 -0.1468997984159861 -0.27609976933835129 0 -0.1504580322857294 -0.26288837579272711 0 -0.12943141328110941 -0.28137220688276432 0 -0.1468997984159861 -0.27609976933835129 0 -0.13445971816116911 -0.26565591510335768 0 -0.12943141328110941 -0.28137220688276432 0 -0.13445971816116911 -0.26565591510335768 0 -0.11669015327911129 -0.26764897148669498 0 -0.13445971816116911 -0.26565591510335768 0 -0.1254838910284212 -0.25115988899400271 0 -0.14197386724259739 -0.25547947608235672 0 -0.13445971816116911 -0.26565591510335768 0 -0.1254838910284212 -0.25115988899400271 0 -0.11669015327911129 -0.26764897148669498 0 -0.1254838910284212 -0.25115988899400271 0 -0.14197386724259739 -0.25547947608235672 0 -0.14242893464998399 -0.24336380518002931 0 -0.13445971816116911 -0.26565591510335768 0 -0.14197386724259739 -0.25547947608235672 0 -0.1504580322857294 -0.26288837579272711 0 -0.14197386724259739 -0.25547947608235672 0 -0.1504580322857294 -0.26288837579272711 0 -0.15296216688699729 -0.25014707048332019 0 -0.1660611273993983 -0.34684532542714203 0 -0.1724972370314504 -0.35931896342254782 0 -0.1536569747843877 -0.35610808307879638 0 -0.16237505464387411 -0.368938834418853 0 -0.1724972370314504 -0.35931896342254782 0 -0.1536569747843877 -0.35610808307879638 0 -0.1907014556447357 -0.37526759282736161 0 -0.1724972370314504 -0.35931896342254782 0 -0.1859086241070381 -0.3554285661444182 0 -0.1907014556447357 -0.37526759282736161 0 -0.16237505464387411 -0.368938834418853 0 -0.1724972370314504 -0.35931896342254782 0 -0.17438759004052001 -0.38070489085241038 0 -0.1907014556447357 -0.37526759282736161 0 -0.16237505464387411 -0.368938834418853 0 -0.1907014556447357 -0.37526759282736161 0 -0.16237505464387411 -0.368938834418853 0 -0.1859086241070381 -0.3554285661444182 0 -0.18111579256934041 -0.33558953946147491 0 -0.1660611273993983 -0.34684532542714203 0 -0.1724972370314504 -0.35931896342254782 0 -0.1859086241070381 -0.3554285661444182 0 -0.1660611273993983 -0.34684532542714203 0 -0.1859086241070381 -0.3554285661444182 0 -0.18111579256934041 -0.33558953946147491 0 -0.18111579256934041 -0.33558953946147491 0 -0.18026366670231239 -0.313688617578401 0 -0.16481231119180351 -0.31851014669705552 0 -0.19606187348700199 -0.31551022077800239 0 -0.18111579256934041 -0.33558953946147491 0 -0.18026366670231239 -0.313688617578401 0 -0.18111579256934041 -0.33558953946147491 0 -0.16481231119180351 -0.31851014669705552 0 -0.1636066129561467 -0.33412248966426772 0 -0.1660611273993983 -0.34684532542714203 0 -0.18111579256934041 -0.33558953946147491 0 -0.1636066129561467 -0.33412248966426772 0 -0.16481231119180351 -0.31851014669705552 0 -0.1636066129561467 -0.33412248966426772 0 -0.1464277509060633 -0.33699612516021321 0 -0.1660611273993983 -0.34684532542714203 0 -0.1636066129561467 -0.33412248966426772 0 -0.1464277509060633 -0.33699612516021321 0 -0.16481231119180351 -0.31851014669705552 0 -0.1464277509060633 -0.33699612516021321 0 -0.14497666005007301 -0.31902288742326879 0 -0.16481231119180351 -0.31851014669705552 0 -0.1464277509060633 -0.33699612516021321 0 -0.1464277509060633 -0.33699612516021321 0 -0.14497666005007301 -0.31902288742326879 0 -0.13556691135500859 -0.3281580948979444 0 -0.15314829467247079 -0.30526408416488932 0 -0.16481231119180351 -0.31851014669705552 0 -0.14497666005007301 -0.31902288742326879 0 -0.13806964037289779 -0.30858433523091011 0 -0.14497666005007301 -0.31902288742326879 0 -0.1341650159284235 -0.31840918349551922 0 -0.14497666005007301 -0.31902288742326879 0 -0.1341650159284235 -0.31840918349551922 0 -0.13556691135500859 -0.3281580948979444 0 -0.1341650159284235 -0.31840918349551922 0 -0.13556691135500859 -0.3281580948979444 0 -0.1245389905768553 -0.32663667078923708 0 -0.1341650159284235 -0.31840918349551922 0 -0.12530237597128949 -0.31444127409018291 0 -0.1245389905768553 -0.32663667078923708 0 -0.13806964037289779 -0.30858433523091011 0 -0.1341650159284235 -0.31840918349551922 0 -0.12530237597128949 -0.31444127409018291 0 -0.1464277509060633 -0.33699612516021321 0 -0.13556691135500859 -0.3281580948979444 0 -0.127726139313628 -0.33972560762148379 0 -0.13556691135500859 -0.3281580948979444 0 -0.127726139313628 -0.33972560762148379 0 -0.1245389905768553 -0.32663667078923708 0 -0.1464277509060633 -0.33699612516021321 0 -0.1280431906203231 -0.3554821036233709 0 -0.14054363843661991 -0.35317929984112179 0 -0.1464277509060633 -0.33699612516021321 0 -0.1280431906203231 -0.3554821036233709 0 -0.1464277509060633 -0.33699612516021321 0 -0.127726139313628 -0.33972560762148379 0 -0.1280431906203231 -0.3554821036233709 0 -0.127726139313628 -0.33972560762148379 0 -0.1237542473824326 -0.35039149381468482 0 -0.127726139313628 -0.33972560762148379 0 -0.1280431906203231 -0.3554821036233709 0 -0.1237542473824326 -0.35039149381468482 0 -0.1280431906203231 -0.3554821036233709 0 -0.1237542473824326 -0.35039149381468482 0 -0.1280431906203231 -0.3554821036233709 0 -0.13404865364301241 -0.36261007601034417 0 -0.1280431906203231 -0.3554821036233709 0 -0.14054363843661991 -0.35317929984112179 0 -0.13404865364301241 -0.36261007601034417 0 -0.14054363843661991 -0.35317929984112179 0 -0.1536569747843877 -0.35610808307879638 0 -0.13404865364301241 -0.36261007601034417 0 -0.1660611273993983 -0.34684532542714203 0 -0.1464277509060633 -0.33699612516021321 0 -0.1536569747843877 -0.35610808307879638 0 -0.1464277509060633 -0.33699612516021321 0 -0.14054363843661991 -0.35317929984112179 0 -0.1536569747843877 -0.35610808307879638 0 -0.16237505464387411 -0.368938834418853 0 -0.13404865364301241 -0.36261007601034417 0 -0.14863283107806141 -0.37992025070478991 0 -0.13404865364301241 -0.36261007601034417 0 -0.16237505464387411 -0.368938834418853 0 -0.1536569747843877 -0.35610808307879638 0 -0.13404865364301241 -0.36261007601034417 0 -0.14863283107806141 -0.37992025070478991 0 -0.16237505464387411 -0.368938834418853 0 -0.13404865364301241 -0.36261007601034417 0 -0.14863283107806141 -0.37992025070478991 0 -0.13336015500516879 -0.3760855178474502 0 -0.13404865364301241 -0.36261007601034417 0 -0.13404865364301241 -0.36261007601034417 0 -0.13009757949784739 -0.36172731671741098 0 -0.12819931909928159 -0.37039398775761317 0 -0.13009757949784739 -0.36172731671741098 0 -0.12573059558457 -0.36597998914953822 0 -0.1210942764811411 -0.36246935135313219 0 -0.1280431906203231 -0.3554821036233709 0 -0.13009757949784739 -0.36172731671741098 0 -0.1210942764811411 -0.36246935135313219 0 -0.13009757949784739 -0.36172731671741098 0 -0.12573059558457 -0.36597998914953822 0 -0.12819931909928159 -0.37039398775761317 0 -0.13404865364301241 -0.36261007601034417 0 -0.13009757949784739 -0.36172731671741098 0 -0.1280431906203231 -0.3554821036233709 0 -0.13404865364301241 -0.36261007601034417 0 -0.13009757949784739 -0.36172731671741098 0 -0.13336015500516879 -0.3760855178474502 0 -0.13404865364301241 -0.36261007601034417 0 -0.12819931909928159 -0.37039398775761317 0 -0.12573059558457 -0.36597998914953822 0 -0.12819931909928159 -0.37039398775761317 0 -0.1224844175706427 -0.37014133214410289 0 -0.1224844175706427 -0.37014133214410289 0 -0.11815651373241309 -0.36542332023021368 0 -0.1207838471301312 -0.38129258449690551 0 -0.12819931909928159 -0.37039398775761317 0 -0.1224844175706427 -0.37014133214410289 0 -0.1207838471301312 -0.38129258449690551 0 -0.1224844175706427 -0.37014133214410289 0 -0.1210942764811411 -0.36246935135313219 0 -0.12573059558457 -0.36597998914953822 0 -0.1224844175706427 -0.37014133214410289 0 -0.1210942764811411 -0.36246935135313219 0 -0.1224844175706427 -0.37014133214410289 0 -0.1210942764811411 -0.36246935135313219 0 -0.11815651373241309 -0.36542332023021368 0 -0.1210942764811411 -0.36246935135313219 0 -0.11815651373241309 -0.36542332023021368 0 -0.1210942764811411 -0.36246935135313219 0 -0.11815651373241309 -0.36542332023021368 0 -0.12049276357797591 -0.35914969159093829 0 -0.11815651373241309 -0.36542332023021368 0 -0.11298242210822521 -0.36061363289054987 0 -0.12049276357797591 -0.35914969159093829 0 -0.11815651373241309 -0.36542332023021368 0 -0.12049276357797591 -0.35914969159093829 0 -0.1210942764811411 -0.36246935135313219 0 -0.12049276357797591 -0.35914969159093829 0 -0.11815651373241309 -0.36542332023021368 0 -0.11298242210822521 -0.36061363289054987 0 -0.1055754637790248 -0.36472365544445368 0 -0.11815651373241309 -0.36542332023021368 0 -0.10437677230430289 -0.37927907741498063 0 -0.1055754637790248 -0.36472365544445368 0 -0.095373369185944218 -0.37226794372756822 0 -0.10437677230430289 -0.37927907741498063 0 -0.1055754637790248 -0.36472365544445368 0 -0.095373369185944218 -0.37226794372756822 0 -0.096885273119970167 -0.35523765023009629 0 -0.11815651373241309 -0.36542332023021368 0 -0.1055754637790248 -0.36472365544445368 0 -0.10437677230430289 -0.37927907741498063 0 -0.11298242210822521 -0.36061363289054987 0 -0.1055754637790248 -0.36472365544445368 0 -0.1077049473434873 -0.35315786429659368 0 -0.096885273119970167 -0.35523765023009629 0 -0.1052905736218875 -0.34342246319904463 0 -0.094037879645795408 -0.33684589475527482 0 -0.1055754637790248 -0.36472365544445368 0 -0.096885273119970167 -0.35523765023009629 0 -0.1077049473434873 -0.35315786429659368 0 -0.096885273119970167 -0.35523765023009629 0 -0.1077049473434873 -0.35315786429659368 0 -0.1052905736218875 -0.34342246319904463 0 -0.1077049473434873 -0.35315786429659368 0 -0.117577369261388 -0.34306006632638192 0 -0.1052905736218875 -0.34342246319904463 0 -0.12049276357797591 -0.35914969159093829 0 -0.117577369261388 -0.34306006632638192 0 -0.12049276357797591 -0.35914969159093829 0 -0.1237542473824326 -0.35039149381468482 0 -0.117577369261388 -0.34306006632638192 0 -0.1077049473434873 -0.35315786429659368 0 -0.12049276357797591 -0.35914969159093829 0 -0.117577369261388 -0.34306006632638192 0 -0.11298242210822521 -0.36061363289054987 0 -0.1077049473434873 -0.35315786429659368 0 -0.12049276357797591 -0.35914969159093829 0 -0.1280431906203231 -0.3554821036233709 0 -0.12049276357797591 -0.35914969159093829 0 -0.1237542473824326 -0.35039149381468482 0 -0.12049276357797591 -0.35914969159093829 0 -0.1237542473824326 -0.35039149381468482 0 -0.1280431906203231 -0.3554821036233709 0 -0.1210942764811411 -0.36246935135313219 0 -0.1280431906203231 -0.3554821036233709 0 -0.1210942764811411 -0.36246935135313219 0 -0.12049276357797591 -0.35914969159093829 0 -0.127726139313628 -0.33972560762148379 0 -0.1237542473824326 -0.35039149381468482 0 -0.117577369261388 -0.34306006632638192 0 -0.1237542473824326 -0.35039149381468482 0 -0.117577369261388 -0.34306006632638192 0 -0.117577369261388 -0.34306006632638192 0 -0.1123243391324235 -0.31406937858386302 0 -0.117577369261388 -0.34306006632638192 0 -0.1123243391324235 -0.31406937858386302 0 -0.1076229156379338 -0.3312449789155823 0 -0.127726139313628 -0.33972560762148379 0 -0.117577369261388 -0.34306006632638192 0 -0.1245389905768553 -0.32663667078923708 0 -0.117577369261388 -0.34306006632638192 0 -0.1052905736218875 -0.34342246319904463 0 -0.1076229156379338 -0.3312449789155823 0 -0.117577369261388 -0.34306006632638192 0 -0.1076229156379338 -0.3312449789155823 0 -0.117577369261388 -0.34306006632638192 0 -0.1245389905768553 -0.32663667078923708 0 -0.1123243391324235 -0.31406937858386302 0 -0.12530237597128949 -0.31444127409018291 0 -0.1245389905768553 -0.32663667078923708 0 -0.1123243391324235 -0.31406937858386302 0 -0.1123243391324235 -0.31406937858386302 0 -0.097668462014480706 -0.31942989150478179 0 -0.1076229156379338 -0.3312449789155823 0 -0.1123243391324235 -0.31406937858386302 0 -0.097668462014480706 -0.31942989150478179 0 -0.098840142139999865 -0.30431616699351127 0 -0.097668462014480706 -0.31942989150478179 0 -0.1076229156379338 -0.3312449789155823 0 -0.097668462014480706 -0.31942989150478179 0 -0.1076229156379338 -0.3312449789155823 0 -0.094037879645795408 -0.33684589475527482 0 -0.1052905736218875 -0.34342246319904463 0 -0.1076229156379338 -0.3312449789155823 0 -0.094037879645795408 -0.33684589475527482 0 -0.094037879645795408 -0.33684589475527482 0 -0.081122370891040685 -0.3362676729083538 0 -0.08398279974151697 -0.34928151549062891 0 -0.094037879645795408 -0.33684589475527482 0 -0.081122370891040685 -0.3362676729083538 0 -0.08519148415718969 -0.32386418818573948 0 -0.081122370891040685 -0.3362676729083538 0 -0.08519148415718969 -0.32386418818573948 0 -0.072308330692425232 -0.32750498394681249 0 -0.081122370891040685 -0.3362676729083538 0 -0.069656779734767291 -0.34267700035984883 0 -0.08398279974151697 -0.34928151549062891 0 -0.097668462014480706 -0.31942989150478179 0 -0.094037879645795408 -0.33684589475527482 0 -0.08519148415718969 -0.32386418818573948 0 -0.097668462014480706 -0.31942989150478179 0 -0.08519148415718969 -0.32386418818573948 0 -0.088215251450015686 -0.30881515560993011 0 -0.08519148415718969 -0.32386418818573948 0 -0.077796610249380449 -0.31432153038928401 0 -0.072308330692425232 -0.32750498394681249 0 -0.08519148415718969 -0.32386418818573948 0 -0.077796610249380449 -0.31432153038928401 0 -0.088215251450015686 -0.30881515560993011 0 -0.077796610249380449 -0.31432153038928401 0 -0.072308330692425232 -0.32750498394681249 0 -0.06643865935171013 -0.31305294748523071 0 -0.072308330692425232 -0.32750498394681249 0 -0.06643865935171013 -0.31305294748523071 0 -0.060666775288141163 -0.32502260069969358 0 -0.081122370891040685 -0.3362676729083538 0 -0.072308330692425232 -0.32750498394681249 0 -0.069656779734767291 -0.34267700035984883 0 -0.072308330692425232 -0.32750498394681249 0 -0.063651069251679751 -0.33353000822446 0 -0.060666775288141163 -0.32502260069969358 0 -0.072308330692425232 -0.32750498394681249 0 -0.063651069251679751 -0.33353000822446 0 -0.069656779734767291 -0.34267700035984883 0 -0.063651069251679751 -0.33353000822446 0 -0.069656779734767291 -0.34267700035984883 0 -0.054950553423473623 -0.33941189317235321 0 -0.069656779734767291 -0.34267700035984883 0 -0.075549106330502797 -0.36032873824683742 0 -0.057810098153065738 -0.35233945461112981 0 -0.069656779734767291 -0.34267700035984883 0 -0.075549106330502797 -0.36032873824683742 0 -0.08398279974151697 -0.34928151549062891 0 -0.075549106330502797 -0.36032873824683742 0 -0.054044806559752218 -0.3689613686281934 0 -0.065419956743711039 -0.37923504273605319 0 -0.075549106330502797 -0.36032873824683742 0 -0.083275793653447311 -0.37498164588394001 0 -0.065419956743711039 -0.37923504273605319 0 -0.075549106330502797 -0.36032873824683742 0 -0.083275793653447311 -0.37498164588394001 0 -0.086779455665527999 -0.36363511103244828 0 -0.095373369185944218 -0.37226794372756822 0 -0.096885273119970167 -0.35523765023009629 0 -0.086779455665527999 -0.36363511103244828 0 -0.095373369185944218 -0.37226794372756822 0 -0.083275793653447311 -0.37498164588394001 0 -0.086779455665527999 -0.36363511103244828 0 -0.096885273119970167 -0.35523765023009629 0 -0.094037879645795408 -0.33684589475527482 0 -0.08398279974151697 -0.34928151549062891 0 -0.096885273119970167 -0.35523765023009629 0 -0.086779455665527999 -0.36363511103244828 0 -0.08398279974151697 -0.34928151549062891 0 -0.075549106330502797 -0.36032873824683742 0 -0.086779455665527999 -0.36363511103244828 0 -0.08398279974151697 -0.34928151549062891 0 -0.106562239054386 -0.25341088658734001 0 -0.097723200412829281 -0.26704472972910009 0 -0.089662449593936294 -0.25365822956627793 0 -0.106562239054386 -0.25341088658734001 0 -0.11669015327911129 -0.26764897148669498 0 -0.097723200412829281 -0.26704472972910009 0 -0.1254838910284212 -0.25115988899400271 0 -0.106562239054386 -0.25341088658734001 0 -0.11669015327911129 -0.26764897148669498 0 -0.12943141328110941 -0.28137220688276432 0 -0.11669015327911129 -0.26764897148669498 0 -0.1070713090034577 -0.28507869084134441 0 -0.097723200412829281 -0.26704472972910009 0 -0.1070713090034577 -0.28507869084134441 0 -0.085676047681258152 -0.2778476331779377 0 -0.11669015327911129 -0.26764897148669498 0 -0.097723200412829281 -0.26704472972910009 0 -0.1070713090034577 -0.28507869084134441 0 -0.1070713090034577 -0.28507869084134441 0 -0.098840142139999865 -0.30431616699351127 0 -0.088921349099621655 -0.29418771842763719 0 -0.1070713090034577 -0.28507869084134441 0 -0.088921349099621655 -0.29418771842763719 0 -0.085676047681258152 -0.2778476331779377 0 -0.12627526420983151 -0.30098742859133831 0 -0.12943141328110941 -0.28137220688276432 0 -0.1070713090034577 -0.28507869084134441 0 -0.1123243391324235 -0.31406937858386302 0 -0.1070713090034577 -0.28507869084134441 0 -0.12627526420983151 -0.30098742859133831 0 -0.1123243391324235 -0.31406937858386302 0 -0.1070713090034577 -0.28507869084134441 0 -0.12627526420983151 -0.30098742859133831 0 -0.12530237597128949 -0.31444127409018291 0 -0.1123243391324235 -0.31406937858386302 0 -0.1123243391324235 -0.31406937858386302 0 -0.1070713090034577 -0.28507869084134441 0 -0.098840142139999865 -0.30431616699351127 0 -0.097668462014480706 -0.31942989150478179 0 -0.098840142139999865 -0.30431616699351127 0 -0.088215251450015686 -0.30881515560993011 0 -0.098840142139999865 -0.30431616699351127 0 -0.088215251450015686 -0.30881515560993011 0 -0.088921349099621655 -0.29418771842763719 0 -0.088215251450015686 -0.30881515560993011 0 -0.075636643095031833 -0.29886510808871908 0 -0.088921349099621655 -0.29418771842763719 0 -0.077796610249380449 -0.31432153038928401 0 -0.088215251450015686 -0.30881515560993011 0 -0.075636643095031833 -0.29886510808871908 0 -0.077796610249380449 -0.31432153038928401 0 -0.06643865935171013 -0.31305294748523071 0 -0.075636643095031833 -0.29886510808871908 0 -0.06643865935171013 -0.31305294748523071 0 -0.063595703188952232 -0.29971387618877832 0 -0.075636643095031833 -0.29886510808871908 0 -0.075636643095031833 -0.29886510808871908 0 -0.063845773312456333 -0.28563445323889508 0 -0.075734268814476896 -0.286046510643301 0 -0.063595703188952232 -0.29971387618877832 0 -0.075636643095031833 -0.29886510808871908 0 -0.063845773312456333 -0.28563445323889508 0 -0.075734268814476896 -0.286046510643301 0 -0.088921349099621655 -0.29418771842763719 0 -0.085676047681258152 -0.2778476331779377 0 -0.075636643095031833 -0.29886510808871908 0 -0.075734268814476896 -0.286046510643301 0 -0.088921349099621655 -0.29418771842763719 0 -0.097723200412829281 -0.26704472972910009 0 -0.085676047681258152 -0.2778476331779377 0 -0.080677003864826347 -0.26462396671500621 0 -0.063845773312456333 -0.28563445323889508 0 -0.075734268814476896 -0.286046510643301 0 -0.066253950948556989 -0.26807667665819401 0 -0.075734268814476896 -0.286046510643301 0 -0.085676047681258152 -0.2778476331779377 0 -0.066253950948556989 -0.26807667665819401 0 -0.085676047681258152 -0.2778476331779377 0 -0.066253950948556989 -0.26807667665819401 0 -0.080677003864826347 -0.26462396671500621 0 -0.066253950948556989 -0.26807667665819401 0 -0.075211789775330495 -0.25372848722754249 0 -0.080677003864826347 -0.26462396671500621 0 -0.066253950948556989 -0.26807667665819401 0 -0.063417346604215649 -0.25491921445445309 0 -0.075211789775330495 -0.25372848722754249 0 -0.097723200412829281 -0.26704472972910009 0 -0.080677003864826347 -0.26462396671500621 0 -0.089662449593936294 -0.25365822956627793 0 -0.075211789775330495 -0.25372848722754249 0 -0.080677003864826347 -0.26462396671500621 0 -0.089662449593936294 -0.25365822956627793 0 -0.039299023138829443 -0.26034459322474102 0 -0.029677138304005451 -0.26154322389305362 0 -0.043163549692594082 -0.24961839520776721 0 -0.039299023138829443 -0.26034459322474102 0 -0.036697213759188559 -0.26801237686174317 0 -0.029677138304005451 -0.26154322389305362 0 -0.039299023138829443 -0.26034459322474102 0 -0.047658190799529668 -0.26220437693639997 0 -0.036697213759188559 -0.26801237686174317 0 -0.039299023138829443 -0.26034459322474102 0 -0.047658190799529668 -0.26220437693639997 0 -0.043163549692594082 -0.24961839520776721 0 -0.054451551828928461 -0.25356532493994721 0 -0.047658190799529668 -0.26220437693639997 0 -0.043163549692594082 -0.24961839520776721 0 -0.063417346604215649 -0.25491921445445309 0 -0.054451551828928461 -0.25356532493994721 0 -0.057553296654995367 -0.26259610621135299 0 -0.066253950948556989 -0.26807667665819401 0 -0.063417346604215649 -0.25491921445445309 0 -0.057553296654995367 -0.26259610621135299 0 -0.054451551828928461 -0.25356532493994721 0 -0.057553296654995367 -0.26259610621135299 0 -0.047658190799529668 -0.26220437693639997 0 -0.063845773312456333 -0.28563445323889508 0 -0.066253950948556989 -0.26807667665819401 0 -0.054207911551895277 -0.27406674322809749 0 -0.057553296654995367 -0.26259610621135299 0 -0.047658190799529668 -0.26220437693639997 0 -0.054207911551895277 -0.27406674322809749 0 -0.047658190799529668 -0.26220437693639997 0 -0.054207911551895277 -0.27406674322809749 0 -0.044341738947824498 -0.27347773786609691 0 -0.066253950948556989 -0.26807667665819401 0 -0.057553296654995367 -0.26259610621135299 0 -0.054207911551895277 -0.27406674322809749 0 -0.054207911551895277 -0.27406674322809749 0 -0.0469133870482017 -0.28084316341731508 0 -0.044341738947824498 -0.27347773786609691 0 -0.054207911551895277 -0.27406674322809749 0 -0.0469133870482017 -0.28084316341731508 0 -0.053550399734154673 -0.28478902881756729 0 -0.044341738947824498 -0.27347773786609691 0 -0.036697213759188559 -0.26801237686174317 0 -0.037434755157874228 -0.28108308265450221 0 -0.0469133870482017 -0.28084316341731508 0 -0.044341738947824498 -0.27347773786609691 0 -0.037434755157874228 -0.28108308265450221 0 -0.047658190799529668 -0.26220437693639997 0 -0.044341738947824498 -0.27347773786609691 0 -0.036697213759188559 -0.26801237686174317 0 -0.036697213759188559 -0.26801237686174317 0 -0.037434755157874228 -0.28108308265450221 0 -0.029542607694283091 -0.2766915070943925 0 -0.037434755157874228 -0.28108308265450221 0 -0.032379413615477998 -0.29148841554844579 0 -0.02573220942484003 -0.28412816214809139 0 -0.037434755157874228 -0.28108308265450221 0 -0.032379413615477998 -0.29148841554844579 0 -0.045032129849259833 -0.29079922452031198 0 -0.032379413615477998 -0.29148841554844579 0 -0.045032129849259833 -0.29079922452031198 0 -0.038420085196739347 -0.30023332102815031 0 -0.0469133870482017 -0.28084316341731508 0 -0.037434755157874228 -0.28108308265450221 0 -0.045032129849259833 -0.29079922452031198 0 -0.0469133870482017 -0.28084316341731508 0 -0.045032129849259833 -0.29079922452031198 0 -0.053550399734154673 -0.28478902881756729 0 -0.063845773312456333 -0.28563445323889508 0 -0.054207911551895277 -0.27406674322809749 0 -0.053550399734154673 -0.28478902881756729 0 -0.063845773312456333 -0.28563445323889508 0 -0.053550399734154673 -0.28478902881756729 0 -0.055645195427012253 -0.2948208793343442 0 -0.063595703188952232 -0.29971387618877832 0 -0.063845773312456333 -0.28563445323889508 0 -0.055645195427012253 -0.2948208793343442 0 -0.045032129849259833 -0.29079922452031198 0 -0.053550399734154673 -0.28478902881756729 0 -0.055645195427012253 -0.2948208793343442 0 -0.045032129849259833 -0.29079922452031198 0 -0.055645195427012253 -0.2948208793343442 0 -0.0481193956594742 -0.30026030932744102 0 -0.055645195427012253 -0.2948208793343442 0 -0.0481193956594742 -0.30026030932744102 0 -0.056412244758550653 -0.30619599279670251 0 -0.063595703188952232 -0.29971387618877832 0 -0.055645195427012253 -0.2948208793343442 0 -0.056412244758550653 -0.30619599279670251 0 -0.06643865935171013 -0.31305294748523071 0 -0.056412244758550653 -0.30619599279670251 0 -0.056006035373996649 -0.31566687923228243 0 -0.06643865935171013 -0.31305294748523071 0 -0.063595703188952232 -0.29971387618877832 0 -0.056412244758550653 -0.30619599279670251 0 -0.0481193956594742 -0.30026030932744102 0 -0.056412244758550653 -0.30619599279670251 0 -0.04508732306580894 -0.30925212895769599 0 -0.056412244758550653 -0.30619599279670251 0 -0.04508732306580894 -0.30925212895769599 0 -0.056006035373996649 -0.31566687923228243 0 -0.045032129849259833 -0.29079922452031198 0 -0.0481193956594742 -0.30026030932744102 0 -0.038420085196739347 -0.30023332102815031 0 -0.0481193956594742 -0.30026030932744102 0 -0.04508732306580894 -0.30925212895769599 0 -0.038420085196739347 -0.30023332102815031 0 -0.032379413615477998 -0.29148841554844579 0 -0.038420085196739347 -0.30023332102815031 0 -0.02562680372012574 -0.30064214619787022 0 -0.038420085196739347 -0.30023332102815031 0 -0.032235111113639692 -0.30680688242526671 0 -0.02562680372012574 -0.30064214619787022 0 -0.04508732306580894 -0.30925212895769599 0 -0.038420085196739347 -0.30023332102815031 0 -0.032235111113639692 -0.30680688242526671 0 -0.04508732306580894 -0.30925212895769599 0 -0.032235111113639692 -0.30680688242526671 0 -0.036552199809216451 -0.31452955134158173 0 -0.032235111113639692 -0.30680688242526671 0 -0.02562680372012574 -0.30064214619787022 0 -0.021518721174265901 -0.31130186242383628 0 -0.032235111113639692 -0.30680688242526671 0 -0.021518721174265901 -0.31130186242383628 0 -0.028393383375689561 -0.31683091740742397 0 -0.02562680372012574 -0.30064214619787022 0 -0.01785831043736397 -0.30461762296449862 0 -0.01355290784374672 -0.29700484241198738 0 -0.01785831043736397 -0.30461762296449862 0 -0.021518721174265901 -0.31130186242383628 0 -0.01073480901131753 -0.30952164082430061 0 -0.02562680372012574 -0.30064214619787022 0 -0.01785831043736397 -0.30461762296449862 0 -0.021518721174265901 -0.31130186242383628 0 -0.01073480901131753 -0.30952164082430061 0 -0.002414121994255156 -0.29063778867238549 0 0.0058325711166652416 -0.29709404586203292 0 -0.01073480901131753 -0.30952164082430061 0 -0.002414121994255156 -0.29063778867238549 0 -0.01073480901131753 -0.30952164082430061 0 -0.01355290784374672 -0.29700484241198738 0 -0.002414121994255156 -0.29063778867238549 0 -0.01073480901131753 -0.30952164082430061 0 -0.0054994254322928079 -0.31735566732876491 0 0.0058325711166652416 -0.29709404586203292 0 -0.01785831043736397 -0.30461762296449862 0 -0.01073480901131753 -0.30952164082430061 0 -0.01355290784374672 -0.29700484241198738 0 -0.01355290784374672 -0.29700484241198738 0 -0.002414121994255156 -0.29063778867238549 0 -0.01368288481818038 -0.28575750007482947 0 -0.002414121994255156 -0.29063778867238549 0 -0.0053526514841120663 -0.28227776574059288 0 0.0059065650228071788 -0.27175393652047042 0 -0.002414121994255156 -0.29063778867238549 0 -0.0053526514841120663 -0.28227776574059288 0 -0.01368288481818038 -0.28575750007482947 0 -0.0053526514841120663 -0.28227776574059288 0 -0.01368288481818038 -0.28575750007482947 0 -0.0112867717957243 -0.27773412217130672 0 -0.01368288481818038 -0.28575750007482947 0 -0.02168214541031073 -0.29223085169764468 0 -0.02573220942484003 -0.28412816214809139 0 -0.01368288481818038 -0.28575750007482947 0 -0.02573220942484003 -0.28412816214809139 0 -0.019852840420579589 -0.27752260929997902 0 -0.02562680372012574 -0.30064214619787022 0 -0.01355290784374672 -0.29700484241198738 0 -0.02168214541031073 -0.29223085169764468 0 -0.01355290784374672 -0.29700484241198738 0 -0.01368288481818038 -0.28575750007482947 0 -0.02168214541031073 -0.29223085169764468 0 -0.032379413615477998 -0.29148841554844579 0 -0.02562680372012574 -0.30064214619787022 0 -0.02168214541031073 -0.29223085169764468 0 -0.032379413615477998 -0.29148841554844579 0 -0.02168214541031073 -0.29223085169764468 0 -0.02573220942484003 -0.28412816214809139 0 -0.029542607694283091 -0.2766915070943925 0 -0.02496668356116221 -0.26956329960297509 0 -0.019852840420579589 -0.27752260929997902 0 -0.037434755157874228 -0.28108308265450221 0 -0.02573220942484003 -0.28412816214809139 0 -0.029542607694283091 -0.2766915070943925 0 -0.02573220942484003 -0.28412816214809139 0 -0.029542607694283091 -0.2766915070943925 0 -0.019852840420579589 -0.27752260929997902 0 -0.036697213759188559 -0.26801237686174317 0 -0.02496668356116221 -0.26956329960297509 0 -0.029677138304005451 -0.26154322389305362 0 -0.036697213759188559 -0.26801237686174317 0 -0.029542607694283091 -0.2766915070943925 0 -0.02496668356116221 -0.26956329960297509 0 -0.02496668356116221 -0.26956329960297509 0 -0.019852840420579589 -0.27752260929997902 0 -0.01517474890969581 -0.2719222885956798 0 -0.02496668356116221 -0.26956329960297509 0 -0.01517474890969581 -0.2719222885956798 0 -0.01862849233489388 -0.26068616586411969 0 -0.019852840420579589 -0.27752260929997902 0 -0.0112867717957243 -0.27773412217130672 0 -0.01517474890969581 -0.2719222885956798 0 -0.01368288481818038 -0.28575750007482947 0 -0.019852840420579589 -0.27752260929997902 0 -0.0112867717957243 -0.27773412217130672 0 -0.0112867717957243 -0.27773412217130672 0 -0.0069139035983915437 -0.273383188501094 0 -0.01517474890969581 -0.2719222885956798 0 -0.0053526514841120663 -0.28227776574059288 0 -0.0112867717957243 -0.27773412217130672 0 -0.0069139035983915437 -0.273383188501094 0 -0.01862849233489388 -0.26068616586411969 0 0.0059065650228071788 -0.27175393652047042 0 -0.0069139035983915437 -0.273383188501094 0 -0.01862849233489388 -0.26068616586411969 0 0.0059065650228071788 -0.27175393652047042 0 -0.0053526514841120663 -0.28227776574059288 0 -0.0069139035983915437 -0.273383188501094 0 0.0059065650228071788 -0.27175393652047042 0 -0.0069139035983915437 -0.273383188501094 0 -0.01517474890969581 -0.2719222885956798 0 -0.01862849233489388 -0.26068616586411969 0 -0.0049631903719375078 -0.25702848078525448 0 -0.01862849233489388 -0.26068616586411969 0 0.0059065650228071788 -0.27175393652047042 0 -0.0049631903719375078 -0.25702848078525448 0 -0.0041269308005008401 -0.2467473806334986 0 0.0037735047295409112 -0.25356804962544388 0 -0.0049631903719375078 -0.25702848078525448 0 -0.015517288428824419 -0.24979384031831589 0 -0.0041269308005008401 -0.2467473806334986 0 -0.0049631903719375078 -0.25702848078525448 0 -0.01862849233489388 -0.26068616586411969 0 -0.015517288428824419 -0.24979384031831589 0 -0.01862849233489388 -0.26068616586411969 0 -0.029677138304005451 -0.26154322389305362 0 -0.043163549692594082 -0.24961839520776721 0 -0.023413120833141021 -0.25245946384945861 0 -0.01862849233489388 -0.26068616586411969 0 -0.043163549692594082 -0.24961839520776721 0 -0.01862849233489388 -0.26068616586411969 0 -0.043163549692594082 -0.24961839520776721 0 -0.023413120833141021 -0.25245946384945861 0 -0.01862849233489388 -0.26068616586411969 0 -0.015517288428824419 -0.24979384031831589 0 -0.02496668356116221 -0.26956329960297509 0 -0.01862849233489388 -0.26068616586411969 0 -0.029677138304005451 -0.26154322389305362 0 -0.041960645651677092 -0.35746960230644459 0 -0.043638237615344848 -0.34442964108078672 0 -0.0310470197249345 -0.34789339642500478 0 -0.041960645651677092 -0.35746960230644459 0 -0.028163418530206381 -0.35787891026223029 0 -0.0310470197249345 -0.34789339642500478 0 -0.037230817003255187 -0.37409142804364143 0 -0.028163418530206381 -0.35787891026223029 0 -0.041960645651677092 -0.35746960230644459 0 -0.037230817003255187 -0.37409142804364143 0 -0.054044806559752218 -0.3689613686281934 0 -0.041960645651677092 -0.35746960230644459 0 -0.037230817003255187 -0.37409142804364143 0 -0.028163418530206381 -0.35787891026223029 0 -0.037230817003255187 -0.37409142804364143 0 -0.028163418530206381 -0.35787891026223029 0 -0.032238716188598117 -0.37831040094196028 0 -0.075549106330502797 -0.36032873824683742 0 -0.054044806559752218 -0.3689613686281934 0 -0.057810098153065738 -0.35233945461112981 0 -0.041960645651677092 -0.35746960230644459 0 -0.054044806559752218 -0.3689613686281934 0 -0.057810098153065738 -0.35233945461112981 0 -0.041960645651677092 -0.35746960230644459 0 -0.043638237615344848 -0.34442964108078672 0 -0.057810098153065738 -0.35233945461112981 0 -0.043638237615344848 -0.34442964108078672 0 -0.057810098153065738 -0.35233945461112981 0 -0.054950553423473623 -0.33941189317235321 0 -0.069656779734767291 -0.34267700035984883 0 -0.057810098153065738 -0.35233945461112981 0 -0.054950553423473623 -0.33941189317235321 0 -0.063651069251679751 -0.33353000822446 0 -0.052671432719874421 -0.32970394548554732 0 -0.060666775288141163 -0.32502260069969358 0 -0.063651069251679751 -0.33353000822446 0 -0.054950553423473623 -0.33941189317235321 0 -0.052671432719874421 -0.32970394548554732 0 -0.054950553423473623 -0.33941189317235321 0 -0.052671432719874421 -0.32970394548554732 0 -0.043113374801094589 -0.33234928820251808 0 -0.043638237615344848 -0.34442964108078672 0 -0.054950553423473623 -0.33941189317235321 0 -0.043113374801094589 -0.33234928820251808 0 -0.06643865935171013 -0.31305294748523071 0 -0.056006035373996649 -0.31566687923228243 0 -0.060666775288141163 -0.32502260069969358 0 -0.056006035373996649 -0.31566687923228243 0 -0.060666775288141163 -0.32502260069969358 0 -0.04823469419050961 -0.32063740645148892 0 -0.052671432719874421 -0.32970394548554732 0 -0.060666775288141163 -0.32502260069969358 0 -0.04823469419050961 -0.32063740645148892 0 -0.052671432719874421 -0.32970394548554732 0 -0.04823469419050961 -0.32063740645148892 0 -0.043113374801094589 -0.33234928820251808 0 -0.04508732306580894 -0.30925212895769599 0 -0.056006035373996649 -0.31566687923228243 0 -0.04823469419050961 -0.32063740645148892 0 -0.04823469419050961 -0.32063740645148892 0 -0.04011073017055708 -0.3234231190012849 0 -0.036552199809216451 -0.31452955134158173 0 -0.04508732306580894 -0.30925212895769599 0 -0.04823469419050961 -0.32063740645148892 0 -0.036552199809216451 -0.31452955134158173 0 -0.04823469419050961 -0.32063740645148892 0 -0.04011073017055708 -0.3234231190012849 0 -0.043113374801094589 -0.33234928820251808 0 -0.04011073017055708 -0.3234231190012849 0 -0.032542651881407682 -0.32617623000955082 0 -0.043113374801094589 -0.33234928820251808 0 -0.04011073017055708 -0.3234231190012849 0 -0.032542651881407682 -0.32617623000955082 0 -0.036552199809216451 -0.31452955134158173 0 -0.032235111113639692 -0.30680688242526671 0 -0.036552199809216451 -0.31452955134158173 0 -0.028393383375689561 -0.31683091740742397 0 -0.032542651881407682 -0.32617623000955082 0 -0.036552199809216451 -0.31452955134158173 0 -0.028393383375689561 -0.31683091740742397 0 -0.043638237615344848 -0.34442964108078672 0 -0.043113374801094589 -0.33234928820251808 0 -0.03294773393782359 -0.33711421176726991 0 -0.032542651881407682 -0.32617623000955082 0 -0.043113374801094589 -0.33234928820251808 0 -0.03294773393782359 -0.33711421176726991 0 -0.043638237615344848 -0.34442964108078672 0 -0.03294773393782359 -0.33711421176726991 0 -0.0310470197249345 -0.34789339642500478 0 -0.03294773393782359 -0.33711421176726991 0 -0.01683142198125084 -0.33761728879549691 0 -0.0310470197249345 -0.34789339642500478 0 -0.03294773393782359 -0.33711421176726991 0 -0.026324861499239242 -0.33110152446152469 0 -0.01683142198125084 -0.33761728879549691 0 -0.032542651881407682 -0.32617623000955082 0 -0.03294773393782359 -0.33711421176726991 0 -0.026324861499239242 -0.33110152446152469 0 -0.026324861499239242 -0.33110152446152469 0 -0.01683142198125084 -0.33761728879549691 0 -0.022977638196474859 -0.32349836727378167 0 -0.01683142198125084 -0.33761728879549691 0 -0.022977638196474859 -0.32349836727378167 0 -0.01551240315912039 -0.31985896532923608 0 -0.021518721174265901 -0.31130186242383628 0 -0.028393383375689561 -0.31683091740742397 0 -0.022977638196474859 -0.32349836727378167 0 -0.032542651881407682 -0.32617623000955082 0 -0.026324861499239242 -0.33110152446152469 0 -0.022977638196474859 -0.32349836727378167 0 -0.032542651881407682 -0.32617623000955082 0 -0.028393383375689561 -0.31683091740742397 0 -0.022977638196474859 -0.32349836727378167 0 -0.021518721174265901 -0.31130186242383628 0 -0.01073480901131753 -0.30952164082430061 0 -0.01551240315912039 -0.31985896532923608 0 -0.021518721174265901 -0.31130186242383628 0 -0.022977638196474859 -0.32349836727378167 0 -0.01551240315912039 -0.31985896532923608 0 -0.01683142198125084 -0.33761728879549691 0 -0.0054994254322928079 -0.31735566732876491 0 -0.01683142198125084 -0.33761728879549691 0 -0.01551240315912039 -0.31985896532923608 0 -0.0054994254322928079 -0.31735566732876491 0 -0.01073480901131753 -0.30952164082430061 0 -0.01551240315912039 -0.31985896532923608 0 -0.0054994254322928079 -0.31735566732876491 0 -0.01683142198125084 -0.33761728879549691 0 -0.0054994254322928079 -0.31735566732876491 0 -0.0018655608206777821 -0.33228212765969012 0 -0.01683142198125084 -0.33761728879549691 0 -0.0018655608206777821 -0.33228212765969012 0 -0.0012638636643911281 -0.34388760355336129 0 -0.01683142198125084 -0.33761728879549691 0 -0.00690637017417266 -0.35646792118819731 0 -0.0012638636643911281 -0.34388760355336129 0 -0.01683142198125084 -0.33761728879549691 0 -0.00690637017417266 -0.35646792118819731 0 -0.028163418530206381 -0.35787891026223029 0 -0.01683142198125084 -0.33761728879549691 0 -0.028163418530206381 -0.35787891026223029 0 -0.01683142198125084 -0.33761728879549691 0 -0.028163418530206381 -0.35787891026223029 0 -0.0310470197249345 -0.34789339642500478 0 -0.028163418530206381 -0.35787891026223029 0 -0.0310470197249345 -0.34789339642500478 0 -0.028163418530206381 -0.35787891026223029 0 -0.01418586555431799 -0.36710459697211939 0 -0.022431908269060951 -0.37772634101146058 0 -0.028163418530206381 -0.35787891026223029 0 -0.022431908269060951 -0.37772634101146058 0 -0.00690637017417266 -0.35646792118819731 0 -0.028163418530206381 -0.35787891026223029 0 -0.01418586555431799 -0.36710459697211939 0 -0.028163418530206381 -0.35787891026223029 0 -0.022431908269060951 -0.37772634101146058 0 -0.032238716188598117 -0.37831040094196028 0 -0.01418586555431799 -0.36710459697211939 0 -0.022431908269060951 -0.37772634101146058 0 0.00075823475617050468 -0.37634521542659061 0 -0.00690637017417266 -0.35646792118819731 0 -0.01418586555431799 -0.36710459697211939 0 0.00075823475617050468 -0.37634521542659061 0 -0.01785614661905055 -0.39357157347823429 0 -0.022431908269060951 -0.37772634101146058 0 0.00075823475617050468 -0.37634521542659061 0 -0.022431908269060951 -0.37772634101146058 0 0.00075823475617050468 -0.37634521542659061 0 -0.01785614661905055 -0.39357157347823429 0 0.00075823475617050468 -0.37634521542659061 0 0.0041758016767010483 -0.39653746851730343 0 -0.01785614661905055 -0.39357157347823429 0 -0.013280384969042819 -0.40941680594500901 0 -0.01785614661905055 -0.39357157347823429 0 -0.013280384969042819 -0.40941680594500901 0 0.0041758016767010483 -0.39653746851730343 0 -0.02978930022267268 -0.39986037588503243 0 -0.013280384969042819 -0.40941680594500901 0 -0.01785614661905055 -0.39357157347823429 0 -0.02978930022267268 -0.39986037588503243 0 -0.013280384969042819 -0.40941680594500901 0 -0.01785614661905055 -0.39357157347823429 0 -0.02978930022267268 -0.39986037588503243 0 -0.027149774650558709 -0.38748104714192921 0 -0.02978930022267268 -0.39986037588503243 0 -0.027149774650558709 -0.38748104714192921 0 -0.035178399918174383 -0.38635955844685699 0 -0.01785614661905055 -0.39357157347823429 0 -0.022431908269060951 -0.37772634101146058 0 -0.027149774650558709 -0.38748104714192921 0 -0.01785614661905055 -0.39357157347823429 0 -0.022431908269060951 -0.37772634101146058 0 -0.022431908269060951 -0.37772634101146058 0 -0.032238716188598117 -0.37831040094196028 0 -0.022431908269060951 -0.37772634101146058 0 -0.027149774650558709 -0.38748104714192921 0 -0.032238716188598117 -0.37831040094196028 0 -0.037230817003255187 -0.37409142804364143 0 -0.04629821547630153 -0.39030394582505401 0 -0.037230817003255187 -0.37409142804364143 0 -0.054044806559752218 -0.3689613686281934 0 -0.04629821547630153 -0.39030394582505401 0 -0.037230817003255187 -0.37409142804364143 0 -0.032238716188598117 -0.37831040094196028 0 -0.035178399918174383 -0.38635955844685699 0 -0.037230817003255187 -0.37409142804364143 0 -0.04629821547630153 -0.39030394582505401 0 -0.035178399918174383 -0.38635955844685699 0 -0.027149774650558709 -0.38748104714192921 0 -0.032238716188598117 -0.37831040094196028 0 -0.035178399918174383 -0.38635955844685699 0 -0.02978930022267268 -0.39986037588503243 0 -0.04629821547630153 -0.39030394582505401 0 -0.02978930022267268 -0.39986037588503243 0 -0.04629821547630153 -0.39030394582505401 0 -0.043843426448820479 -0.4076703778009394 0 -0.02978930022267268 -0.39986037588503243 0 -0.04629821547630153 -0.39030394582505401 0 -0.035178399918174383 -0.38635955844685699 0 -0.04629821547630153 -0.39030394582505401 0 -0.059937189919748571 -0.41306410695793638 0 -0.068472540381189509 -0.39708861856719813 0 -0.04629821547630153 -0.39030394582505401 0 -0.051569825282555277 -0.40991433014534612 0 -0.043843426448820479 -0.4076703778009394 0 -0.04629821547630153 -0.39030394582505401 0 -0.061063755650686162 -0.4167047468200662 0 -0.051569825282555277 -0.40991433014534612 0 -0.04629821547630153 -0.39030394582505401 0 -0.061063755650686162 -0.4167047468200662 0 -0.04629821547630153 -0.39030394582505401 0 -0.065419956743711039 -0.37923504273605319 0 -0.04629821547630153 -0.39030394582505401 0 -0.065419956743711039 -0.37923504273605319 0 -0.068472540381189509 -0.39708861856719813 0 -0.054044806559752218 -0.3689613686281934 0 -0.04629821547630153 -0.39030394582505401 0 -0.065419956743711039 -0.37923504273605319 0 -0.048877222784466767 -0.42473212066718741 0 -0.053245264017083807 -0.43020523702613839 0 -0.046392949520650657 -0.43322508948392408 0 -0.048877222784466767 -0.42473212066718741 0 -0.053245264017083807 -0.43020523702613839 0 -0.05473536793922093 -0.42595229078903829 0 -0.048877222784466767 -0.42473212066718741 0 -0.05473536793922093 -0.42595229078903829 0 -0.055589222643597197 -0.42128240677235962 0 -0.05364759339863219 -0.43691344423011269 0 -0.053245264017083807 -0.43020523702613839 0 -0.046392949520650657 -0.43322508948392408 0 -0.053245264017083807 -0.43020523702613839 0 -0.05902038078744043 -0.43447146557041599 0 -0.059917717611698597 -0.42748243072202691 0 -0.05902038078744043 -0.43447146557041599 0 -0.061132117887375458 -0.44331168029364382 0 -0.067159211022412124 -0.4344445355801585 0 -0.05902038078744043 -0.43447146557041599 0 -0.059917717611698597 -0.42748243072202691 0 -0.067159211022412124 -0.4344445355801585 0 -0.05364759339863219 -0.43691344423011269 0 -0.053245264017083807 -0.43020523702613839 0 -0.05902038078744043 -0.43447146557041599 0 -0.053245264017083807 -0.43020523702613839 0 -0.059917717611698597 -0.42748243072202691 0 -0.05473536793922093 -0.42595229078903829 0 -0.059917717611698597 -0.42748243072202691 0 -0.05473536793922093 -0.42595229078903829 0 -0.055589222643597197 -0.42128240677235962 0 -0.059917717611698597 -0.42748243072202691 0 -0.060947375795365598 -0.42212795781469581 0 -0.055589222643597197 -0.42128240677235962 0 -0.061063755650686162 -0.4167047468200662 0 -0.055741669583203118 -0.41738145704123658 0 -0.051569825282555277 -0.40991433014534612 0 -0.04629821547630153 -0.39030394582505401 0 -0.059937189919748571 -0.41306410695793638 0 -0.061063755650686162 -0.4167047468200662 0 -0.060947375795365598 -0.42212795781469581 0 -0.061063755650686162 -0.4167047468200662 0 -0.055741669583203118 -0.41738145704123658 0 -0.060947375795365598 -0.42212795781469581 0 -0.055741669583203118 -0.41738145704123658 0 -0.055589222643597197 -0.42128240677235962 0 -0.051569825282555277 -0.40991433014534612 0 -0.049538168543811323 -0.41687784365371522 0 -0.043843426448820479 -0.4076703778009394 0 -0.048877222784466767 -0.42473212066718741 0 -0.055589222643597197 -0.42128240677235962 0 -0.049538168543811323 -0.41687784365371522 0 -0.055741669583203118 -0.41738145704123658 0 -0.055589222643597197 -0.42128240677235962 0 -0.049538168543811323 -0.41687784365371522 0 -0.055741669583203118 -0.41738145704123658 0 -0.051569825282555277 -0.40991433014534612 0 -0.049538168543811323 -0.41687784365371522 0 -0.049538168543811323 -0.41687784365371522 0 -0.039169691334551469 -0.41769477592734883 0 -0.043843426448820479 -0.4076703778009394 0 -0.048877222784466767 -0.42473212066718741 0 -0.049538168543811323 -0.41687784365371522 0 -0.039169691334551469 -0.41769477592734883 0 -0.02978930022267268 -0.39986037588503243 0 -0.039169691334551469 -0.41769477592734883 0 -0.043843426448820479 -0.4076703778009394 0 -0.039169691334551469 -0.41769477592734883 0 -0.033384563529958992 -0.42777227283896402 0 -0.02431265447915814 -0.41958870304679241 0 -0.039169691334551469 -0.41769477592734883 0 -0.033384563529958992 -0.42777227283896402 0 -0.041433603681117308 -0.42755186337915158 0 -0.048877222784466767 -0.42473212066718741 0 -0.041433603681117308 -0.42755186337915158 0 -0.046392949520650657 -0.43322508948392408 0 -0.048877222784466767 -0.42473212066718741 0 -0.039169691334551469 -0.41769477592734883 0 -0.041433603681117308 -0.42755186337915158 0 -0.046392949520650657 -0.43322508948392408 0 -0.039022892002778947 -0.43379987084475929 0 -0.04104950959594203 -0.44130822254965679 0 -0.041433603681117308 -0.42755186337915158 0 -0.046392949520650657 -0.43322508948392408 0 -0.039022892002778947 -0.43379987084475929 0 -0.033384563529958992 -0.42777227283896402 0 -0.039022892002778947 -0.43379987084475929 0 -0.032212435219866338 -0.43807153170495039 0 -0.033384563529958992 -0.42777227283896402 0 -0.041433603681117308 -0.42755186337915158 0 -0.039022892002778947 -0.43379987084475929 0 -0.0227161369995252 -0.43347864759424232 0 -0.02431265447915814 -0.41958870304679241 0 -0.0075358498191973166 -0.42930934009015748 0 -0.033384563529958992 -0.42777227283896402 0 -0.0227161369995252 -0.43347864759424232 0 -0.032212435219866338 -0.43807153170495039 0 -0.033384563529958992 -0.42777227283896402 0 -0.0227161369995252 -0.43347864759424232 0 -0.02431265447915814 -0.41958870304679241 0 -0.02978930022267268 -0.39986037588503243 0 -0.02431265447915814 -0.41958870304679241 0 -0.013280384969042819 -0.40941680594500901 0 -0.02978930022267268 -0.39986037588503243 0 -0.039169691334551469 -0.41769477592734883 0 -0.02431265447915814 -0.41958870304679241 0 -0.013280384969042819 -0.40941680594500901 0 -0.0075358498191973166 -0.42930934009015748 0 -0.02431265447915814 -0.41958870304679241 0 -0.013280384969042819 -0.40941680594500901 0 -0.0075358498191973166 -0.42930934009015748 0 -0.013280384969042819 -0.40941680594500901 0 0.0046564239422147539 -0.41979979339307499 0 -0.013280384969042819 -0.40941680594500901 0 0.0041758016767010483 -0.39653746851730343 0 0.0046564239422147539 -0.41979979339307499 0 -0.013280384969042819 -0.40941680594500901 0 -0.0075358498191973166 -0.42930934009015748 0 0.0046564239422147539 -0.41979979339307499 0 -0.0227161369995252 -0.43347864759424232 0 -0.0075358498191973166 -0.42930934009015748 0 -0.014837761811347589 -0.44233776921400197 0 -0.0075358498191973166 -0.42930934009015748 0 -0.014837761811347589 -0.44233776921400197 0 -0.001791314669352303 -0.44920187423530628 0 -0.0075358498191973166 -0.42930934009015748 0 -0.001791314669352303 -0.44920187423530628 0 -0.0075358498191973166 -0.42930934009015748 0 -0.001791314669352303 -0.44920187423530628 0 0.0055697211652870702 -0.43773439666326852 0 -0.014837761811347589 -0.44233776921400197 0 -0.001791314669352303 -0.44920187423530628 0 -0.016930427896385991 -0.45411189009160902 0 -0.001791314669352303 -0.44920187423530628 0 -0.0076005382379549661 -0.46165516885214231 0 0.0039532204804927258 -0.46909440838045507 0 -0.0076005382379549661 -0.46165516885214231 0 -0.0057960357976935576 -0.47154422089304399 0 0.0039532204804927258 -0.46909440838045507 0 -0.0076005382379549661 -0.46165516885214231 0 -0.019804856815962571 -0.46618659069847251 0 -0.0057960357976935576 -0.47154422089304399 0 -0.0076005382379549661 -0.46165516885214231 0 -0.016930427896385991 -0.45411189009160902 0 -0.019804856815962571 -0.46618659069847251 0 -0.001791314669352303 -0.44920187423530628 0 -0.0076005382379549661 -0.46165516885214231 0 -0.016930427896385991 -0.45411189009160902 0 -0.016930427896385991 -0.45411189009160902 0 -0.019804856815962571 -0.46618659069847251 0 -0.030888318250482171 -0.45714396115356409 0 -0.019804856815962571 -0.46618659069847251 0 -0.029621677551744469 -0.46635801565414059 0 -0.030888318250482171 -0.45714396115356409 0 -0.016930427896385991 -0.45411189009160902 0 -0.030888318250482171 -0.45714396115356409 0 -0.025215079672277148 -0.44558709405869468 0 -0.030888318250482171 -0.45714396115356409 0 -0.025215079672277148 -0.44558709405869468 0 -0.035885629052289383 -0.44919622212629012 0 -0.0227161369995252 -0.43347864759424232 0 -0.025215079672277148 -0.44558709405869468 0 -0.032212435219866338 -0.43807153170495039 0 -0.025215079672277148 -0.44558709405869468 0 -0.032212435219866338 -0.43807153170495039 0 -0.035885629052289383 -0.44919622212629012 0 -0.0227161369995252 -0.43347864759424232 0 -0.014837761811347589 -0.44233776921400197 0 -0.025215079672277148 -0.44558709405869468 0 -0.014837761811347589 -0.44233776921400197 0 -0.016930427896385991 -0.45411189009160902 0 -0.025215079672277148 -0.44558709405869468 0 -0.013137108382453411 -0.5 0 -0.012685418369747469 -0.47934806720048401 0 -0.0003429189120410816 -0.48320524922695668 0 -0.012685418369747469 -0.47934806720048401 0 -0.0003429189120410816 -0.48320524922695668 0 -0.0057960357976935576 -0.47154422089304399 0 -0.0003429189120410816 -0.48320524922695668 0 -0.0057960357976935576 -0.47154422089304399 0 0.0039532204804927258 -0.46909440838045507 0 -0.019804856815962571 -0.46618659069847251 0 -0.012685418369747469 -0.47934806720048401 0 -0.0057960357976935576 -0.47154422089304399 0 -0.019804856815962571 -0.46618659069847251 0 -0.012685418369747469 -0.47934806720048401 0 -0.027220210156494881 -0.48033755963511782 0 -0.029621677551744469 -0.46635801565414059 0 -0.027220210156494881 -0.48033755963511782 0 -0.036410115721677211 -0.47198032772647258 0 -0.019804856815962571 -0.46618659069847251 0 -0.029621677551744469 -0.46635801565414059 0 -0.027220210156494881 -0.48033755963511782 0 -0.013137108382453411 -0.5 0 -0.012685418369747469 -0.47934806720048401 0 -0.027220210156494881 -0.48033755963511782 0 -0.013137108382453411 -0.5 0 -0.027220210156494881 -0.48033755963511782 0 -0.040524969690142632 -0.5 0 -0.040524969690142632 -0.5 0 -0.043587052718124603 -0.48028098828056698 0 -0.055149696655097377 -0.48808572561562819 0 -0.027220210156494881 -0.48033755963511782 0 -0.040524969690142632 -0.5 0 -0.043587052718124603 -0.48028098828056698 0 -0.027220210156494881 -0.48033755963511782 0 -0.043587052718124603 -0.48028098828056698 0 -0.036410115721677211 -0.47198032772647258 0 -0.043587052718124603 -0.48028098828056698 0 -0.036410115721677211 -0.47198032772647258 0 -0.043084313132821413 -0.46529804132862979 0 -0.043587052718124603 -0.48028098828056698 0 -0.053525352341372977 -0.47389201244138962 0 -0.043084313132821413 -0.46529804132862979 0 -0.053525352341372977 -0.47389201244138962 0 -0.061714299654818318 -0.48017008878992179 0 -0.060872739582835969 -0.46709837023028072 0 -0.053525352341372977 -0.47389201244138962 0 -0.061714299654818318 -0.48017008878992179 0 -0.055149696655097377 -0.48808572561562819 0 -0.043587052718124603 -0.48028098828056698 0 -0.053525352341372977 -0.47389201244138962 0 -0.055149696655097377 -0.48808572561562819 0 -0.040524969690142632 -0.5 0 -0.055149696655097377 -0.48808572561562819 0 -0.067912830997831963 -0.5 0 -0.061714299654818318 -0.48017008878992179 0 -0.055149696655097377 -0.48808572561562819 0 -0.068782122455800482 -0.48902438612426991 0 -0.042946587581186899 -0.4474333198529874 0 -0.044857545739514712 -0.45399162845810098 0 -0.04999366593700149 -0.44523720627790192 0 -0.042946587581186899 -0.4474333198529874 0 -0.04104950959594203 -0.44130822254965679 0 -0.035885629052289383 -0.44919622212629012 0 -0.042946587581186899 -0.4474333198529874 0 -0.035885629052289383 -0.44919622212629012 0 -0.044857545739514712 -0.45399162845810098 0 -0.042946587581186899 -0.4474333198529874 0 -0.04104950959594203 -0.44130822254965679 0 -0.04999366593700149 -0.44523720627790192 0 -0.046392949520650657 -0.43322508948392408 0 -0.04104950959594203 -0.44130822254965679 0 -0.04999366593700149 -0.44523720627790192 0 -0.04104950959594203 -0.44130822254965679 0 -0.032212435219866338 -0.43807153170495039 0 -0.035885629052289383 -0.44919622212629012 0 -0.039022892002778947 -0.43379987084475929 0 -0.04104950959594203 -0.44130822254965679 0 -0.032212435219866338 -0.43807153170495039 0 -0.030888318250482171 -0.45714396115356409 0 -0.035885629052289383 -0.44919622212629012 0 -0.044857545739514712 -0.45399162845810098 0 -0.029621677551744469 -0.46635801565414059 0 -0.036410115721677211 -0.47198032772647258 0 -0.043084313132821413 -0.46529804132862979 0 -0.029621677551744469 -0.46635801565414059 0 -0.030888318250482171 -0.45714396115356409 0 -0.043084313132821413 -0.46529804132862979 0 -0.030888318250482171 -0.45714396115356409 0 -0.043084313132821413 -0.46529804132862979 0 -0.044857545739514712 -0.45399162845810098 0 -0.044857545739514712 -0.45399162845810098 0 -0.052705465736664597 -0.46225053258096382 0 -0.056912938258228157 -0.45396660642073439 0 -0.043084313132821413 -0.46529804132862979 0 -0.044857545739514712 -0.45399162845810098 0 -0.052705465736664597 -0.46225053258096382 0 -0.053525352341372977 -0.47389201244138962 0 -0.043084313132821413 -0.46529804132862979 0 -0.052705465736664597 -0.46225053258096382 0 -0.052705465736664597 -0.46225053258096382 0 -0.060872739582835969 -0.46709837023028072 0 -0.056912938258228157 -0.45396660642073439 0 -0.053525352341372977 -0.47389201244138962 0 -0.052705465736664597 -0.46225053258096382 0 -0.060872739582835969 -0.46709837023028072 0 -0.060872739582835969 -0.46709837023028072 0 -0.056912938258228157 -0.45396660642073439 0 -0.069510748792308952 -0.45886582326040087 0 -0.056912938258228157 -0.45396660642073439 0 -0.04999366593700149 -0.44523720627790192 0 -0.061132117887375458 -0.44331168029364382 0 -0.044857545739514712 -0.45399162845810098 0 -0.056912938258228157 -0.45396660642073439 0 -0.04999366593700149 -0.44523720627790192 0 -0.05364759339863219 -0.43691344423011269 0 -0.046392949520650657 -0.43322508948392408 0 -0.04999366593700149 -0.44523720627790192 0 -0.05364759339863219 -0.43691344423011269 0 -0.05902038078744043 -0.43447146557041599 0 -0.061132117887375458 -0.44331168029364382 0 -0.05364759339863219 -0.43691344423011269 0 -0.04999366593700149 -0.44523720627790192 0 -0.061132117887375458 -0.44331168029364382 0 -0.061132117887375458 -0.44331168029364382 0 -0.075212664263810444 -0.44565597653870692 0 -0.067159211022412124 -0.4344445355801585 0 -0.075212664263810444 -0.44565597653870692 0 -0.067159211022412124 -0.4344445355801585 0 -0.07792933752172844 -0.43288824042337581 0 -0.056912938258228157 -0.45396660642073439 0 -0.061132117887375458 -0.44331168029364382 0 -0.069510748792308952 -0.45886582326040087 0 -0.061132117887375458 -0.44331168029364382 0 -0.075212664263810444 -0.44565597653870692 0 -0.069510748792308952 -0.45886582326040087 0 -0.069510748792308952 -0.45886582326040087 0 -0.070867632713622869 -0.47344515788827413 0 -0.092644154617447169 -0.47113293047477922 0 -0.060872739582835969 -0.46709837023028072 0 -0.069510748792308952 -0.45886582326040087 0 -0.070867632713622869 -0.47344515788827413 0 -0.069510748792308952 -0.45886582326040087 0 -0.091299915115408123 -0.44969699152124182 0 -0.092644154617447169 -0.47113293047477922 0 -0.075212664263810444 -0.44565597653870692 0 -0.091299915115408123 -0.44969699152124182 0 -0.07792933752172844 -0.43288824042337581 0 -0.075212664263810444 -0.44565597653870692 0 -0.069510748792308952 -0.45886582326040087 0 -0.091299915115408123 -0.44969699152124182 0 -0.067912830997831963 -0.5 0 -0.068782122455800482 -0.48902438612426991 0 -0.095300692305521351 -0.5 0 -0.055149696655097377 -0.48808572561562819 0 -0.067912830997831963 -0.5 0 -0.068782122455800482 -0.48902438612426991 0 -0.068782122455800482 -0.48902438612426991 0 -0.070867632713622869 -0.47344515788827413 0 -0.092644154617447169 -0.47113293047477922 0 -0.061714299654818318 -0.48017008878992179 0 -0.068782122455800482 -0.48902438612426991 0 -0.070867632713622869 -0.47344515788827413 0 -0.061714299654818318 -0.48017008878992179 0 -0.060872739582835969 -0.46709837023028072 0 -0.070867632713622869 -0.47344515788827413 0 -0.068782122455800482 -0.48902438612426991 0 -0.092644154617447169 -0.47113293047477922 0 -0.068782122455800482 -0.48902438612426991 0 -0.092644154617447169 -0.47113293047477922 0 -0.095300692305521351 -0.5 0 -0.092644154617447169 -0.47113293047477922 0 -0.095300692305521351 -0.5 0 -0.122969330299361 -0.47617490011922781 0 -0.095300692305521351 -0.5 0 -0.122969330299361 -0.47617490011922781 0 -0.1226885536132107 -0.5 0 -0.091299915115408123 -0.44969699152124182 0 -0.1165061867790938 -0.45324147482528848 0 -0.1045140288537713 -0.43259389315462832 0 -0.092644154617447169 -0.47113293047477922 0 -0.1165061867790938 -0.45324147482528848 0 -0.091299915115408123 -0.44969699152124182 0 -0.092644154617447169 -0.47113293047477922 0 -0.1165061867790938 -0.45324147482528848 0 -0.092644154617447169 -0.47113293047477922 0 -0.122969330299361 -0.47617490011922781 0 -0.1165061867790938 -0.45324147482528848 0 -0.1165061867790938 -0.45324147482528848 0 -0.12026651957400319 -0.42785005072799043 0 -0.1045140288537713 -0.43259389315462832 0 -0.12026651957400319 -0.42785005072799043 0 -0.1045140288537713 -0.43259389315462832 0 -0.1070614606313976 -0.42083736891915058 0 -0.091299915115408123 -0.44969699152124182 0 -0.1045140288537713 -0.43259389315462832 0 -0.090825278807100923 -0.42551145268964607 0 -0.1045140288537713 -0.43259389315462832 0 -0.097351155364047828 -0.41967884579044301 0 -0.1070614606313976 -0.42083736891915058 0 -0.1045140288537713 -0.43259389315462832 0 -0.097351155364047828 -0.41967884579044301 0 -0.090825278807100923 -0.42551145268964607 0 -0.1011549830606966 -0.41107823592178638 0 -0.10286632336922361 -0.40648270278926718 0 -0.081401756644486067 -0.4097734048736017 0 -0.1011549830606966 -0.41107823592178638 0 -0.097351155364047828 -0.41967884579044301 0 -0.1070614606313976 -0.42083736891915058 0 -0.1011549830606966 -0.41107823592178638 0 -0.1070614606313976 -0.42083736891915058 0 -0.1128134023571835 -0.41195831501659808 0 -0.1011549830606966 -0.41107823592178638 0 -0.10286632336922361 -0.40648270278926718 0 -0.1128134023571835 -0.41195831501659808 0 -0.1011549830606966 -0.41107823592178638 0 -0.10286632336922361 -0.40648270278926718 0 -0.10286632336922361 -0.40648270278926718 0 -0.1128134023571835 -0.41195831501659808 0 -0.1229832184171856 -0.40339861032592461 0 -0.1346024257334445 -0.41296913696565341 0 -0.12026651957400319 -0.42785005072799043 0 -0.1128134023571835 -0.41195831501659808 0 -0.1346024257334445 -0.41296913696565341 0 -0.1128134023571835 -0.41195831501659808 0 -0.12026651957400319 -0.42785005072799043 0 -0.1070614606313976 -0.42083736891915058 0 -0.1128134023571835 -0.41195831501659808 0 -0.1346024257334445 -0.41296913696565341 0 -0.1128134023571835 -0.41195831501659808 0 -0.1229832184171856 -0.40339861032592461 0 -0.10286632336922361 -0.40648270278926718 0 -0.1229832184171856 -0.40339861032592461 0 -0.10286632336922361 -0.40648270278926718 0 -0.1229832184171856 -0.40339861032592461 0 -0.1105114185508186 -0.38595301150974048 0 -0.11815651373241309 -0.36542332023021368 0 -0.1105114185508186 -0.38595301150974048 0 -0.11815651373241309 -0.36542332023021368 0 -0.1105114185508186 -0.38595301150974048 0 -0.10437677230430289 -0.37927907741498063 0 -0.11815651373241309 -0.36542332023021368 0 -0.1207838471301312 -0.38129258449690551 0 -0.1105114185508186 -0.38595301150974048 0 -0.1229832184171856 -0.40339861032592461 0 -0.1207838471301312 -0.38129258449690551 0 -0.1105114185508186 -0.38595301150974048 0 -0.1105114185508186 -0.38595301150974048 0 -0.10437677230430289 -0.37927907741498063 0 -0.101236424707893 -0.38960266627361723 0 -0.101236424707893 -0.38960266627361723 0 -0.094283044596577645 -0.38269287970707461 0 -0.094144564718542129 -0.39360565994702379 0 -0.10437677230430289 -0.37927907741498063 0 -0.101236424707893 -0.38960266627361723 0 -0.094283044596577645 -0.38269287970707461 0 -0.095373369185944218 -0.37226794372756822 0 -0.10437677230430289 -0.37927907741498063 0 -0.094283044596577645 -0.38269287970707461 0 -0.10286632336922361 -0.40648270278926718 0 -0.1105114185508186 -0.38595301150974048 0 -0.10286632336922361 -0.40648270278926718 0 -0.1105114185508186 -0.38595301150974048 0 -0.101236424707893 -0.38960266627361723 0 -0.10286632336922361 -0.40648270278926718 0 -0.101236424707893 -0.38960266627361723 0 -0.094144564718542129 -0.39360565994702379 0 -0.10286632336922361 -0.40648270278926718 0 -0.094144564718542129 -0.39360565994702379 0 -0.08914974827279884 -0.40057167464317128 0 -0.10286632336922361 -0.40648270278926718 0 -0.08914974827279884 -0.40057167464317128 0 -0.081401756644486067 -0.4097734048736017 0 -0.08914974827279884 -0.40057167464317128 0 -0.082008134225930993 -0.39125399660438531 0 -0.081401756644486067 -0.4097734048736017 0 -0.094144564718542129 -0.39360565994702379 0 -0.08914974827279884 -0.40057167464317128 0 -0.082008134225930993 -0.39125399660438531 0 -0.083275793653447311 -0.37498164588394001 0 -0.094283044596577645 -0.38269287970707461 0 -0.082008134225930993 -0.39125399660438531 0 -0.095373369185944218 -0.37226794372756822 0 -0.083275793653447311 -0.37498164588394001 0 -0.094283044596577645 -0.38269287970707461 0 -0.094283044596577645 -0.38269287970707461 0 -0.094144564718542129 -0.39360565994702379 0 -0.082008134225930993 -0.39125399660438531 0 -0.083275793653447311 -0.37498164588394001 0 -0.082008134225930993 -0.39125399660438531 0 -0.065419956743711039 -0.37923504273605319 0 -0.082008134225930993 -0.39125399660438531 0 -0.065419956743711039 -0.37923504273605319 0 -0.068472540381189509 -0.39708861856719813 0 -0.082008134225930993 -0.39125399660438531 0 -0.068472540381189509 -0.39708861856719813 0 -0.081401756644486067 -0.4097734048736017 0 -0.059937189919748571 -0.41306410695793638 0 -0.061063755650686162 -0.4167047468200662 0 -0.081401756644486067 -0.4097734048736017 0 -0.061063755650686162 -0.4167047468200662 0 -0.069898918116597042 -0.42376947967185258 0 -0.081401756644486067 -0.4097734048736017 0 -0.059937189919748571 -0.41306410695793638 0 -0.081401756644486067 -0.4097734048736017 0 -0.059937189919748571 -0.41306410695793638 0 -0.068472540381189509 -0.39708861856719813 0 -0.081401756644486067 -0.4097734048736017 0 -0.069898918116597042 -0.42376947967185258 0 -0.080384501794115062 -0.42237502117112219 0 -0.081401756644486067 -0.4097734048736017 0 -0.060947375795365598 -0.42212795781469581 0 -0.061063755650686162 -0.4167047468200662 0 -0.069898918116597042 -0.42376947967185258 0 -0.059917717611698597 -0.42748243072202691 0 -0.060947375795365598 -0.42212795781469581 0 -0.069898918116597042 -0.42376947967185258 0 -0.059917717611698597 -0.42748243072202691 0 -0.069898918116597042 -0.42376947967185258 0 -0.067159211022412124 -0.4344445355801585 0 -0.069898918116597042 -0.42376947967185258 0 -0.067159211022412124 -0.4344445355801585 0 -0.07792933752172844 -0.43288824042337581 0 -0.069898918116597042 -0.42376947967185258 0 -0.07792933752172844 -0.43288824042337581 0 -0.080384501794115062 -0.42237502117112219 0 -0.091299915115408123 -0.44969699152124182 0 -0.07792933752172844 -0.43288824042337581 0 -0.090825278807100923 -0.42551145268964607 0 -0.07792933752172844 -0.43288824042337581 0 -0.080384501794115062 -0.42237502117112219 0 -0.090825278807100923 -0.42551145268964607 0 -0.097351155364047828 -0.41967884579044301 0 -0.090825278807100923 -0.42551145268964607 0 -0.081401756644486067 -0.4097734048736017 0 -0.080384501794115062 -0.42237502117112219 0 -0.090825278807100923 -0.42551145268964607 0 -0.081401756644486067 -0.4097734048736017 0 -0.10286632336922361 -0.40648270278926718 0 -0.081401756644486067 -0.4097734048736017 0 -0.1011549830606966 -0.41107823592178638 0 -0.097351155364047828 -0.41967884579044301 0 -0.081401756644486067 -0.4097734048736017 0 -0.087894260757623299 -0.086331155796726747 0 -0.083460042645305238 -0.075583680497795416 0 -0.070249177205504387 -0.085170053228010217 0 -0.087894260757623299 -0.086331155796726747 0 -0.083460042645305238 -0.075583680497795416 0 -0.1003873950108274 -0.071391441039467721 0 -0.083460042645305238 -0.075583680497795416 0 -0.074879994622454676 -0.066873691454468157 0 -0.093486196061591822 -0.060219955360459577 0 -0.083460042645305238 -0.075583680497795416 0 -0.1003873950108274 -0.071391441039467721 0 -0.093486196061591822 -0.060219955360459577 0 -0.074879994622454676 -0.066873691454468157 0 -0.06782330306326767 -0.054269756012465503 0 -0.054548839060830072 -0.077678387568320767 0 -0.074879994622454676 -0.066873691454468157 0 -0.070249177205504387 -0.085170053228010217 0 -0.054548839060830072 -0.077678387568320767 0 -0.083460042645305238 -0.075583680497795416 0 -0.074879994622454676 -0.066873691454468157 0 -0.070249177205504387 -0.085170053228010217 0 -0.087894260757623299 -0.086331155796726747 0 -0.070249177205504387 -0.085170053228010217 0 -0.073401043388777135 -0.1003224053307082 0 -0.073401043388777135 -0.1003224053307082 0 -0.055741934342139837 -0.10523688421125769 0 -0.070249177205504387 -0.085170053228010217 0 -0.073401043388777135 -0.1003224053307082 0 -0.055741934342139837 -0.10523688421125769 0 -0.073401043388777135 -0.1003224053307082 0 -0.06793541665037249 -0.1141031311353382 0 -0.055741934342139837 -0.10523688421125769 0 -0.06793541665037249 -0.1141031311353382 0 -0.056796297935622478 -0.12959091192949901 0 -0.072036405944047727 -0.12525113595770321 0 -0.073401043388777135 -0.1003224053307082 0 -0.06793541665037249 -0.1141031311353382 0 -0.083193549596788735 -0.1139479164670012 0 -0.06793541665037249 -0.1141031311353382 0 -0.083193549596788735 -0.1139479164670012 0 -0.072036405944047727 -0.12525113595770321 0 -0.083193549596788735 -0.1139479164670012 0 -0.085972232586171773 -0.12858339302330421 0 -0.072036405944047727 -0.12525113595770321 0 -0.083193549596788735 -0.1139479164670012 0 -0.096367998792204687 -0.121477020661934 0 -0.095500457248936188 -0.1123793374831456 0 -0.083193549596788735 -0.1139479164670012 0 -0.096367998792204687 -0.121477020661934 0 -0.085972232586171773 -0.12858339302330421 0 -0.073401043388777135 -0.1003224053307082 0 -0.083193549596788735 -0.1139479164670012 0 -0.09452276096178501 -0.100456394656188 0 -0.087894260757623299 -0.086331155796726747 0 -0.073401043388777135 -0.1003224053307082 0 -0.09452276096178501 -0.100456394656188 0 -0.083193549596788735 -0.1139479164670012 0 -0.09452276096178501 -0.100456394656188 0 -0.095500457248936188 -0.1123793374831456 0 -0.09452276096178501 -0.100456394656188 0 -0.1146635723126025 -0.099258894089716568 0 -0.10680886956689201 -0.085237592925971481 0 -0.09452276096178501 -0.100456394656188 0 -0.1079175196449664 -0.1136360181474593 0 -0.1146635723126025 -0.099258894089716568 0 -0.09452276096178501 -0.100456394656188 0 -0.095500457248936188 -0.1123793374831456 0 -0.1079175196449664 -0.1136360181474593 0 -0.096367998792204687 -0.121477020661934 0 -0.095500457248936188 -0.1123793374831456 0 -0.1079175196449664 -0.1136360181474593 0 -0.096367998792204687 -0.121477020661934 0 -0.1079175196449664 -0.1136360181474593 0 -0.1077463817344561 -0.1280076496319362 0 -0.1079175196449664 -0.1136360181474593 0 -0.1208900890742694 -0.12925678956160641 0 -0.12916694673430229 -0.1112056980795455 0 -0.1079175196449664 -0.1136360181474593 0 -0.1077463817344561 -0.1280076496319362 0 -0.1208900890742694 -0.12925678956160641 0 -0.1079175196449664 -0.1136360181474593 0 -0.1146635723126025 -0.099258894089716568 0 -0.12916694673430229 -0.1112056980795455 0 -0.1146635723126025 -0.099258894089716568 0 -0.12719417406685879 -0.088099831561234049 0 -0.12916694673430229 -0.1112056980795455 0 -0.10680886956689201 -0.085237592925971481 0 -0.11927365527774809 -0.072102537688625151 0 -0.12719417406685879 -0.088099831561234049 0 -0.1146635723126025 -0.099258894089716568 0 -0.10680886956689201 -0.085237592925971481 0 -0.12719417406685879 -0.088099831561234049 0 -0.087894260757623299 -0.086331155796726747 0 -0.10680886956689201 -0.085237592925971481 0 -0.1003873950108274 -0.071391441039467721 0 -0.087894260757623299 -0.086331155796726747 0 -0.09452276096178501 -0.100456394656188 0 -0.10680886956689201 -0.085237592925971481 0 -0.10680886956689201 -0.085237592925971481 0 -0.1003873950108274 -0.071391441039467721 0 -0.11927365527774809 -0.072102537688625151 0 -0.1003873950108274 -0.071391441039467721 0 -0.112584113869529 -0.059748669081288473 0 -0.093486196061591822 -0.060219955360459577 0 -0.1003873950108274 -0.071391441039467721 0 -0.11927365527774809 -0.072102537688625151 0 -0.112584113869529 -0.059748669081288473 0 -0.11927365527774809 -0.072102537688625151 0 -0.112584113869529 -0.059748669081288473 0 -0.1287538025499676 -0.059905888648773317 0 -0.112584113869529 -0.059748669081288473 0 -0.1253513760030513 -0.04525160887547567 0 -0.1287538025499676 -0.059905888648773317 0 -0.112584113869529 -0.059748669081288473 0 -0.1082522583139879 -0.049620582874929459 0 -0.1253513760030513 -0.04525160887547567 0 -0.11515898103512651 -0.0396847437766173 0 -0.1082522583139879 -0.049620582874929459 0 -0.1253513760030513 -0.04525160887547567 0 -0.11515898103512651 -0.0396847437766173 0 -0.1230833163580104 -0.02548404310881831 0 -0.1253513760030513 -0.04525160887547567 0 -0.11515898103512651 -0.0396847437766173 0 -0.10402411613535049 -0.034947814286116388 0 -0.1230833163580104 -0.02548404310881831 0 -0.10402411613535049 -0.034947814286116388 0 -0.1082522583139879 -0.049620582874929459 0 -0.10402411613535049 -0.034947814286116388 0 -0.09488951348217331 -0.046136733253321537 0 -0.1082522583139879 -0.049620582874929459 0 -0.10402411613535049 -0.034947814286116388 0 -0.09488951348217331 -0.046136733253321537 0 -0.087508862968356013 -0.037400364787564283 0 -0.10402411613535049 -0.034947814286116388 0 -0.092246477914615599 -0.02749294367515873 0 -0.087508862968356013 -0.037400364787564283 0 -0.11515898103512651 -0.0396847437766173 0 -0.10402411613535049 -0.034947814286116388 0 -0.1082522583139879 -0.049620582874929459 0 -0.112584113869529 -0.059748669081288473 0 -0.1082522583139879 -0.049620582874929459 0 -0.093486196061591822 -0.060219955360459577 0 -0.09488951348217331 -0.046136733253321537 0 -0.1082522583139879 -0.049620582874929459 0 -0.093486196061591822 -0.060219955360459577 0 -0.114561435991735 -0.0060000272885384013 0 -0.1230833163580104 -0.02548404310881831 0 -0.13200351843462571 -0.01104244609446591 0 -0.1230833163580104 -0.02548404310881831 0 -0.099795973956713441 -0.0202750456973032 0 -0.114561435991735 -0.0060000272885384013 0 -0.1230833163580104 -0.02548404310881831 0 -0.099795973956713441 -0.0202750456973032 0 -0.10402411613535049 -0.034947814286116388 0 -0.1230833163580104 -0.02548404310881831 0 -0.099795973956713441 -0.0202750456973032 0 -0.10402411613535049 -0.034947814286116388 0 -0.099795973956713441 -0.0202750456973032 0 -0.10402411613535049 -0.034947814286116388 0 -0.099795973956713441 -0.0202750456973032 0 -0.092246477914615599 -0.02749294367515873 0 -0.099795973956713441 -0.0202750456973032 0 -0.093784018143462461 0.00058802670827588083 0 -0.114561435991735 -0.0060000272885384013 0 -0.099795973956713441 -0.0202750456973032 0 -0.093784018143462461 0.00058802670827588083 0 -0.080092532456141188 -0.003668773098679406 0 -0.083850004839423356 -0.01670819335216529 0 -0.093784018143462461 0.00058802670827588083 0 -0.099795973956713441 -0.0202750456973032 0 -0.083850004839423356 -0.01670819335216529 0 -0.093784018143462461 0.00058802670827588083 0 -0.099795973956713441 -0.0202750456973032 0 -0.083850004839423356 -0.01670819335216529 0 -0.099795973956713441 -0.0202750456973032 0 -0.083850004839423356 -0.01670819335216529 0 -0.092246477914615599 -0.02749294367515873 0 -0.083850004839423356 -0.01670819335216529 0 -0.092246477914615599 -0.02749294367515873 0 -0.083591590465415339 -0.027258372950568939 0 -0.092246477914615599 -0.02749294367515873 0 -0.083591590465415339 -0.027258372950568939 0 -0.087508862968356013 -0.037400364787564283 0 -0.083591590465415339 -0.027258372950568939 0 -0.073594831814239148 -0.027529008083932601 0 -0.078827204637354764 -0.033824983055033023 0 -0.083850004839423356 -0.01670819335216529 0 -0.083591590465415339 -0.027258372950568939 0 -0.073594831814239148 -0.027529008083932601 0 -0.083850004839423356 -0.01670819335216529 0 -0.073594831814239148 -0.027529008083932601 0 -0.067904035722132591 -0.013141341007030179 0 -0.064606083853981894 -0.026340581530842979 0 -0.062188313015287988 -0.036017114150852923 0 -0.073594831814239148 -0.027529008083932601 0 -0.064606083853981894 -0.026340581530842979 0 -0.073594831814239148 -0.027529008083932601 0 -0.064606083853981894 -0.026340581530842979 0 -0.07010693321923589 -0.035125472542942668 0 -0.073594831814239148 -0.027529008083932601 0 -0.064606083853981894 -0.026340581530842979 0 -0.067904035722132591 -0.013141341007030179 0 -0.064606083853981894 -0.026340581530842979 0 -0.067904035722132591 -0.013141341007030179 0 -0.083850004839423356 -0.01670819335216529 0 -0.067904035722132591 -0.013141341007030179 0 -0.080092532456141188 -0.003668773098679406 0 -0.083850004839423356 -0.01670819335216529 0 -0.067904035722132591 -0.013141341007030179 0 -0.080092532456141188 -0.003668773098679406 0 -0.067904035722132591 -0.013141341007030179 0 -0.074832071119546345 0.01458641525620198 0 -0.074879994622454676 -0.066873691454468157 0 -0.08250494029348307 -0.05050912359066393 0 -0.093486196061591822 -0.060219955360459577 0 -0.09488951348217331 -0.046136733253321537 0 -0.08250494029348307 -0.05050912359066393 0 -0.093486196061591822 -0.060219955360459577 0 -0.09488951348217331 -0.046136733253321537 0 -0.08250494029348307 -0.05050912359066393 0 -0.087508862968356013 -0.037400364787564283 0 -0.087508862968356013 -0.037400364787564283 0 -0.078827204637354764 -0.033824983055033023 0 -0.075209197259548333 -0.042209707041527857 0 -0.083591590465415339 -0.027258372950568939 0 -0.087508862968356013 -0.037400364787564283 0 -0.078827204637354764 -0.033824983055033023 0 -0.08250494029348307 -0.05050912359066393 0 -0.087508862968356013 -0.037400364787564283 0 -0.075209197259548333 -0.042209707041527857 0 -0.075209197259548333 -0.042209707041527857 0 -0.07010693321923589 -0.035125472542942668 0 -0.065925666971209745 -0.044859454495929152 0 -0.078827204637354764 -0.033824983055033023 0 -0.075209197259548333 -0.042209707041527857 0 -0.07010693321923589 -0.035125472542942668 0 -0.073594831814239148 -0.027529008083932601 0 -0.078827204637354764 -0.033824983055033023 0 -0.07010693321923589 -0.035125472542942668 0 -0.07010693321923589 -0.035125472542942668 0 -0.065925666971209745 -0.044859454495929152 0 -0.062188313015287988 -0.036017114150852923 0 -0.064606083853981894 -0.026340581530842979 0 -0.07010693321923589 -0.035125472542942668 0 -0.062188313015287988 -0.036017114150852923 0 -0.075209197259548333 -0.042209707041527857 0 -0.065925666971209745 -0.044859454495929152 0 -0.06782330306326767 -0.054269756012465503 0 -0.074879994622454676 -0.066873691454468157 0 -0.08250494029348307 -0.05050912359066393 0 -0.06782330306326767 -0.054269756012465503 0 -0.08250494029348307 -0.05050912359066393 0 -0.075209197259548333 -0.042209707041527857 0 -0.06782330306326767 -0.054269756012465503 0 -0.06782330306326767 -0.054269756012465503 0 -0.053355743779522118 -0.050119890925383763 0 -0.054548839060830072 -0.077678387568320767 0 -0.065925666971209745 -0.044859454495929152 0 -0.06782330306326767 -0.054269756012465503 0 -0.053355743779522118 -0.050119890925383763 0 -0.065925666971209745 -0.044859454495929152 0 -0.053355743779522118 -0.050119890925383763 0 -0.062188313015287988 -0.036017114150852923 0 -0.053355743779522118 -0.050119890925383763 0 -0.062188313015287988 -0.036017114150852923 0 -0.04655115789732224 -0.03584482362943852 0 -0.064606083853981894 -0.026340581530842979 0 -0.062188313015287988 -0.036017114150852923 0 -0.04655115789732224 -0.03584482362943852 0 -0.053355743779522118 -0.050119890925383763 0 -0.04655115789732224 -0.03584482362943852 0 -0.036434000711805102 -0.048155142756658623 0 -0.04655115789732224 -0.03584482362943852 0 -0.036434000711805102 -0.048155142756658623 0 -0.022177823110830799 -0.036525555589702392 0 -0.04655115789732224 -0.03584482362943852 0 -0.03737607095264546 -0.022740428259661941 0 -0.022177823110830799 -0.036525555589702392 0 -0.036434000711805102 -0.048155142756658623 0 -0.038232767255660167 -0.062207678440993827 0 -0.02185251151569018 -0.05607776519777459 0 -0.053355743779522118 -0.050119890925383763 0 -0.036434000711805102 -0.048155142756658623 0 -0.038232767255660167 -0.062207678440993827 0 -0.067904035722132591 -0.013141341007030179 0 -0.046957999175683843 -0.0084560554011491752 0 -0.067904035722132591 -0.013141341007030179 0 -0.046957999175683843 -0.0084560554011491752 0 -0.05421104742611095 -0.017669601549671069 0 -0.067904035722132591 -0.013141341007030179 0 -0.046957999175683843 -0.0084560554011491752 0 -0.055874442695779139 0.0083757522806137928 0 -0.064606083853981894 -0.026340581530842979 0 -0.03737607095264546 -0.022740428259661941 0 -0.064606083853981894 -0.026340581530842979 0 -0.05421104742611095 -0.017669601549671069 0 -0.03737607095264546 -0.022740428259661941 0 -0.064606083853981894 -0.026340581530842979 0 -0.04655115789732224 -0.03584482362943852 0 -0.03737607095264546 -0.022740428259661941 0 -0.064606083853981894 -0.026340581530842979 0 -0.067904035722132591 -0.013141341007030179 0 -0.05421104742611095 -0.017669601549671069 0 -0.046957999175683843 -0.0084560554011491752 0 -0.05421104742611095 -0.017669601549671069 0 -0.03737607095264546 -0.022740428259661941 0 -0.046957999175683843 -0.0084560554011491752 0 -0.026011962629234619 -0.0037707697952702041 0 -0.046957999175683843 -0.0084560554011491752 0 -0.026011962629234619 -0.0037707697952702041 0 -0.039298549269485908 0.0060831443704769516 0 -0.046957999175683843 -0.0084560554011491752 0 -0.03737607095264546 -0.022740428259661941 0 -0.026011962629234619 -0.0037707697952702041 0 -0.03737607095264546 -0.022740428259661941 0 -0.026011962629234619 -0.0037707697952702041 0 -0.010146058051308981 -0.019140274988481479 0 -0.026011962629234619 -0.0037707697952702041 0 -0.010146058051308981 -0.019140274988481479 0 -0.011425331166199169 0.003120034382480649 0 -0.03737607095264546 -0.022740428259661941 0 -0.010146058051308981 -0.019140274988481479 0 -0.03737607095264546 -0.022740428259661941 0 -0.010146058051308981 -0.019140274988481479 0 -0.022177823110830799 -0.036525555589702392 0 -0.010146058051308981 -0.019140274988481479 0 -0.022177823110830799 -0.036525555589702392 0 0.0060884536637360459 -0.037271583403209678 0 -0.010146058051308981 -0.019140274988481479 0 -0.011425331166199169 0.003120034382480649 0 0.003446058010442044 -0.001436598912300188 0 -0.02185251151569018 -0.05607776519777459 0 -0.022177823110830799 -0.036525555589702392 0 -0.0043244833945796984 -0.051560032956885403 0 -0.036434000711805102 -0.048155142756658623 0 -0.02185251151569018 -0.05607776519777459 0 -0.022177823110830799 -0.036525555589702392 0 -0.022177823110830799 -0.036525555589702392 0 -0.0043244833945796984 -0.051560032956885403 0 0.0060884536637360459 -0.037271583403209678 0 -0.02185251151569018 -0.05607776519777459 0 -0.0043244833945796984 -0.051560032956885403 0 0.00033988340344908119 -0.067030928412590951 0 -0.02185251151569018 -0.05607776519777459 0 -0.02355383651717477 -0.079673357347063059 0 0.00033988340344908119 -0.067030928412590951 0 -0.00050241834979408489 -0.093703199865545928 0 -0.02355383651717477 -0.079673357347063059 0 0.00033988340344908119 -0.067030928412590951 0 -0.00050241834979408489 -0.093703199865545928 0 -0.02355383651717477 -0.079673357347063059 0 -0.01218688395054663 -0.106683643735925 0 -0.00050241834979408489 -0.093703199865545928 0 0.00033988340344908119 -0.067030928412590951 0 -0.038232767255660167 -0.062207678440993827 0 -0.02185251151569018 -0.05607776519777459 0 -0.02355383651717477 -0.079673357347063059 0 -0.038232767255660167 -0.062207678440993827 0 -0.02355383651717477 -0.079673357347063059 0 -0.054548839060830072 -0.077678387568320767 0 -0.02355383651717477 -0.079673357347063059 0 -0.054548839060830072 -0.077678387568320767 0 -0.036463036192399843 -0.095432127036366471 0 -0.054548839060830072 -0.077678387568320767 0 -0.055741934342139837 -0.10523688421125769 0 -0.036463036192399843 -0.095432127036366471 0 -0.070249177205504387 -0.085170053228010217 0 -0.054548839060830072 -0.077678387568320767 0 -0.055741934342139837 -0.10523688421125769 0 -0.054548839060830072 -0.077678387568320767 0 -0.055741934342139837 -0.10523688421125769 0 -0.053355743779522118 -0.050119890925383763 0 -0.054548839060830072 -0.077678387568320767 0 -0.053355743779522118 -0.050119890925383763 0 -0.038232767255660167 -0.062207678440993827 0 -0.054548839060830072 -0.077678387568320767 0 -0.06793541665037249 -0.1141031311353382 0 -0.055741934342139837 -0.10523688421125769 0 -0.056796297935622478 -0.12959091192949901 0 -0.055741934342139837 -0.10523688421125769 0 -0.056796297935622478 -0.12959091192949901 0 -0.055741934342139837 -0.10523688421125769 0 -0.028543327222588549 -0.1128061777648794 0 -0.056796297935622478 -0.12959091192949901 0 -0.055741934342139837 -0.10523688421125769 0 -0.036463036192399843 -0.095432127036366471 0 -0.028543327222588549 -0.1128061777648794 0 -0.055741934342139837 -0.10523688421125769 0 -0.028543327222588549 -0.1128061777648794 0 -0.028543327222588549 -0.1128061777648794 0 -0.001344720103037024 -0.1203754713185009 0 -0.019097710799805968 -0.1315161942259668 0 -0.036463036192399843 -0.095432127036366471 0 -0.028543327222588549 -0.1128061777648794 0 -0.01218688395054663 -0.106683643735925 0 -0.02355383651717477 -0.079673357347063059 0 -0.036463036192399843 -0.095432127036366471 0 -0.01218688395054663 -0.106683643735925 0 -0.00050241834979408489 -0.093703199865545928 0 -0.01218688395054663 -0.106683643735925 0 -0.001344720103037024 -0.1203754713185009 0 -0.00050241834979408489 -0.093703199865545928 0 -0.001344720103037024 -0.1203754713185009 0 -0.028543327222588549 -0.1128061777648794 0 -0.001344720103037024 -0.1203754713185009 0 -0.028543327222588549 -0.1128061777648794 0 -0.01218688395054663 -0.106683643735925 0 -0.001344720103037024 -0.1203754713185009 0 -0.001344720103037024 -0.1203754713185009 0 -0.019097710799805968 -0.1315161942259668 0 -0.0020830339583057132 -0.14375486889113431 0 -0.001344720103037024 -0.1203754713185009 0 -0.0020830339583057132 -0.14375486889113431 0 -0.028543327222588549 -0.1128061777648794 0 -0.019097710799805968 -0.1315161942259668 0 -0.037021758217449553 -0.1413009433315762 0 -0.019097710799805968 -0.1315161942259668 0 -0.018642049337610132 -0.15280797813652769 0 -0.037021758217449553 -0.1413009433315762 0 -0.018642049337610132 -0.15280797813652769 0 -0.035935492650262933 -0.164949442302885 0 -0.037021758217449553 -0.1413009433315762 0 -0.019097710799805968 -0.1315161942259668 0 -0.018642049337610132 -0.15280797813652769 0 -0.0020830339583057132 -0.14375486889113431 0 -0.018642049337610132 -0.15280797813652769 0 -0.0020830339583057132 -0.14375486889113431 0 0.00085128839454816807 -0.1615185965674765 0 -0.018642049337610132 -0.15280797813652769 0 -0.014020323771422601 -0.17595394495803071 0 0.00085128839454816807 -0.1615185965674765 0 -0.014020323771422601 -0.17595394495803071 0 0.00085128839454816807 -0.1615185965674765 0 0.0043319602977526031 -0.17985444031778691 0 -0.014020323771422601 -0.17595394495803071 0 -0.0091767263642812159 -0.20179350012404371 0 0.0043319602977526031 -0.17985444031778691 0 -0.014020323771422601 -0.17595394495803071 0 -0.035935492650262933 -0.164949442302885 0 -0.022183080479328428 -0.19057286585616059 0 -0.014020323771422601 -0.17595394495803071 0 -0.035935492650262933 -0.164949442302885 0 -0.018642049337610132 -0.15280797813652769 0 -0.014020323771422601 -0.17595394495803071 0 -0.035935492650262933 -0.164949442302885 0 -0.035935492650262933 -0.164949442302885 0 -0.048186447927004113 -0.17876902930459609 0 -0.050138442689511037 -0.16712045955242669 0 -0.035935492650262933 -0.164949442302885 0 -0.022183080479328428 -0.19057286585616059 0 -0.038996423364822168 -0.18883248955540169 0 -0.035935492650262933 -0.164949442302885 0 -0.048186447927004113 -0.17876902930459609 0 -0.038996423364822168 -0.18883248955540169 0 -0.058581168651673309 -0.17081842695448499 0 -0.059311675774238702 -0.1876919142612298 0 -0.068716486185149583 -0.16653665484402949 0 -0.048186447927004113 -0.17876902930459609 0 -0.038996423364822168 -0.18883248955540169 0 -0.059311675774238702 -0.1876919142612298 0 -0.058581168651673309 -0.17081842695448499 0 -0.059311675774238702 -0.1876919142612298 0 -0.048186447927004113 -0.17876902930459609 0 -0.058581168651673309 -0.17081842695448499 0 -0.059311675774238702 -0.1876919142612298 0 -0.048186447927004113 -0.17876902930459609 0 -0.050138442689511037 -0.16712045955242669 0 -0.058581168651673309 -0.17081842695448499 0 -0.058581168651673309 -0.17081842695448499 0 -0.057850661529103828 -0.15394493964774039 0 -0.035935492650262933 -0.164949442302885 0 -0.057850661529103828 -0.15394493964774039 0 -0.058581168651673309 -0.17081842695448499 0 -0.057850661529103828 -0.15394493964774039 0 -0.068716486185149583 -0.16653665484402949 0 -0.035935492650262933 -0.164949442302885 0 -0.050138442689511037 -0.16712045955242669 0 -0.057850661529103828 -0.15394493964774039 0 -0.050138442689511037 -0.16712045955242669 0 -0.058581168651673309 -0.17081842695448499 0 -0.057850661529103828 -0.15394493964774039 0 -0.057850661529103828 -0.15394493964774039 0 -0.056796297935622478 -0.12959091192949901 0 -0.037021758217449553 -0.1413009433315762 0 -0.057850661529103828 -0.15394493964774039 0 -0.056796297935622478 -0.12959091192949901 0 -0.057850661529103828 -0.15394493964774039 0 -0.056796297935622478 -0.12959091192949901 0 -0.069043347207100092 -0.13589972285237331 0 -0.028543327222588549 -0.1128061777648794 0 -0.056796297935622478 -0.12959091192949901 0 -0.037021758217449553 -0.1413009433315762 0 -0.035935492650262933 -0.164949442302885 0 -0.057850661529103828 -0.15394493964774039 0 -0.037021758217449553 -0.1413009433315762 0 -0.023413120833141021 -0.25245946384945861 0 -0.02209683988503611 -0.24467278080662239 0 -0.032395854921437137 -0.2379463134609229 0 -0.017061095356741881 -0.23849150559779239 0 -0.02209683988503611 -0.24467278080662239 0 -0.032395854921437137 -0.2379463134609229 0 -0.023413120833141021 -0.25245946384945861 0 -0.02209683988503611 -0.24467278080662239 0 -0.015517288428824419 -0.24979384031831589 0 -0.017061095356741881 -0.23849150559779239 0 -0.02209683988503611 -0.24467278080662239 0 -0.015517288428824419 -0.24979384031831589 0 -0.017061095356741881 -0.23849150559779239 0 -0.015517288428824419 -0.24979384031831589 0 -0.0041269308005008401 -0.2467473806334986 0 -0.0041269308005008401 -0.2467473806334986 0 -0.0050044592456737176 -0.23386250229972511 0 0.00365285595354017 -0.24304585125558209 0 -0.017061095356741881 -0.23849150559779239 0 -0.0041269308005008401 -0.2467473806334986 0 -0.0050044592456737176 -0.23386250229972511 0 -0.017061095356741881 -0.23849150559779239 0 -0.0082696867449335125 -0.22158505704386791 0 -0.0050044592456737176 -0.23386250229972511 0 -0.0082696867449335125 -0.22158505704386791 0 -0.0050044592456737176 -0.23386250229972511 0 0.0077876491562095338 -0.2318289349763841 0 -0.017061095356741881 -0.23849150559779239 0 -0.0082696867449335125 -0.22158505704386791 0 -0.026050092780193809 -0.22215933135785179 0 -0.0082696867449335125 -0.22158505704386791 0 -0.026050092780193809 -0.22215933135785179 0 -0.017791704280158051 -0.21254834201125131 0 -0.017061095356741881 -0.23849150559779239 0 -0.026050092780193809 -0.22215933135785179 0 -0.032395854921437137 -0.2379463134609229 0 -0.026050092780193809 -0.22215933135785179 0 -0.017791704280158051 -0.21254834201125131 0 -0.027670311231223672 -0.2046554795192421 0 -0.026050092780193809 -0.22215933135785179 0 -0.027670311231223672 -0.2046554795192421 0 -0.037792440032596297 -0.21163374709897739 0 -0.017791704280158051 -0.21254834201125131 0 -0.027670311231223672 -0.2046554795192421 0 -0.0091767263642812159 -0.20179350012404371 0 -0.0082696867449335125 -0.22158505704386791 0 -0.017791704280158051 -0.21254834201125131 0 -0.0091767263642812159 -0.20179350012404371 0 -0.0082696867449335125 -0.22158505704386791 0 -0.0091767263642812159 -0.20179350012404371 0 0.0076156262736421926 -0.21369324546414289 0 -0.014020323771422601 -0.17595394495803071 0 -0.0091767263642812159 -0.20179350012404371 0 -0.022183080479328428 -0.19057286585616059 0 -0.027670311231223672 -0.2046554795192421 0 -0.0091767263642812159 -0.20179350012404371 0 -0.022183080479328428 -0.19057286585616059 0 -0.027670311231223672 -0.2046554795192421 0 -0.022183080479328428 -0.19057286585616059 0 -0.038996423364822168 -0.18883248955540169 0 -0.038996423364822168 -0.18883248955540169 0 -0.04117897995755733 -0.20072342187782199 0 -0.059311675774238702 -0.1876919142612298 0 -0.027670311231223672 -0.2046554795192421 0 -0.038996423364822168 -0.18883248955540169 0 -0.04117897995755733 -0.20072342187782199 0 -0.059311675774238702 -0.1876919142612298 0 -0.060054138360900011 -0.20484155270381471 0 -0.059311675774238702 -0.1876919142612298 0 -0.051124830656081553 -0.20610747233373361 0 -0.060054138360900011 -0.20484155270381471 0 -0.059311675774238702 -0.1876919142612298 0 -0.051124830656081553 -0.20610747233373361 0 -0.04117897995755733 -0.20072342187782199 0 -0.059311675774238702 -0.1876919142612298 0 -0.051124830656081553 -0.20610747233373361 0 -0.051124830656081553 -0.20610747233373361 0 -0.055111608244189862 -0.21374569050251169 0 -0.042937985537925161 -0.22452303040623781 0 -0.051124830656081553 -0.20610747233373361 0 -0.042937985537925161 -0.22452303040623781 0 -0.051124830656081553 -0.20610747233373361 0 -0.060054138360900011 -0.20484155270381471 0 -0.055111608244189862 -0.21374569050251169 0 -0.060054138360900011 -0.20484155270381471 0 -0.055111608244189862 -0.21374569050251169 0 -0.063786959823429523 -0.2132186956507538 0 -0.055111608244189862 -0.21374569050251169 0 -0.057654126842613049 -0.22003770141801829 0 -0.063786959823429523 -0.2132186956507538 0 -0.051124830656081553 -0.20610747233373361 0 -0.037792440032596297 -0.21163374709897739 0 -0.042937985537925161 -0.22452303040623781 0 -0.04117897995755733 -0.20072342187782199 0 -0.051124830656081553 -0.20610747233373361 0 -0.037792440032596297 -0.21163374709897739 0 -0.027670311231223672 -0.2046554795192421 0 -0.04117897995755733 -0.20072342187782199 0 -0.037792440032596297 -0.21163374709897739 0 -0.026050092780193809 -0.22215933135785179 0 -0.037792440032596297 -0.21163374709897739 0 -0.042937985537925161 -0.22452303040623781 0 -0.026050092780193809 -0.22215933135785179 0 -0.042937985537925161 -0.22452303040623781 0 -0.032395854921437137 -0.2379463134609229 0 -0.041597098013895717 -0.2343212825174753 0 -0.042937985537925161 -0.22452303040623781 0 -0.032395854921437137 -0.2379463134609229 0 -0.041597098013895717 -0.2343212825174753 0 -0.042937985537925161 -0.22452303040623781 0 -0.055608351681328522 -0.2281756823847729 0 -0.055608351681328522 -0.2281756823847729 0 -0.049260817383653607 -0.2405719728160795 0 -0.075108513934166191 -0.2286844817827004 0 -0.055111608244189862 -0.21374569050251169 0 -0.042937985537925161 -0.22452303040623781 0 -0.057654126842613049 -0.22003770141801829 0 -0.042937985537925161 -0.22452303040623781 0 -0.057654126842613049 -0.22003770141801829 0 -0.055608351681328522 -0.2281756823847729 0 -0.057654126842613049 -0.22003770141801829 0 -0.055608351681328522 -0.2281756823847729 0 -0.06709156837571742 -0.22091562536812639 0 -0.041597098013895717 -0.2343212825174753 0 -0.055608351681328522 -0.2281756823847729 0 -0.049260817383653607 -0.2405719728160795 0 -0.063417346604215649 -0.25491921445445309 0 -0.054451551828928461 -0.25356532493994721 0 -0.067698607050294346 -0.23855062455141449 0 -0.043163549692594082 -0.24961839520776721 0 -0.067698607050294346 -0.23855062455141449 0 -0.054451551828928461 -0.25356532493994721 0 -0.043163549692594082 -0.24961839520776721 0 -0.067698607050294346 -0.23855062455141449 0 -0.049260817383653607 -0.2405719728160795 0 -0.075108513934166191 -0.2286844817827004 0 -0.049260817383653607 -0.2405719728160795 0 -0.043163549692594082 -0.24961839520776721 0 -0.067698607050294346 -0.23855062455141449 0 -0.023413120833141021 -0.25245946384945861 0 -0.049260817383653607 -0.2405719728160795 0 -0.023413120833141021 -0.25245946384945861 0 -0.049260817383653607 -0.2405719728160795 0 -0.043163549692594082 -0.24961839520776721 0 -0.041597098013895717 -0.2343212825174753 0 -0.049260817383653607 -0.2405719728160795 0 -0.032395854921437137 -0.2379463134609229 0 -0.023413120833141021 -0.25245946384945861 0 -0.049260817383653607 -0.2405719728160795 0 -0.032395854921437137 -0.2379463134609229 0 -0.084304030352334886 -0.24250050488600461 0 -0.067698607050294346 -0.23855062455141449 0 -0.092233664407994673 -0.22748285389506179 0 -0.089662449593936294 -0.25365822956627793 0 -0.084304030352334886 -0.24250050488600461 0 -0.09781582057799712 -0.240402297267193 0 -0.084304030352334886 -0.24250050488600461 0 -0.092233664407994673 -0.22748285389506179 0 -0.09781582057799712 -0.240402297267193 0 -0.075211789775330495 -0.25372848722754249 0 -0.089662449593936294 -0.25365822956627793 0 -0.084304030352334886 -0.24250050488600461 0 -0.049260817383653607 -0.2405719728160795 0 -0.067698607050294346 -0.23855062455141449 0 -0.075108513934166191 -0.2286844817827004 0 -0.063417346604215649 -0.25491921445445309 0 -0.075211789775330495 -0.25372848722754249 0 -0.067698607050294346 -0.23855062455141449 0 -0.075211789775330495 -0.25372848722754249 0 -0.084304030352334886 -0.24250050488600461 0 -0.067698607050294346 -0.23855062455141449 0 -0.055608351681328522 -0.2281756823847729 0 -0.075108513934166191 -0.2286844817827004 0 -0.06709156837571742 -0.22091562536812639 0 -0.075108513934166191 -0.2286844817827004 0 -0.06709156837571742 -0.22091562536812639 0 -0.080689863187960509 -0.2195494510436268 0 -0.067698607050294346 -0.23855062455141449 0 -0.075108513934166191 -0.2286844817827004 0 -0.092233664407994673 -0.22748285389506179 0 -0.067698607050294346 -0.23855062455141449 0 -0.092233664407994673 -0.22748285389506179 0 -0.075108513934166191 -0.2286844817827004 0 -0.10095621048467859 -0.21679699074932071 0 -0.075108513934166191 -0.2286844817827004 0 -0.092233664407994673 -0.22748285389506179 0 -0.10095621048467859 -0.21679699074932071 0 -0.075108513934166191 -0.2286844817827004 0 -0.080689863187960509 -0.2195494510436268 0 -0.10095621048467859 -0.21679699074932071 0 -0.080689863187960509 -0.2195494510436268 0 -0.089352197377549028 -0.21517329780330541 0 -0.10095621048467859 -0.21679699074932071 0 -0.089352197377549028 -0.21517329780330541 0 -0.087657622838163918 -0.2049822576637558 0 -0.096387803268546457 -0.20423167318169361 0 -0.089352197377549028 -0.21517329780330541 0 -0.087657622838163918 -0.2049822576637558 0 -0.07985280207276077 -0.20963082265287261 0 -0.087657622838163918 -0.2049822576637558 0 -0.07985280207276077 -0.20963082265287261 0 -0.078596251423150285 -0.19896768408483079 0 -0.080689863187960509 -0.2195494510436268 0 -0.089352197377549028 -0.21517329780330541 0 -0.07985280207276077 -0.20963082265287261 0 -0.06709156837571742 -0.22091562536812639 0 -0.080689863187960509 -0.2195494510436268 0 -0.072669957128856863 -0.21403272833624781 0 -0.080689863187960509 -0.2195494510436268 0 -0.07985280207276077 -0.20963082265287261 0 -0.072669957128856863 -0.21403272833624781 0 -0.057654126842613049 -0.22003770141801829 0 -0.06709156837571742 -0.22091562536812639 0 -0.063786959823429523 -0.2132186956507538 0 -0.06709156837571742 -0.22091562536812639 0 -0.072669957128856863 -0.21403272833624781 0 -0.063786959823429523 -0.2132186956507538 0 -0.060054138360900011 -0.20484155270381471 0 -0.063786959823429523 -0.2132186956507538 0 -0.070150920480884033 -0.20507951698546931 0 -0.072669957128856863 -0.21403272833624781 0 -0.063786959823429523 -0.2132186956507538 0 -0.070150920480884033 -0.20507951698546931 0 -0.07985280207276077 -0.20963082265287261 0 -0.070150920480884033 -0.20507951698546931 0 -0.078596251423150285 -0.19896768408483079 0 -0.07985280207276077 -0.20963082265287261 0 -0.072669957128856863 -0.21403272833624781 0 -0.070150920480884033 -0.20507951698546931 0 -0.059311675774238702 -0.1876919142612298 0 -0.060054138360900011 -0.20484155270381471 0 -0.068290159581340618 -0.19694615177279401 0 -0.070150920480884033 -0.20507951698546931 0 -0.068290159581340618 -0.19694615177279401 0 -0.078596251423150285 -0.19896768408483079 0 -0.060054138360900011 -0.20484155270381471 0 -0.070150920480884033 -0.20507951698546931 0 -0.068290159581340618 -0.19694615177279401 0 -0.059311675774238702 -0.1876919142612298 0 -0.068290159581340618 -0.19694615177279401 0 -0.073337811867530078 -0.18815009082862519 0 -0.068290159581340618 -0.19694615177279401 0 -0.073337811867530078 -0.18815009082862519 0 -0.078596251423150285 -0.19896768408483079 0 -0.083583653177780354 -0.18942325849628899 0 -0.078596251423150285 -0.19896768408483079 0 -0.092438160722976545 -0.19553085520795041 0 -0.073337811867530078 -0.18815009082862519 0 -0.083583653177780354 -0.18942325849628899 0 -0.078596251423150285 -0.19896768408483079 0 -0.087657622838163918 -0.2049822576637558 0 -0.092438160722976545 -0.19553085520795041 0 -0.096387803268546457 -0.20423167318169361 0 -0.087657622838163918 -0.2049822576637558 0 -0.078596251423150285 -0.19896768408483079 0 -0.092438160722976545 -0.19553085520795041 0 -0.083583653177780354 -0.18942325849628899 0 -0.092438160722976545 -0.19553085520795041 0 -0.091987310031460545 -0.1854216491305215 0 -0.092438160722976545 -0.19553085520795041 0 -0.1019815455103863 -0.1914376425535928 0 -0.091987310031460545 -0.1854216491305215 0 -0.10592589630333631 -0.20183557650520659 0 -0.1019815455103863 -0.1914376425535928 0 -0.096387803268546457 -0.20423167318169361 0 -0.092438160722976545 -0.19553085520795041 0 -0.1019815455103863 -0.1914376425535928 0 -0.096387803268546457 -0.20423167318169361 0 -0.10592589630333631 -0.20183557650520659 0 -0.1019815455103863 -0.1914376425535928 0 -0.1109344604261456 -0.19441623601089469 0 -0.1019815455103863 -0.1914376425535928 0 -0.1109344604261456 -0.19441623601089469 0 -0.1116327824403707 -0.18442701094093961 0 -0.1109344604261456 -0.19441623601089469 0 -0.11975838044339331 -0.19312445222506339 0 -0.1116327824403707 -0.18442701094093961 0 -0.11975838044339331 -0.19312445222506339 0 -0.12365107092801859 -0.18258537522257531 0 -0.12842212152129709 -0.19024850797873971 0 -0.11975838044339331 -0.19312445222506339 0 -0.1249445400000314 -0.19699877299636509 0 -0.12842212152129709 -0.19024850797873971 0 -0.1249445400000314 -0.19699877299636509 0 -0.1153736974332414 -0.20125649782967139 0 -0.12556627925372499 -0.20547869121531201 0 -0.11975838044339331 -0.19312445222506339 0 -0.1249445400000314 -0.19699877299636509 0 -0.1153736974332414 -0.20125649782967139 0 -0.1109344604261456 -0.19441623601089469 0 -0.11975838044339331 -0.19312445222506339 0 -0.1153736974332414 -0.20125649782967139 0 -0.10592589630333631 -0.20183557650520659 0 -0.1109344604261456 -0.19441623601089469 0 -0.1153736974332414 -0.20125649782967139 0 -0.10095621048467859 -0.21679699074932071 0 -0.123540733978707 -0.2199571329473517 0 -0.10095621048467859 -0.21679699074932071 0 -0.123540733978707 -0.2199571329473517 0 -0.12556627925372499 -0.20547869121531201 0 -0.10095621048467859 -0.21679699074932071 0 -0.12556627925372499 -0.20547869121531201 0 -0.1153736974332414 -0.20125649782967139 0 -0.10095621048467859 -0.21679699074932071 0 -0.12556627925372499 -0.20547869121531201 0 -0.10592589630333631 -0.20183557650520659 0 -0.1153736974332414 -0.20125649782967139 0 -0.10095621048467859 -0.21679699074932071 0 -0.10592589630333631 -0.20183557650520659 0 -0.096387803268546457 -0.20423167318169361 0 -0.10095621048467859 -0.21679699074932071 0 -0.089352197377549028 -0.21517329780330541 0 -0.10095621048467859 -0.21679699074932071 0 -0.089352197377549028 -0.21517329780330541 0 -0.096387803268546457 -0.20423167318169361 0 -0.10095621048467859 -0.21679699074932071 0 -0.092233664407994673 -0.22748285389506179 0 -0.10095621048467859 -0.21679699074932071 0 -0.1054270209355888 -0.22830718532714181 0 -0.092233664407994673 -0.22748285389506179 0 -0.1054270209355888 -0.22830718532714181 0 -0.09781582057799712 -0.240402297267193 0 -0.123540733978707 -0.2199571329473517 0 -0.11258867522856671 -0.23689665177678151 0 -0.1264049245366366 -0.2362137626753103 0 -0.1054270209355888 -0.22830718532714181 0 -0.123540733978707 -0.2199571329473517 0 -0.11258867522856671 -0.23689665177678151 0 -0.10095621048467859 -0.21679699074932071 0 -0.1054270209355888 -0.22830718532714181 0 -0.123540733978707 -0.2199571329473517 0 -0.1254838910284212 -0.25115988899400271 0 -0.106562239054386 -0.25341088658734001 0 -0.11258867522856671 -0.23689665177678151 0 -0.1254838910284212 -0.25115988899400271 0 -0.11258867522856671 -0.23689665177678151 0 -0.1264049245366366 -0.2362137626753103 0 -0.106562239054386 -0.25341088658734001 0 -0.089662449593936294 -0.25365822956627793 0 -0.09781582057799712 -0.240402297267193 0 -0.106562239054386 -0.25341088658734001 0 -0.11258867522856671 -0.23689665177678151 0 -0.09781582057799712 -0.240402297267193 0 -0.1054270209355888 -0.22830718532714181 0 -0.11258867522856671 -0.23689665177678151 0 -0.09781582057799712 -0.240402297267193 0 -0.086734805623833566 -0.1394410294958553 0 -0.072292733576468343 -0.14669298457179719 0 -0.078121296596061263 -0.14538139542682951 0 -0.086734805623833566 -0.1394410294958553 0 -0.072292733576468343 -0.14669298457179719 0 -0.086734805623833566 -0.1394410294958553 0 -0.080196560363965635 -0.1375303198592813 0 -0.072292733576468343 -0.14669298457179719 0 -0.084293605584541589 -0.14653798770143481 0 -0.086734805623833566 -0.1394410294958553 0 -0.078121296596061263 -0.14538139542682951 0 -0.084293605584541589 -0.14653798770143481 0 -0.083268644648659088 -0.15167036916008619 0 -0.078121296596061263 -0.14538139542682951 0 -0.083268644648659088 -0.15167036916008619 0 -0.078121296596061263 -0.14538139542682951 0 -0.078277620357405403 -0.1579829262782815 0 -0.083268644648659088 -0.15167036916008619 0 -0.085654553385397098 -0.15848272690704249 0 -0.078277620357405403 -0.1579829262782815 0 -0.090500012222984927 -0.1507720960143891 0 -0.085654553385397098 -0.15848272690704249 0 -0.092434210153435198 -0.15873561050344989 0 -0.084293605584541589 -0.14653798770143481 0 -0.083268644648659088 -0.15167036916008619 0 -0.090500012222984927 -0.1507720960143891 0 -0.083268644648659088 -0.15167036916008619 0 -0.090500012222984927 -0.1507720960143891 0 -0.085654553385397098 -0.15848272690704249 0 -0.084293605584541589 -0.14653798770143481 0 -0.090500012222984927 -0.1507720960143891 0 -0.086734805623833566 -0.1394410294958553 0 -0.086734805623833566 -0.1394410294958553 0 -0.085972232586171773 -0.12858339302330421 0 -0.097228547733261395 -0.13417169237397181 0 -0.086734805623833566 -0.1394410294958553 0 -0.097228547733261395 -0.13417169237397181 0 -0.096367998792204687 -0.121477020661934 0 -0.085972232586171773 -0.12858339302330421 0 -0.097228547733261395 -0.13417169237397181 0 -0.085972232586171773 -0.12858339302330421 0 -0.080196560363965635 -0.1375303198592813 0 -0.072036405944047727 -0.12525113595770321 0 -0.086734805623833566 -0.1394410294958553 0 -0.085972232586171773 -0.12858339302330421 0 -0.080196560363965635 -0.1375303198592813 0 -0.086734805623833566 -0.1394410294958553 0 -0.080196560363965635 -0.1375303198592813 0 -0.080196560363965635 -0.1375303198592813 0 -0.072036405944047727 -0.12525113595770321 0 -0.069043347207100092 -0.13589972285237331 0 -0.080196560363965635 -0.1375303198592813 0 -0.069043347207100092 -0.13589972285237331 0 -0.072292733576468343 -0.14669298457179719 0 -0.056796297935622478 -0.12959091192949901 0 -0.072036405944047727 -0.12525113595770321 0 -0.069043347207100092 -0.13589972285237331 0 -0.078121296596061263 -0.14538139542682951 0 -0.068891521352028348 -0.1540034850887595 0 -0.068716486185149583 -0.16653665484402949 0 -0.057850661529103828 -0.15394493964774039 0 -0.069043347207100092 -0.13589972285237331 0 -0.072292733576468343 -0.14669298457179719 0 -0.078121296596061263 -0.14538139542682951 0 -0.068716486185149583 -0.16653665484402949 0 -0.072292733576468343 -0.14669298457179719 0 -0.078121296596061263 -0.14538139542682951 0 -0.068891521352028348 -0.1540034850887595 0 -0.057850661529103828 -0.15394493964774039 0 -0.072292733576468343 -0.14669298457179719 0 -0.057850661529103828 -0.15394493964774039 0 -0.072292733576468343 -0.14669298457179719 0 -0.068891521352028348 -0.1540034850887595 0 -0.078121296596061263 -0.14538139542682951 0 -0.068716486185149583 -0.16653665484402949 0 -0.078277620357405403 -0.1579829262782815 0 -0.057850661529103828 -0.15394493964774039 0 -0.068891521352028348 -0.1540034850887595 0 -0.068716486185149583 -0.16653665484402949 0 -0.068716486185149583 -0.16653665484402949 0 -0.078277620357405403 -0.1579829262782815 0 -0.080811936052780642 -0.1683780702144356 0 -0.068716486185149583 -0.16653665484402949 0 -0.072751529120365074 -0.17810086874257641 0 -0.080811936052780642 -0.1683780702144356 0 -0.059311675774238702 -0.1876919142612298 0 -0.068716486185149583 -0.16653665484402949 0 -0.059311675774238702 -0.1876919142612298 0 -0.068716486185149583 -0.16653665484402949 0 -0.072751529120365074 -0.17810086874257641 0 -0.059311675774238702 -0.1876919142612298 0 -0.073337811867530078 -0.18815009082862519 0 -0.072751529120365074 -0.17810086874257641 0 -0.073337811867530078 -0.18815009082862519 0 -0.072751529120365074 -0.17810086874257641 0 -0.081579735722126387 -0.1797476135645617 0 -0.083583653177780354 -0.18942325849628899 0 -0.081579735722126387 -0.1797476135645617 0 -0.091987310031460545 -0.1854216491305215 0 -0.073337811867530078 -0.18815009082862519 0 -0.083583653177780354 -0.18942325849628899 0 -0.081579735722126387 -0.1797476135645617 0 -0.072751529120365074 -0.17810086874257641 0 -0.081579735722126387 -0.1797476135645617 0 -0.080811936052780642 -0.1683780702144356 0 -0.081579735722126387 -0.1797476135645617 0 -0.092461565808292609 -0.17437967175782271 0 -0.080811936052780642 -0.1683780702144356 0 -0.081579735722126387 -0.1797476135645617 0 -0.092461565808292609 -0.17437967175782271 0 -0.091987310031460545 -0.1854216491305215 0 -0.085654553385397098 -0.15848272690704249 0 -0.078277620357405403 -0.1579829262782815 0 -0.080811936052780642 -0.1683780702144356 0 -0.085654553385397098 -0.15848272690704249 0 -0.080811936052780642 -0.1683780702144356 0 -0.089478649419386824 -0.1650754806364976 0 -0.092461565808292609 -0.17437967175782271 0 -0.089478649419386824 -0.1650754806364976 0 -0.098261986823613715 -0.16604125553599139 0 -0.092461565808292609 -0.17437967175782271 0 -0.080811936052780642 -0.1683780702144356 0 -0.089478649419386824 -0.1650754806364976 0 -0.089478649419386824 -0.1650754806364976 0 -0.092434210153435198 -0.15873561050344989 0 -0.098261986823613715 -0.16604125553599139 0 -0.085654553385397098 -0.15848272690704249 0 -0.089478649419386824 -0.1650754806364976 0 -0.092434210153435198 -0.15873561050344989 0 -0.092434210153435198 -0.15873561050344989 0 -0.0999633540003321 -0.15674287615309801 0 -0.098261986823613715 -0.16604125553599139 0 -0.092461565808292609 -0.17437967175782271 0 -0.098261986823613715 -0.16604125553599139 0 -0.10576435426964211 -0.174343421139982 0 -0.098261986823613715 -0.16604125553599139 0 -0.10873269872162469 -0.1651448617260195 0 -0.10576435426964211 -0.174343421139982 0 -0.0999633540003321 -0.15674287615309801 0 -0.098261986823613715 -0.16604125553599139 0 -0.10873269872162469 -0.1651448617260195 0 -0.092461565808292609 -0.17437967175782271 0 -0.091987310031460545 -0.1854216491305215 0 -0.099879199247201025 -0.1820108532029123 0 -0.1019815455103863 -0.1914376425535928 0 -0.091987310031460545 -0.1854216491305215 0 -0.099879199247201025 -0.1820108532029123 0 -0.092461565808292609 -0.17437967175782271 0 -0.099879199247201025 -0.1820108532029123 0 -0.10576435426964211 -0.174343421139982 0 -0.099879199247201025 -0.1820108532029123 0 -0.10576435426964211 -0.174343421139982 0 -0.1116327824403707 -0.18442701094093961 0 -0.1019815455103863 -0.1914376425535928 0 -0.099879199247201025 -0.1820108532029123 0 -0.1116327824403707 -0.18442701094093961 0 -0.10576435426964211 -0.174343421139982 0 -0.1116327824403707 -0.18442701094093961 0 -0.1168187147760701 -0.17454463635430639 0 -0.1168187147760701 -0.17454463635430639 0 -0.1233039660394049 -0.1660123462567504 0 -0.12901338229537601 -0.17534109616160329 0 -0.1168187147760701 -0.17454463635430639 0 -0.12365107092801859 -0.18258537522257531 0 -0.12901338229537601 -0.17534109616160329 0 -0.11975838044339331 -0.19312445222506339 0 -0.1116327824403707 -0.18442701094093961 0 -0.12365107092801859 -0.18258537522257531 0 -0.1116327824403707 -0.18442701094093961 0 -0.1168187147760701 -0.17454463635430639 0 -0.12365107092801859 -0.18258537522257531 0 -0.10873269872162469 -0.1651448617260195 0 -0.1233039660394049 -0.1660123462567504 0 -0.1095718570235618 -0.1461148345377434 0 -0.10873269872162469 -0.1651448617260195 0 -0.10576435426964211 -0.174343421139982 0 -0.1168187147760701 -0.17454463635430639 0 -0.10873269872162469 -0.1651448617260195 0 -0.1168187147760701 -0.17454463635430639 0 -0.1233039660394049 -0.1660123462567504 0 -0.1095718570235618 -0.1461148345377434 0 -0.1208900890742694 -0.12925678956160641 0 -0.13240890842329031 -0.15278863957963121 0 -0.1095718570235618 -0.1461148345377434 0 -0.13240890842329031 -0.15278863957963121 0 -0.1233039660394049 -0.1660123462567504 0 -0.1095718570235618 -0.1461148345377434 0 -0.13240890842329031 -0.15278863957963121 0 -0.090500012222984927 -0.1507720960143891 0 -0.0999633540003321 -0.15674287615309801 0 -0.1095718570235618 -0.1461148345377434 0 -0.086734805623833566 -0.1394410294958553 0 -0.1095718570235618 -0.1461148345377434 0 -0.0999633540003321 -0.15674287615309801 0 -0.10873269872162469 -0.1651448617260195 0 -0.1095718570235618 -0.1461148345377434 0 -0.090500012222984927 -0.1507720960143891 0 -0.086734805623833566 -0.1394410294958553 0 -0.1095718570235618 -0.1461148345377434 0 -0.090500012222984927 -0.1507720960143891 0 -0.092434210153435198 -0.15873561050344989 0 -0.0999633540003321 -0.15674287615309801 0 -0.1095718570235618 -0.1461148345377434 0 -0.097228547733261395 -0.13417169237397181 0 -0.1077463817344561 -0.1280076496319362 0 -0.086734805623833566 -0.1394410294958553 0 -0.1095718570235618 -0.1461148345377434 0 -0.097228547733261395 -0.13417169237397181 0 -0.096367998792204687 -0.121477020661934 0 -0.097228547733261395 -0.13417169237397181 0 -0.1077463817344561 -0.1280076496319362 0 -0.1095718570235618 -0.1461148345377434 0 -0.1077463817344561 -0.1280076496319362 0 -0.1208900890742694 -0.12925678956160641 0 -0.1208900890742694 -0.12925678956160641 0 -0.1379492760777801 -0.13549148376482939 0 -0.12916694673430229 -0.1112056980795455 0 -0.1208900890742694 -0.12925678956160641 0 -0.1379492760777801 -0.13549148376482939 0 -0.13240890842329031 -0.15278863957963121 0 -0.1379492760777801 -0.13549148376482939 0 -0.15498626188956649 -0.12924712342220479 0 -0.1479959248878934 -0.1138519330714635 0 -0.1379492760777801 -0.13549148376482939 0 -0.15498626188956649 -0.12924712342220479 0 -0.15073370354079699 -0.14449249624347241 0 -0.15073370354079699 -0.14449249624347241 0 -0.13240890842329031 -0.15278863957963121 0 -0.15524595982301881 -0.15946244462151901 0 -0.13240890842329031 -0.15278863957963121 0 -0.15524595982301881 -0.15946244462151901 0 -0.1379492760777801 -0.13549148376482939 0 -0.15073370354079699 -0.14449249624347241 0 -0.13240890842329031 -0.15278863957963121 0 -0.1233039660394049 -0.1660123462567504 0 -0.13240890842329031 -0.15278863957963121 0 -0.1383828112217961 -0.17007407680812031 0 -0.1233039660394049 -0.1660123462567504 0 -0.1383828112217961 -0.17007407680812031 0 -0.12901338229537601 -0.17534109616160329 0 -0.12365107092801859 -0.18258537522257531 0 -0.12901338229537601 -0.17534109616160329 0 -0.13600832428261311 -0.18348057016271069 0 -0.12365107092801859 -0.18258537522257531 0 -0.13600832428261311 -0.18348057016271069 0 -0.12842212152129709 -0.19024850797873971 0 -0.1383828112217961 -0.17007407680812031 0 -0.13600832428261311 -0.18348057016271069 0 -0.1431006226106121 -0.1785653133908271 0 -0.1383828112217961 -0.17007407680812031 0 -0.12901338229537601 -0.17534109616160329 0 -0.13600832428261311 -0.18348057016271069 0 -0.13600832428261311 -0.18348057016271069 0 -0.147243034184081 -0.18608669647946871 0 -0.1431006226106121 -0.1785653133908271 0 -0.13600832428261311 -0.18348057016271069 0 -0.147243034184081 -0.18608669647946871 0 -0.14225748195949139 -0.1896533435141303 0 -0.147243034184081 -0.18608669647946871 0 -0.1431006226106121 -0.1785653133908271 0 -0.15023172258155851 -0.17378219825375521 0 -0.1383828112217961 -0.17007407680812031 0 -0.1431006226106121 -0.1785653133908271 0 -0.15023172258155851 -0.17378219825375521 0 -0.147243034184081 -0.18608669647946871 0 -0.15023172258155851 -0.17378219825375521 0 -0.1625193891343874 -0.17683935144100249 0 -0.147243034184081 -0.18608669647946871 0 -0.1625193891343874 -0.17683935144100249 0 -0.147243034184081 -0.18608669647946871 0 -0.15868129703326461 -0.18498213293726781 0 -0.1625193891343874 -0.17683935144100249 0 -0.13240890842329031 -0.15278863957963121 0 -0.1383828112217961 -0.17007407680812031 0 -0.15524595982301881 -0.15946244462151901 0 -0.15023172258155851 -0.17378219825375521 0 -0.15524595982301881 -0.15946244462151901 0 -0.1625193891343874 -0.17683935144100249 0 -0.1383828112217961 -0.17007407680812031 0 -0.15023172258155851 -0.17378219825375521 0 -0.15524595982301881 -0.15946244462151901 0 -0.15524595982301881 -0.15946244462151901 0 -0.17808301122274731 -0.16613624966340659 0 -0.1777957440846972 -0.1675920064025419 0 -0.15524595982301881 -0.15946244462151901 0 -0.1625193891343874 -0.17683935144100249 0 -0.1777957440846972 -0.1675920064025419 0 -0.15524595982301881 -0.15946244462151901 0 -0.17808301122274731 -0.16613624966340659 0 -0.16807180341783229 -0.14956897440473771 0 -0.15524595982301881 -0.15946244462151901 0 -0.17808301122274731 -0.16613624966340659 0 -0.15868129703326461 -0.18498213293726781 0 -0.1625193891343874 -0.17683935144100249 0 -0.17478641679181889 -0.1828420921472973 0 -0.15868129703326461 -0.18498213293726781 0 -0.17478641679181889 -0.1828420921472973 0 -0.15017634802277119 -0.19416039168130281 0 -0.1625193891343874 -0.17683935144100249 0 -0.17478641679181889 -0.1828420921472973 0 -0.1777957440846972 -0.1675920064025419 0 -0.1625193891343874 -0.17683935144100249 0 -0.1777957440846972 -0.1675920064025419 0 -0.17478641679181889 -0.1828420921472973 0 -0.18150688907245169 -0.18444393672931239 0 -0.1810778908731801 -0.19276217479966151 0 -0.17478641679181889 -0.1828420921472973 0 -0.17790492110129061 -0.18140787568069389 0 -0.17845603944819941 -0.17682362985311401 0 -0.17478641679181889 -0.1828420921472973 0 -0.17790492110129061 -0.18140787568069389 0 -0.18150688907245169 -0.18444393672931239 0 -0.17478641679181889 -0.1828420921472973 0 -0.17790492110129061 -0.18140787568069389 0 -0.17478641679181889 -0.1828420921472973 0 -0.17845603944819941 -0.17682362985311401 0 -0.1777957440846972 -0.1675920064025419 0 -0.17845603944819941 -0.17682362985311401 0 -0.1809446471595238 -0.17363021579199989 0 -0.1777957440846972 -0.1675920064025419 0 -0.17478641679181889 -0.1828420921472973 0 -0.1777957440846972 -0.1675920064025419 0 -0.17790492110129061 -0.18140787568069389 0 -0.17845603944819941 -0.17682362985311401 0 -0.17992338706227329 -0.1785245175363947 0 -0.1809446471595238 -0.17363021579199989 0 -0.1836472936701346 -0.17561159591857359 0 -0.1838079815986432 -0.17154358063977221 0 -0.17845603944819941 -0.17682362985311401 0 -0.1809446471595238 -0.17363021579199989 0 -0.18101617699594019 -0.17658026614599681 0 -0.1809446471595238 -0.17363021579199989 0 -0.1836472936701346 -0.17561159591857359 0 -0.18101617699594019 -0.17658026614599681 0 -0.1836472936701346 -0.17561159591857359 0 -0.1838079815986432 -0.17154358063977221 0 -0.19006175318401941 -0.17634938957710589 0 -0.18568232480856689 -0.17824723381551669 0 -0.1867038416764504 -0.18174165130061321 0 -0.19006175318401941 -0.17634938957710589 0 -0.1836472936701346 -0.17561159591857359 0 -0.18568232480856689 -0.17824723381551669 0 -0.18231641070366311 -0.1792862984657741 0 -0.1836472936701346 -0.17561159591857359 0 -0.18568232480856689 -0.17824723381551669 0 -0.19006175318401941 -0.17634938957710589 0 -0.1836472936701346 -0.17561159591857359 0 -0.18231641070366311 -0.1792862984657741 0 -0.18101617699594019 -0.17658026614599681 0 -0.17845603944819941 -0.17682362985311401 0 -0.18101617699594019 -0.17658026614599681 0 -0.17992338706227329 -0.1785245175363947 0 -0.18231641070366311 -0.1792862984657741 0 -0.18101617699594019 -0.17658026614599681 0 -0.17992338706227329 -0.1785245175363947 0 -0.17790492110129061 -0.18140787568069389 0 -0.18231641070366311 -0.1792862984657741 0 -0.18150688907245169 -0.18444393672931239 0 -0.17790492110129061 -0.18140787568069389 0 -0.18231641070366311 -0.1792862984657741 0 -0.17992338706227329 -0.1785245175363947 0 -0.18231641070366311 -0.1792862984657741 0 -0.1867038416764504 -0.18174165130061321 0 -0.18150688907245169 -0.18444393672931239 0 -0.18568232480856689 -0.17824723381551669 0 -0.18231641070366311 -0.1792862984657741 0 -0.1867038416764504 -0.18174165130061321 0 -0.1867038416764504 -0.18174165130061321 0 -0.18150688907245169 -0.18444393672931239 0 -0.18625185328830701 -0.18862352798183471 0 -0.17951115499308321 -0.1665536044667148 0 -0.1838079815986432 -0.17154358063977221 0 -0.19790905667057959 -0.17193013083284811 0 -0.17808301122274731 -0.16613624966340659 0 -0.1777957440846972 -0.1675920064025419 0 -0.17808301122274731 -0.16613624966340659 0 -0.1777957440846972 -0.1675920064025419 0 -0.17951115499308321 -0.1665536044667148 0 -0.1777957440846972 -0.1675920064025419 0 -0.17951115499308321 -0.1665536044667148 0 -0.17808301122274731 -0.16613624966340659 0 -0.17951115499308321 -0.1665536044667148 0 -0.1777957440846972 -0.1675920064025419 0 -0.17951115499308321 -0.1665536044667148 0 -0.1838079815986432 -0.17154358063977221 0 -0.1809446471595238 -0.17363021579199989 0 -0.1777957440846972 -0.1675920064025419 0 -0.1838079815986432 -0.17154358063977221 0 -0.17808301122274731 -0.16613624966340659 0 -0.17951115499308321 -0.1665536044667148 0 -0.186442044427123 -0.1537678517923986 0 -0.18332697609237161 -0.13956190060758089 0 -0.16612189710974959 -0.13590045223409111 0 -0.16807180341783229 -0.14956897440473771 0 -0.17808301122274731 -0.16613624966340659 0 -0.186442044427123 -0.1537678517923986 0 -0.18332697609237161 -0.13956190060758089 0 -0.17808301122274731 -0.16613624966340659 0 -0.18332697609237161 -0.13956190060758089 0 -0.16807180341783229 -0.14956897440473771 0 -0.17808301122274731 -0.16613624966340659 0 -0.18332697609237161 -0.13956190060758089 0 -0.18332697609237161 -0.13956190060758089 0 -0.16612189710974959 -0.13590045223409111 0 -0.16822579372194041 -0.1168612957012659 0 -0.18332697609237161 -0.13956190060758089 0 -0.188570940961994 -0.1129875515517548 0 -0.15498626188956649 -0.12924712342220479 0 -0.16612189710974959 -0.13590045223409111 0 -0.16822579372194041 -0.1168612957012659 0 -0.15498626188956649 -0.12924712342220479 0 -0.15073370354079699 -0.14449249624347241 0 -0.16612189710974959 -0.13590045223409111 0 -0.15073370354079699 -0.14449249624347241 0 -0.15524595982301881 -0.15946244462151901 0 -0.16807180341783229 -0.14956897440473771 0 -0.15073370354079699 -0.14449249624347241 0 -0.16612189710974959 -0.13590045223409111 0 -0.16807180341783229 -0.14956897440473771 0 -0.1555437086047588 -0.23457455346976561 0 -0.14242893464998399 -0.24336380518002931 0 -0.138040048456262 -0.23233820132328431 0 -0.15296216688699729 -0.25014707048332019 0 -0.1555437086047588 -0.23457455346976561 0 -0.14242893464998399 -0.24336380518002931 0 -0.14197386724259739 -0.25547947608235672 0 -0.15296216688699729 -0.25014707048332019 0 -0.14242893464998399 -0.24336380518002931 0 -0.1254838910284212 -0.25115988899400271 0 -0.14242893464998399 -0.24336380518002931 0 -0.1264049245366366 -0.2362137626753103 0 -0.14242893464998399 -0.24336380518002931 0 -0.1264049245366366 -0.2362137626753103 0 -0.138040048456262 -0.23233820132328431 0 -0.123540733978707 -0.2199571329473517 0 -0.14612525747273539 -0.2231172751453834 0 -0.123540733978707 -0.2199571329473517 0 -0.138040048456262 -0.23233820132328431 0 -0.14612525747273539 -0.2231172751453834 0 -0.123540733978707 -0.2199571329473517 0 -0.1264049245366366 -0.2362137626753103 0 -0.138040048456262 -0.23233820132328431 0 -0.1555437086047588 -0.23457455346976561 0 -0.138040048456262 -0.23233820132328431 0 -0.14612525747273539 -0.2231172751453834 0 -0.14904118355249671 -0.20809530038802659 0 -0.13508015736524251 -0.2088436497971321 0 -0.1606775945079616 -0.21584541129786761 0 -0.14612525747273539 -0.2231172751453834 0 -0.13508015736524251 -0.2088436497971321 0 -0.1606775945079616 -0.21584541129786761 0 -0.13508015736524251 -0.2088436497971321 0 -0.1606775945079616 -0.21584541129786761 0 -0.14904118355249671 -0.20809530038802659 0 -0.1577880897626795 -0.20924102232882549 0 -0.1606775945079616 -0.21584541129786761 0 -0.14904118355249671 -0.20809530038802659 0 -0.15817887763467259 -0.204097294616533 0 -0.1577880897626795 -0.20924102232882549 0 -0.14904118355249671 -0.20809530038802659 0 -0.13508015736524251 -0.2088436497971321 0 -0.15017634802277119 -0.19416039168130281 0 -0.123540733978707 -0.2199571329473517 0 -0.14612525747273539 -0.2231172751453834 0 -0.13508015736524251 -0.2088436497971321 0 -0.123540733978707 -0.2199571329473517 0 -0.12556627925372499 -0.20547869121531201 0 -0.13508015736524251 -0.2088436497971321 0 -0.12556627925372499 -0.20547869121531201 0 -0.13508015736524251 -0.2088436497971321 0 -0.15017634802277119 -0.19416039168130281 0 -0.12556627925372499 -0.20547869121531201 0 -0.15017634802277119 -0.19416039168130281 0 -0.12556627925372499 -0.20547869121531201 0 -0.13560222134850031 -0.19488571573303889 0 -0.15017634802277119 -0.19416039168130281 0 -0.1249445400000314 -0.19699877299636509 0 -0.12556627925372499 -0.20547869121531201 0 -0.13560222134850031 -0.19488571573303889 0 -0.1249445400000314 -0.19699877299636509 0 -0.12842212152129709 -0.19024850797873971 0 -0.13560222134850031 -0.19488571573303889 0 -0.13600832428261311 -0.18348057016271069 0 -0.13560222134850031 -0.19488571573303889 0 -0.14225748195949139 -0.1896533435141303 0 -0.13600832428261311 -0.18348057016271069 0 -0.12842212152129709 -0.19024850797873971 0 -0.13560222134850031 -0.19488571573303889 0 -0.13560222134850031 -0.19488571573303889 0 -0.14225748195949139 -0.1896533435141303 0 -0.15017634802277119 -0.19416039168130281 0 -0.147243034184081 -0.18608669647946871 0 -0.14225748195949139 -0.1896533435141303 0 -0.15017634802277119 -0.19416039168130281 0 -0.14904118355249671 -0.20809530038802659 0 -0.15017634802277119 -0.19416039168130281 0 -0.15817887763467259 -0.204097294616533 0 -0.147243034184081 -0.18608669647946871 0 -0.15868129703326461 -0.18498213293726781 0 -0.15017634802277119 -0.19416039168130281 0 -0.17478641679181889 -0.1828420921472973 0 -0.15017634802277119 -0.19416039168130281 0 -0.17478641679181889 -0.1828420921472973 0 -0.15017634802277119 -0.19416039168130281 0 -0.1716485186350174 -0.19874372440337781 0 -0.15017634802277119 -0.19416039168130281 0 -0.1716485186350174 -0.19874372440337781 0 -0.15817887763467259 -0.204097294616533 0 -0.1810778908731801 -0.19276217479966151 0 -0.1823383772090808 -0.20842755814774561 0 -0.1900551421332938 -0.1960510782681483 0 -0.1716485186350174 -0.19874372440337781 0 -0.1810778908731801 -0.19276217479966151 0 -0.1823383772090808 -0.20842755814774561 0 -0.17478641679181889 -0.1828420921472973 0 -0.1716485186350174 -0.19874372440337781 0 -0.1810778908731801 -0.19276217479966151 0 -0.17478641679181889 -0.1828420921472973 0 -0.1716485186350174 -0.19874372440337781 0 -0.1810778908731801 -0.19276217479966151 0 -0.18625185328830701 -0.18862352798183471 0 -0.1900551421332938 -0.1960510782681483 0 -0.18150688907245169 -0.18444393672931239 0 -0.1810778908731801 -0.19276217479966151 0 -0.18625185328830701 -0.18862352798183471 0 -0.1823383772090808 -0.20842755814774561 0 -0.1685106204782135 -0.21464535665945789 0 -0.18627503165068091 -0.22284717279860311 0 -0.1716485186350174 -0.19874372440337781 0 -0.1823383772090808 -0.20842755814774561 0 -0.1685106204782135 -0.21464535665945789 0 -0.1823383772090808 -0.20842755814774561 0 -0.18627503165068091 -0.22284717279860311 0 -0.19050445538246999 -0.21389312150996539 0 -0.1685106204782135 -0.21464535665945789 0 -0.1606775945079616 -0.21584541129786761 0 -0.18627503165068091 -0.22284717279860311 0 -0.1716485186350174 -0.19874372440337781 0 -0.1685106204782135 -0.21464535665945789 0 -0.16325470335558709 -0.2089260830128748 0 -0.1685106204782135 -0.21464535665945789 0 -0.16325470335558709 -0.2089260830128748 0 -0.1606775945079616 -0.21584541129786761 0 -0.1716485186350174 -0.19874372440337781 0 -0.1685106204782135 -0.21464535665945789 0 -0.1716485186350174 -0.19874372440337781 0 -0.16325470335558709 -0.2089260830128748 0 -0.15817887763467259 -0.204097294616533 0 -0.16325470335558709 -0.2089260830128748 0 -0.15817887763467259 -0.204097294616533 0 -0.1577880897626795 -0.20924102232882549 0 -0.16325470335558709 -0.2089260830128748 0 -0.1577880897626795 -0.20924102232882549 0 -0.1606775945079616 -0.21584541129786761 0 -0.14612525747273539 -0.2231172751453834 0 -0.1606775945079616 -0.21584541129786761 0 -0.1687097809667637 -0.22627741734341511 0 -0.14612525747273539 -0.2231172751453834 0 -0.1687097809667637 -0.22627741734341511 0 -0.1555437086047588 -0.23457455346976561 0 -0.14612525747273539 -0.2231172751453834 0 -0.1687097809667637 -0.22627741734341511 0 -0.1687097809667637 -0.22627741734341511 0 -0.177293007514853 -0.231014671503769 0 -0.1684183144302098 -0.23685316378333021 0 -0.1555437086047588 -0.23457455346976561 0 -0.1687097809667637 -0.22627741734341511 0 -0.1684183144302098 -0.23685316378333021 0 -0.1606775945079616 -0.21584541129786761 0 -0.1687097809667637 -0.22627741734341511 0 -0.18627503165068091 -0.22284717279860311 0 -0.1606775945079616 -0.21584541129786761 0 -0.18627503165068091 -0.22284717279860311 0 -0.1687097809667637 -0.22627741734341511 0 -0.177293007514853 -0.231014671503769 0 -0.19129430446079199 -0.22943755954144679 0 -0.1687097809667637 -0.22627741734341511 0 -0.19129430446079199 -0.22943755954144679 0 -0.1687097809667637 -0.22627741734341511 0 -0.18627503165068091 -0.22284717279860311 0 -0.19129430446079199 -0.22943755954144679 0 -0.177293007514853 -0.231014671503769 0 -0.1898684822404719 -0.23716311584470359 0 -0.19129430446079199 -0.22943755954144679 0 -0.177293007514853 -0.231014671503769 0 -0.18948356299746841 -0.24953622126875291 0 -0.177293007514853 -0.231014671503769 0 -0.18948356299746841 -0.24953622126875291 0 -0.1898684822404719 -0.23716311584470359 0 -0.177293007514853 -0.231014671503769 0 -0.17477946793614321 -0.2467949503106604 0 -0.1684183144302098 -0.23685316378333021 0 -0.177293007514853 -0.231014671503769 0 -0.17477946793614321 -0.2467949503106604 0 -0.18948356299746841 -0.24953622126875291 0 -0.17477946793614321 -0.2467949503106604 0 -0.1684183144302098 -0.23685316378333021 0 -0.1638725775675334 -0.24551319246672779 0 -0.1555437086047588 -0.23457455346976561 0 -0.1684183144302098 -0.23685316378333021 0 -0.1638725775675334 -0.24551319246672779 0 -0.15296216688699729 -0.25014707048332019 0 -0.1555437086047588 -0.23457455346976561 0 -0.1638725775675334 -0.24551319246672779 0 -0.22504504768689609 -0.25050109624071037 0 -0.20951704407790281 -0.24968568922956319 0 -0.2118724687934001 -0.2298489342993385 0 -0.20951704407790281 -0.24968568922956319 0 -0.20140305398877401 -0.23866401106484539 0 -0.2118724687934001 -0.2298489342993385 0 -0.20951704407790281 -0.24968568922956319 0 -0.18948356299746841 -0.24953622126875291 0 -0.20140305398877401 -0.23866401106484539 0 -0.1898684822404719 -0.23716311584470359 0 -0.20140305398877401 -0.23866401106484539 0 -0.19129430446079199 -0.22943755954144679 0 -0.18948356299746841 -0.24953622126875291 0 -0.1898684822404719 -0.23716311584470359 0 -0.20140305398877401 -0.23866401106484539 0 -0.18627503165068091 -0.22284717279860311 0 -0.2118724687934001 -0.2298489342993385 0 -0.20140305398877401 -0.23866401106484539 0 -0.19129430446079199 -0.22943755954144679 0 -0.2118724687934001 -0.2298489342993385 0 -0.18627503165068091 -0.22284717279860311 0 -0.19129430446079199 -0.22943755954144679 0 -0.2118724687934001 -0.2298489342993385 0 -0.18627503165068091 -0.22284717279860311 0 -0.2118724687934001 -0.2298489342993385 0 -0.19950502374307999 -0.2166294092686992 0 -0.2118724687934001 -0.2298489342993385 0 -0.20940053072231421 -0.21008670667354409 0 -0.19950502374307999 -0.2166294092686992 0 -0.2118724687934001 -0.2298489342993385 0 -0.20940053072231421 -0.21008670667354409 0 -0.2278122969146395 -0.21780315786450749 0 -0.20940053072231421 -0.21008670667354409 0 -0.21286067679260931 -0.1948666443486779 0 -0.2278122969146395 -0.21780315786450749 0 -0.20940053072231421 -0.21008670667354409 0 -0.19950502374307999 -0.2166294092686992 0 -0.19701727640579969 -0.20643348198109779 0 -0.19950502374307999 -0.2166294092686992 0 -0.19050445538246999 -0.21389312150996539 0 -0.19701727640579969 -0.20643348198109779 0 -0.20940053072231421 -0.21008670667354409 0 -0.19701727640579969 -0.20643348198109779 0 -0.19990759164823321 -0.19409657771969929 0 -0.18627503165068091 -0.22284717279860311 0 -0.19950502374307999 -0.2166294092686992 0 -0.19050445538246999 -0.21389312150996539 0 -0.1823383772090808 -0.20842755814774561 0 -0.19050445538246999 -0.21389312150996539 0 -0.19701727640579969 -0.20643348198109779 0 -0.1823383772090808 -0.20842755814774561 0 -0.19701727640579969 -0.20643348198109779 0 -0.1900551421332938 -0.1960510782681483 0 -0.19701727640579969 -0.20643348198109779 0 -0.1900551421332938 -0.1960510782681483 0 -0.19990759164823321 -0.19409657771969929 0 -0.18625185328830701 -0.18862352798183471 0 -0.1900551421332938 -0.1960510782681483 0 -0.1922028671648025 -0.18521142421387959 0 -0.1900551421332938 -0.1960510782681483 0 -0.19990759164823321 -0.19409657771969929 0 -0.1922028671648025 -0.18521142421387959 0 -0.20940053072231421 -0.21008670667354409 0 -0.19990759164823321 -0.19409657771969929 0 -0.21286067679260931 -0.1948666443486779 0 -0.21286067679260931 -0.1948666443486779 0 -0.23052356937766649 -0.19846080886515521 0 -0.2197816967911489 -0.17832210032842741 0 -0.23052356937766649 -0.19846080886515521 0 -0.2463502863137258 -0.20112514046812691 0 -0.24165433691171809 -0.1847140698240072 0 -0.23052356937766649 -0.19846080886515521 0 -0.2463502863137258 -0.20112514046812691 0 -0.2278122969146395 -0.21780315786450749 0 -0.2463502863137258 -0.20112514046812691 0 -0.2278122969146395 -0.21780315786450749 0 -0.25474132154575801 -0.2165904518333831 0 -0.21286067679260931 -0.1948666443486779 0 -0.23052356937766649 -0.19846080886515521 0 -0.2278122969146395 -0.21780315786450749 0 -0.21286067679260931 -0.1948666443486779 0 -0.2278122969146395 -0.21780315786450749 0 -0.2118724687934001 -0.2298489342993385 0 -0.2278122969146395 -0.21780315786450749 0 -0.24276391703666961 -0.24073967138033711 0 -0.2278122969146395 -0.21780315786450749 0 -0.24276391703666961 -0.24073967138033711 0 -0.2278122969146395 -0.21780315786450749 0 -0.24276391703666961 -0.24073967138033711 0 -0.25474132154575801 -0.2165904518333831 0 -0.22504504768689609 -0.25050109624071037 0 -0.2118724687934001 -0.2298489342993385 0 -0.24276391703666961 -0.24073967138033711 0 -0.20307706373205489 -0.13277766195646901 0 -0.20098396752120989 -0.15355531351054411 0 -0.2224567800493347 -0.14055702255437011 0 -0.20098396752120989 -0.15355531351054411 0 -0.2118573123603078 -0.1648195920381367 0 -0.2224567800493347 -0.14055702255437011 0 -0.20098396752120989 -0.15355531351054411 0 -0.2224567800493347 -0.14055702255437011 0 -0.20307706373205489 -0.13277766195646901 0 -0.2224567800493347 -0.14055702255437011 0 -0.2260079744994738 -0.12345371618590641 0 -0.18332697609237161 -0.13956190060758089 0 -0.20307706373205489 -0.13277766195646901 0 -0.1934575129431898 -0.14491568196674809 0 -0.18332697609237161 -0.13956190060758089 0 -0.20307706373205489 -0.13277766195646901 0 -0.188570940961994 -0.1129875515517548 0 -0.20307706373205489 -0.13277766195646901 0 -0.1934575129431898 -0.14491568196674809 0 -0.20098396752120989 -0.15355531351054411 0 -0.186442044427123 -0.1537678517923986 0 -0.18332697609237161 -0.13956190060758089 0 -0.1934575129431898 -0.14491568196674809 0 -0.186442044427123 -0.1537678517923986 0 -0.1934575129431898 -0.14491568196674809 0 -0.20098396752120989 -0.15355531351054411 0 -0.17951115499308321 -0.1665536044667148 0 -0.20098396752120989 -0.15355531351054411 0 -0.19173155657333449 -0.16245354479614729 0 -0.17951115499308321 -0.1665536044667148 0 -0.19790905667057959 -0.17193013083284811 0 -0.17951115499308321 -0.1665536044667148 0 -0.186442044427123 -0.1537678517923986 0 -0.20098396752120989 -0.15355531351054411 0 -0.17951115499308321 -0.1665536044667148 0 -0.19173155657333449 -0.16245354479614729 0 -0.19790905667057959 -0.17193013083284811 0 -0.17951115499308321 -0.1665536044667148 0 -0.20098396752120989 -0.15355531351054411 0 -0.19173155657333449 -0.16245354479614729 0 -0.19790905667057959 -0.17193013083284811 0 -0.19173155657333449 -0.16245354479614729 0 -0.2011962782019438 -0.16303553459487161 0 -0.19790905667057959 -0.17193013083284811 0 -0.20098396752120989 -0.15355531351054411 0 -0.19173155657333449 -0.16245354479614729 0 -0.2011962782019438 -0.16303553459487161 0 -0.19990759164823321 -0.19409657771969929 0 -0.1922028671648025 -0.18521142421387959 0 -0.19790905667057959 -0.17193013083284811 0 -0.1867038416764504 -0.18174165130061321 0 -0.1922028671648025 -0.18521142421387959 0 -0.19006175318401941 -0.17634938957710589 0 -0.1867038416764504 -0.18174165130061321 0 -0.18625185328830701 -0.18862352798183471 0 -0.1922028671648025 -0.18521142421387959 0 -0.1838079815986432 -0.17154358063977221 0 -0.19006175318401941 -0.17634938957710589 0 -0.19790905667057959 -0.17193013083284811 0 -0.1922028671648025 -0.18521142421387959 0 -0.19006175318401941 -0.17634938957710589 0 -0.19790905667057959 -0.17193013083284811 0 -0.19790905667057959 -0.17193013083284811 0 -0.2197816967911489 -0.17832210032842741 0 -0.21286067679260931 -0.1948666443486779 0 -0.19790905667057959 -0.17193013083284811 0 -0.2197816967911489 -0.17832210032842741 0 -0.21286067679260931 -0.1948666443486779 0 -0.19790905667057959 -0.17193013083284811 0 -0.19990759164823321 -0.19409657771969929 0 -0.21286067679260931 -0.1948666443486779 0 -0.19790905667057959 -0.17193013083284811 0 -0.19790905667057959 -0.17193013083284811 0 -0.2118573123603078 -0.1648195920381367 0 -0.2197816967911489 -0.17832210032842741 0 -0.20098396752120989 -0.15355531351054411 0 -0.2011962782019438 -0.16303553459487161 0 -0.2118573123603078 -0.1648195920381367 0 -0.2011962782019438 -0.16303553459487161 0 -0.19790905667057959 -0.17193013083284811 0 -0.2118573123603078 -0.1648195920381367 0 -0.2118573123603078 -0.1648195920381367 0 -0.2337704459946616 -0.16189823082852139 0 -0.2197816967911489 -0.17832210032842741 0 -0.23052356937766649 -0.19846080886515521 0 -0.2197816967911489 -0.17832210032842741 0 -0.24165433691171809 -0.1847140698240072 0 -0.2337704459946616 -0.16189823082852139 0 -0.2197816967911489 -0.17832210032842741 0 -0.24165433691171809 -0.1847140698240072 0 -0.2197816967911489 -0.17832210032842741 0 -0.24165433691171809 -0.1847140698240072 0 -0.2337704459946616 -0.16189823082852139 0 -0.24165433691171809 -0.1847140698240072 0 -0.25617378633809668 -0.17328260692364991 0 -0.2337704459946616 -0.16189823082852139 0 -0.25617378633809668 -0.17328260692364991 0 -0.25767621022610998 -0.15435984608172709 0 -0.2337704459946616 -0.16189823082852139 0 -0.24128783106858251 -0.1445735746522569 0 -0.25767621022610998 -0.15435984608172709 0 -0.2337704459946616 -0.16189823082852139 0 -0.24128783106858251 -0.1445735746522569 0 -0.2224567800493347 -0.14055702255437011 0 -0.2118573123603078 -0.1648195920381367 0 -0.2337704459946616 -0.16189823082852139 0 -0.2224567800493347 -0.14055702255437011 0 -0.2224567800493347 -0.14055702255437011 0 -0.2439295925774595 -0.12755873159819611 0 -0.2224567800493347 -0.14055702255437011 0 -0.2439295925774595 -0.12755873159819611 0 -0.2260079744994738 -0.12345371618590641 0 -0.24128783106858251 -0.1445735746522569 0 -0.2439295925774595 -0.12755873159819611 0 -0.2592637220637426 -0.13157490815480491 0 -0.24128783106858251 -0.1445735746522569 0 -0.2224567800493347 -0.14055702255437011 0 -0.2439295925774595 -0.12755873159819611 0 -0.2439295925774595 -0.12755873159819611 0 -0.23770189593439231 -0.1098089904628728 0 -0.25599824831270229 -0.1121149393752142 0 -0.2439295925774595 -0.12755873159819611 0 -0.23770189593439231 -0.1098089904628728 0 -0.2260079744994738 -0.12345371618590641 0 -0.23770189593439231 -0.1098089904628728 0 -0.23382215181612551 -0.090907160765083164 0 -0.25092039164605001 -0.095239455525776298 0 -0.23770189593439231 -0.1098089904628728 0 -0.25599824831270229 -0.1121149393752142 0 -0.25092039164605001 -0.095239455525776298 0 -0.23770189593439231 -0.1098089904628728 0 -0.23382215181612551 -0.090907160765083164 0 -0.21583504768621151 -0.1060013106655355 0 -0.23770189593439231 -0.1098089904628728 0 -0.2260079744994738 -0.12345371618590641 0 -0.21583504768621151 -0.1060013106655355 0 -0.24733022289212911 -0.078321605564832489 0 -0.24365665774824791 -0.060841142212463228 0 -0.2560353303610754 -0.069070050569703251 0 -0.24733022289212911 -0.078321605564832489 0 -0.23381127328771159 -0.071838815940838713 0 -0.24365665774824791 -0.060841142212463228 0 -0.24733022289212911 -0.078321605564832489 0 -0.23382215181612551 -0.090907160765083164 0 -0.25092039164605001 -0.095239455525776298 0 -0.24733022289212911 -0.078321605564832489 0 -0.23382215181612551 -0.090907160765083164 0 -0.23381127328771159 -0.071838815940838713 0 -0.23382215181612551 -0.090907160765083164 0 -0.21698663400710591 -0.084028607385841225 0 -0.21583504768621151 -0.1060013106655355 0 -0.23382215181612551 -0.090907160765083164 0 -0.23381127328771159 -0.071838815940838713 0 -0.21698663400710591 -0.084028607385841225 0 -0.23381127328771159 -0.071838815940838713 0 -0.21869208246426641 -0.066352693668996154 0 -0.21698663400710591 -0.084028607385841225 0 -0.23381127328771159 -0.071838815940838713 0 -0.21869208246426641 -0.066352693668996154 0 -0.22491155186100939 -0.049704497909201853 0 -0.21869208246426641 -0.066352693668996154 0 -0.21698663400710591 -0.084028607385841225 0 -0.19905887070123879 -0.059838853440102882 0 -0.21698663400710591 -0.084028607385841225 0 -0.1938149058316164 -0.086413202495928834 0 -0.19905887070123879 -0.059838853440102882 0 -0.21698663400710591 -0.084028607385841225 0 -0.1938149058316164 -0.086413202495928834 0 -0.21583504768621151 -0.1060013106655355 0 -0.1938149058316164 -0.086413202495928834 0 -0.19905887070123879 -0.059838853440102882 0 -0.1938149058316164 -0.086413202495928834 0 -0.1824050510066684 -0.056582316778129853 0 -0.19905887070123879 -0.059838853440102882 0 -0.20307706373205489 -0.13277766195646901 0 -0.2260079744994738 -0.12345371618590641 0 -0.21583504768621151 -0.1060013106655355 0 -0.1938149058316164 -0.086413202495928834 0 -0.188570940961994 -0.1129875515517548 0 -0.1938149058316164 -0.086413202495928834 0 -0.21583504768621151 -0.1060013106655355 0 -0.188570940961994 -0.1129875515517548 0 -0.20307706373205489 -0.13277766195646901 0 -0.21583504768621151 -0.1060013106655355 0 -0.188570940961994 -0.1129875515517548 0 -0.18332697609237161 -0.13956190060758089 0 -0.188570940961994 -0.1129875515517548 0 -0.16822579372194041 -0.1168612957012659 0 -0.16822579372194041 -0.1168612957012659 0 -0.1587882815826058 -0.098746661265709995 0 -0.1479959248878934 -0.1138519330714635 0 -0.15498626188956649 -0.12924712342220479 0 -0.16822579372194041 -0.1168612957012659 0 -0.1479959248878934 -0.1138519330714635 0 -0.16822579372194041 -0.1168612957012659 0 -0.1587882815826058 -0.098746661265709995 0 -0.1742641297859133 -0.090278564013042878 0 -0.188570940961994 -0.1129875515517548 0 -0.16822579372194041 -0.1168612957012659 0 -0.1742641297859133 -0.090278564013042878 0 -0.1938149058316164 -0.086413202495928834 0 -0.188570940961994 -0.1129875515517548 0 -0.1742641297859133 -0.090278564013042878 0 -0.1938149058316164 -0.086413202495928834 0 -0.1742641297859133 -0.090278564013042878 0 -0.16926732994550581 -0.067729322110310949 0 -0.1938149058316164 -0.086413202495928834 0 -0.16926732994550581 -0.067729322110310949 0 -0.1824050510066684 -0.056582316778129853 0 -0.16926732994550581 -0.067729322110310949 0 -0.14135461780337921 -0.07240065070957899 0 -0.16062244396004849 -0.051053744103655263 0 -0.1742641297859133 -0.090278564013042878 0 -0.16926732994550581 -0.067729322110310949 0 -0.1575661606487628 -0.084364550645921133 0 -0.1587882815826058 -0.098746661265709995 0 -0.1742641297859133 -0.090278564013042878 0 -0.1575661606487628 -0.084364550645921133 0 -0.1575661606487628 -0.084364550645921133 0 -0.14135461780337921 -0.07240065070957899 0 -0.14326277382604169 -0.095097906783546321 0 -0.1587882815826058 -0.098746661265709995 0 -0.1575661606487628 -0.084364550645921133 0 -0.14326277382604169 -0.095097906783546321 0 -0.16926732994550581 -0.067729322110310949 0 -0.1575661606487628 -0.084364550645921133 0 -0.14135461780337921 -0.07240065070957899 0 -0.11927365527774809 -0.072102537688625151 0 -0.14135461780337921 -0.07240065070957899 0 -0.12719417406685879 -0.088099831561234049 0 -0.11927365527774809 -0.072102537688625151 0 -0.14135461780337921 -0.07240065070957899 0 -0.1287538025499676 -0.059905888648773317 0 -0.14135461780337921 -0.07240065070957899 0 -0.12719417406685879 -0.088099831561234049 0 -0.14326277382604169 -0.095097906783546321 0 -0.12916694673430229 -0.1112056980795455 0 -0.1479959248878934 -0.1138519330714635 0 -0.14326277382604169 -0.095097906783546321 0 -0.12719417406685879 -0.088099831561234049 0 -0.12916694673430229 -0.1112056980795455 0 -0.14326277382604169 -0.095097906783546321 0 -0.1379492760777801 -0.13549148376482939 0 -0.12916694673430229 -0.1112056980795455 0 -0.1479959248878934 -0.1138519330714635 0 -0.1587882815826058 -0.098746661265709995 0 -0.1479959248878934 -0.1138519330714635 0 -0.14326277382604169 -0.095097906783546321 0 -0.1463706587593071 -0.030693040520333951 0 -0.14891271452870819 -0.0095562372045475789 0 -0.15759823415230861 -0.021322081004406971 0 -0.1463706587593071 -0.030693040520333951 0 -0.16376331821996681 -0.034583493821046932 0 -0.15759823415230861 -0.021322081004406971 0 -0.1463706587593071 -0.030693040520333951 0 -0.14891271452870819 -0.0095562372045475789 0 -0.1463706587593071 -0.030693040520333951 0 -0.14891271452870819 -0.0095562372045475789 0 -0.13200351843462571 -0.01104244609446591 0 -0.14891271452870819 -0.0095562372045475789 0 -0.13200351843462571 -0.01104244609446591 0 -0.13009559241693869 0.0053842442487262599 0 -0.114561435991735 -0.0060000272885384013 0 -0.13200351843462571 -0.01104244609446591 0 -0.13009559241693869 0.0053842442487262599 0 -0.1230833163580104 -0.02548404310881831 0 -0.1463706587593071 -0.030693040520333951 0 -0.1230833163580104 -0.02548404310881831 0 -0.1463706587593071 -0.030693040520333951 0 -0.13200351843462571 -0.01104244609446591 0 -0.1463706587593071 -0.030693040520333951 0 -0.1253513760030513 -0.04525160887547567 0 -0.14386263828134421 -0.051546845614956593 0 -0.1230833163580104 -0.02548404310881831 0 -0.1463706587593071 -0.030693040520333951 0 -0.1253513760030513 -0.04525160887547567 0 -0.14135461780337921 -0.07240065070957899 0 -0.1287538025499676 -0.059905888648773317 0 -0.14386263828134421 -0.051546845614956593 0 -0.1253513760030513 -0.04525160887547567 0 -0.1287538025499676 -0.059905888648773317 0 -0.14386263828134421 -0.051546845614956593 0 -0.14135461780337921 -0.07240065070957899 0 -0.14386263828134421 -0.051546845614956593 0 -0.16062244396004849 -0.051053744103655263 0 -0.14135461780337921 -0.07240065070957899 0 -0.14386263828134421 -0.051546845614956593 0 -0.1463706587593071 -0.030693040520333951 0 -0.14386263828134421 -0.051546845614956593 0 -0.16062244396004849 -0.051053744103655263 0 -0.1463706587593071 -0.030693040520333951 0 -0.16376331821996681 -0.034583493821046932 0 -0.1463706587593071 -0.030693040520333951 0 -0.14386263828134421 -0.051546845614956593 0 -0.16376331821996681 -0.034583493821046932 0 -0.16062244396004849 -0.051053744103655263 0 -0.18115597768062661 -0.038473947121759708 0 -0.1463706587593071 -0.030693040520333951 0 -0.16376331821996681 -0.034583493821046932 0 -0.16062244396004849 -0.051053744103655263 0 -0.16926732994550581 -0.067729322110310949 0 -0.16062244396004849 -0.051053744103655263 0 -0.1824050510066684 -0.056582316778129853 0 -0.16062244396004849 -0.051053744103655263 0 -0.1824050510066684 -0.056582316778129853 0 -0.18115597768062661 -0.038473947121759708 0 -0.16376331821996681 -0.034583493821046932 0 -0.18115597768062661 -0.038473947121759708 0 -0.17119754674861479 -0.023355749796797661 0 -0.16376331821996681 -0.034583493821046932 0 -0.18115597768062661 -0.038473947121759708 0 -0.18115597768062661 -0.038473947121759708 0 -0.18451253233110951 -0.01722436351644456 0 -0.17119754674861479 -0.023355749796797661 0 -0.16376331821996681 -0.034583493821046932 0 -0.17119754674861479 -0.023355749796797661 0 -0.15759823415230861 -0.021322081004406971 0 -0.17119754674861479 -0.023355749796797661 0 -0.15759823415230861 -0.021322081004406971 0 -0.16895767135906231 -0.0051748635203301419 0 -0.14891271452870819 -0.0095562372045475789 0 -0.15759823415230861 -0.021322081004406971 0 -0.16895767135906231 -0.0051748635203301419 0 -0.14891271452870819 -0.0095562372045475789 0 -0.16895767135906231 -0.0051748635203301419 0 -0.15145477029810669 0.01158056611123915 0 -0.18451253233110951 -0.01722436351644456 0 -0.16895767135906231 -0.0051748635203301419 0 -0.18286617783018069 0.001262403386312232 0 -0.18451253233110951 -0.01722436351644456 0 -0.17119754674861479 -0.023355749796797661 0 -0.16895767135906231 -0.0051748635203301419 0 -0.18451253233110951 -0.01722436351644456 0 -0.19606041588567269 -0.01069479096013763 0 -0.18286617783018069 0.001262403386312232 0 -0.19606041588567269 -0.01069479096013763 0 -0.18286617783018069 0.001262403386312232 0 -0.1990737332557283 0.002442665042172013 0 -0.19606041588567269 -0.01069479096013763 0 -0.20954680044048371 -0.0066901553284509146 0 -0.1990737332557283 0.002442665042172013 0 -0.18115597768062661 -0.038473947121759708 0 -0.18451253233110951 -0.01722436351644456 0 -0.20430283557086121 -0.033264504384276923 0 -0.18451253233110951 -0.01722436351644456 0 -0.19606041588567269 -0.01069479096013763 0 -0.20430283557086121 -0.033264504384276923 0 -0.19606041588567269 -0.01069479096013763 0 -0.20954680044048371 -0.0066901553284509146 0 -0.20430283557086121 -0.033264504384276923 0 -0.20954680044048371 -0.0066901553284509146 0 -0.20430283557086121 -0.033264504384276923 0 -0.22241121365762331 -0.02323524763910283 0 -0.20954680044048371 -0.0066901553284509146 0 -0.20430283557086121 -0.033264504384276923 0 -0.20954680044048371 -0.0066901553284509146 0 -0.22356412364306091 -0.0096965569505986712 0 -0.22241121365762331 -0.02323524763910283 0 -0.1824050510066684 -0.056582316778129853 0 -0.18115597768062661 -0.038473947121759708 0 -0.19905887070123879 -0.059838853440102882 0 -0.19905887070123879 -0.059838853440102882 0 -0.20430283557086121 -0.033264504384276923 0 -0.18115597768062661 -0.038473947121759708 0 -0.19905887070123879 -0.059838853440102882 0 -0.20430283557086121 -0.033264504384276923 0 -0.20430283557086121 -0.033264504384276923 0 -0.22491155186100939 -0.049704497909201853 0 -0.22241121365762331 -0.02323524763910283 0 -0.21869208246426641 -0.066352693668996154 0 -0.19905887070123879 -0.059838853440102882 0 -0.22491155186100939 -0.049704497909201853 0 -0.19905887070123879 -0.059838853440102882 0 -0.20430283557086121 -0.033264504384276923 0 -0.22491155186100939 -0.049704497909201853 0 -0.23381127328771159 -0.071838815940838713 0 -0.22491155186100939 -0.049704497909201853 0 -0.24365665774824791 -0.060841142212463228 0 -0.22491155186100939 -0.049704497909201853 0 -0.22241121365762331 -0.02323524763910283 0 -0.23652579569780219 -0.030296938754350189 0 -0.24497141921227589 -0.043069267113289018 0 -0.23652579569780219 -0.030296938754350189 0 -0.25146859795688781 -0.025188722714648872 0 -0.22491155186100939 -0.049704497909201853 0 -0.24497141921227589 -0.043069267113289018 0 -0.23652579569780219 -0.030296938754350189 0 -0.24497141921227589 -0.043069267113289018 0 -0.24365665774824791 -0.060841142212463228 0 -0.25488014887528632 -0.053042616176914102 0 -0.22491155186100939 -0.049704497909201853 0 -0.24497141921227589 -0.043069267113289018 0 -0.24365665774824791 -0.060841142212463228 0 -0.22356412364306091 -0.0096965569505986712 0 -0.22241121365762331 -0.02323524763910283 0 -0.23886619580121421 -0.010286958395508351 0 -0.20954680044048371 -0.0066901553284509146 0 -0.22356412364306091 -0.0096965569505986712 0 -0.2255503991944133 0.0020888331674113491 0 -0.23886619580121421 -0.010286958395508351 0 -0.2255503991944133 0.0020888331674113491 0 -0.2377124350523262 0.0061100338606466234 0 -0.22356412364306091 -0.0096965569505986712 0 -0.23886619580121421 -0.010286958395508351 0 -0.2255503991944133 0.0020888331674113491 0 -0.22241121365762331 -0.02323524763910283 0 -0.23652579569780219 -0.030296938754350189 0 -0.23886619580121421 -0.010286958395508351 0 -0.23652579569780219 -0.030296938754350189 0 -0.23886619580121421 -0.010286958395508351 0 -0.25146859795688781 -0.025188722714648872 0 -0.23886619580121421 -0.010286958395508351 0 -0.25520536285451778 -0.01000298185491753 0 -0.25075332901269842 0.0047790403482732462 0 -0.23886619580121421 -0.010286958395508351 0 -0.25520536285451778 -0.01000298185491753 0 -0.25146859795688781 -0.025188722714648872 0 -0.25520536285451778 -0.01000298185491753 0 -0.25075332901269842 0.0047790403482732462 0 -0.26564731940149422 0.0043171157572882424 0 -0.25520536285451778 -0.01000298185491753 0 -0.26846907622311778 -0.024513616324490811 0 -0.26564731940149422 0.0043171157572882424 0 -0.25520536285451778 -0.01000298185491753 0 -0.25146859795688781 -0.025188722714648872 0 -0.26846907622311778 -0.024513616324490811 0 -0.25146859795688781 -0.025188722714648872 0 -0.26846907622311778 -0.024513616324490811 0 -0.25886801122680259 -0.04164374923959966 0 -0.26846907622311778 -0.024513616324490811 0 -0.27848954474479809 -0.013226849837956099 0 -0.28602796083779097 -0.01971967042757803 0 -0.26846907622311778 -0.024513616324490811 0 -0.28602796083779097 -0.01971967042757803 0 -0.28039613371063049 -0.038719247919030822 0 -0.26846907622311778 -0.024513616324490811 0 -0.26564731940149422 0.0043171157572882424 0 -0.26846907622311778 -0.024513616324490811 0 -0.27443630604083252 -0.0066936652041320963 0 -0.26564731940149422 0.0043171157572882424 0 -0.26846907622311778 -0.024513616324490811 0 -0.27848954474479809 -0.013226849837956099 0 -0.27443630604083252 -0.0066936652041320963 0 -0.27443630604083252 -0.0066936652041320963 0 -0.27488127168742982 0.001551832112778464 0 -0.26564731940149422 0.0043171157572882424 0 -0.27848954474479809 -0.013226849837956099 0 -0.27443630604083252 -0.0066936652041320963 0 -0.28535245334497211 -0.0053266973477172214 0 -0.27443630604083252 -0.0066936652041320963 0 -0.28535245334497211 -0.0053266973477172214 0 -0.27488127168742982 0.001551832112778464 0 -0.29233995264197948 -0.00092886864409157111 0 -0.28535245334497211 -0.0053266973477172214 0 -0.28602796083779097 -0.01971967042757803 0 -0.29233995264197948 -0.00092886864409157111 0 -0.28602796083779097 -0.01971967042757803 0 -0.30745431406176732 -0.021616502536680449 0 -0.27848954474479809 -0.013226849837956099 0 -0.28535245334497211 -0.0053266973477172214 0 -0.28602796083779097 -0.01971967042757803 0 -0.28602796083779097 -0.01971967042757803 0 -0.30745431406176732 -0.021616502536680449 0 -0.29311721174424699 -0.036654649602294698 0 -0.30992500140097801 -0.026227848412065081 0 -0.30745431406176732 -0.021616502536680449 0 -0.30515836524771578 -0.043087537967900207 0 -0.30992500140097801 -0.026227848412065081 0 -0.30745431406176732 -0.021616502536680449 0 -0.29233995264197948 -0.00092886864409157111 0 -0.30745431406176732 -0.021616502536680449 0 -0.30745431406176732 -0.021616502536680449 0 -0.29544297196431413 0.00080173386250895207 0 -0.29233995264197948 -0.00092886864409157111 0 -0.30745431406176732 -0.021616502536680449 0 -0.29544297196431413 0.00080173386250895207 0 -0.30745431406176732 -0.021616502536680449 0 -0.31213629311396712 -0.0038169638218248851 0 -0.29544297196431413 0.00080173386250895207 0 -0.30811692606174268 -0.058631071187712089 0 -0.30515836524771578 -0.043087537967900207 0 -0.29661247043832373 -0.052587182299261362 0 -0.30811692606174268 -0.058631071187712089 0 -0.29661247043832373 -0.052587182299261362 0 -0.29916227347289742 -0.063834461734258968 0 -0.30811692606174268 -0.058631071187712089 0 -0.30515836524771578 -0.043087537967900207 0 -0.32049090393249963 -0.045948284213551648 0 -0.30992500140097801 -0.026227848412065081 0 -0.30515836524771578 -0.043087537967900207 0 -0.32049090393249963 -0.045948284213551648 0 -0.30745431406176732 -0.021616502536680449 0 -0.30515836524771578 -0.043087537967900207 0 -0.29311721174424699 -0.036654649602294698 0 -0.30515836524771578 -0.043087537967900207 0 -0.29311721174424699 -0.036654649602294698 0 -0.29661247043832373 -0.052587182299261362 0 -0.28602796083779097 -0.01971967042757803 0 -0.29311721174424699 -0.036654649602294698 0 -0.28039613371063049 -0.038719247919030822 0 -0.29311721174424699 -0.036654649602294698 0 -0.28619308277207473 -0.046461260731061028 0 -0.29661247043832373 -0.052587182299261362 0 -0.29311721174424699 -0.036654649602294698 0 -0.28619308277207473 -0.046461260731061028 0 -0.28039613371063049 -0.038719247919030822 0 -0.28619308277207473 -0.046461260731061028 0 -0.27941793261387959 -0.050178917460315178 0 -0.28039613371063049 -0.038719247919030822 0 -0.28619308277207473 -0.046461260731061028 0 -0.28468328655441011 -0.055158041027548427 0 -0.27941793261387959 -0.050178917460315178 0 -0.28619308277207473 -0.046461260731061028 0 -0.29661247043832373 -0.052587182299261362 0 -0.28468328655441011 -0.055158041027548427 0 -0.29661247043832373 -0.052587182299261362 0 -0.28468328655441011 -0.055158041027548427 0 -0.28933232692336669 -0.064444116404534901 0 -0.29661247043832373 -0.052587182299261362 0 -0.28933232692336669 -0.064444116404534901 0 -0.29916227347289742 -0.063834461734258968 0 -0.28468328655441011 -0.055158041027548427 0 -0.27452632698754131 -0.057211689217665673 0 -0.28933232692336669 -0.064444116404534901 0 -0.27129083304474161 -0.053344348406269948 0 -0.26215069299845778 -0.060671225291305038 0 -0.26451041262760472 -0.069953313210045776 0 -0.27941793261387959 -0.050178917460315178 0 -0.27129083304474161 -0.053344348406269948 0 -0.28039613371063049 -0.038719247919030822 0 -0.27452632698754131 -0.057211689217665673 0 -0.27941793261387959 -0.050178917460315178 0 -0.27129083304474161 -0.053344348406269948 0 -0.28468328655441011 -0.055158041027548427 0 -0.27452632698754131 -0.057211689217665673 0 -0.27941793261387959 -0.050178917460315178 0 -0.26846907622311778 -0.024513616324490811 0 -0.27129083304474161 -0.053344348406269948 0 -0.28039613371063049 -0.038719247919030822 0 -0.26846907622311778 -0.024513616324490811 0 -0.27129083304474161 -0.053344348406269948 0 -0.26846907622311778 -0.024513616324490811 0 -0.27129083304474161 -0.053344348406269948 0 -0.25886801122680259 -0.04164374923959966 0 -0.24497141921227589 -0.043069267113289018 0 -0.25146859795688781 -0.025188722714648872 0 -0.25886801122680259 -0.04164374923959966 0 -0.24497141921227589 -0.043069267113289018 0 -0.25886801122680259 -0.04164374923959966 0 -0.25488014887528632 -0.053042616176914102 0 -0.24365665774824791 -0.060841142212463228 0 -0.25488014887528632 -0.053042616176914102 0 -0.2560353303610754 -0.069070050569703251 0 -0.26215069299845778 -0.060671225291305038 0 -0.25488014887528632 -0.053042616176914102 0 -0.2560353303610754 -0.069070050569703251 0 -0.26215069299845778 -0.060671225291305038 0 -0.26130569617133032 -0.051582156756484122 0 -0.25488014887528632 -0.053042616176914102 0 -0.27129083304474161 -0.053344348406269948 0 -0.26215069299845778 -0.060671225291305038 0 -0.26130569617133032 -0.051582156756484122 0 -0.27129083304474161 -0.053344348406269948 0 -0.25886801122680259 -0.04164374923959966 0 -0.26130569617133032 -0.051582156756484122 0 -0.25886801122680259 -0.04164374923959966 0 -0.26130569617133032 -0.051582156756484122 0 -0.25488014887528632 -0.053042616176914102 0 -0.26215069299845778 -0.060671225291305038 0 -0.2560353303610754 -0.069070050569703251 0 -0.26451041262760472 -0.069953313210045776 0 -0.2560353303610754 -0.069070050569703251 0 -0.26451041262760472 -0.069953313210045776 0 -0.25896261686738392 -0.084505861294901521 0 -0.24733022289212911 -0.078321605564832489 0 -0.2560353303610754 -0.069070050569703251 0 -0.25896261686738392 -0.084505861294901521 0 -0.24733022289212911 -0.078321605564832489 0 -0.25896261686738392 -0.084505861294901521 0 -0.25092039164605001 -0.095239455525776298 0 -0.25896261686738392 -0.084505861294901521 0 -0.25092039164605001 -0.095239455525776298 0 -0.26390332659696991 -0.097119900494967437 0 -0.26451041262760472 -0.069953313210045776 0 -0.25896261686738392 -0.084505861294901521 0 -0.27411258986636522 -0.082175080488049126 0 -0.25896261686738392 -0.084505861294901521 0 -0.27411258986636522 -0.082175080488049126 0 -0.26390332659696991 -0.097119900494967437 0 -0.27411258986636522 -0.082175080488049126 0 -0.28292839722948998 -0.09570846085908169 0 -0.28564821629126508 -0.080505030636404365 0 -0.27129083304474161 -0.053344348406269948 0 -0.27411258986636522 -0.082175080488049126 0 -0.27129083304474161 -0.053344348406269948 0 -0.26451041262760472 -0.069953313210045776 0 -0.27411258986636522 -0.082175080488049126 0 -0.27452632698754131 -0.057211689217665673 0 -0.27129083304474161 -0.053344348406269948 0 -0.27411258986636522 -0.082175080488049126 0 -0.27452632698754131 -0.057211689217665673 0 -0.27411258986636522 -0.082175080488049126 0 -0.28564821629126508 -0.080505030636404365 0 -0.27452632698754131 -0.057211689217665673 0 -0.28564821629126508 -0.080505030636404365 0 -0.25599824831270229 -0.1121149393752142 0 -0.27693434668798889 -0.11100581256982819 0 -0.2592637220637426 -0.13157490815480491 0 -0.2439295925774595 -0.12755873159819611 0 -0.25599824831270229 -0.1121149393752142 0 -0.2592637220637426 -0.13157490815480491 0 -0.25599824831270229 -0.1121149393752142 0 -0.26390332659696991 -0.097119900494967437 0 -0.27693434668798889 -0.11100581256982819 0 -0.25599824831270229 -0.1121149393752142 0 -0.25092039164605001 -0.095239455525776298 0 -0.26390332659696991 -0.097119900494967437 0 -0.27411258986636522 -0.082175080488049126 0 -0.26390332659696991 -0.097119900494967437 0 -0.27693434668798889 -0.11100581256982819 0 -0.27411258986636522 -0.082175080488049126 0 -0.27693434668798889 -0.11100581256982819 0 -0.28292839722948998 -0.09570846085908169 0 -0.27411258986636522 -0.082175080488049126 0 -0.27693434668798889 -0.11100581256982819 0 -0.27693434668798889 -0.11100581256982819 0 -0.29097139769576108 -0.1204923134697943 0 -0.27975610350961261 -0.1398365446516073 0 -0.27693434668798889 -0.11100581256982819 0 -0.29097139769576108 -0.1204923134697943 0 -0.29677010559498879 -0.103798372055143 0 -0.27693434668798889 -0.11100581256982819 0 -0.29677010559498879 -0.103798372055143 0 -0.28292839722948998 -0.09570846085908169 0 -0.29677010559498879 -0.103798372055143 0 -0.31236496458164098 -0.1104823614596393 0 -0.32020621934220289 -0.09628862154424403 0 -0.29677010559498879 -0.103798372055143 0 -0.299212929827399 -0.088330135777175134 0 -0.32020621934220289 -0.09628862154424403 0 -0.29677010559498879 -0.103798372055143 0 -0.3078919948987125 -0.12709171347388151 0 -0.29677010559498879 -0.103798372055143 0 -0.31236496458164098 -0.1104823614596393 0 -0.3078919948987125 -0.12709171347388151 0 -0.29097139769576108 -0.1204923134697943 0 -0.29677010559498879 -0.103798372055143 0 -0.3078919948987125 -0.12709171347388151 0 -0.29377867990409517 -0.073835389094359077 0 -0.28933232692336669 -0.064444116404534901 0 -0.28564821629126508 -0.080505030636404365 0 -0.27452632698754131 -0.057211689217665673 0 -0.28933232692336669 -0.064444116404534901 0 -0.28564821629126508 -0.080505030636404365 0 -0.29377867990409517 -0.073835389094359077 0 -0.28933232692336669 -0.064444116404534901 0 -0.29916227347289742 -0.063834461734258968 0 -0.29677010559498879 -0.103798372055143 0 -0.28292839722948998 -0.09570846085908169 0 -0.28564821629126508 -0.080505030636404365 0 -0.29677010559498879 -0.103798372055143 0 -0.28564821629126508 -0.080505030636404365 0 -0.29677010559498879 -0.103798372055143 0 -0.28564821629126508 -0.080505030636404365 0 -0.299212929827399 -0.088330135777175134 0 -0.29377867990409517 -0.073835389094359077 0 -0.28564821629126508 -0.080505030636404365 0 -0.299212929827399 -0.088330135777175134 0 -0.299212929827399 -0.088330135777175134 0 -0.31334114092320131 -0.082378584772675845 0 -0.32020621934220289 -0.09628862154424403 0 -0.29377867990409517 -0.073835389094359077 0 -0.299212929827399 -0.088330135777175134 0 -0.30328583469053988 -0.073209118292981296 0 -0.299212929827399 -0.088330135777175134 0 -0.30328583469053988 -0.073209118292981296 0 -0.31334114092320131 -0.082378584772675845 0 -0.30328583469053988 -0.073209118292981296 0 -0.31840666424688557 -0.071744592091702586 0 -0.30328583469053988 -0.073209118292981296 0 -0.31840666424688557 -0.071744592091702586 0 -0.31334114092320131 -0.082378584772675845 0 -0.29377867990409517 -0.073835389094359077 0 -0.30328583469053988 -0.073209118292981296 0 -0.29916227347289742 -0.063834461734258968 0 -0.30811692606174268 -0.058631071187712089 0 -0.30328583469053988 -0.073209118292981296 0 -0.29916227347289742 -0.063834461734258968 0 -0.30811692606174268 -0.058631071187712089 0 -0.30328583469053988 -0.073209118292981296 0 -0.31840666424688557 -0.071744592091702586 0 -0.31840666424688557 -0.071744592091702586 0 -0.33352749380323132 -0.070280065890423002 0 -0.32049090393249963 -0.045948284213551648 0 -0.31840666424688557 -0.071744592091702586 0 -0.3255940565089791 -0.082320456157276178 0 -0.33352749380323132 -0.070280065890423002 0 -0.31840666424688557 -0.071744592091702586 0 -0.33352749380323132 -0.070280065890423002 0 -0.31840666424688557 -0.071744592091702586 0 -0.31334114092320131 -0.082378584772675845 0 -0.3255940565089791 -0.082320456157276178 0 -0.31334114092320131 -0.082378584772675845 0 -0.3255940565089791 -0.082320456157276178 0 -0.32020621934220289 -0.09628862154424403 0 -0.3255940565089791 -0.082320456157276178 0 -0.33352749380323132 -0.070280065890423002 0 -0.34390187304614428 -0.089643038360565058 0 -0.3255940565089791 -0.082320456157276178 0 -0.32020621934220289 -0.09628862154424403 0 -0.34390187304614428 -0.089643038360565058 0 -0.33352749380323132 -0.070280065890423002 0 -0.34390187304614428 -0.089643038360565058 0 -0.329291697126949 -0.1105540228248495 0 -0.3078919948987125 -0.12709171347388151 0 -0.33752239199747469 -0.13044317007189821 0 -0.31236496458164098 -0.1104823614596393 0 -0.329291697126949 -0.1105540228248495 0 -0.3078919948987125 -0.12709171347388151 0 -0.31236496458164098 -0.1104823614596393 0 -0.32020621934220289 -0.09628862154424403 0 -0.329291697126949 -0.1105540228248495 0 -0.329291697126949 -0.1105540228248495 0 -0.35427625228905518 -0.1090060108307082 0 -0.34390187304614428 -0.089643038360565058 0 -0.32020621934220289 -0.09628862154424403 0 -0.329291697126949 -0.1105540228248495 0 -0.34390187304614428 -0.089643038360565058 0 -0.329291697126949 -0.1105540228248495 0 -0.35427625228905518 -0.1090060108307082 0 -0.33752239199747469 -0.13044317007189821 0 -0.35427625228905518 -0.1090060108307082 0 -0.33752239199747469 -0.13044317007189821 0 -0.36465063153196609 -0.12836898330085131 0 -0.35427625228905518 -0.1090060108307082 0 -0.34390187304614428 -0.089643038360565058 0 -0.36185638408149379 -0.092483992519886996 0 -0.35427625228905518 -0.1090060108307082 0 -0.34390187304614428 -0.089643038360565058 0 -0.35427625228905518 -0.1090060108307082 0 -0.36994494559094299 -0.1077222306804676 0 -0.36185638408149379 -0.092483992519886996 0 -0.36994494559094299 -0.1077222306804676 0 -0.36185638408149379 -0.092483992519886996 0 -0.38295365373102869 -0.092039925678157039 0 -0.35427625228905518 -0.1090060108307082 0 -0.36465063153196609 -0.12836898330085131 0 -0.35427625228905518 -0.1090060108307082 0 -0.36994494559094299 -0.1077222306804676 0 -0.36465063153196609 -0.12836898330085131 0 -0.36994494559094299 -0.1077222306804676 0 -0.36465063153196609 -0.12836898330085131 0 -0.38439806408174548 -0.1169164602816561 0 -0.33352749380323132 -0.070280065890423002 0 -0.36046594129290138 -0.067670945668323629 0 -0.33352749380323132 -0.070280065890423002 0 -0.34390187304614428 -0.089643038360565058 0 -0.36046594129290138 -0.067670945668323629 0 -0.34390187304614428 -0.089643038360565058 0 -0.36185638408149379 -0.092483992519886996 0 -0.36046594129290138 -0.067670945668323629 0 -0.36185638408149379 -0.092483992519886996 0 -0.36046594129290138 -0.067670945668323629 0 -0.38295365373102869 -0.092039925678157039 0 -0.36046594129290138 -0.067670945668323629 0 -0.38740438878257138 -0.065061825446223409 0 -0.36046594129290138 -0.067670945668323629 0 -0.36133700361146243 -0.042916543946343332 0 -0.37594184122880558 -0.051712238582551633 0 -0.36046594129290138 -0.067670945668323629 0 -0.37594184122880558 -0.051712238582551633 0 -0.38740438878257138 -0.065061825446223409 0 -0.36046594129290138 -0.067670945668323629 0 -0.36133700361146243 -0.042916543946343332 0 -0.34334470993095512 -0.046138746102454838 0 -0.33352749380323132 -0.070280065890423002 0 -0.36046594129290138 -0.067670945668323629 0 -0.34334470993095512 -0.046138746102454838 0 -0.36133700361146243 -0.042916543946343332 0 -0.3630092987838166 -0.0279530414761665 0 -0.34960650708112678 -0.02585811523726109 0 -0.36133700361146243 -0.042916543946343332 0 -0.34960650708112678 -0.02585811523726109 0 -0.34334470993095512 -0.046138746102454838 0 -0.36133700361146243 -0.042916543946343332 0 -0.3630092987838166 -0.0279530414761665 0 -0.37584973772876451 -0.040034018232354897 0 -0.36133700361146243 -0.042916543946343332 0 -0.37584973772876451 -0.040034018232354897 0 -0.37594184122880558 -0.051712238582551633 0 -0.37340764195264292 -0.017469120345656598 0 -0.3630092987838166 -0.0279530414761665 0 -0.3504401279705151 -0.0084957894202337958 0 -0.37340764195264292 -0.017469120345656598 0 -0.3504401279705151 -0.0084957894202337958 0 -0.37340764195264292 -0.017469120345656598 0 -0.36736441996151942 -0.0023821458770326952 0 -0.3504401279705151 -0.0084957894202337958 0 -0.3630092987838166 -0.0279530414761665 0 -0.3504401279705151 -0.0084957894202337958 0 -0.34960650708112678 -0.02585811523726109 0 -0.3504401279705151 -0.0084957894202337958 0 -0.34960650708112678 -0.02585811523726109 0 -0.33533594453681742 -0.02757565770788907 0 -0.3504401279705151 -0.0084957894202337958 0 -0.33533594453681742 -0.02757565770788907 0 -0.32174382805283669 -0.014447702661969869 0 -0.3504401279705151 -0.0084957894202337958 0 -0.32747261398838751 0.00047754150518899968 0 -0.3504401279705151 -0.0084957894202337958 0 -0.32174382805283669 -0.014447702661969869 0 -0.32747261398838751 0.00047754150518899968 0 -0.30745431406176732 -0.021616502536680449 0 -0.31213629311396712 -0.0038169638218248851 0 -0.32174382805283669 -0.014447702661969869 0 -0.31213629311396712 -0.0038169638218248851 0 -0.32174382805283669 -0.014447702661969869 0 -0.32747261398838751 0.00047754150518899968 0 -0.33533594453681742 -0.02757565770788907 0 -0.32174382805283669 -0.014447702661969869 0 -0.32256303534981151 -0.026424385301720522 0 -0.30992500140097801 -0.026227848412065081 0 -0.30745431406176732 -0.021616502536680449 0 -0.32174382805283669 -0.014447702661969869 0 -0.30992500140097801 -0.026227848412065081 0 -0.32174382805283669 -0.014447702661969869 0 -0.32256303534981151 -0.026424385301720522 0 -0.30992500140097801 -0.026227848412065081 0 -0.32049090393249963 -0.045948284213551648 0 -0.30992500140097801 -0.026227848412065081 0 -0.32256303534981151 -0.026424385301720522 0 -0.32049090393249963 -0.045948284213551648 0 -0.33533594453681742 -0.02757565770788907 0 -0.32256303534981151 -0.026424385301720522 0 -0.32049090393249963 -0.045948284213551648 0 -0.30811692606174268 -0.058631071187712089 0 -0.31840666424688557 -0.071744592091702586 0 -0.32049090393249963 -0.045948284213551648 0 -0.33352749380323132 -0.070280065890423002 0 -0.32049090393249963 -0.045948284213551648 0 -0.33352749380323132 -0.070280065890423002 0 -0.32049090393249963 -0.045948284213551648 0 -0.34334470993095512 -0.046138746102454838 0 -0.34960650708112678 -0.02585811523726109 0 -0.33533594453681742 -0.02757565770788907 0 -0.34334470993095512 -0.046138746102454838 0 -0.33533594453681742 -0.02757565770788907 0 -0.32049090393249963 -0.045948284213551648 0 -0.34334470993095512 -0.046138746102454838 0 -0.28736263086272829 -0.25412544351281069 0 -0.30640174470545362 -0.23890869256144279 0 -0.28786719209712369 -0.22270995888988671 0 -0.30640174470545362 -0.23890869256144279 0 -0.30636433679448022 -0.2193100748035284 0 -0.32066411660280503 -0.22676990401021679 0 -0.30640174470545362 -0.23890869256144279 0 -0.30636433679448022 -0.2193100748035284 0 -0.28786719209712369 -0.22270995888988671 0 -0.28736263086272829 -0.25412544351281069 0 -0.28786719209712369 -0.22270995888988671 0 -0.26781619734459711 -0.2349998174638947 0 -0.25771553715869983 -0.26367618489616662 0 -0.24276391703666961 -0.24073967138033711 0 -0.26781619734459711 -0.2349998174638947 0 -0.24276391703666961 -0.24073967138033711 0 -0.26781619734459711 -0.2349998174638947 0 -0.25474132154575801 -0.2165904518333831 0 -0.26781619734459711 -0.2349998174638947 0 -0.27281798669881668 -0.21145614340457061 0 -0.25474132154575801 -0.2165904518333831 0 -0.28786719209712369 -0.22270995888988671 0 -0.26781619734459711 -0.2349998174638947 0 -0.27281798669881668 -0.21145614340457061 0 -0.27281798669881668 -0.21145614340457061 0 -0.25474132154575801 -0.2165904518333831 0 -0.26352697703228739 -0.191106039319587 0 -0.2463502863137258 -0.20112514046812691 0 -0.25474132154575801 -0.2165904518333831 0 -0.26352697703228739 -0.191106039319587 0 -0.2463502863137258 -0.20112514046812691 0 -0.24165433691171809 -0.1847140698240072 0 -0.26352697703228739 -0.191106039319587 0 -0.24165433691171809 -0.1847140698240072 0 -0.26352697703228739 -0.191106039319587 0 -0.27281798669881668 -0.21145614340457061 0 -0.26352697703228739 -0.191106039319587 0 -0.285399617152857 -0.1974980088151658 0 -0.26352697703228739 -0.191106039319587 0 -0.285399617152857 -0.1974980088151658 0 -0.285399617152857 -0.1974980088151658 0 -0.29929709906347929 -0.20155935120220381 0 -0.29779645156838619 -0.1866884019744639 0 -0.285399617152857 -0.1974980088151658 0 -0.29929709906347929 -0.20155935120220381 0 -0.28786719209712369 -0.22270995888988671 0 -0.27281798669881668 -0.21145614340457061 0 -0.285399617152857 -0.1974980088151658 0 -0.28786719209712369 -0.22270995888988671 0 -0.285399617152857 -0.1974980088151658 0 -0.28786719209712369 -0.22270995888988671 0 -0.285399617152857 -0.1974980088151658 0 -0.29929709906347929 -0.20155935120220381 0 -0.30636433679448022 -0.2193100748035284 0 -0.29929709906347929 -0.20155935120220381 0 -0.31759153150353908 -0.20660246735389221 0 -0.30636433679448022 -0.2193100748035284 0 -0.28786719209712369 -0.22270995888988671 0 -0.29929709906347929 -0.20155935120220381 0 -0.31053660842418029 -0.19165262191175109 0 -0.29929709906347929 -0.20155935120220381 0 -0.31759153150353908 -0.20660246735389221 0 -0.31053660842418029 -0.19165262191175109 0 -0.29929709906347929 -0.20155935120220381 0 -0.29779645156838619 -0.1866884019744639 0 -0.31053660842418029 -0.19165262191175109 0 -0.30928831076524532 -0.1737136025456533 0 -0.29779645156838619 -0.1866884019744639 0 -0.30928831076524532 -0.1737136025456533 0 -0.29855405451664552 -0.15229577624445109 0 -0.3190138842024362 -0.15038505489262011 0 -0.30928831076524532 -0.1737136025456533 0 -0.28257786033123622 -0.16866727673338641 0 -0.29855405451664552 -0.15229577624445109 0 -0.285399617152857 -0.1974980088151658 0 -0.29779645156838619 -0.1866884019744639 0 -0.28257786033123622 -0.16866727673338641 0 -0.30928831076524532 -0.1737136025456533 0 -0.29779645156838619 -0.1866884019744639 0 -0.28257786033123622 -0.16866727673338641 0 -0.285399617152857 -0.1974980088151658 0 -0.28257786033123622 -0.16866727673338641 0 -0.26352697703228739 -0.191106039319587 0 -0.28257786033123622 -0.16866727673338641 0 -0.25617378633809668 -0.17328260692364991 0 -0.26352697703228739 -0.191106039319587 0 -0.285399617152857 -0.1974980088151658 0 -0.28257786033123622 -0.16866727673338641 0 -0.24165433691171809 -0.1847140698240072 0 -0.26352697703228739 -0.191106039319587 0 -0.25617378633809668 -0.17328260692364991 0 -0.28257786033123622 -0.16866727673338641 0 -0.25617378633809668 -0.17328260692364991 0 -0.25767621022610998 -0.15435984608172709 0 -0.28257786033123622 -0.16866727673338641 0 -0.27975610350961261 -0.1398365446516073 0 -0.28257786033123622 -0.16866727673338641 0 -0.25767621022610998 -0.15435984608172709 0 -0.27975610350961261 -0.1398365446516073 0 -0.25767621022610998 -0.15435984608172709 0 -0.2592637220637426 -0.13157490815480491 0 -0.27975610350961261 -0.1398365446516073 0 -0.24128783106858251 -0.1445735746522569 0 -0.25767621022610998 -0.15435984608172709 0 -0.2592637220637426 -0.13157490815480491 0 -0.27693434668798889 -0.11100581256982819 0 -0.27975610350961261 -0.1398365446516073 0 -0.27693434668798889 -0.11100581256982819 0 -0.2592637220637426 -0.13157490815480491 0 -0.27975610350961261 -0.1398365446516073 0 -0.29097139769576108 -0.1204923134697943 0 -0.27975610350961261 -0.1398365446516073 0 -0.3078919948987125 -0.12709171347388151 0 -0.27975610350961261 -0.1398365446516073 0 -0.29855405451664552 -0.15229577624445109 0 -0.3078919948987125 -0.12709171347388151 0 -0.28257786033123622 -0.16866727673338641 0 -0.27975610350961261 -0.1398365446516073 0 -0.29855405451664552 -0.15229577624445109 0 -0.29855405451664552 -0.15229577624445109 0 -0.3078919948987125 -0.12709171347388151 0 -0.3190138842024362 -0.15038505489262011 0 -0.3078919948987125 -0.12709171347388151 0 -0.3190138842024362 -0.15038505489262011 0 -0.3078919948987125 -0.12709171347388151 0 -0.3190138842024362 -0.15038505489262011 0 -0.33752239199747469 -0.13044317007189821 0 -0.3190138842024362 -0.15038505489262011 0 -0.33752239199747469 -0.13044317007189821 0 -0.34498465022384422 -0.15021612177778121 0 -0.33752239199747469 -0.13044317007189821 0 -0.36465063153196609 -0.12836898330085131 0 -0.34498465022384422 -0.15021612177778121 0 -0.36465063153196609 -0.12836898330085131 0 -0.37674141470804562 -0.14478110347879211 0 -0.38075465999804547 -0.1333855659272907 0 -0.36478498193590519 -0.15164621107208889 0 -0.38135058805225758 -0.16422105920828789 0 -0.37674141470804562 -0.14478110347879211 0 -0.36465063153196609 -0.12836898330085131 0 -0.36478498193590519 -0.15164621107208889 0 -0.37674141470804562 -0.14478110347879211 0 -0.36465063153196609 -0.12836898330085131 0 -0.36478498193590519 -0.15164621107208889 0 -0.34498465022384422 -0.15021612177778121 0 -0.34498465022384422 -0.15021612177778121 0 -0.35495352676577652 -0.1696327812119284 0 -0.3316526947594497 -0.16901396074811631 0 -0.36478498193590519 -0.15164621107208889 0 -0.34498465022384422 -0.15021612177778121 0 -0.35495352676577652 -0.1696327812119284 0 -0.36478498193590519 -0.15164621107208889 0 -0.35495352676577652 -0.1696327812119284 0 -0.38135058805225758 -0.16422105920828789 0 -0.35495352676577652 -0.1696327812119284 0 -0.3723488806076703 -0.1828684397729749 0 -0.35188681435834152 -0.19418919799599821 0 -0.35495352676577652 -0.1696327812119284 0 -0.3723488806076703 -0.1828684397729749 0 -0.38135058805225758 -0.16422105920828789 0 -0.35495352676577652 -0.1696327812119284 0 -0.34202578725676142 -0.18072228077621341 0 -0.35188681435834152 -0.19418919799599821 0 -0.35495352676577652 -0.1696327812119284 0 -0.34202578725676142 -0.18072228077621341 0 -0.3316526947594497 -0.16901396074811631 0 -0.34202578725676142 -0.18072228077621341 0 -0.3316526947594497 -0.16901396074811631 0 -0.3287096492202512 -0.18969928648254211 0 -0.3190138842024362 -0.15038505489262011 0 -0.34498465022384422 -0.15021612177778121 0 -0.3316526947594497 -0.16901396074811631 0 -0.30928831076524532 -0.1737136025456533 0 -0.3190138842024362 -0.15038505489262011 0 -0.3316526947594497 -0.16901396074811631 0 -0.30928831076524532 -0.1737136025456533 0 -0.3316526947594497 -0.16901396074811631 0 -0.3287096492202512 -0.18969928648254211 0 -0.31053660842418029 -0.19165262191175109 0 -0.30928831076524532 -0.1737136025456533 0 -0.3287096492202512 -0.18969928648254211 0 -0.31759153150353908 -0.20660246735389221 0 -0.33592380149856299 -0.20827548863026679 0 -0.3287096492202512 -0.18969928648254211 0 -0.31053660842418029 -0.19165262191175109 0 -0.31759153150353908 -0.20660246735389221 0 -0.3287096492202512 -0.18969928648254211 0 -0.30636433679448022 -0.2193100748035284 0 -0.31759153150353908 -0.20660246735389221 0 -0.32066411660280503 -0.22676990401021679 0 -0.31759153150353908 -0.20660246735389221 0 -0.33592380149856299 -0.20827548863026679 0 -0.32066411660280503 -0.22676990401021679 0 -0.33592380149856299 -0.20827548863026679 0 -0.35501786477646041 -0.21398564447736609 0 -0.33971024097470071 -0.22738833159023261 0 -0.34202578725676142 -0.18072228077621341 0 -0.3287096492202512 -0.18969928648254211 0 -0.35188681435834152 -0.19418919799599821 0 -0.33592380149856299 -0.20827548863026679 0 -0.3287096492202512 -0.18969928648254211 0 -0.35188681435834152 -0.19418919799599821 0 -0.35188681435834152 -0.19418919799599821 0 -0.3690447586213812 -0.2006764539212969 0 -0.35501786477646041 -0.21398564447736609 0 -0.3723488806076703 -0.1828684397729749 0 -0.35188681435834152 -0.19418919799599821 0 -0.3690447586213812 -0.2006764539212969 0 -0.3690447586213812 -0.2006764539212969 0 -0.35501786477646041 -0.21398564447736609 0 -0.37867389018666509 -0.21838228151597289 0 -0.33592380149856299 -0.20827548863026679 0 -0.35188681435834152 -0.19418919799599821 0 -0.35501786477646041 -0.21398564447736609 0 -0.35501786477646041 -0.21398564447736609 0 -0.36036182130838129 -0.23337753817041521 0 -0.33971024097470071 -0.22738833159023261 0 -0.36036182130838129 -0.23337753817041521 0 -0.3783366107969115 -0.24065819538696351 0 -0.37867389018666509 -0.21838228151597289 0 -0.35501786477646041 -0.21398564447736609 0 -0.36036182130838129 -0.23337753817041521 0 -0.37867389018666509 -0.21838228151597289 0 -0.36317355787862798 -0.25226458865137968 0 -0.36036182130838129 -0.23337753817041521 0 -0.3783366107969115 -0.24065819538696351 0 -0.36036182130838129 -0.23337753817041521 0 -0.34462164936043937 -0.24399584175618619 0 -0.33971024097470071 -0.22738833159023261 0 -0.36317355787862798 -0.25226458865137968 0 -0.36036182130838129 -0.23337753817041521 0 -0.34462164936043937 -0.24399584175618619 0 -0.34462164936043937 -0.24399584175618619 0 -0.33971024097470071 -0.22738833159023261 0 -0.32670296132123322 -0.2431470757685274 0 -0.33753352001786852 -0.26071015104661871 0 -0.34462164936043937 -0.24399584175618619 0 -0.32670296132123322 -0.2431470757685274 0 -0.33971024097470071 -0.22738833159023261 0 -0.32066411660280503 -0.22676990401021679 0 -0.32670296132123322 -0.2431470757685274 0 -0.33592380149856299 -0.20827548863026679 0 -0.33971024097470071 -0.22738833159023261 0 -0.32066411660280503 -0.22676990401021679 0 -0.30640174470545362 -0.23890869256144279 0 -0.32066411660280503 -0.22676990401021679 0 -0.32670296132123322 -0.2431470757685274 0 -0.31338265002433102 -0.26328516000962687 0 -0.30640174470545362 -0.23890869256144279 0 -0.32670296132123322 -0.2431470757685274 0 -0.42959489208381713 -0.24497902144412209 0 -0.43932325480964651 -0.22553115658866241 0 -0.44267691711508628 -0.2409902549262577 0 -0.43684048488212812 -0.25511410959213449 0 -0.42959489208381713 -0.24497902144412209 0 -0.44267691711508628 -0.2409902549262577 0 -0.42959489208381713 -0.24497902144412209 0 -0.42195035068944042 -0.22968970116982881 0 -0.43932325480964651 -0.22553115658866241 0 -0.42195035068944042 -0.22968970116982881 0 -0.42902769535580321 -0.21241260899777639 0 -0.43932325480964651 -0.22553115658866241 0 -0.42195035068944042 -0.22968970116982881 0 -0.42902769535580321 -0.21241260899777639 0 -0.42195035068944042 -0.22968970116982881 0 -0.41268385161854548 -0.21779542203120869 0 -0.42902769535580321 -0.21241260899777639 0 -0.42195035068944042 -0.22968970116982881 0 -0.39965811699033049 -0.23158846027605259 0 -0.41268385161854548 -0.21779542203120869 0 -0.41208140178570951 -0.25378160963112179 0 -0.42195035068944042 -0.22968970116982881 0 -0.41208140178570951 -0.25378160963112179 0 -0.42959489208381713 -0.24497902144412209 0 -0.42195035068944042 -0.22968970116982881 0 -0.41208140178570951 -0.25378160963112179 0 -0.42195035068944042 -0.22968970116982881 0 -0.39965811699033049 -0.23158846027605259 0 -0.41208140178570951 -0.25378160963112179 0 -0.39363452607216942 -0.24725580575093389 0 -0.39965811699033049 -0.23158846027605259 0 -0.39363452607216942 -0.24725580575093389 0 -0.3783366107969115 -0.24065819538696351 0 -0.39965811699033049 -0.23158846027605259 0 -0.3783366107969115 -0.24065819538696351 0 -0.39965811699033049 -0.23158846027605259 0 -0.37867389018666509 -0.21838228151597289 0 -0.39965811699033049 -0.23158846027605259 0 -0.39884622872397463 -0.2124021721472924 0 -0.41268385161854548 -0.21779542203120869 0 -0.39965811699033049 -0.23158846027605259 0 -0.39884622872397463 -0.2124021721472924 0 -0.37867389018666509 -0.21838228151597289 0 -0.39884622872397463 -0.2124021721472924 0 -0.39067544908609031 -0.1977075794207826 0 -0.41418049453142469 -0.20298396680863839 0 -0.39884622872397463 -0.2124021721472924 0 -0.37867389018666509 -0.21838228151597289 0 -0.39067544908609031 -0.1977075794207826 0 -0.3690447586213812 -0.2006764539212969 0 -0.37867389018666509 -0.21838228151597289 0 -0.39067544908609031 -0.1977075794207826 0 -0.3723488806076703 -0.1828684397729749 0 -0.3690447586213812 -0.2006764539212969 0 -0.39067544908609031 -0.1977075794207826 0 -0.39067544908609031 -0.1977075794207826 0 -0.41418049453142469 -0.20298396680863839 0 -0.4089806258746671 -0.18689928077582041 0 -0.39067544908609031 -0.1977075794207826 0 -0.4089806258746671 -0.18689928077582041 0 -0.39265326505684972 -0.17974046100348259 0 -0.41418049453142469 -0.20298396680863839 0 -0.42282950163040472 -0.1905448852409245 0 -0.4089806258746671 -0.18689928077582041 0 -0.41418049453142469 -0.20298396680863839 0 -0.41268385161854548 -0.21779542203120869 0 -0.42902769535580321 -0.21241260899777639 0 -0.39884622872397463 -0.2124021721472924 0 -0.41418049453142469 -0.20298396680863839 0 -0.41268385161854548 -0.21779542203120869 0 -0.42902769535580321 -0.21241260899777639 0 -0.43181929959317128 -0.2055977927085357 0 -0.43932325480964651 -0.22553115658866241 0 -0.41418049453142469 -0.20298396680863839 0 -0.42902769535580321 -0.21241260899777639 0 -0.43181929959317128 -0.2055977927085357 0 -0.42902769535580321 -0.21241260899777639 0 -0.43181929959317128 -0.2055977927085357 0 -0.41418049453142469 -0.20298396680863839 0 -0.43181929959317128 -0.2055977927085357 0 -0.42282950163040472 -0.1905448852409245 0 -0.43181929959317128 -0.2055977927085357 0 -0.43934007178677359 -0.1872382128774987 0 -0.43181929959317128 -0.2055977927085357 0 -0.42282950163040472 -0.1905448852409245 0 -0.43934007178677359 -0.1872382128774987 0 -0.41825832644507971 -0.17125927525531351 0 -0.43934007178677359 -0.1872382128774987 0 -0.43602989065941061 -0.17117670207389621 0 -0.41825832644507971 -0.17125927525531351 0 -0.43934007178677359 -0.1872382128774987 0 -0.42282950163040472 -0.1905448852409245 0 -0.41825832644507971 -0.17125927525531351 0 -0.43934007178677359 -0.1872382128774987 0 -0.43602989065941061 -0.17117670207389621 0 -0.42852769419057501 -0.1624601068885351 0 -0.41825832644507971 -0.17125927525531351 0 -0.43602989065941061 -0.17117670207389621 0 -0.42852769419057501 -0.1624601068885351 0 -0.440670040678311 -0.16106063025877351 0 -0.42852769419057501 -0.1624601068885351 0 -0.42997600701642352 -0.1515274539745205 0 -0.43642251290776413 -0.1558641999728462 0 -0.42852769419057501 -0.1624601068885351 0 -0.43642251290776413 -0.1558641999728462 0 -0.440670040678311 -0.16106063025877351 0 -0.41825832644507971 -0.17125927525531351 0 -0.39717658110338139 -0.15528033763313401 0 -0.41825832644507971 -0.17125927525531351 0 -0.39717658110338139 -0.15528033763313401 0 -0.41549099031553788 -0.14824687098676059 0 -0.42852769419057501 -0.1624601068885351 0 -0.41825832644507971 -0.17125927525531351 0 -0.41549099031553788 -0.14824687098676059 0 -0.42282950163040472 -0.1905448852409245 0 -0.41825832644507971 -0.17125927525531351 0 -0.4089806258746671 -0.18689928077582041 0 -0.41825832644507971 -0.17125927525531351 0 -0.4089806258746671 -0.18689928077582041 0 -0.39265326505684972 -0.17974046100348259 0 -0.3723488806076703 -0.1828684397729749 0 -0.39265326505684972 -0.17974046100348259 0 -0.38135058805225758 -0.16422105920828789 0 -0.3723488806076703 -0.1828684397729749 0 -0.39067544908609031 -0.1977075794207826 0 -0.39265326505684972 -0.17974046100348259 0 -0.39265326505684972 -0.17974046100348259 0 -0.38135058805225758 -0.16422105920828789 0 -0.39717658110338139 -0.15528033763313401 0 -0.41825832644507971 -0.17125927525531351 0 -0.39265326505684972 -0.17974046100348259 0 -0.39717658110338139 -0.15528033763313401 0 -0.39265326505684972 -0.17974046100348259 0 -0.39717658110338139 -0.15528033763313401 0 -0.39717658110338139 -0.15528033763313401 0 -0.40146814489559501 -0.13207342953088069 0 -0.41549099031553788 -0.14824687098676059 0 -0.39717658110338139 -0.15528033763313401 0 -0.38823531418187318 -0.1485032921804734 0 -0.40146814489559501 -0.13207342953088069 0 -0.39717658110338139 -0.15528033763313401 0 -0.40146814489559501 -0.13207342953088069 0 -0.39717658110338139 -0.15528033763313401 0 -0.38823531418187318 -0.1485032921804734 0 -0.38135058805225758 -0.16422105920828789 0 -0.39717658110338139 -0.15528033763313401 0 -0.38823531418187318 -0.1485032921804734 0 -0.38135058805225758 -0.16422105920828789 0 -0.38823531418187318 -0.1485032921804734 0 -0.37674141470804562 -0.14478110347879211 0 -0.38823531418187318 -0.1485032921804734 0 -0.37674141470804562 -0.14478110347879211 0 -0.38075465999804547 -0.1333855659272907 0 -0.36465063153196609 -0.12836898330085131 0 -0.38075465999804547 -0.1333855659272907 0 -0.38439806408174548 -0.1169164602816561 0 -0.38075465999804547 -0.1333855659272907 0 -0.40146814489559501 -0.13207342953088069 0 -0.38439806408174548 -0.1169164602816561 0 -0.38823531418187318 -0.1485032921804734 0 -0.38075465999804547 -0.1333855659272907 0 -0.40146814489559501 -0.13207342953088069 0 -0.40146814489559501 -0.13207342953088069 0 -0.42066354713211818 -0.1270620412747859 0 -0.41549099031553788 -0.14824687098676059 0 -0.41549099031553788 -0.14824687098676059 0 -0.42997600701642352 -0.1515274539745205 0 -0.42997109076743278 -0.14149189865031431 0 -0.42852769419057501 -0.1624601068885351 0 -0.41549099031553788 -0.14824687098676059 0 -0.42997600701642352 -0.1515274539745205 0 -0.42997600701642352 -0.1515274539745205 0 -0.43642251290776413 -0.1558641999728462 0 -0.43952733113557541 -0.14870608768918309 0 -0.42997600701642352 -0.1515274539745205 0 -0.42997109076743278 -0.14149189865031431 0 -0.43952733113557541 -0.14870608768918309 0 -0.42997109076743278 -0.14149189865031431 0 -0.44162414044977227 -0.14039829250008909 0 -0.43952733113557541 -0.14870608768918309 0 -0.42066354713211818 -0.1270620412747859 0 -0.41549099031553788 -0.14824687098676059 0 -0.42997109076743278 -0.14149189865031431 0 -0.42997109076743278 -0.14149189865031431 0 -0.43425872346439348 -0.13035353340724601 0 -0.44162414044977227 -0.14039829250008909 0 -0.42066354713211818 -0.1270620412747859 0 -0.43425872346439348 -0.13035353340724601 0 -0.43558441358705752 -0.1186614731958195 0 -0.42066354713211818 -0.1270620412747859 0 -0.42997109076743278 -0.14149189865031431 0 -0.43425872346439348 -0.13035353340724601 0 -0.45108357094201401 -0.1399340688425337 0 -0.44680956221427087 -0.13269602984528661 0 -0.44162414044977227 -0.14039829250008909 0 -0.45108357094201401 -0.1399340688425337 0 -0.44680956221427087 -0.13269602984528661 0 -0.4546147171280801 -0.13387343186741479 0 -0.44680956221427087 -0.13269602984528661 0 -0.45312521592253568 -0.12759317780335239 0 -0.44508545647309561 -0.1241448484787248 0 -0.44680956221427087 -0.13269602984528661 0 -0.4546147171280801 -0.13387343186741479 0 -0.45312521592253568 -0.12759317780335239 0 -0.43425872346439348 -0.13035353340724601 0 -0.44680956221427087 -0.13269602984528661 0 -0.44508545647309561 -0.1241448484787248 0 -0.43425872346439348 -0.13035353340724601 0 -0.44680956221427087 -0.13269602984528661 0 -0.44162414044977227 -0.14039829250008909 0 -0.44162414044977227 -0.14039829250008909 0 -0.43952733113557541 -0.14870608768918309 0 -0.44771329208372762 -0.14925530757894759 0 -0.44771329208372762 -0.14925530757894759 0 -0.45911358467569918 -0.13896745303010119 0 -0.44922682823123578 -0.16310283295379979 0 -0.45911358467569918 -0.13896745303010119 0 -0.44922682823123578 -0.16310283295379979 0 -0.45098515928150168 -0.16319607315901161 0 -0.43952733113557541 -0.14870608768918309 0 -0.44259629088252761 -0.1547695991759088 0 -0.44771329208372762 -0.14925530757894759 0 -0.43642251290776413 -0.1558641999728462 0 -0.43952733113557541 -0.14870608768918309 0 -0.44259629088252761 -0.1547695991759088 0 -0.44259629088252761 -0.1547695991759088 0 -0.44771329208372762 -0.14925530757894759 0 -0.44505161296895052 -0.15704709249185739 0 -0.45108357094201401 -0.1399340688425337 0 -0.44162414044977227 -0.14039829250008909 0 -0.44771329208372762 -0.14925530757894759 0 -0.45108357094201401 -0.1399340688425337 0 -0.44771329208372762 -0.14925530757894759 0 -0.45911358467569918 -0.13896745303010119 0 -0.45911358467569918 -0.13896745303010119 0 -0.44922682823123578 -0.16310283295379979 0 -0.46079900441081928 -0.14550650932720921 0 -0.46205086294566522 -0.13871478867628689 0 -0.45098515928150168 -0.16319607315901161 0 -0.46079900441081928 -0.14550650932720921 0 -0.45966093482039422 -0.1504157888839445 0 -0.45098515928150168 -0.16319607315901161 0 -0.46205086294566522 -0.13871478867628689 0 -0.45098515928150168 -0.16319607315901161 0 -0.46205086294566522 -0.13871478867628689 0 -0.45911358467569918 -0.13896745303010119 0 -0.45098515928150168 -0.16319607315901161 0 -0.45966093482039422 -0.1504157888839445 0 -0.4597247410944536 -0.1530626495792233 0 -0.46220377223415021 -0.15119971755607189 0 -0.4597247410944536 -0.1530626495792233 0 -0.4602285199177189 -0.1565345091880998 0 -0.45642673460150501 -0.1579427745316119 0 -0.45966093482039422 -0.1504157888839445 0 -0.4597247410944536 -0.1530626495792233 0 -0.45642673460150501 -0.1579427745316119 0 -0.4597247410944536 -0.1530626495792233 0 -0.46284460331008431 -0.15405942063332789 0 -0.4602285199177189 -0.1565345091880998 0 -0.46284460331008431 -0.15405942063332789 0 -0.46738081181020402 -0.15588556813970281 0 -0.46297580659064452 -0.1584939356667692 0 -0.4597247410944536 -0.1530626495792233 0 -0.46284460331008431 -0.15405942063332789 0 -0.46220377223415021 -0.15119971755607189 0 -0.46284460331008431 -0.15405942063332789 0 -0.46220377223415021 -0.15119971755607189 0 -0.46567479994545702 -0.15118694193893339 0 -0.45966093482039422 -0.1504157888839445 0 -0.46220377223415021 -0.15119971755607189 0 -0.46331702402207159 -0.14812339204526259 0 -0.46220377223415021 -0.15119971755607189 0 -0.46567479994545702 -0.15118694193893339 0 -0.46331702402207159 -0.14812339204526259 0 -0.46567479994545702 -0.15118694193893339 0 -0.4670839166776089 -0.14712855298776789 0 -0.47114808584387202 -0.15099697067314929 0 -0.46567479994545702 -0.15118694193893339 0 -0.46331702402207159 -0.14812339204526259 0 -0.4670839166776089 -0.14712855298776789 0 -0.46284460331008431 -0.15405942063332789 0 -0.46567479994545702 -0.15118694193893339 0 -0.46738081181020402 -0.15588556813970281 0 -0.46567479994545702 -0.15118694193893339 0 -0.46738081181020402 -0.15588556813970281 0 -0.47114808584387202 -0.15099697067314929 0 -0.46079900441081928 -0.14550650932720921 0 -0.46296142608960877 -0.14239893107292059 0 -0.46205086294566522 -0.13871478867628689 0 -0.46414729712051972 -0.14442478481324211 0 -0.46296142608960877 -0.14239893107292059 0 -0.46484853988143071 -0.14094964147494429 0 -0.46296142608960877 -0.14239893107292059 0 -0.46484853988143071 -0.14094964147494429 0 -0.46205086294566522 -0.13871478867628689 0 -0.46079900441081928 -0.14550650932720921 0 -0.46414729712051972 -0.14442478481324211 0 -0.46296142608960877 -0.14239893107292059 0 -0.46079900441081928 -0.14550650932720921 0 -0.45966093482039422 -0.1504157888839445 0 -0.46331702402207159 -0.14812339204526259 0 -0.46079900441081928 -0.14550650932720921 0 -0.46414729712051972 -0.14442478481324211 0 -0.46331702402207159 -0.14812339204526259 0 -0.46414729712051972 -0.14442478481324211 0 -0.4670839166776089 -0.14712855298776789 0 -0.46710178665132951 -0.14335601118169919 0 -0.46414729712051972 -0.14442478481324211 0 -0.46331702402207159 -0.14812339204526259 0 -0.4670839166776089 -0.14712855298776789 0 -0.4670839166776089 -0.14712855298776789 0 -0.46710178665132951 -0.14335601118169919 0 -0.47074752603887521 -0.14478365008374591 0 -0.46414729712051972 -0.14442478481324211 0 -0.46710178665132951 -0.14335601118169919 0 -0.46484853988143071 -0.14094964147494429 0 -0.46710178665132951 -0.14335601118169919 0 -0.46484853988143071 -0.14094964147494429 0 -0.46868165353821312 -0.13949342654879571 0 -0.46484853988143071 -0.14094964147494429 0 -0.46868165353821312 -0.13949342654879571 0 -0.46447483159159941 -0.13801676063819079 0 -0.46868165353821312 -0.13949342654879571 0 -0.46530844866817311 -0.13428857847763459 0 -0.46447483159159941 -0.13801676063819079 0 -0.46530844866817311 -0.13428857847763459 0 -0.46148465292451468 -0.1366373680132926 0 -0.45973633836760591 -0.13405586157802929 0 -0.46530844866817311 -0.13428857847763459 0 -0.46148465292451468 -0.1366373680132926 0 -0.46447483159159941 -0.13801676063819079 0 -0.46484853988143071 -0.14094964147494429 0 -0.46447483159159941 -0.13801676063819079 0 -0.46205086294566522 -0.13871478867628689 0 -0.46148465292451468 -0.1366373680132926 0 -0.46447483159159941 -0.13801676063819079 0 -0.46205086294566522 -0.13871478867628689 0 -0.46148465292451468 -0.1366373680132926 0 -0.45911358467569918 -0.13896745303010119 0 -0.45754117539408767 -0.1361138840445161 0 -0.45108357094201401 -0.1399340688425337 0 -0.45911358467569918 -0.13896745303010119 0 -0.45558826203497022 -0.1372222094461415 0 -0.45911358467569918 -0.13896745303010119 0 -0.45754117539408767 -0.1361138840445161 0 -0.45558826203497022 -0.1372222094461415 0 -0.46148465292451468 -0.1366373680132926 0 -0.46205086294566522 -0.13871478867628689 0 -0.45911358467569918 -0.13896745303010119 0 -0.45973633836760591 -0.13405586157802929 0 -0.45754117539408767 -0.1361138840445161 0 -0.4546147171280801 -0.13387343186741479 0 -0.46148465292451468 -0.1366373680132926 0 -0.45973633836760591 -0.13405586157802929 0 -0.45754117539408767 -0.1361138840445161 0 -0.45754117539408767 -0.1361138840445161 0 -0.4546147171280801 -0.13387343186741479 0 -0.45558826203497022 -0.1372222094461415 0 -0.45108357094201401 -0.1399340688425337 0 -0.4546147171280801 -0.13387343186741479 0 -0.45558826203497022 -0.1372222094461415 0 -0.4546147171280801 -0.13387343186741479 0 -0.45312521592253568 -0.12759317780335239 0 -0.46024735231374853 -0.12904462555156371 0 -0.45973633836760591 -0.13405586157802929 0 -0.4546147171280801 -0.13387343186741479 0 -0.46024735231374853 -0.12904462555156371 0 -0.45312521592253568 -0.12759317780335239 0 -0.46024735231374853 -0.12904462555156371 0 -0.45785822778968621 -0.12475208707036201 0 -0.46024735231374853 -0.12904462555156371 0 -0.46252596314505112 -0.121475012795702 0 -0.45785822778968621 -0.12475208707036201 0 -0.46024735231374853 -0.12904462555156371 0 -0.46701504659375592 -0.12788222991596571 0 -0.46252596314505112 -0.121475012795702 0 -0.46530844866817311 -0.13428857847763459 0 -0.46024735231374853 -0.12904462555156371 0 -0.46701504659375592 -0.12788222991596571 0 -0.46530844866817311 -0.13428857847763459 0 -0.45973633836760591 -0.13405586157802929 0 -0.46024735231374853 -0.12904462555156371 0 -0.46530844866817311 -0.13428857847763459 0 -0.46701504659375592 -0.12788222991596571 0 -0.47234074047292868 -0.13441940620306991 0 -0.48755923313371718 -0.13949148416144549 0 -0.47511846626743609 -0.121524224149074 0 -0.48036420201203722 -0.14288523171623091 0 -0.47511846626743609 -0.121524224149074 0 -0.46701504659375592 -0.12788222991596571 0 -0.47234074047292868 -0.13441940620306991 0 -0.47511846626743609 -0.121524224149074 0 -0.48755923313371718 -0.13949148416144549 0 -0.48036420201203722 -0.14288523171623091 0 -0.47511846626743609 -0.121524224149074 0 -0.47234074047292868 -0.13441940620306991 0 -0.48036420201203722 -0.14288523171623091 0 -0.47511846626743609 -0.121524224149074 0 -0.47234074047292868 -0.13441940620306991 0 -0.48036420201203722 -0.14288523171623091 0 -0.47361462307533259 -0.14169313735393119 0 -0.46868165353821312 -0.13949342654879571 0 -0.47234074047292868 -0.13441940620306991 0 -0.47361462307533259 -0.14169313735393119 0 -0.46868165353821312 -0.13949342654879571 0 -0.46530844866817311 -0.13428857847763459 0 -0.47234074047292868 -0.13441940620306991 0 -0.50000000000000011 -0.13485149099830029 0 -0.48755923313371718 -0.13949148416144549 0 -0.48363200752058561 -0.1121959166669398 0 -0.48755923313371718 -0.13949148416144549 0 -0.4889696503696665 -0.15180559795050941 0 -0.49999999999999928 -0.15745874417381639 0 -0.48755923313371718 -0.13949148416144549 0 -0.49999999999999928 -0.15745874417381639 0 -0.50000000000000011 -0.13485149099830029 0 -0.48755923313371718 -0.13949148416144549 0 -0.49999999999999928 -0.15745874417381639 0 -0.4889696503696665 -0.15180559795050941 0 -0.48036420201203722 -0.14288523171623091 0 -0.48560993775663769 -0.16424623928338791 0 -0.48755923313371718 -0.13949148416144549 0 -0.4889696503696665 -0.15180559795050941 0 -0.48036420201203722 -0.14288523171623091 0 -0.48036420201203722 -0.14288523171623091 0 -0.48560993775663769 -0.16424623928338791 0 -0.47747658824948458 -0.1527460930745094 0 -0.48036420201203722 -0.14288523171623091 0 -0.48560993775663769 -0.16424623928338791 0 -0.47747658824948458 -0.1527460930745094 0 -0.48036420201203722 -0.14288523171623091 0 -0.47467020504392032 -0.14662101658031329 0 -0.47361462307533259 -0.14169313735393119 0 -0.47467020504392032 -0.14662101658031329 0 -0.47074752603887521 -0.14478365008374591 0 -0.48036420201203722 -0.14288523171623091 0 -0.47361462307533259 -0.14169313735393119 0 -0.47467020504392032 -0.14662101658031329 0 -0.4670839166776089 -0.14712855298776789 0 -0.47074752603887521 -0.14478365008374591 0 -0.47114808584387202 -0.15099697067314929 0 -0.47467020504392032 -0.14662101658031329 0 -0.47074752603887521 -0.14478365008374591 0 -0.47114808584387202 -0.15099697067314929 0 -0.46868165353821312 -0.13949342654879571 0 -0.47361462307533259 -0.14169313735393119 0 -0.47074752603887521 -0.14478365008374591 0 -0.46710178665132951 -0.14335601118169919 0 -0.46868165353821312 -0.13949342654879571 0 -0.47074752603887521 -0.14478365008374591 0 -0.46738081181020402 -0.15588556813970281 0 -0.47114808584387202 -0.15099697067314929 0 -0.47356766858433219 -0.15906516945761989 0 -0.47747658824948458 -0.1527460930745094 0 -0.47114808584387202 -0.15099697067314929 0 -0.47356766858433219 -0.15906516945761989 0 -0.47747658824948458 -0.1527460930745094 0 -0.47467020504392032 -0.14662101658031329 0 -0.47114808584387202 -0.15099697067314929 0 -0.47356766858433219 -0.15906516945761989 0 -0.47286236160607908 -0.1683094162136666 0 -0.46692822623971653 -0.16220672936130329 0 -0.46738081181020402 -0.15588556813970281 0 -0.47356766858433219 -0.15906516945761989 0 -0.46692822623971653 -0.16220672936130329 0 -0.47286236160607908 -0.1683094162136666 0 -0.48560993775663769 -0.16424623928338791 0 -0.4792710353350712 -0.17747094062321991 0 -0.47747658824948458 -0.1527460930745094 0 -0.47356766858433219 -0.15906516945761989 0 -0.48560993775663769 -0.16424623928338791 0 -0.47356766858433219 -0.15906516945761989 0 -0.47286236160607908 -0.1683094162136666 0 -0.48560993775663769 -0.16424623928338791 0 -0.4889696503696665 -0.15180559795050941 0 -0.48560993775663769 -0.16424623928338791 0 -0.49999999999999928 -0.15745874417381639 0 -0.48560993775663769 -0.16424623928338791 0 -0.49999999999999928 -0.15745874417381639 0 -0.5 -0.18072999757016431 0 -0.48560993775663769 -0.16424623928338791 0 -0.49085567350123838 -0.18560724685054489 0 -0.4792710353350712 -0.17747094062321991 0 -0.48560993775663769 -0.16424623928338791 0 -0.49085567350123838 -0.18560724685054489 0 -0.48560993775663769 -0.16424623928338791 0 -0.5 -0.18072999757016431 0 -0.49085567350123838 -0.18560724685054489 0 -0.49085567350123838 -0.18560724685054489 0 -0.4792710353350712 -0.17747094062321991 0 -0.47764615327595777 -0.18940305841813199 0 -0.47286236160607908 -0.1683094162136666 0 -0.4792710353350712 -0.17747094062321991 0 -0.46845225333602553 -0.17940180733465019 0 -0.46845225333602553 -0.17940180733465019 0 -0.46523403748494219 -0.193243511785197 0 -0.47764615327595777 -0.18940305841813199 0 -0.4792710353350712 -0.17747094062321991 0 -0.46845225333602553 -0.17940180733465019 0 -0.47764615327595777 -0.18940305841813199 0 -0.45823233906269739 -0.18566324690463551 0 -0.46845225333602553 -0.17940180733465019 0 -0.46523403748494219 -0.193243511785197 0 -0.45823233906269739 -0.18566324690463551 0 -0.45999583049086379 -0.17725080334990551 0 -0.46845225333602553 -0.17940180733465019 0 -0.45823233906269739 -0.18566324690463551 0 -0.45999583049086379 -0.17725080334990551 0 -0.4526728976293054 -0.1799111551521857 0 -0.45823233906269739 -0.18566324690463551 0 -0.45054131923786611 -0.1873964444137223 0 -0.4526728976293054 -0.1799111551521857 0 -0.45657985755927732 -0.171300337247418 0 -0.4526728976293054 -0.1799111551521857 0 -0.45069209483806683 -0.1736180960599723 0 -0.45999583049086379 -0.17725080334990551 0 -0.46312407992544841 -0.16867768785207629 0 -0.45657985755927732 -0.171300337247418 0 -0.45999583049086379 -0.17725080334990551 0 -0.45657985755927732 -0.171300337247418 0 -0.4526728976293054 -0.1799111551521857 0 -0.45999583049086379 -0.17725080334990551 0 -0.46845225333602553 -0.17940180733465019 0 -0.46312407992544841 -0.16867768785207629 0 -0.47286236160607908 -0.1683094162136666 0 -0.46845225333602553 -0.17940180733465019 0 -0.46312407992544841 -0.16867768785207629 0 -0.47286236160607908 -0.1683094162136666 0 -0.46312407992544841 -0.16867768785207629 0 -0.46692822623971653 -0.16220672936130329 0 -0.46312407992544841 -0.16867768785207629 0 -0.46692822623971653 -0.16220672936130329 0 -0.4612254775375022 -0.16293488367330591 0 -0.46738081181020402 -0.15588556813970281 0 -0.46692822623971653 -0.16220672936130329 0 -0.46297580659064452 -0.1584939356667692 0 -0.4612254775375022 -0.16293488367330591 0 -0.46297580659064452 -0.1584939356667692 0 -0.45924720072864172 -0.1593425030048759 0 -0.46692822623971653 -0.16220672936130329 0 -0.4612254775375022 -0.16293488367330591 0 -0.46297580659064452 -0.1584939356667692 0 -0.46284460331008431 -0.15405942063332789 0 -0.46297580659064452 -0.1584939356667692 0 -0.4602285199177189 -0.1565345091880998 0 -0.45966093482039422 -0.1504157888839445 0 -0.45642673460150501 -0.1579427745316119 0 -0.45098515928150168 -0.16319607315901161 0 -0.4602285199177189 -0.1565345091880998 0 -0.45924720072864172 -0.1593425030048759 0 -0.45642673460150501 -0.1579427745316119 0 -0.46297580659064452 -0.1584939356667692 0 -0.4602285199177189 -0.1565345091880998 0 -0.45924720072864172 -0.1593425030048759 0 -0.45924720072864172 -0.1593425030048759 0 -0.45576792368939367 -0.1611043534802182 0 -0.45642673460150501 -0.1579427745316119 0 -0.45924720072864172 -0.1593425030048759 0 -0.4580192957215487 -0.16226962660691829 0 -0.45576792368939367 -0.1611043534802182 0 -0.4612254775375022 -0.16293488367330591 0 -0.45924720072864172 -0.1593425030048759 0 -0.4580192957215487 -0.16226962660691829 0 -0.4612254775375022 -0.16293488367330591 0 -0.4580192957215487 -0.16226962660691829 0 -0.45746403446486061 -0.1657462496019613 0 -0.4543326529329717 -0.16151143213374 0 -0.45642673460150501 -0.1579427745316119 0 -0.45098515928150168 -0.16319607315901161 0 -0.4580192957215487 -0.16226962660691829 0 -0.45440015016890489 -0.163780803572081 0 -0.45576792368939367 -0.1611043534802182 0 -0.4580192957215487 -0.16226962660691829 0 -0.45440015016890489 -0.163780803572081 0 -0.45746403446486061 -0.1657462496019613 0 -0.45440015016890489 -0.163780803572081 0 -0.4543326529329717 -0.16151143213374 0 -0.45576792368939367 -0.1611043534802182 0 -0.45440015016890489 -0.163780803572081 0 -0.4543326529329717 -0.16151143213374 0 -0.45098515928150168 -0.16319607315901161 0 -0.4543326529329717 -0.16151143213374 0 -0.45576792368939367 -0.1611043534802182 0 -0.45642673460150501 -0.1579427745316119 0 -0.46312407992544841 -0.16867768785207629 0 -0.45746403446486061 -0.1657462496019613 0 -0.45657985755927732 -0.171300337247418 0 -0.46312407992544841 -0.16867768785207629 0 -0.4612254775375022 -0.16293488367330591 0 -0.45746403446486061 -0.1657462496019613 0 -0.45440015016890489 -0.163780803572081 0 -0.45746403446486061 -0.1657462496019613 0 -0.45397757777365438 -0.16738946826823661 0 -0.45397757777365438 -0.16738946826823661 0 -0.45657985755927732 -0.171300337247418 0 -0.45069209483806683 -0.1736180960599723 0 -0.45746403446486061 -0.1657462496019613 0 -0.45397757777365438 -0.16738946826823661 0 -0.45657985755927732 -0.171300337247418 0 -0.45397757777365438 -0.16738946826823661 0 -0.45098515928150168 -0.16319607315901161 0 -0.45069209483806683 -0.1736180960599723 0 -0.44922682823123578 -0.16310283295379979 0 -0.45098515928150168 -0.16319607315901161 0 -0.43934007178677359 -0.1872382128774987 0 -0.45440015016890489 -0.163780803572081 0 -0.45397757777365438 -0.16738946826823661 0 -0.45098515928150168 -0.16319607315901161 0 -0.44771329208372762 -0.14925530757894759 0 -0.44922682823123578 -0.16310283295379979 0 -0.44505161296895052 -0.15704709249185739 0 -0.44922682823123578 -0.16310283295379979 0 -0.44505161296895052 -0.15704709249185739 0 -0.440670040678311 -0.16106063025877351 0 -0.44259629088252761 -0.1547695991759088 0 -0.44505161296895052 -0.15704709249185739 0 -0.440670040678311 -0.16106063025877351 0 -0.43642251290776413 -0.1558641999728462 0 -0.44259629088252761 -0.1547695991759088 0 -0.440670040678311 -0.16106063025877351 0 -0.43602989065941061 -0.17117670207389621 0 -0.44922682823123578 -0.16310283295379979 0 -0.440670040678311 -0.16106063025877351 0 -0.45098515928150168 -0.16319607315901161 0 -0.43934007178677359 -0.1872382128774987 0 -0.45069209483806683 -0.1736180960599723 0 -0.45098515928150168 -0.16319607315901161 0 -0.43934007178677359 -0.1872382128774987 0 -0.44922682823123578 -0.16310283295379979 0 -0.43934007178677359 -0.1872382128774987 0 -0.43602989065941061 -0.17117670207389621 0 -0.44922682823123578 -0.16310283295379979 0 -0.43934007178677359 -0.1872382128774987 0 -0.43934007178677359 -0.1872382128774987 0 -0.45054131923786611 -0.1873964444137223 0 -0.4526728976293054 -0.1799111551521857 0 -0.43934007178677359 -0.1872382128774987 0 -0.4526728976293054 -0.1799111551521857 0 -0.45069209483806683 -0.1736180960599723 0 -0.43181929959317128 -0.2055977927085357 0 -0.43934007178677359 -0.1872382128774987 0 -0.44507189304495232 -0.20697300261637661 0 -0.43934007178677359 -0.1872382128774987 0 -0.45134058464212329 -0.19633401795633179 0 -0.44507189304495232 -0.20697300261637661 0 -0.45134058464212329 -0.19633401795633179 0 -0.44507189304495232 -0.20697300261637661 0 -0.46002867607026271 -0.2056581443653078 0 -0.43934007178677359 -0.1872382128774987 0 -0.45134058464212329 -0.19633401795633179 0 -0.43934007178677359 -0.1872382128774987 0 -0.45054131923786611 -0.1873964444137223 0 -0.45134058464212329 -0.19633401795633179 0 -0.44507189304495232 -0.20697300261637661 0 -0.45368146979098689 -0.21887081344847559 0 -0.43932325480964651 -0.22553115658866241 0 -0.43181929959317128 -0.2055977927085357 0 -0.44507189304495232 -0.20697300261637661 0 -0.43932325480964651 -0.22553115658866241 0 -0.44507189304495232 -0.20697300261637661 0 -0.46002867607026271 -0.2056581443653078 0 -0.45368146979098689 -0.21887081344847559 0 -0.46002867607026271 -0.2056581443653078 0 -0.46776699927204463 -0.2144070226828885 0 -0.45368146979098689 -0.21887081344847559 0 -0.46002867607026271 -0.2056581443653078 0 -0.46776699927204463 -0.2144070226828885 0 -0.47460659771232272 -0.20310665073018261 0 -0.46002867607026271 -0.2056581443653078 0 -0.46523403748494219 -0.193243511785197 0 -0.47460659771232272 -0.20310665073018261 0 -0.45134058464212329 -0.19633401795633179 0 -0.46002867607026271 -0.2056581443653078 0 -0.46523403748494219 -0.193243511785197 0 -0.45823233906269739 -0.18566324690463551 0 -0.45054131923786611 -0.1873964444137223 0 -0.45134058464212329 -0.19633401795633179 0 -0.45823233906269739 -0.18566324690463551 0 -0.45134058464212329 -0.19633401795633179 0 -0.46523403748494219 -0.193243511785197 0 -0.46523403748494219 -0.193243511785197 0 -0.47460659771232272 -0.20310665073018261 0 -0.47764615327595777 -0.18940305841813199 0 -0.47460659771232272 -0.20310665073018261 0 -0.47764615327595777 -0.18940305841813199 0 -0.48685636634762042 -0.19909420099838579 0 -0.5 -0.18072999757016431 0 -0.49085567350123838 -0.18560724685054489 0 -0.5 -0.20400125096651209 0 -0.49085567350123838 -0.18560724685054489 0 -0.47764615327595777 -0.18940305841813199 0 -0.48685636634762042 -0.19909420099838579 0 -0.49085567350123838 -0.18560724685054489 0 -0.48685636634762042 -0.19909420099838579 0 -0.5 -0.20400125096651209 0 -0.48685636634762042 -0.19909420099838579 0 -0.5 -0.20400125096651209 0 -0.48407012691380807 -0.21702216017138329 0 -0.5 -0.20400125096651209 0 -0.48407012691380807 -0.21702216017138329 0 -0.5 -0.22727250436285981 0 -0.47460659771232272 -0.20310665073018261 0 -0.48685636634762042 -0.19909420099838579 0 -0.48407012691380807 -0.21702216017138329 0 -0.46776699927204463 -0.2144070226828885 0 -0.47460659771232272 -0.20310665073018261 0 -0.48407012691380807 -0.21702216017138329 0 -0.48407012691380807 -0.21702216017138329 0 -0.48043400229726219 -0.2392761789037407 0 -0.4664481258728424 -0.22737734469909321 0 -0.46776699927204463 -0.2144070226828885 0 -0.48407012691380807 -0.21702216017138329 0 -0.4664481258728424 -0.22737734469909321 0 -0.48407012691380807 -0.21702216017138329 0 -0.5 -0.22727250436285981 0 -0.48043400229726219 -0.2392761789037407 0 -0.48257695634564463 -0.25886580067620391 0 -0.50000000000000022 -0.25054375775920767 0 -0.48043400229726219 -0.2392761789037407 0 -0.50000000000000022 -0.25054375775920767 0 -0.5 -0.22727250436285981 0 -0.48043400229726219 -0.2392761789037407 0 -0.48043400229726219 -0.2392761789037407 0 -0.46065586056014762 -0.24101022261853999 0 -0.4664481258728424 -0.22737734469909321 0 -0.46889051345328431 -0.25261131866275738 0 -0.48043400229726219 -0.2392761789037407 0 -0.46065586056014762 -0.24101022261853999 0 -0.45391541490318738 -0.25408904925972792 0 -0.46889051345328431 -0.25261131866275738 0 -0.46065586056014762 -0.24101022261853999 0 -0.46776699927204463 -0.2144070226828885 0 -0.4664481258728424 -0.22737734469909321 0 -0.45368146979098689 -0.21887081344847559 0 -0.4664481258728424 -0.22737734469909321 0 -0.45368146979098689 -0.21887081344847559 0 -0.45179979400791759 -0.23107642935799971 0 -0.46065586056014762 -0.24101022261853999 0 -0.4664481258728424 -0.22737734469909321 0 -0.45179979400791759 -0.23107642935799971 0 -0.45368146979098689 -0.21887081344847559 0 -0.45179979400791759 -0.23107642935799971 0 -0.43932325480964651 -0.22553115658866241 0 -0.45179979400791759 -0.23107642935799971 0 -0.43932325480964651 -0.22553115658866241 0 -0.44267691711508628 -0.2409902549262577 0 -0.46065586056014762 -0.24101022261853999 0 -0.45179979400791759 -0.23107642935799971 0 -0.44267691711508628 -0.2409902549262577 0 -0.45391541490318738 -0.25408904925972792 0 -0.46065586056014762 -0.24101022261853999 0 -0.44267691711508628 -0.2409902549262577 0 -0.45391541490318738 -0.25408904925972792 0 -0.44267691711508628 -0.2409902549262577 0 -0.42028704962705837 -0.035784748191912998 0 -0.4143428362722415 -0.06245270522412226 0 -0.42204901241422071 -0.05289133280199905 0 -0.42028704962705837 -0.035784748191912998 0 -0.4143428362722415 -0.06245270522412226 0 -0.40346898609085141 -0.046582046580598148 0 -0.42028704962705837 -0.035784748191912998 0 -0.4143428362722415 -0.06245270522412226 0 -0.4143428362722415 -0.06245270522412226 0 -0.42204901241422071 -0.05289133280199905 0 -0.42201339146743061 -0.061709774486107233 0 -0.4143428362722415 -0.06245270522412226 0 -0.42201339146743061 -0.061709774486107233 0 -0.42204901241422071 -0.05289133280199905 0 -0.42636313276485838 -0.051841861731074357 0 -0.42538609497350738 -0.046107816672619741 0 -0.42204901241422071 -0.05289133280199905 0 -0.42636313276485838 -0.051841861731074357 0 -0.42698910720331851 -0.056643344534302371 0 -0.42636313276485838 -0.051841861731074357 0 -0.42698910720331851 -0.056643344534302371 0 -0.43102831646838718 -0.051724952915376259 0 -0.43102831646838718 -0.051724952915376259 0 -0.43219900412045609 -0.04663867493376489 0 -0.42538609497350738 -0.046107816672619741 0 -0.42636313276485838 -0.051841861731074357 0 -0.43102831646838718 -0.051724952915376259 0 -0.42538609497350738 -0.046107816672619741 0 -0.42204901241422071 -0.05289133280199905 0 -0.42201339146743061 -0.061709774486107233 0 -0.42698910720331851 -0.056643344534302371 0 -0.42201339146743061 -0.061709774486107233 0 -0.42698910720331851 -0.056643344534302371 0 -0.4280760043548284 -0.062250523785237523 0 -0.42698910720331851 -0.056643344534302371 0 -0.4280760043548284 -0.062250523785237523 0 -0.4325888877884837 -0.058451150581028101 0 -0.4280760043548284 -0.062250523785237523 0 -0.4325888877884837 -0.058451150581028101 0 -0.43406656504183172 -0.066562636900101987 0 -0.4325888877884837 -0.058451150581028101 0 -0.43743013237090789 -0.061216717044107929 0 -0.43406656504183172 -0.066562636900101987 0 -0.42698910720331851 -0.056643344534302371 0 -0.4325888877884837 -0.058451150581028101 0 -0.43102831646838718 -0.051724952915376259 0 -0.4325888877884837 -0.058451150581028101 0 -0.43743013237090789 -0.061216717044107929 0 -0.43631091439633568 -0.053849662904379973 0 -0.43631091439633568 -0.053849662904379973 0 -0.43219900412045609 -0.04663867493376489 0 -0.44007578906084599 -0.04351614252891059 0 -0.43102831646838718 -0.051724952915376259 0 -0.43631091439633568 -0.053849662904379973 0 -0.43219900412045609 -0.04663867493376489 0 -0.4325888877884837 -0.058451150581028101 0 -0.43102831646838718 -0.051724952915376259 0 -0.43631091439633568 -0.053849662904379973 0 -0.42028704962705837 -0.035784748191912998 0 -0.44089582475342443 -0.038602629134937623 0 -0.42028704962705837 -0.035784748191912998 0 -0.44007578906084599 -0.04351614252891059 0 -0.42028704962705837 -0.035784748191912998 0 -0.43219900412045609 -0.04663867493376489 0 -0.44007578906084599 -0.04351614252891059 0 -0.42028704962705837 -0.035784748191912998 0 -0.44089582475342443 -0.038602629134937623 0 -0.44007578906084599 -0.04351614252891059 0 -0.42028704962705837 -0.035784748191912998 0 -0.4314750495229121 -0.02877709902605334 0 -0.44089582475342443 -0.038602629134937623 0 -0.42028704962705837 -0.035784748191912998 0 -0.42204901241422071 -0.05289133280199905 0 -0.42538609497350738 -0.046107816672619741 0 -0.42028704962705837 -0.035784748191912998 0 -0.43219900412045609 -0.04663867493376489 0 -0.42538609497350738 -0.046107816672619741 0 -0.42028704962705837 -0.035784748191912998 0 -0.4314750495229121 -0.02877709902605334 0 -0.4236125538073926 -0.01232610956164246 0 -0.4314750495229121 -0.02877709902605334 0 -0.4236125538073926 -0.01232610956164246 0 -0.43985533006913757 -0.012900868622737861 0 -0.42028704962705837 -0.035784748191912998 0 -0.4236125538073926 -0.01232610956164246 0 -0.4236125538073926 -0.01232610956164246 0 -0.42698348321865742 0.0059024087254261823 0 -0.4236125538073926 -0.01232610956164246 0 -0.41573302936004891 -0.0120472885029614 0 -0.42698348321865742 0.0059024087254261823 0 -0.43118153397965592 -0.0038863926918964488 0 -0.4236125538073926 -0.01232610956164246 0 -0.42698348321865742 0.0059024087254261823 0 -0.4236125538073926 -0.01232610956164246 0 -0.43985533006913757 -0.012900868622737861 0 -0.43118153397965592 -0.0038863926918964488 0 -0.4236125538073926 -0.01232610956164246 0 -0.43985533006913757 -0.012900868622737861 0 -0.43118153397965592 -0.0038863926918964488 0 -0.43985533006913757 -0.012900868622737861 0 -0.4362343035226961 0.0050043677341592707 0 -0.4236125538073926 -0.01232610956164246 0 -0.41573302936004891 -0.0120472885029614 0 -0.4236125538073926 -0.01232610956164246 0 -0.41573302936004891 -0.0120472885029614 0 -0.41451751980412782 -0.01664113795266783 0 -0.41573302936004891 -0.0120472885029614 0 -0.41451751980412782 -0.01664113795266783 0 -0.42028704962705837 -0.035784748191912998 0 -0.41451751980412782 -0.01664113795266783 0 -0.4087777988288559 -0.02433017824078083 0 -0.42028704962705837 -0.035784748191912998 0 -0.39637515593477052 -0.026442451271079401 0 -0.42028704962705837 -0.035784748191912998 0 -0.4087777988288559 -0.02433017824078083 0 -0.39637515593477052 -0.026442451271079401 0 -0.42028704962705837 -0.035784748191912998 0 -0.4236125538073926 -0.01232610956164246 0 -0.41451751980412782 -0.01664113795266783 0 -0.41451751980412782 -0.01664113795266783 0 -0.4087777988288559 -0.02433017824078083 0 -0.40487584965962498 -0.018821341542873841 0 -0.41573302936004891 -0.0120472885029614 0 -0.41451751980412782 -0.01664113795266783 0 -0.40487584965962498 -0.018821341542873841 0 -0.40487584965962498 -0.018821341542873841 0 -0.39546506758890182 -0.01729175464904378 0 -0.39555276772963183 -0.011333199480221859 0 -0.40487584965962498 -0.018821341542873841 0 -0.39546506758890182 -0.01729175464904378 0 -0.39637515593477052 -0.026442451271079401 0 -0.4087777988288559 -0.02433017824078083 0 -0.40487584965962498 -0.018821341542873841 0 -0.39637515593477052 -0.026442451271079401 0 -0.39546506758890182 -0.01729175464904378 0 -0.39637515593477052 -0.026442451271079401 0 -0.38505649703158012 -0.012570026302000039 0 -0.41573302936004891 -0.0120472885029614 0 -0.40604951867292111 -0.00019909889963257591 0 -0.39555276772963183 -0.011333199480221859 0 -0.41573302936004891 -0.0120472885029614 0 -0.40487584965962498 -0.018821341542873841 0 -0.39555276772963183 -0.011333199480221859 0 -0.41573302936004891 -0.0120472885029614 0 -0.39555276772963183 -0.011333199480221859 0 -0.39546506758890182 -0.01729175464904378 0 -0.39555276772963183 -0.011333199480221859 0 -0.38505649703158012 -0.012570026302000039 0 -0.37340764195264292 -0.017469120345656598 0 -0.36736441996151942 -0.0023821458770326952 0 -0.38505649703158012 -0.012570026302000039 0 -0.36736441996151942 -0.0023821458770326952 0 -0.38505649703158012 -0.012570026302000039 0 -0.38141544547160561 0.001080455235455916 0 -0.39555276772963183 -0.011333199480221859 0 -0.38505649703158012 -0.012570026302000039 0 -0.38141544547160561 0.001080455235455916 0 -0.37340764195264292 -0.017469120345656598 0 -0.39637515593477052 -0.026442451271079401 0 -0.3630092987838166 -0.0279530414761665 0 -0.39115435500777201 -0.031801373901918992 0 -0.37340764195264292 -0.017469120345656598 0 -0.3630092987838166 -0.0279530414761665 0 -0.39115435500777201 -0.031801373901918992 0 -0.37340764195264292 -0.017469120345656598 0 -0.39637515593477052 -0.026442451271079401 0 -0.38505649703158012 -0.012570026302000039 0 -0.37340764195264292 -0.017469120345656598 0 -0.39637515593477052 -0.026442451271079401 0 -0.39115435500777201 -0.031801373901918992 0 -0.3630092987838166 -0.0279530414761665 0 -0.37584973772876451 -0.040034018232354897 0 -0.39115435500777201 -0.031801373901918992 0 -0.37584973772876451 -0.040034018232354897 0 -0.3878878626692977 -0.04656516059689924 0 -0.37594184122880558 -0.051712238582551633 0 -0.37584973772876451 -0.040034018232354897 0 -0.3878878626692977 -0.04656516059689924 0 -0.39115435500777201 -0.031801373901918992 0 -0.42028704962705837 -0.035784748191912998 0 -0.39115435500777201 -0.031801373901918992 0 -0.42028704962705837 -0.035784748191912998 0 -0.39637515593477052 -0.026442451271079401 0 -0.39115435500777201 -0.031801373901918992 0 -0.42028704962705837 -0.035784748191912998 0 -0.39115435500777201 -0.031801373901918992 0 -0.40346898609085141 -0.046582046580598148 0 -0.3878878626692977 -0.04656516059689924 0 -0.39115435500777201 -0.031801373901918992 0 -0.40346898609085141 -0.046582046580598148 0 -0.4143428362722415 -0.06245270522412226 0 -0.40346898609085141 -0.046582046580598148 0 -0.38740438878257138 -0.065061825446223409 0 -0.3878878626692977 -0.04656516059689924 0 -0.40346898609085141 -0.046582046580598148 0 -0.38740438878257138 -0.065061825446223409 0 -0.3878878626692977 -0.04656516059689924 0 -0.37594184122880558 -0.051712238582551633 0 -0.38740438878257138 -0.065061825446223409 0 -0.36046594129290138 -0.067670945668323629 0 -0.38740438878257138 -0.065061825446223409 0 -0.38295365373102869 -0.092039925678157039 0 -0.38740438878257138 -0.065061825446223409 0 -0.38295365373102869 -0.092039925678157039 0 -0.41005127248002388 -0.085659613326374714 0 -0.4143428362722415 -0.06245270522412226 0 -0.38740438878257138 -0.065061825446223409 0 -0.41005127248002388 -0.085659613326374714 0 -0.4143428362722415 -0.06245270522412226 0 -0.38740438878257138 -0.065061825446223409 0 -0.36994494559094299 -0.1077222306804676 0 -0.38295365373102869 -0.092039925678157039 0 -0.38439806408174548 -0.1169164602816561 0 -0.38295365373102869 -0.092039925678157039 0 -0.40575970868780942 -0.1088665214286277 0 -0.41005127248002388 -0.085659613326374714 0 -0.38295365373102869 -0.092039925678157039 0 -0.38439806408174548 -0.1169164602816561 0 -0.40575970868780942 -0.1088665214286277 0 -0.40146814489559501 -0.13207342953088069 0 -0.40575970868780942 -0.1088665214286277 0 -0.40146814489559501 -0.13207342953088069 0 -0.38439806408174548 -0.1169164602816561 0 -0.40575970868780942 -0.1088665214286277 0 -0.42066354713211818 -0.1270620412747859 0 -0.40575970868780942 -0.1088665214286277 0 -0.42427174450689481 -0.1049063626602799 0 -0.40146814489559501 -0.13207342953088069 0 -0.42066354713211818 -0.1270620412747859 0 -0.40575970868780942 -0.1088665214286277 0 -0.40575970868780942 -0.1088665214286277 0 -0.41005127248002388 -0.085659613326374714 0 -0.40575970868780942 -0.1088665214286277 0 -0.42427174450689481 -0.1049063626602799 0 -0.41005127248002388 -0.085659613326374714 0 -0.42427174450689481 -0.1049063626602799 0 -0.43365738362066009 -0.098127982177375922 0 -0.43996466573569459 -0.1069854577990597 0 -0.42427174450689481 -0.1049063626602799 0 -0.43365738362066009 -0.098127982177375922 0 -0.42663259541340309 -0.088478794839172981 0 -0.42066354713211818 -0.1270620412747859 0 -0.42427174450689481 -0.1049063626602799 0 -0.43558441358705752 -0.1186614731958195 0 -0.42427174450689481 -0.1049063626602799 0 -0.43558441358705752 -0.1186614731958195 0 -0.43996466573569459 -0.1069854577990597 0 -0.4143428362722415 -0.06245270522412226 0 -0.41005127248002388 -0.085659613326374714 0 -0.4143428362722415 -0.06245270522412226 0 -0.4204299539181604 -0.076070098643230305 0 -0.41005127248002388 -0.085659613326374714 0 -0.4143428362722415 -0.06245270522412226 0 -0.4204299539181604 -0.076070098643230305 0 -0.42551844566045849 -0.068636578555424071 0 -0.4143428362722415 -0.06245270522412226 0 -0.42201339146743061 -0.061709774486107233 0 -0.42551844566045849 -0.068636578555424071 0 -0.42427174450689481 -0.1049063626602799 0 -0.41005127248002388 -0.085659613326374714 0 -0.42663259541340309 -0.088478794839172981 0 -0.4204299539181604 -0.076070098643230305 0 -0.41005127248002388 -0.085659613326374714 0 -0.42663259541340309 -0.088478794839172981 0 -0.4204299539181604 -0.076070098643230305 0 -0.42663259541340309 -0.088478794839172981 0 -0.43295279280274979 -0.078150371537206692 0 -0.43365738362066009 -0.098127982177375922 0 -0.42663259541340309 -0.088478794839172981 0 -0.43893917737175581 -0.087430006197702928 0 -0.42663259541340309 -0.088478794839172981 0 -0.43295279280274979 -0.078150371537206692 0 -0.43893917737175581 -0.087430006197702928 0 -0.43295279280274979 -0.078150371537206692 0 -0.43406656504183172 -0.066562636900101987 0 -0.44042641924244369 -0.071477891138025523 0 -0.43295279280274979 -0.078150371537206692 0 -0.42551844566045849 -0.068636578555424071 0 -0.43406656504183172 -0.066562636900101987 0 -0.4204299539181604 -0.076070098643230305 0 -0.43295279280274979 -0.078150371537206692 0 -0.42551844566045849 -0.068636578555424071 0 -0.4280760043548284 -0.062250523785237523 0 -0.42551844566045849 -0.068636578555424071 0 -0.43406656504183172 -0.066562636900101987 0 -0.42201339146743061 -0.061709774486107233 0 -0.4280760043548284 -0.062250523785237523 0 -0.42551844566045849 -0.068636578555424071 0 -0.43743013237090789 -0.061216717044107929 0 -0.43406656504183172 -0.066562636900101987 0 -0.44031316472237608 -0.065729390290687167 0 -0.44568457611987528 -0.067635867020026372 0 -0.4519880124133922 -0.072894503640615088 0 -0.4484224406884782 -0.055263480044600292 0 -0.4519880124133922 -0.072894503640615088 0 -0.4484224406884782 -0.055263480044600292 0 -0.43743013237090789 -0.061216717044107929 0 -0.44031316472237608 -0.065729390290687167 0 -0.44395813083682178 -0.061753839351174032 0 -0.43406656504183172 -0.066562636900101987 0 -0.44031316472237608 -0.065729390290687167 0 -0.44042641924244369 -0.071477891138025523 0 -0.44031316472237608 -0.065729390290687167 0 -0.44568457611987528 -0.067635867020026372 0 -0.44042641924244369 -0.071477891138025523 0 -0.44031316472237608 -0.065729390290687167 0 -0.44568457611987528 -0.067635867020026372 0 -0.44395813083682178 -0.061753839351174032 0 -0.44568457611987528 -0.067635867020026372 0 -0.4519880124133922 -0.072894503640615088 0 -0.44629824161760168 -0.077606202937565261 0 -0.4519880124133922 -0.072894503640615088 0 -0.44629824161760168 -0.077606202937565261 0 -0.45229142239663989 -0.07940044931686091 0 -0.44568457611987528 -0.067635867020026372 0 -0.44629824161760168 -0.077606202937565261 0 -0.44042641924244369 -0.071477891138025523 0 -0.43295279280274979 -0.078150371537206692 0 -0.44629824161760168 -0.077606202937565261 0 -0.44042641924244369 -0.071477891138025523 0 -0.44629824161760168 -0.077606202937565261 0 -0.43893917737175581 -0.087430006197702928 0 -0.44926184127922181 -0.085700304933164856 0 -0.43295279280274979 -0.078150371537206692 0 -0.44629824161760168 -0.077606202937565261 0 -0.43893917737175581 -0.087430006197702928 0 -0.43893917737175581 -0.087430006197702928 0 -0.44926184127922181 -0.085700304933164856 0 -0.44483220949689822 -0.096516380761731746 0 -0.44926184127922181 -0.085700304933164856 0 -0.44483220949689822 -0.096516380761731746 0 -0.45610468755545158 -0.094064059546052917 0 -0.44629824161760168 -0.077606202937565261 0 -0.44926184127922181 -0.085700304933164856 0 -0.45229142239663989 -0.07940044931686091 0 -0.44926184127922181 -0.085700304933164856 0 -0.45229142239663989 -0.07940044931686091 0 -0.45645540020915382 -0.084839846568690994 0 -0.45645540020915382 -0.084839846568690994 0 -0.46726401504117099 -0.089540342335579587 0 -0.45745361646383043 -0.075961388504268368 0 -0.45229142239663989 -0.07940044931686091 0 -0.45645540020915382 -0.084839846568690994 0 -0.45745361646383043 -0.075961388504268368 0 -0.44926184127922181 -0.085700304933164856 0 -0.45645540020915382 -0.084839846568690994 0 -0.45610468755545158 -0.094064059546052917 0 -0.45645540020915382 -0.084839846568690994 0 -0.46726401504117099 -0.089540342335579587 0 -0.45610468755545158 -0.094064059546052917 0 -0.46726401504117099 -0.089540342335579587 0 -0.45745361646383043 -0.075961388504268368 0 -0.46726401504117099 -0.089540342335579587 0 -0.46101552177416433 -0.064096035100462578 0 -0.4519880124133922 -0.072894503640615088 0 -0.46101552177416433 -0.064096035100462578 0 -0.4484224406884782 -0.055263480044600292 0 -0.46726401504117099 -0.089540342335579587 0 -0.46101552177416433 -0.064096035100462578 0 -0.45745361646383043 -0.075961388504268368 0 -0.4519880124133922 -0.072894503640615088 0 -0.46101552177416433 -0.064096035100462578 0 -0.45745361646383043 -0.075961388504268368 0 -0.4519880124133922 -0.072894503640615088 0 -0.45229142239663989 -0.07940044931686091 0 -0.45745361646383043 -0.075961388504268368 0 -0.45312521592253568 -0.12759317780335239 0 -0.44508545647309561 -0.1241448484787248 0 -0.4541359796163334 -0.1210480440067626 0 -0.44508545647309561 -0.1241448484787248 0 -0.44736178681554439 -0.1150426577929767 0 -0.4541359796163334 -0.1210480440067626 0 -0.43425872346439348 -0.13035353340724601 0 -0.43558441358705752 -0.1186614731958195 0 -0.44508545647309561 -0.1241448484787248 0 -0.43558441358705752 -0.1186614731958195 0 -0.44508545647309561 -0.1241448484787248 0 -0.44736178681554439 -0.1150426577929767 0 -0.43558441358705752 -0.1186614731958195 0 -0.44736178681554439 -0.1150426577929767 0 -0.43996466573569459 -0.1069854577990597 0 -0.44736178681554439 -0.1150426577929767 0 -0.4510453202878677 -0.10575883043635 0 -0.45782795184265379 -0.1131539838533268 0 -0.44736178681554439 -0.1150426577929767 0 -0.45782795184265379 -0.1131539838533268 0 -0.4541359796163334 -0.1210480440067626 0 -0.44736178681554439 -0.1150426577929767 0 -0.4510453202878677 -0.10575883043635 0 -0.43996466573569459 -0.1069854577990597 0 -0.4510453202878677 -0.10575883043635 0 -0.43996466573569459 -0.1069854577990597 0 -0.44483220949689822 -0.096516380761731746 0 -0.43365738362066009 -0.098127982177375922 0 -0.43893917737175581 -0.087430006197702928 0 -0.44483220949689822 -0.096516380761731746 0 -0.43365738362066009 -0.098127982177375922 0 -0.43996466573569459 -0.1069854577990597 0 -0.44483220949689822 -0.096516380761731746 0 -0.4510453202878677 -0.10575883043635 0 -0.44483220949689822 -0.096516380761731746 0 -0.45610468755545158 -0.094064059546052917 0 -0.46726401504117099 -0.089540342335579587 0 -0.46511136281620052 -0.098547165790258823 0 -0.47119124065430362 -0.1055322832423268 0 -0.45610468755545158 -0.094064059546052917 0 -0.46561157691144373 -0.1077941418475636 0 -0.46726401504117099 -0.089540342335579587 0 -0.45610468755545158 -0.094064059546052917 0 -0.46511136281620052 -0.098547165790258823 0 -0.45610468755545158 -0.094064059546052917 0 -0.46511136281620052 -0.098547165790258823 0 -0.46561157691144373 -0.1077941418475636 0 -0.46511136281620052 -0.098547165790258823 0 -0.46561157691144373 -0.1077941418475636 0 -0.47119124065430362 -0.1055322832423268 0 -0.45610468755545158 -0.094064059546052917 0 -0.46561157691144373 -0.1077941418475636 0 -0.45764738414935419 -0.10519275392082331 0 -0.4510453202878677 -0.10575883043635 0 -0.45610468755545158 -0.094064059546052917 0 -0.45764738414935419 -0.10519275392082331 0 -0.4510453202878677 -0.10575883043635 0 -0.45764738414935419 -0.10519275392082331 0 -0.45782795184265379 -0.1131539838533268 0 -0.46561157691144373 -0.1077941418475636 0 -0.45764738414935419 -0.10519275392082331 0 -0.45782795184265379 -0.1131539838533268 0 -0.45782795184265379 -0.1131539838533268 0 -0.46527098954164631 -0.1159868406614166 0 -0.46252596314505112 -0.121475012795702 0 -0.46561157691144373 -0.1077941418475636 0 -0.46527098954164631 -0.1159868406614166 0 -0.47511846626743609 -0.121524224149074 0 -0.46561157691144373 -0.1077941418475636 0 -0.45782795184265379 -0.1131539838533268 0 -0.46527098954164631 -0.1159868406614166 0 -0.46527098954164631 -0.1159868406614166 0 -0.46252596314505112 -0.121475012795702 0 -0.47511846626743609 -0.121524224149074 0 -0.46701504659375592 -0.12788222991596571 0 -0.46252596314505112 -0.121475012795702 0 -0.47511846626743609 -0.121524224149074 0 -0.45782795184265379 -0.1131539838533268 0 -0.46252596314505112 -0.121475012795702 0 -0.4541359796163334 -0.1210480440067626 0 -0.46252596314505112 -0.121475012795702 0 -0.45785822778968621 -0.12475208707036201 0 -0.4541359796163334 -0.1210480440067626 0 -0.45312521592253568 -0.12759317780335239 0 -0.45785822778968621 -0.12475208707036201 0 -0.4541359796163334 -0.1210480440067626 0 -0.46561157691144373 -0.1077941418475636 0 -0.47511846626743609 -0.121524224149074 0 -0.47119124065430362 -0.1055322832423268 0 -0.47511846626743609 -0.121524224149074 0 -0.47119124065430362 -0.1055322832423268 0 -0.48363200752058561 -0.1121959166669398 0 -0.47511846626743609 -0.121524224149074 0 -0.47119124065430362 -0.1055322832423268 0 -0.48755923313371718 -0.13949148416144549 0 -0.48363200752058561 -0.1121959166669398 0 -0.47511846626743609 -0.121524224149074 0 -0.46561157691144373 -0.1077941418475636 0 -0.47511846626743609 -0.121524224149074 0 -0.46726401504117099 -0.089540342335579587 0 -0.48363200752058561 -0.1121959166669398 0 -0.48670761332806017 -0.088093296102708996 0 -0.46726401504117099 -0.089540342335579587 0 -0.48363200752058561 -0.1121959166669398 0 -0.47119124065430362 -0.1055322832423268 0 -0.46726401504117099 -0.089540342335579587 0 -0.48363200752058561 -0.1121959166669398 0 -0.46726401504117099 -0.089540342335579587 0 -0.47119124065430362 -0.1055322832423268 0 -0.48363200752058561 -0.1121959166669398 0 -0.5 -0.1048958979881424 0 -0.48670761332806017 -0.088093296102708996 0 -0.50000000000000011 -0.13485149099830029 0 -0.48363200752058561 -0.1121959166669398 0 -0.5 -0.1048958979881424 0 -0.50000000000000011 -0.13485149099830029 0 -0.48363200752058561 -0.1121959166669398 0 -0.46726401504117099 -0.089540342335579587 0 -0.46101552177416433 -0.064096035100462578 0 -0.48230567597150492 -0.064301469257824498 0 -0.46726401504117099 -0.089540342335579587 0 -0.48230567597150492 -0.064301469257824498 0 -0.48670761332806017 -0.088093296102708996 0 -0.5 -0.1048958979881424 0 -0.48670761332806017 -0.088093296102708996 0 -0.5 -0.074940304977984429 0 -0.48230567597150492 -0.064301469257824498 0 -0.48670761332806017 -0.088093296102708996 0 -0.5 -0.074940304977984429 0 -0.48230567597150492 -0.064301469257824498 0 -0.5 -0.074940304977984429 0 -0.5 -0.044984711967826718 0 -0.48230567597150492 -0.064301469257824498 0 -0.5 -0.044984711967826718 0 -0.47803962222873808 -0.037132006773405959 0 -0.5 -0.044984711967826718 0 -0.47803962222873808 -0.037132006773405959 0 -0.50000000000000155 -0.015029118957668919 0 -0.46101552177416433 -0.064096035100462578 0 -0.48230567597150492 -0.064301469257824498 0 -0.47803962222873808 -0.037132006773405959 0 -0.46101552177416433 -0.064096035100462578 0 -0.45476702850715789 -0.038651727865345487 0 -0.46101552177416433 -0.064096035100462578 0 -0.45476702850715789 -0.038651727865345487 0 -0.4484224406884782 -0.055263480044600292 0 -0.46101552177416433 -0.064096035100462578 0 -0.47803962222873808 -0.037132006773405959 0 -0.45476702850715789 -0.038651727865345487 0 -0.45476702850715789 -0.038651727865345487 0 -0.44485686896356419 -0.037632456448585511 0 -0.4484224406884782 -0.055263480044600292 0 -0.44485686896356419 -0.037632456448585511 0 -0.4484224406884782 -0.055263480044600292 0 -0.4314750495229121 -0.02877709902605334 0 -0.44485686896356419 -0.037632456448585511 0 -0.44089582475342443 -0.038602629134937623 0 -0.44485686896356419 -0.037632456448585511 0 -0.44089582475342443 -0.038602629134937623 0 -0.44007578906084599 -0.04351614252891059 0 -0.44485686896356419 -0.037632456448585511 0 -0.44395813083682178 -0.061753839351174032 0 -0.4484224406884782 -0.055263480044600292 0 -0.44485686896356419 -0.037632456448585511 0 -0.44395813083682178 -0.061753839351174032 0 -0.43631091439633568 -0.053849662904379973 0 -0.44007578906084599 -0.04351614252891059 0 -0.44395813083682178 -0.061753839351174032 0 -0.44485686896356419 -0.037632456448585511 0 -0.44007578906084599 -0.04351614252891059 0 -0.44395813083682178 -0.061753839351174032 0 -0.43743013237090789 -0.061216717044107929 0 -0.43631091439633568 -0.053849662904379973 0 -0.44395813083682178 -0.061753839351174032 0 -0.44568457611987528 -0.067635867020026372 0 -0.44395813083682178 -0.061753839351174032 0 -0.4484224406884782 -0.055263480044600292 0 -0.43985533006913757 -0.012900868622737861 0 -0.4362343035226961 0.0050043677341592707 0 -0.44851853524015323 -0.013207420630228161 0 -0.44612940292583242 -0.003478704596897727 0 -0.46314669731017227 -0.0058209064859923764 0 -0.44612940292583242 -0.003478704596897727 0 -0.43985533006913757 -0.012900868622737861 0 -0.4362343035226961 0.0050043677341592707 0 -0.44577054391788939 -0.013110181532245149 0 -0.44851853524015323 -0.013207420630228161 0 -0.44612940292583242 -0.003478704596897727 0 -0.44577054391788939 -0.013110181532245149 0 -0.44612940292583242 -0.003478704596897727 0 -0.44851853524015323 -0.013207420630228161 0 -0.44612940292583242 -0.003478704596897727 0 -0.44577054391788939 -0.013110181532245149 0 -0.44851853524015323 -0.013207420630228161 0 -0.44577054391788939 -0.013110181532245149 0 -0.44612940292583242 -0.003478704596897727 0 -0.43985533006913757 -0.012900868622737861 0 -0.44577054391788939 -0.013110181532245149 0 -0.43985533006913757 -0.012900868622737861 0 -0.44485686896356419 -0.037632456448585511 0 -0.44577054391788939 -0.013110181532245149 0 -0.43985533006913757 -0.012900868622737861 0 -0.45476702850715789 -0.038651727865345487 0 -0.44851853524015323 -0.013207420630228161 0 -0.4314750495229121 -0.02877709902605334 0 -0.44485686896356419 -0.037632456448585511 0 -0.43985533006913757 -0.012900868622737861 0 -0.44485686896356419 -0.037632456448585511 0 -0.44577054391788939 -0.013110181532245149 0 -0.44485686896356419 -0.037632456448585511 0 -0.43985533006913757 -0.012900868622737861 0 -0.44485686896356419 -0.037632456448585511 0 -0.44577054391788939 -0.013110181532245149 0 -0.44851853524015323 -0.013207420630228161 0 -0.45476702850715789 -0.038651727865345487 0 -0.44485686896356419 -0.037632456448585511 0 -0.44851853524015323 -0.013207420630228161 0 -0.45476702850715789 -0.038651727865345487 0 -0.44851853524015323 -0.013207420630228161 0 -0.47425926762007758 -0.01411826979394528 0 -0.44851853524015323 -0.013207420630228161 0 -0.47425926762007758 -0.01411826979394528 0 -0.44612940292583242 -0.003478704596897727 0 -0.46314669731017227 -0.0058209064859923764 0 -0.46455085384319977 0.0056415929569831142 0 -0.44851853524015323 -0.013207420630228161 0 -0.46314669731017227 -0.0058209064859923764 0 -0.47425926762007758 -0.01411826979394528 0 -0.46314669731017227 -0.0058209064859923764 0 -0.48227542692160003 -0.0039417303658734184 0 -0.46455085384319977 0.0056415929569831142 0 -0.46314669731017227 -0.0058209064859923764 0 -0.47425926762007758 -0.01411826979394528 0 -0.48227542692160003 -0.0039417303658734184 0 -0.47803962222873808 -0.037132006773405959 0 -0.45476702850715789 -0.038651727865345487 0 -0.47425926762007758 -0.01411826979394528 0 -0.47803962222873808 -0.037132006773405959 0 -0.47425926762007758 -0.01411826979394528 0 -0.50000000000000155 -0.015029118957668919 0 -0.48227542692160003 -0.0039417303658734184 0 -0.50000000000000022 -0.01352505368873003 0 -0.50000000000000155 -0.015029118957668919 0 -0.47425926762007758 -0.01411826979394528 0 -0.50000000000000155 -0.015029118957668919 0 -0.48227542692160003 -0.0039417303658734184 0 -0.50000000000000022 -0.01352505368873003 0 -0.47425926762007758 -0.01411826979394528 0 -0.48227542692160003 -0.0039417303658734184 0 -0.50000000000000155 -0.015029118957668919 0 -0.50000000000000022 -0.01352505368873003 0 -0.49255706756330619 -0.00479805871995901 0 -0.5 0.01346629418619227 0 -0.48227542692160003 -0.0039417303658734184 0 -0.50000000000000022 -0.01352505368873003 0 -0.49255706756330619 -0.00479805871995901 0 -0.48227542692160003 -0.0039417303658734184 0 -0.49255706756330619 -0.00479805871995901 0 -0.48535329672322342 0.001653312583659864 0 -0.49255706756330619 -0.00479805871995901 0 -0.49405311648881878 0.020189739335813729 0 -0.49255706756330619 -0.00479805871995901 0 -0.5 0.01346629418619227 0 -0.49405311648881878 0.020189739335813729 0 -0.49255706756330619 -0.00479805871995901 0 -0.48844540053065633 0.007986795766419575 0 -0.49405311648881878 0.020189739335813729 0 -0.49255706756330619 -0.00479805871995901 0 -0.48535329672322342 0.001653312583659864 0 -0.48844540053065633 0.007986795766419575 0 -0.5 0.01346629418619227 0 -0.49405311648881878 0.020189739335813729 0 -0.5 0.040457642061114567 0 -0.49405311648881878 0.020189739335813729 0 -0.48679125553246322 0.025844319861758482 0 -0.48983192766446682 0.033626799592470787 0 -0.48679125553246322 0.025844319861758482 0 -0.4856428183652805 0.018919507359912151 0 -0.4807479326712461 0.02563934266603363 0 -0.48679125553246322 0.025844319861758482 0 -0.48983192766446682 0.033626799592470787 0 -0.48484812238967451 0.032858322511611172 0 -0.49405311648881878 0.020189739335813729 0 -0.48679125553246322 0.025844319861758482 0 -0.4856428183652805 0.018919507359912151 0 -0.48844540053065633 0.007986795766419575 0 -0.49405311648881878 0.020189739335813729 0 -0.4856428183652805 0.018919507359912151 0 -0.4856428183652805 0.018919507359912151 0 -0.47742698470809708 0.016717989447906721 0 -0.4807479326712461 0.02563934266603363 0 -0.4807479326712461 0.02563934266603363 0 -0.47077668252215632 0.025866349243373998 0 -0.4790017325098056 0.033629567571639263 0 -0.4807479326712461 0.02563934266603363 0 -0.48484812238967451 0.032858322511611172 0 -0.4790017325098056 0.033629567571639263 0 -0.48679125553246322 0.025844319861758482 0 -0.4807479326712461 0.02563934266603363 0 -0.48484812238967451 0.032858322511611172 0 -0.47742698470809708 0.016717989447906721 0 -0.47077668252215632 0.025866349243373998 0 -0.46955213007880642 0.01559491615096624 0 -0.47742698470809708 0.016717989447906721 0 -0.4807479326712461 0.02563934266603363 0 -0.47077668252215632 0.025866349243373998 0 -0.48227542692160003 -0.0039417303658734184 0 -0.46455085384319977 0.0056415929569831142 0 -0.46955213007880642 0.01559491615096624 0 -0.47813529187733111 0.0073662436540523077 0 -0.46455085384319977 0.0056415929569831142 0 -0.47742698470809708 0.016717989447906721 0 -0.46955213007880642 0.01559491615096624 0 -0.47813529187733111 0.0073662436540523077 0 -0.48227542692160003 -0.0039417303658734184 0 -0.47813529187733111 0.0073662436540523077 0 -0.46455085384319977 0.0056415929569831142 0 -0.48227542692160003 -0.0039417303658734184 0 -0.48535329672322342 0.001653312583659864 0 -0.47813529187733111 0.0073662436540523077 0 -0.48535329672322342 0.001653312583659864 0 -0.48844540053065633 0.007986795766419575 0 -0.47813529187733111 0.0073662436540523077 0 -0.48844540053065633 0.007986795766419575 0 -0.4856428183652805 0.018919507359912151 0 -0.47742698470809708 0.016717989447906721 0 -0.48844540053065633 0.007986795766419575 0 -0.47742698470809708 0.016717989447906721 0 -0.47813529187733111 0.0073662436540523077 0 -0.49554916541433142 0.045177537391586468 0 -0.49704521433984389 0.070165335447359214 0 -0.5 0.040457642061114567 0 -0.49554916541433142 0.045177537391586468 0 -0.5 0.067448989936037096 0 -0.49328978987558869 0.058520499653486727 0 -0.49554916541433142 0.045177537391586468 0 -0.49704521433984389 0.070165335447359214 0 -0.49554916541433142 0.045177537391586468 0 -0.5 0.067448989936037096 0 -0.49704521433984389 0.070165335447359214 0 -0.48728172062743719 0.058419149669588763 0 -0.48389987962438008 0.064628327865674212 0 -0.4901989737715346 0.063390192731701989 0 -0.48728172062743719 0.058419149669588763 0 -0.49328978987558869 0.058520499653486727 0 -0.48949155661205862 0.053195760974604947 0 -0.48728172062743719 0.058419149669588763 0 -0.49328978987558869 0.058520499653486727 0 -0.4901989737715346 0.063390192731701989 0 -0.49328978987558869 0.058520499653486727 0 -0.49338139390124769 0.064603296112863973 0 -0.4901989737715346 0.063390192731701989 0 -0.49328978987558869 0.058520499653486727 0 -0.49179793970184921 0.050979379132273503 0 -0.49554916541433142 0.045177537391586468 0 -0.48886124690541782 0.04702371850941587 0 -0.48949155661205862 0.053195760974604947 0 -0.49179793970184921 0.050979379132273503 0 -0.48886124690541782 0.04702371850941587 0 -0.49179793970184921 0.050979379132273503 0 -0.49554916541433142 0.045177537391586468 0 -0.49328978987558869 0.058520499653486727 0 -0.48949155661205862 0.053195760974604947 0 -0.49179793970184921 0.050979379132273503 0 -0.48886124690541782 0.04702371850941587 0 -0.48949155661205862 0.053195760974604947 0 -0.4839178702423087 0.052286142704813389 0 -0.48728172062743719 0.058419149669588763 0 -0.48949155661205862 0.053195760974604947 0 -0.4839178702423087 0.052286142704813389 0 -0.48886124690541782 0.04702371850941587 0 -0.48264144238938961 0.04587873541847122 0 -0.4839178702423087 0.052286142704813389 0 -0.49405311648881878 0.020189739335813729 0 -0.5 0.040457642061114567 0 -0.49554916541433142 0.045177537391586468 0 -0.49405311648881878 0.020189739335813729 0 -0.49554916541433142 0.045177537391586468 0 -0.48983192766446682 0.033626799592470787 0 -0.49405311648881878 0.020189739335813729 0 -0.49554916541433142 0.045177537391586468 0 -0.48995763960603389 0.040821364478464947 0 -0.49554916541433142 0.045177537391586468 0 -0.48983192766446682 0.033626799592470787 0 -0.48886124690541782 0.04702371850941587 0 -0.48463761206246447 0.039777265787965227 0 -0.48264144238938961 0.04587873541847122 0 -0.48886124690541782 0.04702371850941587 0 -0.48463761206246447 0.039777265787965227 0 -0.48995763960603389 0.040821364478464947 0 -0.48463761206246447 0.039777265787965227 0 -0.48995763960603389 0.040821364478464947 0 -0.4877922665554788 0.036869513975589928 0 -0.48886124690541782 0.04702371850941587 0 -0.48995763960603389 0.040821364478464947 0 -0.49554916541433142 0.045177537391586468 0 -0.48995763960603389 0.040821364478464947 0 -0.48983192766446682 0.033626799592470787 0 -0.4877922665554788 0.036869513975589928 0 -0.48463761206246447 0.039777265787965227 0 -0.4877922665554788 0.036869513975589928 0 -0.48484812238967451 0.032858322511611172 0 -0.48983192766446682 0.033626799592470787 0 -0.4877922665554788 0.036869513975589928 0 -0.48484812238967451 0.032858322511611172 0 -0.48463761206246447 0.039777265787965227 0 -0.48484812238967451 0.032858322511611172 0 -0.4790017325098056 0.033629567571639263 0 -0.48463761206246447 0.039777265787965227 0 -0.4790017325098056 0.033629567571639263 0 -0.47936083408145191 0.041359638050564217 0 -0.4790017325098056 0.033629567571639263 0 -0.47359373777951908 0.040468644117644129 0 -0.47936083408145191 0.041359638050564217 0 -0.47077668252215632 0.025866349243373998 0 -0.4790017325098056 0.033629567571639263 0 -0.46908801798066979 0.034789235083518263 0 -0.4790017325098056 0.033629567571639263 0 -0.46908801798066979 0.034789235083518263 0 -0.47359373777951908 0.040468644117644129 0 -0.46908801798066979 0.034789235083518263 0 -0.47359373777951908 0.040468644117644129 0 -0.46557776966571129 0.043018982796342191 0 -0.47359373777951908 0.040468644117644129 0 -0.47122179895668848 0.046889730082109372 0 -0.46557776966571129 0.043018982796342191 0 -0.47359373777951908 0.040468644117644129 0 -0.47692942770987712 0.046039169528521703 0 -0.47122179895668848 0.046889730082109372 0 -0.47692942770987712 0.046039169528521703 0 -0.47936083408145191 0.041359638050564217 0 -0.48264144238938961 0.04587873541847122 0 -0.47359373777951908 0.040468644117644129 0 -0.47692942770987712 0.046039169528521703 0 -0.47936083408145191 0.041359638050564217 0 -0.48463761206246447 0.039777265787965227 0 -0.47936083408145191 0.041359638050564217 0 -0.48264144238938961 0.04587873541847122 0 -0.48264144238938961 0.04587873541847122 0 -0.4839178702423087 0.052286142704813389 0 -0.47962021291974027 0.049941615807848443 0 -0.4839178702423087 0.052286142704813389 0 -0.47923899612585069 0.054216927413183062 0 -0.47962021291974027 0.049941615807848443 0 -0.47923899612585069 0.054216927413183062 0 -0.47962021291974027 0.049941615807848443 0 -0.47537332813127531 0.051287103974252797 0 -0.47692942770987712 0.046039169528521703 0 -0.48264144238938961 0.04587873541847122 0 -0.47962021291974027 0.049941615807848443 0 -0.47692942770987712 0.046039169528521703 0 -0.47962021291974027 0.049941615807848443 0 -0.47537332813127531 0.051287103974252797 0 -0.47692942770987712 0.046039169528521703 0 -0.47122179895668848 0.046889730082109372 0 -0.47537332813127531 0.051287103974252797 0 -0.47122179895668848 0.046889730082109372 0 -0.46959730542940231 0.052949701317134459 0 -0.46582477444147879 0.04856279449523046 0 -0.47122179895668848 0.046889730082109372 0 -0.46959730542940231 0.052949701317134459 0 -0.47537332813127531 0.051287103974252797 0 -0.46959730542940231 0.052949701317134459 0 -0.47537332813127531 0.051287103974252797 0 -0.47486269111357388 0.058648606221711988 0 -0.47923899612585069 0.054216927413183062 0 -0.47537332813127531 0.051287103974252797 0 -0.47486269111357388 0.058648606221711988 0 -0.46959730542940231 0.052949701317134459 0 -0.47486269111357388 0.058648606221711988 0 -0.46794370742563018 0.058611667069154591 0 -0.47486269111357388 0.058648606221711988 0 -0.46794370742563018 0.058611667069154591 0 -0.47166309729008482 0.063343949659257409 0 -0.46794370742563018 0.058611667069154591 0 -0.46701978450785359 0.064647135245043563 0 -0.47166309729008482 0.063343949659257409 0 -0.47486269111357388 0.058648606221711988 0 -0.4792143149197316 0.061997807540158351 0 -0.47659150648574011 0.066234127607822019 0 -0.47486269111357388 0.058648606221711988 0 -0.4792143149197316 0.061997807540158351 0 -0.48150318245523249 0.058480168465425211 0 -0.47923899612585069 0.054216927413183062 0 -0.47486269111357388 0.058648606221711988 0 -0.48150318245523249 0.058480168465425211 0 -0.4839178702423087 0.052286142704813389 0 -0.47923899612585069 0.054216927413183062 0 -0.48150318245523249 0.058480168465425211 0 -0.48728172062743719 0.058419149669588763 0 -0.4839178702423087 0.052286142704813389 0 -0.48150318245523249 0.058480168465425211 0 -0.48728172062743719 0.058419149669588763 0 -0.48150318245523249 0.058480168465425211 0 -0.48389987962438008 0.064628327865674212 0 -0.4792143149197316 0.061997807540158351 0 -0.48150318245523249 0.058480168465425211 0 -0.48389987962438008 0.064628327865674212 0 -0.45638924958408172 0.057187669506601382 0 -0.45106761363201248 0.060531811729748752 0 -0.45680516137858712 0.06263716141450823 0 -0.45638924958408172 0.057187669506601382 0 -0.46175418209533692 0.059757639097113721 0 -0.46235753250776751 0.053698306060347603 0 -0.45638924958408172 0.057187669506601382 0 -0.46175418209533692 0.059757639097113721 0 -0.45680516137858712 0.06263716141450823 0 -0.46175418209533692 0.059757639097113721 0 -0.46171424813035838 0.064457667883018308 0 -0.45680516137858712 0.06263716141450823 0 -0.46175418209533692 0.059757639097113721 0 -0.46794370742563018 0.058611667069154591 0 -0.46701978450785359 0.064647135245043563 0 -0.46959730542940231 0.052949701317134459 0 -0.46794370742563018 0.058611667069154591 0 -0.46235753250776751 0.053698306060347603 0 -0.46175418209533692 0.059757639097113721 0 -0.46794370742563018 0.058611667069154591 0 -0.46235753250776751 0.053698306060347603 0 -0.46959730542940231 0.052949701317134459 0 -0.46235753250776751 0.053698306060347603 0 -0.46582477444147879 0.04856279449523046 0 -0.46235753250776751 0.053698306060347603 0 -0.46582477444147879 0.04856279449523046 0 -0.46077688499262742 0.048479862503455477 0 -0.46077688499262742 0.048479862503455477 0 -0.4561782583363983 0.051688001725503363 0 -0.4575300669171205 0.043735871317531989 0 -0.4561782583363983 0.051688001725503363 0 -0.4575300669171205 0.043735871317531989 0 -0.4510492685198953 0.048849821378171683 0 -0.46235753250776751 0.053698306060347603 0 -0.46077688499262742 0.048479862503455477 0 -0.4561782583363983 0.051688001725503363 0 -0.45638924958408172 0.057187669506601382 0 -0.46235753250776751 0.053698306060347603 0 -0.4561782583363983 0.051688001725503363 0 -0.45638924958408172 0.057187669506601382 0 -0.4561782583363983 0.051688001725503363 0 -0.45085236472262419 0.055019751591405187 0 -0.4575300669171205 0.043735871317531989 0 -0.45467553218144291 0.03634428487419139 0 -0.45034246795857419 0.042070932121010658 0 -0.4575300669171205 0.043735871317531989 0 -0.46171433464010969 0.037651099823157473 0 -0.45467553218144291 0.03634428487419139 0 -0.46582477444147879 0.04856279449523046 0 -0.46077688499262742 0.048479862503455477 0 -0.46557776966571129 0.043018982796342191 0 -0.46077688499262742 0.048479862503455477 0 -0.4575300669171205 0.043735871317531989 0 -0.46557776966571129 0.043018982796342191 0 -0.4575300669171205 0.043735871317531989 0 -0.46557776966571129 0.043018982796342191 0 -0.46171433464010969 0.037651099823157473 0 -0.47122179895668848 0.046889730082109372 0 -0.46582477444147879 0.04856279449523046 0 -0.46557776966571129 0.043018982796342191 0 -0.46908801798066979 0.034789235083518263 0 -0.46557776966571129 0.043018982796342191 0 -0.46171433464010969 0.037651099823157473 0 -0.46908801798066979 0.034789235083518263 0 -0.46171433464010969 0.037651099823157473 0 -0.4617002864556039 0.0303671250442035 0 -0.45467553218144291 0.03634428487419139 0 -0.4617002864556039 0.0303671250442035 0 -0.4547233251390857 0.02805667081681296 0 -0.46171433464010969 0.037651099823157473 0 -0.45467553218144291 0.03634428487419139 0 -0.4617002864556039 0.0303671250442035 0 -0.45467553218144291 0.03634428487419139 0 -0.44692038787947219 0.034611570073293497 0 -0.4547233251390857 0.02805667081681296 0 -0.45467553218144291 0.03634428487419139 0 -0.44692038787947219 0.034611570073293497 0 -0.45034246795857419 0.042070932121010658 0 -0.44692038787947219 0.034611570073293497 0 -0.43970833159855438 0.039182195595724167 0 -0.44051084741463059 0.03067511035134729 0 -0.44692038787947219 0.034611570073293497 0 -0.44480998077725548 0.042022447227818352 0 -0.43970833159855438 0.039182195595724167 0 -0.44480998077725548 0.042022447227818352 0 -0.43970833159855438 0.039182195595724167 0 -0.44102129771758353 0.0465664500919599 0 -0.43970833159855438 0.039182195595724167 0 -0.44102129771758353 0.0465664500919599 0 -0.43545941891041728 0.051736577854199911 0 -0.44480998077725548 0.042022447227818352 0 -0.44102129771758353 0.0465664500919599 0 -0.44591527084662669 0.047530286982027201 0 -0.45034246795857419 0.042070932121010658 0 -0.4510492685198953 0.048849821378171683 0 -0.44591527084662669 0.047530286982027201 0 -0.44480998077725548 0.042022447227818352 0 -0.45034246795857419 0.042070932121010658 0 -0.44591527084662669 0.047530286982027201 0 -0.44692038787947219 0.034611570073293497 0 -0.44480998077725548 0.042022447227818352 0 -0.45034246795857419 0.042070932121010658 0 -0.4575300669171205 0.043735871317531989 0 -0.45034246795857419 0.042070932121010658 0 -0.4510492685198953 0.048849821378171683 0 -0.4561782583363983 0.051688001725503363 0 -0.4510492685198953 0.048849821378171683 0 -0.45085236472262419 0.055019751591405187 0 -0.4510492685198953 0.048849821378171683 0 -0.44533503445256162 0.052903283256475343 0 -0.45085236472262419 0.055019751591405187 0 -0.4510492685198953 0.048849821378171683 0 -0.44533503445256162 0.052903283256475343 0 -0.44591527084662669 0.047530286982027201 0 -0.44533503445256162 0.052903283256475343 0 -0.44591527084662669 0.047530286982027201 0 -0.4414461401803696 0.051190803274328588 0 -0.44102129771758353 0.0465664500919599 0 -0.44591527084662669 0.047530286982027201 0 -0.4414461401803696 0.051190803274328588 0 -0.44102129771758353 0.0465664500919599 0 -0.4414461401803696 0.051190803274328588 0 -0.43545941891041728 0.051736577854199911 0 -0.4414461401803696 0.051190803274328588 0 -0.44147533308658138 0.055678910828733552 0 -0.43545941891041728 0.051736577854199911 0 -0.44533503445256162 0.052903283256475343 0 -0.4414461401803696 0.051190803274328588 0 -0.44147533308658138 0.055678910828733552 0 -0.44533503445256162 0.052903283256475343 0 -0.44147533308658138 0.055678910828733552 0 -0.44551082656444868 0.058847574522376871 0 -0.44147533308658138 0.055678910828733552 0 -0.43545941891041728 0.051736577854199911 0 -0.4406841463238047 0.063022462194701617 0 -0.44551082656444868 0.058847574522376871 0 -0.4463668769568222 0.064332823587456192 0 -0.4406841463238047 0.063022462194701617 0 -0.44147533308658138 0.055678910828733552 0 -0.44551082656444868 0.058847574522376871 0 -0.4406841463238047 0.063022462194701617 0 -0.44551082656444868 0.058847574522376871 0 -0.45106761363201248 0.060531811729748752 0 -0.4463668769568222 0.064332823587456192 0 -0.44551082656444868 0.058847574522376871 0 -0.45085236472262419 0.055019751591405187 0 -0.45106761363201248 0.060531811729748752 0 -0.44533503445256162 0.052903283256475343 0 -0.44551082656444868 0.058847574522376871 0 -0.45085236472262419 0.055019751591405187 0 -0.45638924958408172 0.057187669506601382 0 -0.45085236472262419 0.055019751591405187 0 -0.45106761363201248 0.060531811729748752 0 -0.46455085384319977 0.0056415929569831142 0 -0.45943244340795719 0.01946474761595237 0 -0.4468262807647998 0.01522491627984014 0 -0.46455085384319977 0.0056415929569831142 0 -0.4468262807647998 0.01522491627984014 0 -0.46955213007880642 0.01559491615096624 0 -0.46455085384319977 0.0056415929569831142 0 -0.45943244340795719 0.01946474761595237 0 -0.47077668252215632 0.025866349243373998 0 -0.46955213007880642 0.01559491615096624 0 -0.45943244340795719 0.01946474761595237 0 -0.47077668252215632 0.025866349243373998 0 -0.46908801798066979 0.034789235083518263 0 -0.4617002864556039 0.0303671250442035 0 -0.47077668252215632 0.025866349243373998 0 -0.4617002864556039 0.0303671250442035 0 -0.45943244340795719 0.01946474761595237 0 -0.4547233251390857 0.02805667081681296 0 -0.45943244340795719 0.01946474761595237 0 -0.44717673837836008 0.024630906786162272 0 -0.4617002864556039 0.0303671250442035 0 -0.4547233251390857 0.02805667081681296 0 -0.45943244340795719 0.01946474761595237 0 -0.44717673837836008 0.024630906786162272 0 -0.4468262807647998 0.01522491627984014 0 -0.45943244340795719 0.01946474761595237 0 -0.44717673837836008 0.024630906786162272 0 -0.4468262807647998 0.01522491627984014 0 -0.44692038787947219 0.034611570073293497 0 -0.4547233251390857 0.02805667081681296 0 -0.44717673837836008 0.024630906786162272 0 -0.44692038787947219 0.034611570073293497 0 -0.44717673837836008 0.024630906786162272 0 -0.44051084741463059 0.03067511035134729 0 -0.44717673837836008 0.024630906786162272 0 -0.43968850508082241 0.024553593537921751 0 -0.44051084741463059 0.03067511035134729 0 -0.44717673837836008 0.024630906786162272 0 -0.43968850508082241 0.024553593537921751 0 -0.4468262807647998 0.01522491627984014 0 -0.4468262807647998 0.01522491627984014 0 -0.43261327697625629 0.0229096040910567 0 -0.43968850508082241 0.024553593537921751 0 -0.4468262807647998 0.01522491627984014 0 -0.43261327697625629 0.0229096040910567 0 -0.44305446173270241 0.0090426737745955416 0 -0.4468262807647998 0.01522491627984014 0 -0.43261327697625629 0.0229096040910567 0 -0.44612940292583242 -0.003478704596897727 0 -0.44305446173270241 0.0090426737745955416 0 -0.4468262807647998 0.01522491627984014 0 -0.44612940292583242 -0.003478704596897727 0 -0.4468262807647998 0.01522491627984014 0 -0.44612940292583242 -0.003478704596897727 0 -0.46455085384319977 0.0056415929569831142 0 -0.4468262807647998 0.01522491627984014 0 -0.44612940292583242 -0.003478704596897727 0 -0.44305446173270241 0.0090426737745955416 0 -0.4362343035226961 0.0050043677341592707 0 -0.44612940292583242 -0.003478704596897727 0 -0.44305446173270241 0.0090426737745955416 0 -0.4362343035226961 0.0050043677341592707 0 -0.43261327697625629 0.0229096040910567 0 -0.42252029097923571 0.01360422357481534 0 -0.42698348321865742 0.0059024087254261823 0 -0.43035441262992608 0.024130927012494158 0 -0.43118153397965592 -0.0038863926918964488 0 -0.4362343035226961 0.0050043677341592707 0 -0.42698348321865742 0.0059024087254261823 0 -0.44305446173270241 0.0090426737745955416 0 -0.4362343035226961 0.0050043677341592707 0 -0.43261327697625629 0.0229096040910567 0 -0.4362343035226961 0.0050043677341592707 0 -0.42698348321865742 0.0059024087254261823 0 -0.43261327697625629 0.0229096040910567 0 -0.42698348321865742 0.0059024087254261823 0 -0.43035441262992608 0.024130927012494158 0 -0.41573302936004891 -0.0120472885029614 0 -0.42252029097923571 0.01360422357481534 0 -0.41573302936004891 -0.0120472885029614 0 -0.42252029097923571 0.01360422357481534 0 -0.42698348321865742 0.0059024087254261823 0 -0.40604951867292111 -0.00019909889963257591 0 -0.42252029097923571 0.01360422357481534 0 -0.39815126970929843 0.01290691649074293 0 -0.41573302936004891 -0.0120472885029614 0 -0.40604951867292111 -0.00019909889963257591 0 -0.42252029097923571 0.01360422357481534 0 -0.42252029097923571 0.01360422357481534 0 -0.41020667597705862 0.02710807188981839 0 -0.39815126970929843 0.01290691649074293 0 -0.42252029097923571 0.01360422357481534 0 -0.41020667597705862 0.02710807188981839 0 -0.42930755259842301 0.039255735652591883 0 -0.42252029097923571 0.01360422357481534 0 -0.42930755259842301 0.039255735652591883 0 -0.42698348321865742 0.0059024087254261823 0 -0.43261327697625629 0.0229096040910567 0 -0.43035441262992608 0.024130927012494158 0 -0.42252029097923571 0.01360422357481534 0 -0.43035441262992608 0.024130927012494158 0 -0.42930755259842301 0.039255735652591883 0 -0.43968850508082241 0.024553593537921751 0 -0.43261327697625629 0.0229096040910567 0 -0.43131538187006402 0.029327430181202579 0 -0.43968850508082241 0.024553593537921751 0 -0.44051084741463059 0.03067511035134729 0 -0.43131538187006402 0.029327430181202579 0 -0.43131538187006402 0.029327430181202579 0 -0.43035441262992608 0.024130927012494158 0 -0.42930755259842301 0.039255735652591883 0 -0.43261327697625629 0.0229096040910567 0 -0.43131538187006402 0.029327430181202579 0 -0.43035441262992608 0.024130927012494158 0 -0.43131538187006402 0.029327430181202579 0 -0.43035441262992608 0.024130927012494158 0 -0.43261327697625629 0.0229096040910567 0 -0.43131538187006402 0.029327430181202579 0 -0.43261327697625629 0.0229096040910567 0 -0.43035441262992608 0.024130927012494158 0 -0.43131538187006402 0.029327430181202579 0 -0.42930755259842301 0.039255735652591883 0 -0.43970833159855438 0.039182195595724167 0 -0.43131538187006402 0.029327430181202579 0 -0.43545941891041728 0.051736577854199911 0 -0.43131538187006402 0.029327430181202579 0 -0.42930755259842301 0.039255735652591883 0 -0.43545941891041728 0.051736577854199911 0 -0.43131538187006402 0.029327430181202579 0 -0.43545941891041728 0.051736577854199911 0 -0.43970833159855438 0.039182195595724167 0 -0.44051084741463059 0.03067511035134729 0 -0.43131538187006402 0.029327430181202579 0 -0.42930755259842301 0.039255735652591883 0 -0.42661878044131152 0.052551164549753698 0 -0.42930755259842301 0.039255735652591883 0 -0.42661878044131152 0.052551164549753698 0 -0.41489140803246338 0.043259911443092353 0 -0.43435617768316948 0.058336312563225613 0 -0.43545941891041728 0.051736577854199911 0 -0.4396034559507711 0.074145725527197254 0 -0.42930755259842301 0.039255735652591883 0 -0.43435617768316948 0.058336312563225613 0 -0.43545941891041728 0.051736577854199911 0 -0.42930755259842301 0.039255735652591883 0 -0.43435617768316948 0.058336312563225613 0 -0.42661878044131152 0.052551164549753698 0 -0.42930755259842301 0.039255735652591883 0 -0.43435617768316948 0.058336312563225613 0 -0.43435617768316948 0.058336312563225613 0 -0.42661878044131152 0.052551164549753698 0 -0.42366507145985599 0.061545816277349903 0 -0.41423173730116641 0.056139285937935261 0 -0.39989485593536928 0.055049564434442477 0 -0.41469005740312781 0.072472687148188594 0 -0.42661878044131152 0.052551164549753698 0 -0.42366507145985599 0.061545816277349903 0 -0.41423173730116641 0.056139285937935261 0 -0.42661878044131152 0.052551164549753698 0 -0.41423173730116641 0.056139285937935261 0 -0.41489140803246338 0.043259911443092353 0 -0.41423173730116641 0.056139285937935261 0 -0.41489140803246338 0.043259911443092353 0 -0.39989485593536928 0.055049564434442477 0 -0.41020667597705862 0.02710807188981839 0 -0.42930755259842301 0.039255735652591883 0 -0.41489140803246338 0.043259911443092353 0 -0.41020667597705862 0.02710807188981839 0 -0.41489140803246338 0.043259911443092353 0 -0.39848262387201649 0.038964440724223927 0 -0.39848262387201649 0.038964440724223927 0 -0.39989485593536928 0.055049564434442477 0 -0.38084873149946269 0.045749326134590658 0 -0.41020667597705862 0.02710807188981839 0 -0.39848262387201649 0.038964440724223927 0 -0.39088212571186332 0.027756532238848029 0 -0.41489140803246338 0.043259911443092353 0 -0.39848262387201649 0.038964440724223927 0 -0.39989485593536928 0.055049564434442477 0 -0.38084873149946269 0.045749326134590658 0 -0.38997531203833891 0.067528484822518553 0 -0.37348826600536222 0.069772375425279087 0 -0.39989485593536928 0.055049564434442477 0 -0.38084873149946269 0.045749326134590658 0 -0.38997531203833891 0.067528484822518553 0 -0.39848262387201649 0.038964440724223927 0 -0.38084873149946269 0.045749326134590658 0 -0.39088212571186332 0.027756532238848029 0 -0.37533487806339649 0.017993216157502521 0 -0.39815126970929843 0.01290691649074293 0 -0.39088212571186332 0.027756532238848029 0 -0.38084873149946269 0.045749326134590658 0 -0.37533487806339649 0.017993216157502521 0 -0.39088212571186332 0.027756532238848029 0 -0.37533487806339649 0.017993216157502521 0 -0.38141544547160561 0.001080455235455916 0 -0.39815126970929843 0.01290691649074293 0 -0.40604951867292111 -0.00019909889963257591 0 -0.39555276772963183 -0.011333199480221859 0 -0.39815126970929843 0.01290691649074293 0 -0.39555276772963183 -0.011333199480221859 0 -0.38141544547160561 0.001080455235455916 0 -0.39815126970929843 0.01290691649074293 0 -0.41020667597705862 0.02710807188981839 0 -0.39815126970929843 0.01290691649074293 0 -0.39088212571186332 0.027756532238848029 0 -0.39457391260851798 0.10385612335104059 0 -0.3953562642917971 0.083225272618728807 0 -0.40816757040556101 0.094198290322563605 0 -0.39457391260851798 0.10385612335104059 0 -0.40816757040556101 0.094198290322563605 0 -0.41525779175052391 0.1051679705427648 0 -0.39457391260851798 0.10385612335104059 0 -0.41525779175052391 0.1051679705427648 0 -0.40685790303459868 0.1165787417980317 0 -0.39457391260851798 0.10385612335104059 0 -0.40685790303459868 0.1165787417980317 0 -0.39354062617454683 0.1256910232808327 0 -0.39457391260851798 0.10385612335104059 0 -0.37764964658113392 0.12016294801351909 0 -0.37028934157667909 0.10605209251489139 0 -0.39457391260851798 0.10385612335104059 0 -0.37764964658113392 0.12016294801351909 0 -0.39354062617454683 0.1256910232808327 0 -0.39457391260851798 0.10385612335104059 0 -0.37245370508591402 0.088546037331415486 0 -0.37028934157667909 0.10605209251489139 0 -0.39457391260851798 0.10385612335104059 0 -0.3953562642917971 0.083225272618728807 0 -0.37245370508591402 0.088546037331415486 0 -0.3953562642917971 0.083225272618728807 0 -0.37348826600536222 0.069772375425279087 0 -0.37245370508591402 0.088546037331415486 0 -0.38997531203833891 0.067528484822518553 0 -0.3953562642917971 0.083225272618728807 0 -0.37348826600536222 0.069772375425279087 0 -0.39989485593536928 0.055049564434442477 0 -0.38997531203833891 0.067528484822518553 0 -0.41469005740312781 0.072472687148188594 0 -0.38997531203833891 0.067528484822518553 0 -0.41469005740312781 0.072472687148188594 0 -0.38997531203833891 0.067528484822518553 0 -0.3953562642917971 0.083225272618728807 0 -0.41469005740312781 0.072472687148188594 0 -0.3953562642917971 0.083225272618728807 0 -0.41479790712682552 0.085192803173295084 0 -0.40816757040556101 0.094198290322563605 0 -0.41479790712682552 0.085192803173295084 0 -0.42420097771024662 0.0924924929080886 0 -0.40816757040556101 0.094198290322563605 0 -0.3953562642917971 0.083225272618728807 0 -0.41479790712682552 0.085192803173295084 0 -0.41469005740312781 0.072472687148188594 0 -0.41479790712682552 0.085192803173295084 0 -0.41469005740312781 0.072472687148188594 0 -0.42581202118215061 0.081120267075244792 0 -0.41479790712682552 0.085192803173295084 0 -0.42420097771024662 0.0924924929080886 0 -0.42581202118215061 0.081120267075244792 0 -0.42366507145985599 0.061545816277349903 0 -0.41423173730116641 0.056139285937935261 0 -0.41469005740312781 0.072472687148188594 0 -0.43435617768316948 0.058336312563225613 0 -0.4284286044705049 0.0682296311876463 0 -0.43940480276791649 0.077416889473859274 0 -0.43435617768316948 0.058336312563225613 0 -0.43940480276791649 0.077416889473859274 0 -0.41469005740312781 0.072472687148188594 0 -0.4284286044705049 0.0682296311876463 0 -0.43940480276791649 0.077416889473859274 0 -0.41469005740312781 0.072472687148188594 0 -0.43940480276791649 0.077416889473859274 0 -0.41469005740312781 0.072472687148188594 0 -0.42581202118215061 0.081120267075244792 0 -0.43940480276791649 0.077416889473859274 0 -0.42366507145985599 0.061545816277349903 0 -0.41469005740312781 0.072472687148188594 0 -0.4284286044705049 0.0682296311876463 0 -0.43435617768316948 0.058336312563225613 0 -0.42366507145985599 0.061545816277349903 0 -0.4284286044705049 0.0682296311876463 0 -0.42420097771024662 0.0924924929080886 0 -0.42581202118215061 0.081120267075244792 0 -0.43497368284364962 0.08847721845817462 0 -0.42581202118215061 0.081120267075244792 0 -0.43314814509453681 0.081367557527293008 0 -0.43497368284364962 0.08847721845817462 0 -0.42581202118215061 0.081120267075244792 0 -0.43314814509453681 0.081367557527293008 0 -0.43940480276791649 0.077416889473859274 0 -0.43314814509453681 0.081367557527293008 0 -0.43766815317045688 0.079965306003294087 0 -0.43866204462551273 0.083460271416730139 0 -0.43314814509453681 0.081367557527293008 0 -0.43940480276791649 0.077416889473859274 0 -0.43766815317045688 0.079965306003294087 0 -0.43314814509453681 0.081367557527293008 0 -0.43497368284364962 0.08847721845817462 0 -0.43866204462551273 0.083460271416730139 0 -0.42420097771024662 0.0924924929080886 0 -0.43497368284364962 0.08847721845817462 0 -0.43613153526276799 0.099013449171993048 0 -0.43613153526276799 0.099013449171993048 0 -0.43508420747822463 0.1086527598273148 0 -0.42756927277007861 0.10271995888733181 0 -0.42756927277007861 0.10271995888733181 0 -0.41525779175052391 0.1051679705427648 0 -0.42557511554912519 0.11154741809994639 0 -0.43508420747822463 0.1086527598273148 0 -0.42756927277007861 0.10271995888733181 0 -0.42557511554912519 0.11154741809994639 0 -0.42420097771024662 0.0924924929080886 0 -0.42756927277007861 0.10271995888733181 0 -0.41525779175052391 0.1051679705427648 0 -0.42420097771024662 0.0924924929080886 0 -0.43613153526276799 0.099013449171993048 0 -0.42756927277007861 0.10271995888733181 0 -0.42420097771024662 0.0924924929080886 0 -0.40816757040556101 0.094198290322563605 0 -0.41525779175052391 0.1051679705427648 0 -0.40685790303459868 0.1165787417980317 0 -0.41818974740761211 0.1156715092843224 0 -0.41634961359314571 0.12568594702920621 0 -0.41525779175052391 0.1051679705427648 0 -0.40685790303459868 0.1165787417980317 0 -0.41818974740761211 0.1156715092843224 0 -0.41525779175052391 0.1051679705427648 0 -0.41818974740761211 0.1156715092843224 0 -0.42557511554912519 0.11154741809994639 0 -0.41818974740761211 0.1156715092843224 0 -0.42424702759032668 0.1199196727061393 0 -0.41634961359314571 0.12568594702920621 0 -0.42424702759032668 0.1199196727061393 0 -0.433102646297986 0.11715263735180551 0 -0.4263479723358376 0.1304295926173876 0 -0.42424702759032668 0.1199196727061393 0 -0.42557511554912519 0.11154741809994639 0 -0.433102646297986 0.11715263735180551 0 -0.41818974740761211 0.1156715092843224 0 -0.42424702759032668 0.1199196727061393 0 -0.42557511554912519 0.11154741809994639 0 -0.43508420747822463 0.1086527598273148 0 -0.433102646297986 0.11715263735180551 0 -0.44097012747878389 0.1162021180761966 0 -0.43508420747822463 0.1086527598273148 0 -0.42557511554912519 0.11154741809994639 0 -0.433102646297986 0.11715263735180551 0 -0.433102646297986 0.11715263735180551 0 -0.44097012747878389 0.1162021180761966 0 -0.4263479723358376 0.1304295926173876 0 -0.45041240264567661 0.1186707729126356 0 -0.4263479723358376 0.1304295926173876 0 -0.45041240264567661 0.1186707729126356 0 -0.44097012747878389 0.1162021180761966 0 -0.4263479723358376 0.1304295926173876 0 -0.45041240264567661 0.1186707729126356 0 -0.44449719615407562 0.1076543342078381 0 -0.45559783284828259 0.10506778717755209 0 -0.43508420747822463 0.1086527598273148 0 -0.44097012747878389 0.1162021180761966 0 -0.44449719615407562 0.1076543342078381 0 -0.45041240264567661 0.1186707729126356 0 -0.44097012747878389 0.1162021180761966 0 -0.44449719615407562 0.1076543342078381 0 -0.43613153526276799 0.099013449171993048 0 -0.43508420747822463 0.1086527598273148 0 -0.44449719615407562 0.1076543342078381 0 -0.43613153526276799 0.099013449171993048 0 -0.44449719615407562 0.1076543342078381 0 -0.44696192816155528 0.096486086250951758 0 -0.43497368284364962 0.08847721845817462 0 -0.43613153526276799 0.099013449171993048 0 -0.44696192816155528 0.096486086250951758 0 -0.44449719615407562 0.1076543342078381 0 -0.44696192816155528 0.096486086250951758 0 -0.45559783284828259 0.10506778717755209 0 -0.45559783284828259 0.10506778717755209 0 -0.46164080432458982 0.09561578930845116 0 -0.47447683295551579 0.1069119532078836 0 -0.44696192816155528 0.096486086250951758 0 -0.45559783284828259 0.10506778717755209 0 -0.46164080432458982 0.09561578930845116 0 -0.44696192816155528 0.096486086250951758 0 -0.46164080432458982 0.09561578930845116 0 -0.45292660391933509 0.090125344540135113 0 -0.45041240264567661 0.1186707729126356 0 -0.45559783284828259 0.10506778717755209 0 -0.47447683295551579 0.1069119532078836 0 -0.45041240264567661 0.1186707729126356 0 -0.47447683295551579 0.1069119532078836 0 -0.45041240264567661 0.1186707729126356 0 -0.47447683295551579 0.1069119532078836 0 -0.47272586175230208 0.12607108600829511 0 -0.43545941891041728 0.051736577854199911 0 -0.4396034559507711 0.074145725527197254 0 -0.43545941891041728 0.051736577854199911 0 -0.4406841463238047 0.063022462194701617 0 -0.4396034559507711 0.074145725527197254 0 -0.43940480276791649 0.077416889473859274 0 -0.44600192909400571 0.073426101952374784 0 -0.4557144646414214 0.080679648890379249 0 -0.43435617768316948 0.058336312563225613 0 -0.4396034559507711 0.074145725527197254 0 -0.43940480276791649 0.077416889473859274 0 -0.45106761363201248 0.060531811729748752 0 -0.45205586878591059 0.065939421152951344 0 -0.4463668769568222 0.064332823587456192 0 -0.45205586878591059 0.065939421152951344 0 -0.44764023271021891 0.068763695836662517 0 -0.45328513716223628 0.07162892981073514 0 -0.44764023271021891 0.068763695836662517 0 -0.4463668769568222 0.064332823587456192 0 -0.44377503229361259 0.068675358770119765 0 -0.44764023271021891 0.068763695836662517 0 -0.44377503229361259 0.068675358770119765 0 -0.44600192909400571 0.073426101952374784 0 -0.45205586878591059 0.065939421152951344 0 -0.44764023271021891 0.068763695836662517 0 -0.4463668769568222 0.064332823587456192 0 -0.4406841463238047 0.063022462194701617 0 -0.44377503229361259 0.068675358770119765 0 -0.4396034559507711 0.074145725527197254 0 -0.4463668769568222 0.064332823587456192 0 -0.4406841463238047 0.063022462194701617 0 -0.44377503229361259 0.068675358770119765 0 -0.44377503229361259 0.068675358770119765 0 -0.4396034559507711 0.074145725527197254 0 -0.44600192909400571 0.073426101952374784 0 -0.4396034559507711 0.074145725527197254 0 -0.43940480276791649 0.077416889473859274 0 -0.44600192909400571 0.073426101952374784 0 -0.44600192909400571 0.073426101952374784 0 -0.4557144646414214 0.080679648890379249 0 -0.45328513716223628 0.07162892981073514 0 -0.44764023271021891 0.068763695836662517 0 -0.44600192909400571 0.073426101952374784 0 -0.45328513716223628 0.07162892981073514 0 -0.43940480276791649 0.077416889473859274 0 -0.4557144646414214 0.080679648890379249 0 -0.43940480276791649 0.077416889473859274 0 -0.44431468690879261 0.085966772727635615 0 -0.4557144646414214 0.080679648890379249 0 -0.44431468690879261 0.085966772727635615 0 -0.45292660391933509 0.090125344540135113 0 -0.4557144646414214 0.080679648890379249 0 -0.43940480276791649 0.077416889473859274 0 -0.43866204462551273 0.083460271416730139 0 -0.44431468690879261 0.085966772727635615 0 -0.43940480276791649 0.077416889473859274 0 -0.43766815317045688 0.079965306003294087 0 -0.43866204462551273 0.083460271416730139 0 -0.43497368284364962 0.08847721845817462 0 -0.43866204462551273 0.083460271416730139 0 -0.44431468690879261 0.085966772727635615 0 -0.43497368284364962 0.08847721845817462 0 -0.44696192816155528 0.096486086250951758 0 -0.44431468690879261 0.085966772727635615 0 -0.44696192816155528 0.096486086250951758 0 -0.44431468690879261 0.085966772727635615 0 -0.45292660391933509 0.090125344540135113 0 -0.4557144646414214 0.080679648890379249 0 -0.47202412651492609 0.083942408306899863 0 -0.46164080432458982 0.09561578930845116 0 -0.4557144646414214 0.080679648890379249 0 -0.47202412651492609 0.083942408306899863 0 -0.4557144646414214 0.080679648890379249 0 -0.46469293066023232 0.073244229404472561 0 -0.47202412651492609 0.083942408306899863 0 -0.46164080432458982 0.09561578930845116 0 -0.45292660391933509 0.090125344540135113 0 -0.4557144646414214 0.080679648890379249 0 -0.4557144646414214 0.080679648890379249 0 -0.45328513716223628 0.07162892981073514 0 -0.46469293066023232 0.073244229404472561 0 -0.45328513716223628 0.07162892981073514 0 -0.46469293066023232 0.073244229404472561 0 -0.45784980604382269 0.067948759117615928 0 -0.46469293066023232 0.073244229404472561 0 -0.46171424813035838 0.064457667883018308 0 -0.45784980604382269 0.067948759117615928 0 -0.46469293066023232 0.073244229404472561 0 -0.46701978450785359 0.064647135245043563 0 -0.47115955063727799 0.069117512325281405 0 -0.46469293066023232 0.073244229404472561 0 -0.46701978450785359 0.064647135245043563 0 -0.46171424813035838 0.064457667883018308 0 -0.46175418209533692 0.059757639097113721 0 -0.46701978450785359 0.064647135245043563 0 -0.46171424813035838 0.064457667883018308 0 -0.46171424813035838 0.064457667883018308 0 -0.45784980604382269 0.067948759117615928 0 -0.45680516137858712 0.06263716141450823 0 -0.45205586878591059 0.065939421152951344 0 -0.45328513716223628 0.07162892981073514 0 -0.45784980604382269 0.067948759117615928 0 -0.45106761363201248 0.060531811729748752 0 -0.45205586878591059 0.065939421152951344 0 -0.45680516137858712 0.06263716141450823 0 -0.45205586878591059 0.065939421152951344 0 -0.45784980604382269 0.067948759117615928 0 -0.45680516137858712 0.06263716141450823 0 -0.48389987962438008 0.064628327865674212 0 -0.47659150648574011 0.066234127607822019 0 -0.48437519111829008 0.070828225946241496 0 -0.4792143149197316 0.061997807540158351 0 -0.48389987962438008 0.064628327865674212 0 -0.47659150648574011 0.066234127607822019 0 -0.47659150648574011 0.066234127607822019 0 -0.47115955063727799 0.069117512325281405 0 -0.47608964239391888 0.075493293322942551 0 -0.47486269111357388 0.058648606221711988 0 -0.47659150648574011 0.066234127607822019 0 -0.47166309729008482 0.063343949659257409 0 -0.47659150648574011 0.066234127607822019 0 -0.47166309729008482 0.063343949659257409 0 -0.47115955063727799 0.069117512325281405 0 -0.46701978450785359 0.064647135245043563 0 -0.47166309729008482 0.063343949659257409 0 -0.47115955063727799 0.069117512325281405 0 -0.46469293066023232 0.073244229404472561 0 -0.47608964239391888 0.075493293322942551 0 -0.47202412651492609 0.083942408306899863 0 -0.46469293066023232 0.073244229404472561 0 -0.47115955063727799 0.069117512325281405 0 -0.47608964239391888 0.075493293322942551 0 -0.47659150648574011 0.066234127607822019 0 -0.47608964239391888 0.075493293322942551 0 -0.48437519111829008 0.070828225946241496 0 -0.47608964239391888 0.075493293322942551 0 -0.48388978128525229 0.077837851458726695 0 -0.48437519111829008 0.070828225946241496 0 -0.47608964239391888 0.075493293322942551 0 -0.48388978128525229 0.077837851458726695 0 -0.48018297281686739 0.083997142910129621 0 -0.48388978128525229 0.077837851458726695 0 -0.48018297281686739 0.083997142910129621 0 -0.48794572154221738 0.083248816941994583 0 -0.47608964239391888 0.075493293322942551 0 -0.48018297281686739 0.083997142910129621 0 -0.47202412651492609 0.083942408306899863 0 -0.46164080432458982 0.09561578930845116 0 -0.47202412651492609 0.083942408306899863 0 -0.47694935504591918 0.093168275107695153 0 -0.48018297281686739 0.083997142910129621 0 -0.47202412651492609 0.083942408306899863 0 -0.47694935504591918 0.093168275107695153 0 -0.48018297281686739 0.083997142910129621 0 -0.47694935504591918 0.093168275107695153 0 -0.48612155843924681 0.091049745762836726 0 -0.49704521433984389 0.070165335447359214 0 -0.49854126326535519 0.095153133503132065 0 -0.50000000000000155 0.094440337810959521 0 -0.49704521433984389 0.070165335447359214 0 -0.49854126326535519 0.095153133503132065 0 -0.49623053872034012 0.086542328360020127 0 -0.49704521433984389 0.070165335447359214 0 -0.49854126326535519 0.095153133503132065 0 -0.48018297281686739 0.083997142910129621 0 -0.48612155843924681 0.091049745762836726 0 -0.48794572154221738 0.083248816941994583 0 -0.48612155843924681 0.091049745762836726 0 -0.49315552238043753 0.089584419812745425 0 -0.49172872909680782 0.085592471624992811 0 -0.48612155843924681 0.091049745762836726 0 -0.49172872909680782 0.085592471624992811 0 -0.48794572154221738 0.083248816941994583 0 -0.48612155843924681 0.091049745762836726 0 -0.49315552238043753 0.089584419812745425 0 -0.49854126326535519 0.095153133503132065 0 -0.49623053872034012 0.086542328360020127 0 -0.49315552238043753 0.089584419812745425 0 -0.49854126326535519 0.095153133503132065 0 -0.49623053872034012 0.086542328360020127 0 -0.49315552238043753 0.089584419812745425 0 -0.49172872909680782 0.085592471624992811 0 -0.49623053872034012 0.086542328360020127 0 -0.49255329176435247 0.081533302596709531 0 -0.49410664360822931 0.077370419535712998 0 -0.49623053872034012 0.086542328360020127 0 -0.49255329176435247 0.081533302596709531 0 -0.49172872909680782 0.085592471624992811 0 -0.49255329176435247 0.081533302596709531 0 -0.49103908921248629 0.075694172423120154 0 -0.49410664360822931 0.077370419535712998 0 -0.49255329176435247 0.081533302596709531 0 -0.48794572154221738 0.083248816941994583 0 -0.49103908921248629 0.075694172423120154 0 -0.49255329176435247 0.081533302596709531 0 -0.49172872909680782 0.085592471624992811 0 -0.48794572154221738 0.083248816941994583 0 -0.48388978128525229 0.077837851458726695 0 -0.48794572154221738 0.083248816941994583 0 -0.49103908921248629 0.075694172423120154 0 -0.5 0.067448989936037096 0 -0.49704521433984389 0.070165335447359214 0 -0.50000000000000155 0.094440337810959521 0 -0.49623053872034012 0.086542328360020127 0 -0.49410664360822931 0.077370419535712998 0 -0.49704521433984389 0.070165335447359214 0 -0.48388978128525229 0.077837851458726695 0 -0.48437519111829008 0.070828225946241496 0 -0.49103908921248629 0.075694172423120154 0 -0.48437519111829008 0.070828225946241496 0 -0.49103908921248629 0.075694172423120154 0 -0.49090575829618271 0.069522604878035452 0 -0.49103908921248629 0.075694172423120154 0 -0.4936650840041239 0.072916958851355948 0 -0.49090575829618271 0.069522604878035452 0 -0.49103908921248629 0.075694172423120154 0 -0.49410664360822931 0.077370419535712998 0 -0.4936650840041239 0.072916958851355948 0 -0.49410664360822931 0.077370419535712998 0 -0.4936650840041239 0.072916958851355948 0 -0.49704521433984389 0.070165335447359214 0 -0.4936650840041239 0.072916958851355948 0 -0.49704521433984389 0.070165335447359214 0 -0.49090575829618271 0.069522604878035452 0 -0.49704521433984389 0.070165335447359214 0 -0.49299159761802358 0.066337156618908016 0 -0.49338139390124769 0.064603296112863973 0 -0.49704521433984389 0.070165335447359214 0 -0.49299159761802358 0.066337156618908016 0 -0.49090575829618271 0.069522604878035452 0 -0.49328978987558869 0.058520499653486727 0 -0.49704521433984389 0.070165335447359214 0 -0.49338139390124769 0.064603296112863973 0 -0.49299159761802358 0.066337156618908016 0 -0.49338139390124769 0.064603296112863973 0 -0.4901989737715346 0.063390192731701989 0 -0.49299159761802358 0.066337156618908016 0 -0.4901989737715346 0.063390192731701989 0 -0.49090575829618271 0.069522604878035452 0 -0.4901989737715346 0.063390192731701989 0 -0.49090575829618271 0.069522604878035452 0 -0.48734495070259692 0.067092337855413298 0 -0.48389987962438008 0.064628327865674212 0 -0.48437519111829008 0.070828225946241496 0 -0.48734495070259692 0.067092337855413298 0 -0.48437519111829008 0.070828225946241496 0 -0.49090575829618271 0.069522604878035452 0 -0.48734495070259692 0.067092337855413298 0 -0.48389987962438008 0.064628327865674212 0 -0.4901989737715346 0.063390192731701989 0 -0.48734495070259692 0.067092337855413298 0 -0.47447683295551579 0.1069119532078836 0 -0.4878530460070401 0.1201985676886366 0 -0.47272586175230208 0.12607108600829511 0 -0.47447683295551579 0.1069119532078836 0 -0.4897639978661058 0.1100624671050669 0 -0.4878530460070401 0.1201985676886366 0 -0.47694935504591918 0.093168275107695153 0 -0.48612155843924681 0.091049745762836726 0 -0.47447683295551579 0.1069119532078836 0 -0.46164080432458982 0.09561578930845116 0 -0.47694935504591918 0.093168275107695153 0 -0.47447683295551579 0.1069119532078836 0 -0.48612155843924681 0.091049745762836726 0 -0.47447683295551579 0.1069119532078836 0 -0.49854126326535519 0.095153133503132065 0 -0.49854126326535519 0.095153133503132065 0 -0.50000000000000155 0.094440337810959521 0 -0.50000000000000033 0.1175543458803537 0 -0.47447683295551579 0.1069119532078836 0 -0.49854126326535519 0.095153133503132065 0 -0.49854126326535519 0.095153133503132065 0 -0.50000000000000033 0.1175543458803537 0 -0.47447683295551579 0.1069119532078836 0 -0.49854126326535519 0.095153133503132065 0 -0.4897639978661058 0.1100624671050669 0 -0.49854126326535519 0.095153133503132065 0 -0.4897639978661058 0.1100624671050669 0 -0.50000000000000033 0.1175543458803537 0 -0.49854126326535519 0.095153133503132065 0 -0.50000000000000155 0.094440337810959521 0 -0.4897639978661058 0.1100624671050669 0 -0.4878530460070401 0.1201985676886366 0 -0.50000000000000033 0.1175543458803537 0 -0.4878530460070401 0.1201985676886366 0 -0.50000000000000033 0.1175543458803537 0 -0.5 0.12312468913428019 0 -0.5 0.12312468913428019 0 -0.48757996331547332 0.1379039879114165 0 -0.5 0.1518090404576008 0 -0.4878530460070401 0.1201985676886366 0 -0.5 0.12312468913428019 0 -0.48757996331547332 0.1379039879114165 0 -0.4878530460070401 0.1201985676886366 0 -0.48757996331547332 0.1379039879114165 0 -0.47272586175230208 0.12607108600829511 0 -0.48757996331547332 0.1379039879114165 0 -0.47272586175230208 0.12607108600829511 0 -0.46993470156774908 0.1436670427811485 0 -0.48757996331547332 0.1379039879114165 0 -0.46993470156774908 0.1436670427811485 0 -0.47947655196681821 0.1650713305436797 0 -0.46993470156774908 0.1436670427811485 0 -0.47947655196681821 0.1650713305436797 0 -0.46004296340242978 0.15689699082932079 0 -0.48757996331547332 0.1379039879114165 0 -0.5 0.1518090404576008 0 -0.47947655196681821 0.1650713305436797 0 -0.5 0.1518090404576008 0 -0.5 0.18049339178092161 0 -0.47947655196681821 0.1650713305436797 0 -0.5 0.18049339178092161 0 -0.47947655196681821 0.1650713305436797 0 -0.48684489078124682 0.18966387967047971 0 -0.47356922731535389 0.18161977970628251 0 -0.47947655196681821 0.1650713305436797 0 -0.45512534392063547 0.17934982419043119 0 -0.47356922731535389 0.18161977970628251 0 -0.47947655196681821 0.1650713305436797 0 -0.48684489078124682 0.18966387967047971 0 -0.47947655196681821 0.1650713305436797 0 -0.46004296340242978 0.15689699082932079 0 -0.45512534392063547 0.17934982419043119 0 -0.47356922731535389 0.18161977970628251 0 -0.45512534392063547 0.17934982419043119 0 -0.47253282830822102 0.19689710954779349 0 -0.45512534392063547 0.17934982419043119 0 -0.43771785953304992 0.16180253883306869 0 -0.43023298295507961 0.17758416176320299 0 -0.45512534392063547 0.17934982419043119 0 -0.43391348128705948 0.19586291475251319 0 -0.43023298295507961 0.17758416176320299 0 -0.46004296340242978 0.15689699082932079 0 -0.45512534392063547 0.17934982419043119 0 -0.43771785953304992 0.16180253883306869 0 -0.45512534392063547 0.17934982419043119 0 -0.43771785953304992 0.16180253883306869 0 -0.46004296340242978 0.15689699082932079 0 -0.43771785953304992 0.16180253883306869 0 -0.44400393150108441 0.14480624242017079 0 -0.43771785953304992 0.16180253883306869 0 -0.44400393150108441 0.14480624242017079 0 -0.43340485813748431 0.15104530400180249 0 -0.44400393150108441 0.14480624242017079 0 -0.45101062333241593 0.13664616968723969 0 -0.45801336700023082 0.143456042937427 0 -0.45041240264567661 0.1186707729126356 0 -0.44450335269167679 0.12669162481402799 0 -0.4263479723358376 0.1304295926173876 0 -0.44400393150108441 0.14480624242017079 0 -0.44450335269167679 0.12669162481402799 0 -0.4262363975434037 0.1412420413028023 0 -0.44400393150108441 0.14480624242017079 0 -0.44450335269167679 0.12669162481402799 0 -0.45101062333241593 0.13664616968723969 0 -0.45041240264567661 0.1186707729126356 0 -0.44450335269167679 0.12669162481402799 0 -0.45819966803980372 0.13218505962219571 0 -0.44450335269167679 0.12669162481402799 0 -0.45101062333241593 0.13664616968723969 0 -0.45819966803980372 0.13218505962219571 0 -0.45041240264567661 0.1186707729126356 0 -0.47272586175230208 0.12607108600829511 0 -0.45819966803980372 0.13218505962219571 0 -0.45101062333241593 0.13664616968723969 0 -0.45819966803980372 0.13218505962219571 0 -0.45801336700023082 0.143456042937427 0 -0.47272586175230208 0.12607108600829511 0 -0.46993470156774908 0.1436670427811485 0 -0.45819966803980372 0.13218505962219571 0 -0.46993470156774908 0.1436670427811485 0 -0.45819966803980372 0.13218505962219571 0 -0.45801336700023082 0.143456042937427 0 -0.46993470156774908 0.1436670427811485 0 -0.46004296340242978 0.15689699082932079 0 -0.45801336700023082 0.143456042937427 0 -0.46004296340242978 0.15689699082932079 0 -0.44400393150108441 0.14480624242017079 0 -0.45801336700023082 0.143456042937427 0 -0.47650671501917191 0.2364357136432215 0 -0.46307311734253531 0.25842703238128828 0 -0.5 0.2390025241795127 0 -0.49408996778530739 0.23418500040898921 0 -0.48817993557061318 0.25919225771373577 0 -0.49408996778530739 0.23418500040898921 0 -0.48817993557061318 0.25919225771373577 0 -0.47650671501917191 0.2364357136432215 0 -0.49408996778530739 0.23418500040898921 0 -0.48817993557061318 0.25919225771373577 0 -0.47650671501917191 0.2364357136432215 0 -0.4946116995196202 0.21915329802906389 0 -0.48994031269580801 0.21444439490515449 0 -0.47650671501917191 0.2364357136432215 0 -0.49408996778530739 0.23418500040898921 0 -0.4946116995196202 0.21915329802906389 0 -0.49408996778530739 0.23418500040898921 0 -0.50000000000000078 0.20917774310424239 0 -0.5 0.2390025241795127 0 -0.49408996778530739 0.23418500040898921 0 -0.50000000000000078 0.20917774310424239 0 -0.49408996778530739 0.23418500040898921 0 -0.4946116995196202 0.21915329802906389 0 -0.50000000000000078 0.20917774310424239 0 -0.47650671501917191 0.2364357136432215 0 -0.48994031269580801 0.21444439490515449 0 -0.47650671501917191 0.2364357136432215 0 -0.47103109010881949 0.21750321130970579 0 -0.48994031269580801 0.21444439490515449 0 -0.48994031269580801 0.21444439490515449 0 -0.47253282830822102 0.19689710954779349 0 -0.47103109010881949 0.21750321130970579 0 -0.48994031269580801 0.21444439490515449 0 -0.47253282830822102 0.19689710954779349 0 -0.4946116995196202 0.21915329802906389 0 -0.48994031269580801 0.21444439490515449 0 -0.4946116995196202 0.21915329802906389 0 -0.48994031269580801 0.21444439490515449 0 -0.50000000000000078 0.20917774310424239 0 -0.48994031269580801 0.21444439490515449 0 -0.50000000000000078 0.20917774310424239 0 -0.49810019520606902 0.20108635177569531 0 -0.48994031269580801 0.21444439490515449 0 -0.49810019520606902 0.20108635177569531 0 -0.5 0.18049339178092161 0 -0.50000000000000078 0.20917774310424239 0 -0.49810019520606902 0.20108635177569531 0 -0.5 0.18049339178092161 0 -0.49810019520606902 0.20108635177569531 0 -0.48684489078124682 0.18966387967047971 0 -0.48994031269580801 0.21444439490515449 0 -0.49810019520606902 0.20108635177569531 0 -0.48684489078124682 0.18966387967047971 0 -0.47356922731535389 0.18161977970628251 0 -0.48684489078124682 0.18966387967047971 0 -0.47253282830822102 0.19689710954779349 0 -0.48994031269580801 0.21444439490515449 0 -0.48684489078124682 0.18966387967047971 0 -0.47253282830822102 0.19689710954779349 0 -0.45512534392063547 0.17934982419043119 0 -0.47253282830822102 0.19689710954779349 0 -0.45601897830716059 0.20862293498859419 0 -0.45512534392063547 0.17934982419043119 0 -0.47253282830822102 0.19689710954779349 0 -0.45601897830716059 0.20862293498859419 0 -0.43391348128705948 0.19586291475251319 0 -0.45512534392063547 0.17934982419043119 0 -0.45601897830716059 0.20862293498859419 0 -0.43391348128705948 0.19586291475251319 0 -0.44180968611098798 0.2180981782853455 0 -0.45601897830716059 0.20862293498859419 0 -0.43391348128705948 0.19586291475251319 0 -0.47103109010881949 0.21750321130970579 0 -0.47253282830822102 0.19689710954779349 0 -0.45601897830716059 0.20862293498859419 0 -0.47650671501917191 0.2364357136432215 0 -0.47103109010881949 0.21750321130970579 0 -0.45691680930523132 0.2321135560265693 0 -0.47103109010881949 0.21750321130970579 0 -0.45601897830716059 0.20862293498859419 0 -0.45691680930523132 0.2321135560265693 0 -0.44180968611098798 0.2180981782853455 0 -0.45601897830716059 0.20862293498859419 0 -0.45691680930523132 0.2321135560265693 0 -0.44180968611098798 0.2180981782853455 0 -0.45691680930523132 0.2321135560265693 0 -0.44339298691696372 0.23493779358429151 0 -0.45691680930523132 0.2321135560265693 0 -0.44339298691696372 0.23493779358429151 0 -0.44689721047433412 0.25185497989739181 0 -0.44339298691696372 0.23493779358429151 0 -0.43155030993172733 0.24592972986357681 0 -0.44689721047433412 0.25185497989739181 0 -0.47650671501917191 0.2364357136432215 0 -0.45691680930523132 0.2321135560265693 0 -0.46307311734253531 0.25842703238128828 0 -0.45691680930523132 0.2321135560265693 0 -0.46307311734253531 0.25842703238128828 0 -0.44689721047433412 0.25185497989739181 0 -0.41554871845704427 0.24368903094987671 0 -0.39850331785261661 0.22532437086513771 0 -0.41554871845704427 0.24368903094987671 0 -0.43155030993172733 0.24592972986357681 0 -0.42381801381176798 0.2218695656921352 0 -0.44339298691696372 0.23493779358429151 0 -0.43155030993172733 0.24592972986357681 0 -0.42381801381176798 0.2218695656921352 0 -0.44180968611098798 0.2180981782853455 0 -0.44339298691696372 0.23493779358429151 0 -0.42381801381176798 0.2218695656921352 0 -0.41554871845704427 0.24368903094987671 0 -0.42381801381176798 0.2218695656921352 0 -0.39850331785261661 0.22532437086513771 0 -0.42381801381176798 0.2218695656921352 0 -0.40696216774858718 0.20495748968733171 0 -0.39850331785261661 0.22532437086513771 0 -0.42381801381176798 0.2218695656921352 0 -0.40696216774858718 0.20495748968733171 0 -0.43391348128705948 0.19586291475251319 0 -0.44180968611098798 0.2180981782853455 0 -0.42381801381176798 0.2218695656921352 0 -0.43391348128705948 0.19586291475251319 0 -0.43391348128705948 0.19586291475251319 0 -0.41180798426695853 0.1831028945164323 0 -0.40696216774858718 0.20495748968733171 0 -0.43391348128705948 0.19586291475251319 0 -0.41180798426695853 0.1831028945164323 0 -0.40696216774858718 0.20495748968733171 0 -0.39213208020591572 0.19053578321389389 0 -0.41180798426695853 0.1831028945164323 0 -0.40696216774858718 0.20495748968733171 0 -0.39213208020591572 0.19053578321389389 0 -0.38145791724818889 0.20695971078039871 0 -0.39213208020591572 0.19053578321389389 0 -0.38145791724818889 0.20695971078039871 0 -0.36913705531276408 0.18672412651881631 0 -0.38145791724818889 0.20695971078039871 0 -0.39850331785261661 0.22532437086513771 0 -0.38145791724818889 0.20695971078039871 0 -0.39850331785261661 0.22532437086513771 0 -0.38202282171389512 0.2233217421249262 0 -0.40696216774858718 0.20495748968733171 0 -0.38145791724818889 0.20695971078039871 0 -0.39850331785261661 0.22532437086513771 0 -0.39850331785261661 0.22532437086513771 0 -0.38202282171389512 0.2233217421249262 0 -0.38824041892199318 0.23676526130400269 0 -0.38202282171389512 0.2233217421249262 0 -0.38824041892199318 0.23676526130400269 0 -0.37406903609393732 0.23544389245740399 0 -0.37406903609393732 0.23544389245740399 0 -0.38681774245157019 0.25161314930746481 0 -0.37001552923335829 0.2484011340352327 0 -0.37406903609393732 0.23544389245740399 0 -0.38681774245157019 0.25161314930746481 0 -0.38824041892199318 0.23676526130400269 0 -0.37406903609393732 0.23544389245740399 0 -0.38681774245157019 0.25161314930746481 0 -0.39850331785261661 0.22532437086513771 0 -0.38824041892199318 0.23676526130400269 0 -0.39904111586532792 0.24894415639692191 0 -0.38824041892199318 0.23676526130400269 0 -0.39904111586532792 0.24894415639692191 0 -0.38681774245157019 0.25161314930746481 0 -0.41554871845704427 0.24368903094987671 0 -0.39850331785261661 0.22532437086513771 0 -0.39904111586532792 0.24894415639692191 0 -0.40796944239513061 0.15579245779157661 0 -0.41657889470217557 0.1373393151838499 0 -0.4059910476433608 0.133546537178277 0 -0.40796944239513061 0.15579245779157661 0 -0.4262363975434037 0.1412420413028023 0 -0.42414148417365888 0.1602116513402807 0 -0.40796944239513061 0.15579245779157661 0 -0.4262363975434037 0.1412420413028023 0 -0.40796944239513061 0.15579245779157661 0 -0.41657889470217557 0.1373393151838499 0 -0.4262363975434037 0.1412420413028023 0 -0.40685790303459868 0.1165787417980317 0 -0.41634961359314571 0.12568594702920621 0 -0.4059910476433608 0.133546537178277 0 -0.41634961359314571 0.12568594702920621 0 -0.41657889470217557 0.1373393151838499 0 -0.4059910476433608 0.133546537178277 0 -0.41634961359314571 0.12568594702920621 0 -0.41657889470217557 0.1373393151838499 0 -0.4263479723358376 0.1304295926173876 0 -0.44450335269167679 0.12669162481402799 0 -0.4262363975434037 0.1412420413028023 0 -0.41657889470217557 0.1373393151838499 0 -0.4263479723358376 0.1304295926173876 0 -0.4262363975434037 0.1412420413028023 0 -0.44450335269167679 0.12669162481402799 0 -0.4263479723358376 0.1304295926173876 0 -0.4262363975434037 0.1412420413028023 0 -0.42424702759032668 0.1199196727061393 0 -0.41634961359314571 0.12568594702920621 0 -0.4263479723358376 0.1304295926173876 0 -0.4262363975434037 0.1412420413028023 0 -0.43340485813748431 0.15104530400180249 0 -0.42414148417365888 0.1602116513402807 0 -0.44400393150108441 0.14480624242017079 0 -0.4262363975434037 0.1412420413028023 0 -0.43340485813748431 0.15104530400180249 0 -0.43771785953304992 0.16180253883306869 0 -0.42414148417365888 0.1602116513402807 0 -0.43023298295507961 0.17758416176320299 0 -0.43771785953304992 0.16180253883306869 0 -0.43340485813748431 0.15104530400180249 0 -0.42414148417365888 0.1602116513402807 0 -0.43391348128705948 0.19586291475251319 0 -0.43023298295507961 0.17758416176320299 0 -0.41180798426695853 0.1831028945164323 0 -0.42414148417365888 0.1602116513402807 0 -0.43023298295507961 0.17758416176320299 0 -0.41180798426695853 0.1831028945164323 0 -0.40796944239513061 0.15579245779157661 0 -0.42414148417365888 0.1602116513402807 0 -0.41180798426695853 0.1831028945164323 0 -0.40796944239513061 0.15579245779157661 0 -0.38970248724685752 0.17034287428035119 0 -0.40796944239513061 0.15579245779157661 0 -0.38970248724685752 0.17034287428035119 0 -0.38809873552550772 0.1533667710902252 0 -0.40796944239513061 0.15579245779157661 0 -0.41180798426695853 0.1831028945164323 0 -0.38970248724685752 0.17034287428035119 0 -0.39213208020591572 0.19053578321389389 0 -0.41180798426695853 0.1831028945164323 0 -0.38970248724685752 0.17034287428035119 0 -0.41180798426695853 0.1831028945164323 0 -0.38970248724685752 0.17034287428035119 0 -0.38970248724685752 0.17034287428035119 0 -0.37767510739484411 0.16340027488260109 0 -0.36913705531276408 0.18672412651881631 0 -0.39213208020591572 0.19053578321389389 0 -0.38970248724685752 0.17034287428035119 0 -0.36913705531276408 0.18672412651881631 0 -0.38970248724685752 0.17034287428035119 0 -0.36913705531276408 0.18672412651881631 0 -0.38970248724685752 0.17034287428035119 0 -0.37767510739484411 0.16340027488260109 0 -0.38809873552550772 0.1533667710902252 0 -0.38970248724685752 0.17034287428035119 0 -0.37767510739484411 0.16340027488260109 0 -0.37767510739484411 0.16340027488260109 0 -0.37737257620141562 0.1508280076505546 0 -0.38809873552550772 0.1533667710902252 0 -0.37737257620141562 0.1508280076505546 0 -0.38809873552550772 0.1533667710902252 0 -0.38093557026507352 0.13875240886661541 0 -0.38809873552550772 0.1533667710902252 0 -0.39530708440072382 0.14142983964150529 0 -0.38093557026507352 0.13875240886661541 0 -0.40796944239513061 0.15579245779157661 0 -0.39530708440072382 0.14142983964150529 0 -0.4059910476433608 0.133546537178277 0 -0.40796944239513061 0.15579245779157661 0 -0.38809873552550772 0.1533667710902252 0 -0.39530708440072382 0.14142983964150529 0 -0.40685790303459868 0.1165787417980317 0 -0.39354062617454683 0.1256910232808327 0 -0.4059910476433608 0.133546537178277 0 -0.39530708440072382 0.14142983964150529 0 -0.39354062617454683 0.1256910232808327 0 -0.4059910476433608 0.133546537178277 0 -0.37764964658113392 0.12016294801351909 0 -0.39354062617454683 0.1256910232808327 0 -0.38093557026507352 0.13875240886661541 0 -0.39530708440072382 0.14142983964150529 0 -0.39354062617454683 0.1256910232808327 0 -0.38093557026507352 0.13875240886661541 0 -0.37764964658113392 0.12016294801351909 0 -0.38093557026507352 0.13875240886661541 0 -0.36620817728816463 0.13276880627010529 0 -0.38093557026507352 0.13875240886661541 0 -0.36620817728816463 0.13276880627010529 0 -0.36486285973997601 0.14894206296000781 0 -0.36620817728816463 0.13276880627010529 0 -0.34856446483133308 0.13813857822193351 0 -0.36486285973997601 0.14894206296000781 0 -0.36620817728816463 0.13276880627010529 0 -0.34856446483133308 0.13813857822193351 0 -0.35902834502330661 0.1178480332884508 0 -0.34856446483133308 0.13813857822193351 0 -0.35902834502330661 0.1178480332884508 0 -0.34261565104166553 0.1208344536125216 0 -0.34856446483133308 0.13813857822193351 0 -0.36486285973997601 0.14894206296000781 0 -0.34446892853868771 0.16296819960291631 0 -0.37737257620141562 0.1508280076505546 0 -0.38093557026507352 0.13875240886661541 0 -0.36486285973997601 0.14894206296000781 0 -0.37767510739484411 0.16340027488260109 0 -0.37737257620141562 0.1508280076505546 0 -0.36486285973997601 0.14894206296000781 0 -0.37767510739484411 0.16340027488260109 0 -0.36486285973997601 0.14894206296000781 0 -0.361445675912347 0.16878509259177629 0 -0.37767510739484411 0.16340027488260109 0 -0.361445675912347 0.16878509259177629 0 -0.36913705531276408 0.18672412651881631 0 -0.361445675912347 0.16878509259177629 0 -0.36913705531276408 0.18672412651881631 0 -0.35108442857546329 0.18189079899453989 0 -0.361445675912347 0.16878509259177629 0 -0.35108442857546329 0.18189079899453989 0 -0.34446892853868771 0.16296819960291631 0 -0.36486285973997601 0.14894206296000781 0 -0.361445675912347 0.16878509259177629 0 -0.34446892853868771 0.16296819960291631 0 -0.34446892853868771 0.16296819960291631 0 -0.32306677961346841 0.16507714691520931 0 -0.33084572425123188 0.15126887020031671 0 -0.34446892853868771 0.16296819960291631 0 -0.33108625834875172 0.18092859074799769 0 -0.32306677961346841 0.16507714691520931 0 -0.35108442857546329 0.18189079899453989 0 -0.34446892853868771 0.16296819960291631 0 -0.33108625834875172 0.18092859074799769 0 -0.33108625834875172 0.18092859074799769 0 -0.32306677961346841 0.16507714691520931 0 -0.30747317788373157 0.17688704688558851 0 -0.33108625834875172 0.18092859074799769 0 -0.32602130273451652 0.1984355910176758 0 -0.30747317788373157 0.17688704688558851 0 -0.32306677961346841 0.16507714691520931 0 -0.30920543144126622 0.14789728620138209 0 -0.30747317788373157 0.17688704688558851 0 -0.32561406666387432 0.13313633223863769 0 -0.33084572425123188 0.15126887020031671 0 -0.30920543144126622 0.14789728620138209 0 -0.32306677961346841 0.16507714691520931 0 -0.33084572425123188 0.15126887020031671 0 -0.30920543144126622 0.14789728620138209 0 -0.34856446483133308 0.13813857822193351 0 -0.32561406666387432 0.13313633223863769 0 -0.34261565104166553 0.1208344536125216 0 -0.34856446483133308 0.13813857822193351 0 -0.32561406666387432 0.13313633223863769 0 -0.33084572425123188 0.15126887020031671 0 -0.34856446483133308 0.13813857822193351 0 -0.34446892853868771 0.16296819960291631 0 -0.33084572425123188 0.15126887020031671 0 -0.35856173827785398 0.2381150703684064 0 -0.34051608655218429 0.23834625362947881 0 -0.35767109359384142 0.25643819299583542 0 -0.35856173827785398 0.2381150703684064 0 -0.37001552923335829 0.2484011340352327 0 -0.35767109359384142 0.25643819299583542 0 -0.35856173827785398 0.2381150703684064 0 -0.37001552923335829 0.2484011340352327 0 -0.37406903609393732 0.23544389245740399 0 -0.37406903609393732 0.23544389245740399 0 -0.36132032973630429 0.21927463560734309 0 -0.35856173827785398 0.2381150703684064 0 -0.37406903609393732 0.23544389245740399 0 -0.36132032973630429 0.21927463560734309 0 -0.38202282171389512 0.2233217421249262 0 -0.37406903609393732 0.23544389245740399 0 -0.36132032973630429 0.21927463560734309 0 -0.35856173827785398 0.2381150703684064 0 -0.34695696417037442 0.22229570887962541 0 -0.34051608655218429 0.23834625362947881 0 -0.35856173827785398 0.2381150703684064 0 -0.36132032973630429 0.21927463560734309 0 -0.34695696417037442 0.22229570887962541 0 -0.36132032973630429 0.21927463560734309 0 -0.34857162337867142 0.2031053787572823 0 -0.34695696417037442 0.22229570887962541 0 -0.34857162337867142 0.2031053787572823 0 -0.33858837976570261 0.21105746224894761 0 -0.36132032973630429 0.21927463560734309 0 -0.34695696417037442 0.22229570887962541 0 -0.34857162337867142 0.2031053787572823 0 -0.36132032973630429 0.21927463560734309 0 -0.36512173141898219 0.20401596291596011 0 -0.34857162337867142 0.2031053787572823 0 -0.38145791724818889 0.20695971078039871 0 -0.38202282171389512 0.2233217421249262 0 -0.36132032973630429 0.21927463560734309 0 -0.38145791724818889 0.20695971078039871 0 -0.36132032973630429 0.21927463560734309 0 -0.36512173141898219 0.20401596291596011 0 -0.38145791724818889 0.20695971078039871 0 -0.36913705531276408 0.18672412651881631 0 -0.36512173141898219 0.20401596291596011 0 -0.36913705531276408 0.18672412651881631 0 -0.36512173141898219 0.20401596291596011 0 -0.34857162337867142 0.2031053787572823 0 -0.36913705531276408 0.18672412651881631 0 -0.34857162337867142 0.2031053787572823 0 -0.36913705531276408 0.18672412651881631 0 -0.35108442857546329 0.18189079899453989 0 -0.34857162337867142 0.2031053787572823 0 -0.33108625834875172 0.18092859074799769 0 -0.34857162337867142 0.2031053787572823 0 -0.33108625834875172 0.18092859074799769 0 -0.34857162337867142 0.2031053787572823 0 -0.32602130273451652 0.1984355910176758 0 -0.35108442857546329 0.18189079899453989 0 -0.33108625834875172 0.18092859074799769 0 -0.34857162337867142 0.2031053787572823 0 -0.32602130273451652 0.1984355910176758 0 -0.30574092432619687 0.20587680756979479 0 -0.30747317788373157 0.17688704688558851 0 -0.32602130273451652 0.1984355910176758 0 -0.32557871270311373 0.212733841157522 0 -0.30574092432619687 0.20587680756979479 0 -0.32557871270311373 0.212733841157522 0 -0.32265041464937638 0.2259878669398602 0 -0.30574092432619687 0.20587680756979479 0 -0.32557871270311373 0.212733841157522 0 -0.33858837976570261 0.21105746224894761 0 -0.33485811156815032 0.22208422657108681 0 -0.34857162337867142 0.2031053787572823 0 -0.32602130273451652 0.1984355910176758 0 -0.33858837976570261 0.21105746224894761 0 -0.32602130273451652 0.1984355910176758 0 -0.32557871270311373 0.212733841157522 0 -0.33858837976570261 0.21105746224894761 0 -0.34857162337867142 0.2031053787572823 0 -0.33858837976570261 0.21105746224894761 0 -0.34695696417037442 0.22229570887962541 0 -0.33858837976570261 0.21105746224894761 0 -0.33485811156815032 0.22208422657108681 0 -0.33485811156815032 0.22208422657108681 0 -0.32265041464937638 0.2259878669398602 0 -0.34051608655218429 0.23834625362947881 0 -0.34695696417037442 0.22229570887962541 0 -0.33485811156815032 0.22208422657108681 0 -0.34051608655218429 0.23834625362947881 0 -0.32265041464937638 0.2259878669398602 0 -0.32607681150539441 0.2417678342781108 0 -0.30400867076866228 0.23486656825400121 0 -0.32557871270311373 0.212733841157522 0 -0.33485811156815032 0.22208422657108681 0 -0.32265041464937638 0.2259878669398602 0 -0.32607681150539441 0.2417678342781108 0 -0.30400867076866228 0.23486656825400121 0 -0.31538669411996351 0.2525174034936134 0 -0.32607681150539441 0.2417678342781108 0 -0.34051608655218429 0.23834625362947881 0 -0.33600798172510188 0.25614684907030572 0 -0.32265041464937638 0.2259878669398602 0 -0.32607681150539441 0.2417678342781108 0 -0.34051608655218429 0.23834625362947881 0 -0.28171657965588792 0.23878944274882741 0 -0.29439235515317991 0.24935780631230101 0 -0.28309371838124431 0.25740643330103258 0 -0.28171657965588792 0.23878944274882741 0 -0.29439235515317991 0.24935780631230101 0 -0.30400867076866228 0.23486656825400121 0 -0.29439235515317991 0.24935780631230101 0 -0.30400867076866228 0.23486656825400121 0 -0.30227641721112758 0.26385632893820771 0 -0.30400867076866228 0.23486656825400121 0 -0.30227641721112758 0.26385632893820771 0 -0.30400867076866228 0.23486656825400121 0 -0.30574092432619687 0.20587680756979479 0 -0.32265041464937638 0.2259878669398602 0 -0.30400867076866228 0.23486656825400121 0 -0.30574092432619687 0.20587680756979479 0 -0.28171657965588792 0.23878944274882741 0 -0.30400867076866228 0.23486656825400121 0 -0.27818468670628438 0.21647471740042029 0 -0.30400867076866228 0.23486656825400121 0 -0.30574092432619687 0.20587680756979479 0 -0.27818468670628438 0.21647471740042029 0 -0.30574092432619687 0.20587680756979479 0 -0.27986355061486817 0.1910796785447933 0 -0.27818468670628438 0.21647471740042029 0 -0.30574092432619687 0.20587680756979479 0 -0.30747317788373157 0.17688704688558851 0 -0.30574092432619687 0.20587680756979479 0 -0.30747317788373157 0.17688704688558851 0 -0.29430175991254198 0.1847804293757481 0 -0.30574092432619687 0.20587680756979479 0 -0.27986355061486817 0.1910796785447933 0 -0.29430175991254198 0.1847804293757481 0 -0.27986355061486817 0.1910796785447933 0 -0.26437973428006561 0.19785369631408281 0 -0.26117613079033808 0.18620283739122509 0 -0.27986355061486817 0.1910796785447933 0 -0.26437973428006561 0.19785369631408281 0 -0.27818468670628438 0.21647471740042029 0 -0.26437973428006561 0.19785369631408281 0 -0.25307916292494348 0.21167187204172461 0 -0.24765414147652101 0.1881587877537311 0 -0.26437973428006561 0.19785369631408281 0 -0.26117613079033808 0.18620283739122509 0 -0.24765414147652101 0.1881587877537311 0 -0.25307916292494348 0.21167187204172461 0 -0.24765414147652101 0.1881587877537311 0 -0.26437973428006561 0.19785369631408281 0 -0.25307916292494348 0.21167187204172461 0 -0.27818468670628438 0.21647471740042029 0 -0.28171657965588792 0.23878944274882741 0 -0.27818468670628438 0.21647471740042029 0 -0.25850418437336659 0.23518495632971809 0 -0.25307916292494348 0.21167187204172461 0 -0.25850418437336659 0.23518495632971809 0 -0.25307916292494348 0.21167187204172461 0 -0.27818468670628438 0.21647471740042029 0 -0.25850418437336659 0.23518495632971809 0 -0.25307916292494348 0.21167187204172461 0 -0.25850418437336659 0.23518495632971809 0 -0.24482913736262379 0.21702269839038399 0 -0.25850418437336659 0.23518495632971809 0 -0.26392920582178991 0.25869804061771162 0 -0.25850418437336659 0.23518495632971809 0 -0.26392920582178991 0.25869804061771162 0 -0.24200413324872599 0.24588660902703691 0 -0.28171657965588792 0.23878944274882741 0 -0.25850418437336659 0.23518495632971809 0 -0.26392920582178991 0.25869804061771162 0 -0.28573081660135963 0.1421911302485668 0 -0.29369777211215509 0.15783077083886249 0 -0.26879824329578189 0.16234950162179859 0 -0.28573081660135963 0.1421911302485668 0 -0.30920543144126622 0.14789728620138209 0 -0.29369777211215509 0.15783077083886249 0 -0.28573081660135963 0.1421911302485668 0 -0.30266338990693731 0.1220327588753351 0 -0.28573081660135963 0.1421911302485668 0 -0.27297010639915298 0.12587327195544051 0 -0.30266338990693731 0.1220327588753351 0 -0.32561406666387432 0.13313633223863769 0 -0.30920543144126622 0.14789728620138209 0 -0.30266338990693731 0.1220327588753351 0 -0.28573081660135963 0.1421911302485668 0 -0.30920543144126622 0.14789728620138209 0 -0.30266338990693731 0.1220327588753351 0 -0.30920543144126622 0.14789728620138209 0 -0.30747317788373157 0.17688704688558851 0 -0.29369777211215509 0.15783077083886249 0 -0.30920543144126622 0.14789728620138209 0 -0.30747317788373157 0.17688704688558851 0 -0.27986355061486817 0.1910796785447933 0 -0.29430175991254198 0.1847804293757481 0 -0.28505576422209278 0.17141595469907259 0 -0.30747317788373157 0.17688704688558851 0 -0.29430175991254198 0.1847804293757481 0 -0.28505576422209278 0.17141595469907259 0 -0.30747317788373157 0.17688704688558851 0 -0.29369777211215509 0.15783077083886249 0 -0.28505576422209278 0.17141595469907259 0 -0.29369777211215509 0.15783077083886249 0 -0.28505576422209278 0.17141595469907259 0 -0.26879824329578189 0.16234950162179859 0 -0.28505576422209278 0.17141595469907259 0 -0.26879824329578189 0.16234950162179859 0 -0.26849117520636018 0.1788106557013904 0 -0.27986355061486817 0.1910796785447933 0 -0.28505576422209278 0.17141595469907259 0 -0.26849117520636018 0.1788106557013904 0 -0.27986355061486817 0.1910796785447933 0 -0.26849117520636018 0.1788106557013904 0 -0.26117613079033808 0.18620283739122509 0 -0.26879824329578189 0.16234950162179859 0 -0.26849117520636018 0.1788106557013904 0 -0.25186566999020421 0.1825078729950303 0 -0.26879824329578189 0.16234950162179859 0 -0.25186566999020421 0.1825078729950303 0 -0.26849117520636018 0.1788106557013904 0 -0.26117613079033808 0.18620283739122509 0 -0.25186566999020421 0.1825078729950303 0 -0.26117613079033808 0.18620283739122509 0 -0.25186566999020421 0.1825078729950303 0 -0.24765414147652101 0.1881587877537311 0 -0.26879824329578189 0.16234950162179859 0 -0.2500051023156083 0.1641383188150006 0 -0.26879486197623031 0.14515598754226541 0 -0.26879824329578189 0.16234950162179859 0 -0.25186566999020421 0.1825078729950303 0 -0.2500051023156083 0.1641383188150006 0 -0.2500051023156083 0.1641383188150006 0 -0.26879486197623031 0.14515598754226541 0 -0.252356063154695 0.1401178498762701 0 -0.2500051023156083 0.1641383188150006 0 -0.252356063154695 0.1401178498762701 0 -0.28573081660135963 0.1421911302485668 0 -0.26879824329578189 0.16234950162179859 0 -0.28573081660135963 0.1421911302485668 0 -0.26879824329578189 0.16234950162179859 0 -0.26879486197623031 0.14515598754226541 0 -0.28573081660135963 0.1421911302485668 0 -0.26879486197623031 0.14515598754226541 0 -0.27297010639915298 0.12587327195544051 0 -0.252356063154695 0.1401178498762701 0 -0.25470702399378159 0.1160973809375397 0 -0.27297010639915298 0.12587327195544051 0 -0.252356063154695 0.1401178498762701 0 -0.25470702399378159 0.1160973809375397 0 -0.26879486197623031 0.14515598754226541 0 -0.27297010639915298 0.12587327195544051 0 -0.252356063154695 0.1401178498762701 0 -0.25470702399378159 0.1160973809375397 0 -0.28011357145051552 0.1047844610422409 0 -0.25705798483286829 0.092076911998809158 0 -0.25470702399378159 0.1160973809375397 0 -0.25705798483286829 0.092076911998809158 0 -0.24618490346394989 0.092738089954052416 0 -0.25470702399378159 0.1160973809375397 0 -0.25705798483286829 0.092076911998809158 0 -0.27297010639915298 0.12587327195544051 0 -0.25470702399378159 0.1160973809375397 0 -0.28011357145051552 0.1047844610422409 0 -0.28011357145051552 0.1047844610422409 0 -0.30306492761189702 0.1020569943171644 0 -0.30266338990693731 0.1220327588753351 0 -0.27297010639915298 0.12587327195544051 0 -0.28011357145051552 0.1047844610422409 0 -0.30266338990693731 0.1220327588753351 0 -0.28011357145051552 0.1047844610422409 0 -0.30306492761189702 0.1020569943171644 0 -0.29482798394370291 0.082345934485380648 0 -0.30306492761189702 0.1020569943171644 0 -0.30266338990693731 0.1220327588753351 0 -0.32503527506129543 0.1136065007147302 0 -0.31051918075926599 0.070399206940500364 0 -0.29482798394370291 0.082345934485380648 0 -0.29519512185548358 0.057233872553167531 0 -0.31051918075926599 0.070399206940500364 0 -0.29482798394370291 0.082345934485380648 0 -0.3212946726566378 0.090552320343997711 0 -0.30306492761189702 0.1020569943171644 0 -0.29482798394370291 0.082345934485380648 0 -0.3212946726566378 0.090552320343997711 0 -0.28011357145051552 0.1047844610422409 0 -0.29482798394370291 0.082345934485380648 0 -0.27425515050934618 0.08189958781318285 0 -0.29482798394370291 0.082345934485380648 0 -0.27822161337990531 0.065187241303821239 0 -0.29519512185548358 0.057233872553167531 0 -0.29482798394370291 0.082345934485380648 0 -0.27822161337990531 0.065187241303821239 0 -0.27425515050934618 0.08189958781318285 0 -0.27822161337990531 0.065187241303821239 0 -0.27425515050934618 0.08189958781318285 0 -0.25940894567195699 0.068056443060078922 0 -0.28011357145051552 0.1047844610422409 0 -0.27425515050934618 0.08189958781318285 0 -0.25705798483286829 0.092076911998809158 0 -0.27425515050934618 0.08189958781318285 0 -0.25705798483286829 0.092076911998809158 0 -0.25940894567195699 0.068056443060078922 0 -0.25705798483286829 0.092076911998809158 0 -0.25940894567195699 0.068056443060078922 0 -0.24618490346394989 0.092738089954052416 0 -0.25940894567195699 0.068056443060078922 0 -0.24618490346394989 0.092738089954052416 0 -0.25705798483286829 0.092076911998809158 0 -0.25940894567195699 0.068056443060078922 0 -0.25940894567195699 0.068056443060078922 0 -0.25053535301768698 0.05413877055831598 0 -0.25586272071567151 0.048998984643738697 0 -0.25940894567195699 0.068056443060078922 0 -0.27142028776941057 0.045638206660889448 0 -0.25940894567195699 0.068056443060078922 0 -0.25586272071567151 0.048998984643738697 0 -0.26211122980240142 0.040446399141084229 0 -0.25940894567195699 0.068056443060078922 0 -0.26211122980240142 0.040446399141084229 0 -0.27142028776941057 0.045638206660889448 0 -0.25940894567195699 0.068056443060078922 0 -0.26211122980240142 0.040446399141084229 0 -0.25053535301768698 0.05413877055831598 0 -0.25586272071567151 0.048998984643738697 0 -0.26282556257986989 0.033147847839067261 0 -0.25053535301768698 0.05413877055831598 0 -0.26282556257986989 0.033147847839067261 0 -0.25053535301768698 0.05413877055831598 0 -0.25259112912022519 0.039322587031199438 0 -0.26282556257986989 0.033147847839067261 0 -0.25586272071567151 0.048998984643738697 0 -0.26282556257986989 0.033147847839067261 0 -0.26211122980240142 0.040446399141084229 0 -0.25259112912022519 0.039322587031199438 0 -0.26282556257986989 0.033147847839067261 0 -0.25180929196985008 0.02887374275159469 0 -0.26282556257986989 0.033147847839067261 0 -0.26211122980240142 0.040446399141084229 0 -0.25586272071567151 0.048998984643738697 0 -0.26211122980240142 0.040446399141084229 0 -0.27142028776941057 0.045638206660889448 0 -0.28343162986686238 0.023219970261699179 0 -0.26211122980240142 0.040446399141084229 0 -0.27142028776941057 0.045638206660889448 0 -0.27722559122219032 0.019758765248496259 0 -0.27822161337990531 0.065187241303821239 0 -0.25940894567195699 0.068056443060078922 0 -0.27142028776941057 0.045638206660889448 0 -0.25075332901269842 0.0047790403482732462 0 -0.25490883242214929 0.017970069340037961 0 -0.26564731940149422 0.0043171157572882424 0 -0.26282556257986989 0.033147847839067261 0 -0.25490883242214929 0.017970069340037961 0 -0.26564731940149422 0.0043171157572882424 0 -0.26282556257986989 0.033147847839067261 0 -0.26564731940149422 0.0043171157572882424 0 -0.26282556257986989 0.033147847839067261 0 -0.25490883242214929 0.017970069340037961 0 -0.25180929196985008 0.02887374275159469 0 -0.26211122980240142 0.040446399141084229 0 -0.27722559122219032 0.019758765248496259 0 -0.26282556257986989 0.033147847839067261 0 -0.27408900796242069 0.01391057524567493 0 -0.26282556257986989 0.033147847839067261 0 -0.27408900796242069 0.01391057524567493 0 -0.26564731940149422 0.0043171157572882424 0 -0.27142028776941057 0.045638206660889448 0 -0.27722559122219032 0.019758765248496259 0 -0.28343162986686238 0.023219970261699179 0 -0.26282556257986989 0.033147847839067261 0 -0.26211122980240142 0.040446399141084229 0 -0.27722559122219032 0.019758765248496259 0 -0.26282556257986989 0.033147847839067261 0 -0.27722559122219032 0.019758765248496259 0 -0.27408900796242069 0.01391057524567493 0 -0.28535245334497211 -0.0053266973477172214 0 -0.27408900796242069 0.01391057524567493 0 -0.28535245334497211 -0.0053266973477172214 0 -0.27408900796242069 0.01391057524567493 0 -0.27488127168742982 0.001551832112778464 0 -0.29233995264197948 -0.00092886864409157111 0 -0.27722559122219032 0.019758765248496259 0 -0.27408900796242069 0.01391057524567493 0 -0.27408900796242069 0.01391057524567493 0 -0.27488127168742982 0.001551832112778464 0 -0.26564731940149422 0.0043171157572882424 0 -0.29544297196431413 0.00080173386250895207 0 -0.28343162986686238 0.023219970261699179 0 -0.30856773750253152 0.01570011072182877 0 -0.29233995264197948 -0.00092886864409157111 0 -0.27722559122219032 0.019758765248496259 0 -0.28343162986686238 0.023219970261699179 0 -0.29233995264197948 -0.00092886864409157111 0 -0.27722559122219032 0.019758765248496259 0 -0.29233995264197948 -0.00092886864409157111 0 -0.29544297196431413 0.00080173386250895207 0 -0.28343162986686238 0.023219970261699179 0 -0.29233995264197948 -0.00092886864409157111 0 -0.28535245334497211 -0.0053266973477172214 0 -0.27408900796242069 0.01391057524567493 0 -0.29544297196431413 0.00080173386250895207 0 -0.28343162986686238 0.023219970261699179 0 -0.28343162986686238 0.023219970261699179 0 -0.30856773750253152 0.01570011072182877 0 -0.29484765688978559 0.038735209135818592 0 -0.30856773750253152 0.01570011072182877 0 -0.29484765688978559 0.038735209135818592 0 -0.3220210935513349 0.034546952079693972 0 -0.31213629311396712 -0.0038169638218248851 0 -0.29544297196431413 0.00080173386250895207 0 -0.30856773750253152 0.01570011072182877 0 -0.27142028776941057 0.045638206660889448 0 -0.29519512185548358 0.057233872553167531 0 -0.29484765688978559 0.038735209135818592 0 -0.27822161337990531 0.065187241303821239 0 -0.27142028776941057 0.045638206660889448 0 -0.29519512185548358 0.057233872553167531 0 -0.27142028776941057 0.045638206660889448 0 -0.28343162986686238 0.023219970261699179 0 -0.29484765688978559 0.038735209135818592 0 -0.29484765688978559 0.038735209135818592 0 -0.31364141853697541 0.054282460321266157 0 -0.3220210935513349 0.034546952079693972 0 -0.31051918075926599 0.070399206940500364 0 -0.29519512185548358 0.057233872553167531 0 -0.31364141853697541 0.054282460321266157 0 -0.29519512185548358 0.057233872553167531 0 -0.29484765688978559 0.038735209135818592 0 -0.31364141853697541 0.054282460321266157 0 -0.31364141853697541 0.054282460321266157 0 -0.33913788646409981 0.050152425408102587 0 -0.32810457734869303 0.067142454823705677 0 -0.31364141853697541 0.054282460321266157 0 -0.3220210935513349 0.034546952079693972 0 -0.33913788646409981 0.050152425408102587 0 -0.3220210935513349 0.034546952079693972 0 -0.33913788646409981 0.050152425408102587 0 -0.34130392734214288 0.030556849732063011 0 -0.31213629311396712 -0.0038169638218248851 0 -0.30856773750253152 0.01570011072182877 0 -0.32747261398838751 0.00047754150518899968 0 -0.30856773750253152 0.01570011072182877 0 -0.32747261398838751 0.00047754150518899968 0 -0.33014497218495192 0.018791595967475271 0 -0.30856773750253152 0.01570011072182877 0 -0.3220210935513349 0.034546952079693972 0 -0.33014497218495192 0.018791595967475271 0 -0.3220210935513349 0.034546952079693972 0 -0.33014497218495192 0.018791595967475271 0 -0.34130392734214288 0.030556849732063011 0 -0.33014497218495192 0.018791595967475271 0 -0.34130392734214288 0.030556849732063011 0 -0.35135948854036247 0.01267652579860158 0 -0.3504401279705151 -0.0084957894202337958 0 -0.32747261398838751 0.00047754150518899968 0 -0.35135948854036247 0.01267652579860158 0 -0.32747261398838751 0.00047754150518899968 0 -0.33014497218495192 0.018791595967475271 0 -0.35135948854036247 0.01267652579860158 0 -0.36736441996151942 -0.0023821458770326952 0 -0.3504401279705151 -0.0084957894202337958 0 -0.35135948854036247 0.01267652579860158 0 -0.34130392734214288 0.030556849732063011 0 -0.35135948854036247 0.01267652579860158 0 -0.35949936590191711 0.034710696796602797 0 -0.37533487806339649 0.017993216157502521 0 -0.35135948854036247 0.01267652579860158 0 -0.35949936590191711 0.034710696796602797 0 -0.36736441996151942 -0.0023821458770326952 0 -0.37533487806339649 0.017993216157502521 0 -0.38141544547160561 0.001080455235455916 0 -0.36736441996151942 -0.0023821458770326952 0 -0.37533487806339649 0.017993216157502521 0 -0.35135948854036247 0.01267652579860158 0 -0.33913788646409981 0.050152425408102587 0 -0.36050406514925371 0.054939812369137822 0 -0.349358627963545 0.074448759559264624 0 -0.33913788646409981 0.050152425408102587 0 -0.34130392734214288 0.030556849732063011 0 -0.35949936590191711 0.034710696796602797 0 -0.33913788646409981 0.050152425408102587 0 -0.35949936590191711 0.034710696796602797 0 -0.36050406514925371 0.054939812369137822 0 -0.38084873149946269 0.045749326134590658 0 -0.35949936590191711 0.034710696796602797 0 -0.36050406514925371 0.054939812369137822 0 -0.38084873149946269 0.045749326134590658 0 -0.37533487806339649 0.017993216157502521 0 -0.35949936590191711 0.034710696796602797 0 -0.38084873149946269 0.045749326134590658 0 -0.36050406514925371 0.054939812369137822 0 -0.37348826600536222 0.069772375425279087 0 -0.36050406514925371 0.054939812369137822 0 -0.37348826600536222 0.069772375425279087 0 -0.349358627963545 0.074448759559264624 0 -0.37348826600536222 0.069772375425279087 0 -0.349358627963545 0.074448759559264624 0 -0.37245370508591402 0.088546037331415486 0 -0.349358627963545 0.074448759559264624 0 -0.37245370508591402 0.088546037331415486 0 -0.34774109858452318 0.099847320590031166 0 -0.37245370508591402 0.088546037331415486 0 -0.37028934157667909 0.10605209251489139 0 -0.34774109858452318 0.099847320590031166 0 -0.37764964658113392 0.12016294801351909 0 -0.36620817728816463 0.13276880627010529 0 -0.35902834502330661 0.1178480332884508 0 -0.37764964658113392 0.12016294801351909 0 -0.37028934157667909 0.10605209251489139 0 -0.35902834502330661 0.1178480332884508 0 -0.35902834502330661 0.1178480332884508 0 -0.34774109858452318 0.099847320590031166 0 -0.34261565104166553 0.1208344536125216 0 -0.37028934157667909 0.10605209251489139 0 -0.35902834502330661 0.1178480332884508 0 -0.34774109858452318 0.099847320590031166 0 -0.34774109858452318 0.099847320590031166 0 -0.32503527506129543 0.1136065007147302 0 -0.3212946726566378 0.090552320343997711 0 -0.32561406666387432 0.13313633223863769 0 -0.34261565104166553 0.1208344536125216 0 -0.32503527506129543 0.1136065007147302 0 -0.34774109858452318 0.099847320590031166 0 -0.34261565104166553 0.1208344536125216 0 -0.32503527506129543 0.1136065007147302 0 -0.32561406666387432 0.13313633223863769 0 -0.30266338990693731 0.1220327588753351 0 -0.32503527506129543 0.1136065007147302 0 -0.30306492761189702 0.1020569943171644 0 -0.32503527506129543 0.1136065007147302 0 -0.3212946726566378 0.090552320343997711 0 -0.31051918075926599 0.070399206940500364 0 -0.3212946726566378 0.090552320343997711 0 -0.32810457734869303 0.067142454823705677 0 -0.31051918075926599 0.070399206940500364 0 -0.31364141853697541 0.054282460321266157 0 -0.32810457734869303 0.067142454823705677 0 -0.349358627963545 0.074448759559264624 0 -0.3212946726566378 0.090552320343997711 0 -0.32810457734869303 0.067142454823705677 0 -0.33913788646409981 0.050152425408102587 0 -0.349358627963545 0.074448759559264624 0 -0.32810457734869303 0.067142454823705677 0 -0.349358627963545 0.074448759559264624 0 -0.34774109858452318 0.099847320590031166 0 -0.3212946726566378 0.090552320343997711 0 -0.39227030816836389 0.47774999864432532 0 -0.42652832327506213 0.5 0 -0.37187713941782302 0.5 0 -0.39227030816836389 0.47774999864432532 0 -0.3622746873779944 0.47215086585185212 0 -0.37187713941782302 0.5 0 -0.39227030816836389 0.47774999864432532 0 -0.37854298485056348 0.453721899660818 0 -0.3622746873779944 0.47215086585185212 0 -0.37854298485056348 0.453721899660818 0 -0.4033772611099038 0.45384541846157578 0 -0.38665527987840032 0.42996023713276582 0 -0.37854298485056348 0.453721899660818 0 -0.38665527987840032 0.42996023713276582 0 -0.36034934959903042 0.43524351486690882 0 -0.39227030816836389 0.47774999864432532 0 -0.4033772611099038 0.45384541846157578 0 -0.41934060928563138 0.47126246899838398 0 -0.37854298485056348 0.453721899660818 0 -0.4033772611099038 0.45384541846157578 0 -0.39227030816836389 0.47774999864432532 0 -0.37854298485056348 0.453721899660818 0 -0.4033772611099038 0.45384541846157578 0 -0.42835573545589811 0.44995290834172569 0 -0.41934060928563138 0.47126246899838398 0 -0.45375069671189783 0.46601809891421858 0 -0.4033772611099038 0.45384541846157578 0 -0.42835573545589811 0.44995290834172569 0 -0.41934060928563138 0.47126246899838398 0 -0.4033772611099038 0.45384541846157578 0 -0.42835573545589811 0.44995290834172569 0 -0.40895595939191942 0.42861688338692722 0 -0.39227030816836389 0.47774999864432532 0 -0.42652832327506213 0.5 0 -0.41934060928563138 0.47126246899838398 0 -0.42652832327506213 0.5 0 -0.41934060928563138 0.47126246899838398 0 -0.45375069671189783 0.46601809891421858 0 -0.5 0.5 0 -0.48714976681075511 0.43808372343399721 0 -0.5 0.40417471060183402 0 -0.42652832327506213 0.5 0 -0.5 0.5 0 -0.45375069671189783 0.46601809891421858 0 -0.5 0.5 0 -0.48714976681075511 0.43808372343399721 0 -0.45375069671189783 0.46601809891421858 0 -0.42835573545589811 0.44995290834172569 0 -0.45375069671189783 0.46601809891421858 0 -0.45396431569102957 0.43450597969194932 0 -0.48714976681075511 0.43808372343399721 0 -0.45375069671189783 0.46601809891421858 0 -0.45396431569102957 0.43450597969194932 0 -0.42835573545589811 0.44995290834172569 0 -0.45396431569102957 0.43450597969194932 0 -0.43123066462312099 0.428753164033572 0 -0.44698129283610127 0.40721000264550761 0 -0.45396431569102957 0.43450597969194932 0 -0.43123066462312099 0.428753164033572 0 -0.44698129283610127 0.40721000264550761 0 -0.43123066462312099 0.428753164033572 0 -0.44698129283610127 0.40721000264550761 0 -0.45396431569102957 0.43450597969194932 0 -0.47494084392991692 0.41187528234572041 0 -0.48714976681075511 0.43808372343399721 0 -0.47494084392991692 0.41187528234572041 0 -0.48714976681075511 0.43808372343399721 0 -0.45396431569102957 0.43450597969194932 0 -0.47494084392991692 0.41187528234572041 0 -0.48714976681075511 0.43808372343399721 0 -0.47494084392991692 0.41187528234572041 0 -0.5 0.40417471060183402 0 -0.5 0.40417471060183402 0 -0.4737422444071176 0.37060730395965691 0 -0.48475256776515357 0.35554776666187049 0 -0.47494084392991692 0.41187528234572041 0 -0.5 0.40417471060183402 0 -0.46273192104908067 0.38566684125744283 0 -0.5 0.40417471060183402 0 -0.46273192104908067 0.38566684125744283 0 -0.4737422444071176 0.37060730395965691 0 -0.47494084392991692 0.41187528234572041 0 -0.46273192104908067 0.38566684125744283 0 -0.46273192104908067 0.38566684125744283 0 -0.4737422444071176 0.37060730395965691 0 -0.46273192104908067 0.38566684125744283 0 -0.45402513744204742 0.36697631241550938 0 -0.44698129283610127 0.40721000264550761 0 -0.46273192104908067 0.38566684125744283 0 -0.44698129283610127 0.40721000264550761 0 -0.47494084392991692 0.41187528234572041 0 -0.46273192104908067 0.38566684125744283 0 -0.44698129283610127 0.40721000264550761 0 -0.46273192104908067 0.38566684125744283 0 -0.43971089652733092 0.38588880054359409 0 -0.46273192104908067 0.38566684125744283 0 -0.43971089652733092 0.38588880054359409 0 -0.45402513744204742 0.36697631241550938 0 -0.43971089652733092 0.38588880054359409 0 -0.42101393756287581 0.38167266039086911 0 -0.42113244254331872 0.40390753086288678 0 -0.43971089652733092 0.38588880054359409 0 -0.42101393756287581 0.38167266039086911 0 -0.4352648823210804 0.36766757722974269 0 -0.42101393756287581 0.38167266039086911 0 -0.42113244254331872 0.40390753086288678 0 -0.40248787457492458 0.38581677352401628 0 -0.42113244254331872 0.40390753086288678 0 -0.39754647228695839 0.40939443151572169 0 -0.40248787457492458 0.38581677352401628 0 -0.44698129283610127 0.40721000264550761 0 -0.43971089652733092 0.38588880054359409 0 -0.42113244254331872 0.40390753086288678 0 -0.44698129283610127 0.40721000264550761 0 -0.42113244254331872 0.40390753086288678 0 -0.43123066462312099 0.428753164033572 0 -0.42835573545589811 0.44995290834172569 0 -0.43123066462312099 0.428753164033572 0 -0.40895595939191942 0.42861688338692722 0 -0.42113244254331872 0.40390753086288678 0 -0.43123066462312099 0.428753164033572 0 -0.40895595939191942 0.42861688338692722 0 -0.42113244254331872 0.40390753086288678 0 -0.40895595939191942 0.42861688338692722 0 -0.39754647228695839 0.40939443151572169 0 -0.40895595939191942 0.42861688338692722 0 -0.39754647228695839 0.40939443151572169 0 -0.38665527987840032 0.42996023713276582 0 -0.4033772611099038 0.45384541846157578 0 -0.40895595939191942 0.42861688338692722 0 -0.38665527987840032 0.42996023713276582 0 -0.39754647228695839 0.40939443151572169 0 -0.38665527987840032 0.42996023713276582 0 -0.38259601051331937 0.41119903478337733 0 -0.38665527987840032 0.42996023713276582 0 -0.38259601051331937 0.41119903478337733 0 -0.36908249367241802 0.41635184961289162 0 -0.38259601051331937 0.41119903478337733 0 -0.38513049595684412 0.39576476442101471 0 -0.37242725709595331 0.40301382776538652 0 -0.39754647228695839 0.40939443151572169 0 -0.38259601051331937 0.41119903478337733 0 -0.38513049595684412 0.39576476442101471 0 -0.38599213586134828 0.38491957915287578 0 -0.39086875305058671 0.37120370263054531 0 -0.36548141986303823 0.38689307603592688 0 -0.38513049595684412 0.39576476442101471 0 -0.38599213586134828 0.38491957915287578 0 -0.36548141986303823 0.38689307603592688 0 -0.39086875305058671 0.37120370263054531 0 -0.36548141986303823 0.38689307603592688 0 -0.38513049595684412 0.39576476442101471 0 -0.38599213586134828 0.38491957915287578 0 -0.40248787457492458 0.38581677352401628 0 -0.38599213586134828 0.38491957915287578 0 -0.40248787457492458 0.38581677352401628 0 -0.39086875305058671 0.37120370263054531 0 -0.39754647228695839 0.40939443151572169 0 -0.38513049595684412 0.39576476442101471 0 -0.40248787457492458 0.38581677352401628 0 -0.38823586963210571 0.36248368955566218 0 -0.41625608623813509 0.35551432922516357 0 -0.39719923180107358 0.34708549358319379 0 -0.38823586963210571 0.36248368955566218 0 -0.41625608623813509 0.35551432922516357 0 -0.40248787457492458 0.38581677352401628 0 -0.39086875305058671 0.37120370263054531 0 -0.41625608623813509 0.35551432922516357 0 -0.39086875305058671 0.37120370263054531 0 -0.41625608623813509 0.35551432922516357 0 -0.39086875305058671 0.37120370263054531 0 -0.38823586963210571 0.36248368955566218 0 -0.41625608623813509 0.35551432922516357 0 -0.39086875305058671 0.37120370263054531 0 -0.38823586963210571 0.36248368955566218 0 -0.36021565302607611 0.36945304988616112 0 -0.38823586963210571 0.36248368955566218 0 -0.38621219839860421 0.35130079931097191 0 -0.37381994658517559 0.35379367276160528 0 -0.39719923180107358 0.34708549358319379 0 -0.38823586963210571 0.36248368955566218 0 -0.38621219839860421 0.35130079931097191 0 -0.38621219839860421 0.35130079931097191 0 -0.37825637517968769 0.34322058707867509 0 -0.38789775681623329 0.34235334790747179 0 -0.39719923180107358 0.34708549358319379 0 -0.38621219839860421 0.35130079931097191 0 -0.38789775681623329 0.34235334790747179 0 -0.38621219839860421 0.35130079931097191 0 -0.37825637517968769 0.34322058707867509 0 -0.37381994658517559 0.35379367276160528 0 -0.37825637517968769 0.34322058707867509 0 -0.37980943950020618 0.33080559235268819 0 -0.36796863622532899 0.34081168497163888 0 -0.37825637517968769 0.34322058707867509 0 -0.37980943950020618 0.33080559235268819 0 -0.38789775681623329 0.34235334790747179 0 -0.37980943950020618 0.33080559235268819 0 -0.38789775681623329 0.34235334790747179 0 -0.39494320231966662 0.33385446118282441 0 -0.37980943950020618 0.33080559235268819 0 -0.39185263434382572 0.32320511896544851 0 -0.39494320231966662 0.33385446118282441 0 -0.38134949029816961 0.32081727900417167 0 -0.38287721312227713 0.30952934333549048 0 -0.37085867422636931 0.3197290613630594 0 -0.37980943950020618 0.33080559235268819 0 -0.38134949029816961 0.32081727900417167 0 -0.37085867422636931 0.3197290613630594 0 -0.37980943950020618 0.33080559235268819 0 -0.38134949029816961 0.32081727900417167 0 -0.39185263434382572 0.32320511896544851 0 -0.38134949029816961 0.32081727900417167 0 -0.39185263434382572 0.32320511896544851 0 -0.38287721312227713 0.30952934333549048 0 -0.39185263434382572 0.32320511896544851 0 -0.39769387179737747 0.31063904144471222 0 -0.38287721312227713 0.30952934333549048 0 -0.39185263434382572 0.32320511896544851 0 -0.40435293555957802 0.3230572634692912 0 -0.39769387179737747 0.31063904144471222 0 -0.39185263434382572 0.32320511896544851 0 -0.40435293555957802 0.3230572634692912 0 -0.39494320231966662 0.33385446118282441 0 -0.40435293555957802 0.3230572634692912 0 -0.41294196261998639 0.31128827352804828 0 -0.39769387179737747 0.31063904144471222 0 -0.39719923180107358 0.34708549358319379 0 -0.38789775681623329 0.34235334790747179 0 -0.39494320231966662 0.33385446118282441 0 -0.40435293555957802 0.3230572634692912 0 -0.39494320231966662 0.33385446118282441 0 -0.40854721589708309 0.33661995081885271 0 -0.39719923180107358 0.34708549358319379 0 -0.39494320231966662 0.33385446118282441 0 -0.40854721589708309 0.33661995081885271 0 -0.40854721589708309 0.33661995081885271 0 -0.42322263430398088 0.33432761906997382 0 -0.41625608623813509 0.35551432922516357 0 -0.40854721589708309 0.33661995081885271 0 -0.41903566487491478 0.32235035137764401 0 -0.42322263430398088 0.33432761906997382 0 -0.41903566487491478 0.32235035137764401 0 -0.43083767562780612 0.317200649740221 0 -0.41294196261998639 0.31128827352804828 0 -0.40435293555957802 0.3230572634692912 0 -0.41903566487491478 0.32235035137764401 0 -0.41294196261998639 0.31128827352804828 0 -0.40435293555957802 0.3230572634692912 0 -0.40854721589708309 0.33661995081885271 0 -0.41903566487491478 0.32235035137764401 0 -0.41903566487491478 0.32235035137764401 0 -0.43083767562780612 0.317200649740221 0 -0.42322263430398088 0.33432761906997382 0 -0.43083767562780612 0.317200649740221 0 -0.44143652888196411 0.33995281418798812 0 -0.42322263430398088 0.33432761906997382 0 -0.41625608623813509 0.35551432922516357 0 -0.44143652888196411 0.33995281418798812 0 -0.43083767562780612 0.317200649740221 0 -0.42322263430398088 0.33432761906997382 0 -0.44143652888196411 0.33995281418798812 0 -0.41625608623813509 0.35551432922516357 0 -0.4352648823210804 0.36766757722974269 0 -0.44531835383501278 0.34828578357357659 0 -0.41625608623813509 0.35551432922516357 0 -0.44531835383501278 0.34828578357357659 0 -0.44143652888196411 0.33995281418798812 0 -0.41625608623813509 0.35551432922516357 0 -0.44143652888196411 0.33995281418798812 0 -0.41625608623813509 0.35551432922516357 0 -0.44531835383501278 0.34828578357357659 0 -0.39719923180107358 0.34708549358319379 0 -0.40854721589708309 0.33661995081885271 0 -0.41625608623813509 0.35551432922516357 0 -0.42101393756287581 0.38167266039086911 0 -0.40248787457492458 0.38581677352401628 0 -0.41625608623813509 0.35551432922516357 0 -0.42101393756287581 0.38167266039086911 0 -0.41625608623813509 0.35551432922516357 0 -0.4352648823210804 0.36766757722974269 0 -0.43971089652733092 0.38588880054359409 0 -0.4352648823210804 0.36766757722974269 0 -0.45402513744204742 0.36697631241550938 0 -0.5 0.40417471060183402 0 -0.48475256776515357 0.35554776666187049 0 -0.5 0.3324755746234978 0 -0.4352648823210804 0.36766757722974269 0 -0.44531835383501278 0.34828578357357659 0 -0.45402513744204742 0.36697631241550938 0 -0.44531835383501278 0.34828578357357659 0 -0.45402513744204742 0.36697631241550938 0 -0.44531835383501278 0.34828578357357659 0 -0.44143652888196411 0.33995281418798812 0 -0.44531835383501278 0.34828578357357659 0 -0.46638568776603351 0.34304578691571302 0 -0.44531835383501278 0.34828578357357659 0 -0.46588156733558272 0.35794288650331679 0 -0.46638568776603351 0.34304578691571302 0 -0.44531835383501278 0.34828578357357659 0 -0.46588156733558272 0.35794288650331679 0 -0.45402513744204742 0.36697631241550938 0 -0.46273192104908067 0.38566684125744283 0 -0.45402513744204742 0.36697631241550938 0 -0.4737422444071176 0.37060730395965691 0 -0.46588156733558272 0.35794288650331679 0 -0.45402513744204742 0.36697631241550938 0 -0.4737422444071176 0.37060730395965691 0 -0.46588156733558272 0.35794288650331679 0 -0.4737422444071176 0.37060730395965691 0 -0.48475256776515357 0.35554776666187049 0 -0.4737422444071176 0.37060730395965691 0 -0.48475256776515357 0.35554776666187049 0 -0.46588156733558272 0.35794288650331679 0 -0.48475256776515357 0.35554776666187049 0 -0.4779948309867737 0.34139488969570297 0 -0.46588156733558272 0.35794288650331679 0 -0.4779948309867737 0.34139488969570297 0 -0.46638568776603351 0.34304578691571302 0 -0.5 0.3324755746234978 0 -0.48123796169838901 0.32851138157004278 0 -0.48291920089191159 0.31627377321400618 0 -0.5 0.3324755746234978 0 -0.48123796169838901 0.32851138157004278 0 -0.4779948309867737 0.34139488969570297 0 -0.48475256776515357 0.35554776666187049 0 -0.5 0.3324755746234978 0 -0.4779948309867737 0.34139488969570297 0 -0.4779948309867737 0.34139488969570297 0 -0.4697112013554835 0.33084594189977712 0 -0.46638568776603351 0.34304578691571302 0 -0.48123796169838901 0.32851138157004278 0 -0.4779948309867737 0.34139488969570297 0 -0.4697112013554835 0.33084594189977712 0 -0.48123796169838901 0.32851138157004278 0 -0.4697112013554835 0.33084594189977712 0 -0.4738787635635342 0.3197051407486674 0 -0.4697112013554835 0.33084594189977712 0 -0.4738787635635342 0.3197051407486674 0 -0.46584236442010463 0.32006697209332541 0 -0.48123796169838901 0.32851138157004278 0 -0.48291920089191159 0.31627377321400618 0 -0.4738787635635342 0.3197051407486674 0 -0.48291920089191159 0.31627377321400618 0 -0.4738787635635342 0.3197051407486674 0 -0.4763598711412238 0.30920677232322891 0 -0.48291920089191159 0.31627377321400618 0 -0.4763598711412238 0.30920677232322891 0 -0.4738787635635342 0.3197051407486674 0 -0.4651934108690739 0.31081288585246158 0 -0.4763598711412238 0.30920677232322891 0 -0.4738787635635342 0.3197051407486674 0 -0.4763598711412238 0.30920677232322891 0 -0.4738787635635342 0.3197051407486674 0 -0.46584236442010463 0.32006697209332541 0 -0.4651934108690739 0.31081288585246158 0 -0.46584236442010463 0.32006697209332541 0 -0.4543291068365804 0.31535767713404828 0 -0.4651934108690739 0.31081288585246158 0 -0.4697112013554835 0.33084594189977712 0 -0.46584236442010463 0.32006697209332541 0 -0.46119978784279497 0.32663668409906238 0 -0.46119978784279497 0.32663668409906238 0 -0.4543291068365804 0.31535767713404828 0 -0.45257079975964642 0.32654547960385849 0 -0.46584236442010463 0.32006697209332541 0 -0.46119978784279497 0.32663668409906238 0 -0.4543291068365804 0.31535767713404828 0 -0.44531835383501278 0.34828578357357659 0 -0.46638568776603351 0.34304578691571302 0 -0.45855883004509418 0.33584376124511928 0 -0.4697112013554835 0.33084594189977712 0 -0.46638568776603351 0.34304578691571302 0 -0.45855883004509418 0.33584376124511928 0 -0.4697112013554835 0.33084594189977712 0 -0.46119978784279497 0.32663668409906238 0 -0.45855883004509418 0.33584376124511928 0 -0.46119978784279497 0.32663668409906238 0 -0.45855883004509418 0.33584376124511928 0 -0.45257079975964642 0.32654547960385849 0 -0.45855883004509418 0.33584376124511928 0 -0.44942661678455992 0.33501493939351618 0 -0.45257079975964642 0.32654547960385849 0 -0.44942661678455992 0.33501493939351618 0 -0.44143652888196411 0.33995281418798812 0 -0.44452856516523798 0.32390223268748181 0 -0.44942661678455992 0.33501493939351618 0 -0.44143652888196411 0.33995281418798812 0 -0.44531835383501278 0.34828578357357659 0 -0.44942661678455992 0.33501493939351618 0 -0.44143652888196411 0.33995281418798812 0 -0.44531835383501278 0.34828578357357659 0 -0.45855883004509418 0.33584376124511928 0 -0.44942661678455992 0.33501493939351618 0 -0.44942661678455992 0.33501493939351618 0 -0.45257079975964642 0.32654547960385849 0 -0.44452856516523798 0.32390223268748181 0 -0.43083767562780612 0.317200649740221 0 -0.44143652888196411 0.33995281418798812 0 -0.44452856516523798 0.32390223268748181 0 -0.4543291068365804 0.31535767713404828 0 -0.44452856516523798 0.32390223268748181 0 -0.44302480521694898 0.31225563128366901 0 -0.4543291068365804 0.31535767713404828 0 -0.45257079975964642 0.32654547960385849 0 -0.44452856516523798 0.32390223268748181 0 -0.43083767562780612 0.317200649740221 0 -0.44452856516523798 0.32390223268748181 0 -0.44302480521694898 0.31225563128366901 0 -0.44302480521694898 0.31225563128366901 0 -0.45049764352666027 0.30195698287209999 0 -0.4355531054466078 0.30347835577556298 0 -0.4543291068365804 0.31535767713404828 0 -0.44302480521694898 0.31225563128366901 0 -0.45049764352666027 0.30195698287209999 0 -0.44963951966589888 0.28041835111935542 0 -0.42953310713342252 0.28241904081333541 0 -0.4355531054466078 0.30347835577556298 0 -0.45049764352666027 0.30195698287209999 0 -0.44963951966589888 0.28041835111935542 0 -0.4355531054466078 0.30347835577556298 0 -0.44963951966589888 0.28041835111935542 0 -0.4355531054466078 0.30347835577556298 0 -0.45049764352666027 0.30195698287209999 0 -0.46299969540356101 0.29481256172129239 0 -0.44963951966589888 0.28041835111935542 0 -0.46299969540356101 0.29481256172129239 0 -0.4692324342677055 0.27540994359083087 0 -0.44963951966589888 0.28041835111935542 0 -0.46299969540356101 0.29481256172129239 0 -0.44963951966589888 0.28041835111935542 0 -0.46299969540356101 0.29481256172129239 0 -0.45775066384943908 0.30572819109420718 0 -0.4651934108690739 0.31081288585246158 0 -0.46299969540356101 0.29481256172129239 0 -0.4651934108690739 0.31081288585246158 0 -0.4763598711412238 0.30920677232322891 0 -0.4543291068365804 0.31535767713404828 0 -0.45775066384943908 0.30572819109420718 0 -0.4651934108690739 0.31081288585246158 0 -0.4543291068365804 0.31535767713404828 0 -0.45049764352666027 0.30195698287209999 0 -0.45775066384943908 0.30572819109420718 0 -0.45049764352666027 0.30195698287209999 0 -0.46299969540356101 0.29481256172129239 0 -0.45775066384943908 0.30572819109420718 0 -0.48291920089191159 0.31627377321400618 0 -0.48226990335591902 0.28419951501848251 0 -0.5 0.27895508018905152 0 -0.5 0.3324755746234978 0 -0.48291920089191159 0.31627377321400618 0 -0.5 0.27895508018905152 0 -0.48291920089191159 0.31627377321400618 0 -0.4763598711412238 0.30920677232322891 0 -0.48226990335591902 0.28419951501848251 0 -0.46299969540356101 0.29481256172129239 0 -0.4763598711412238 0.30920677232322891 0 -0.4763598711412238 0.30920677232322891 0 -0.48226990335591902 0.28419951501848251 0 -0.46299969540356101 0.29481256172129239 0 -0.48226990335591902 0.28419951501848251 0 -0.4692324342677055 0.27540994359083087 0 -0.46299969540356101 0.29481256172129239 0 -0.4763598711412238 0.30920677232322891 0 -0.48226990335591902 0.28419951501848251 0 -0.5 0.2390025241795127 0 -0.48817993557061318 0.25919225771373577 0 -0.5 0.27895508018905152 0 -0.48226990335591902 0.28419951501848251 0 -0.48817993557061318 0.25919225771373577 0 -0.48226990335591902 0.28419951501848251 0 -0.48817993557061318 0.25919225771373577 0 -0.5 0.27895508018905152 0 -0.48226990335591902 0.28419951501848251 0 -0.48817993557061318 0.25919225771373577 0 -0.4692324342677055 0.27540994359083087 0 -0.47650671501917191 0.2364357136432215 0 -0.48817993557061318 0.25919225771373577 0 -0.46307311734253531 0.25842703238128828 0 -0.48817993557061318 0.25919225771373577 0 -0.4692324342677055 0.27540994359083087 0 -0.46307311734253531 0.25842703238128828 0 -0.46307311734253531 0.25842703238128828 0 -0.44963951966589888 0.28041835111935542 0 -0.44689721047433412 0.25185497989739181 0 -0.46307311734253531 0.25842703238128828 0 -0.44963951966589888 0.28041835111935542 0 -0.4692324342677055 0.27540994359083087 0 -0.46307311734253531 0.25842703238128828 0 -0.44963951966589888 0.28041835111935542 0 -0.44963951966589888 0.28041835111935542 0 -0.43259411906147188 0.26205369103461568 0 -0.44963951966589888 0.28041835111935542 0 -0.44689721047433412 0.25185497989739181 0 -0.43259411906147188 0.26205369103461568 0 -0.41554871845704427 0.24368903094987671 0 -0.43259411906147188 0.26205369103461568 0 -0.41554871845704427 0.24368903094987671 0 -0.43155030993172733 0.24592972986357681 0 -0.43259411906147188 0.26205369103461568 0 -0.43155030993172733 0.24592972986357681 0 -0.44689721047433412 0.25185497989739181 0 -0.43259411906147188 0.26205369103461568 0 -0.41554871845704427 0.24368903094987671 0 -0.39904111586532792 0.24894415639692191 0 -0.40963996911948719 0.2716963208446882 0 -0.41554871845704427 0.24368903094987671 0 -0.43259411906147188 0.26205369103461568 0 -0.40963996911948719 0.2716963208446882 0 -0.44963951966589888 0.28041835111935542 0 -0.43259411906147188 0.26205369103461568 0 -0.42953310713342252 0.28241904081333541 0 -0.43259411906147188 0.26205369103461568 0 -0.40963996911948719 0.2716963208446882 0 -0.42953310713342252 0.28241904081333541 0 -0.42953310713342252 0.28241904081333541 0 -0.4355531054466078 0.30347835577556298 0 -0.42023882237364663 0.2944484852924546 0 -0.43083767562780612 0.317200649740221 0 -0.4355531054466078 0.30347835577556298 0 -0.42023882237364663 0.2944484852924546 0 -0.43083767562780612 0.317200649740221 0 -0.42023882237364663 0.2944484852924546 0 -0.43083767562780612 0.317200649740221 0 -0.44302480521694898 0.31225563128366901 0 -0.4355531054466078 0.30347835577556298 0 -0.43083767562780612 0.317200649740221 0 -0.41294196261998639 0.31128827352804828 0 -0.42023882237364663 0.2944484852924546 0 -0.41294196261998639 0.31128827352804828 0 -0.42023882237364663 0.2944484852924546 0 -0.40473017791897248 0.29940238800472357 0 -0.40963996911948719 0.2716963208446882 0 -0.42953310713342252 0.28241904081333541 0 -0.42023882237364663 0.2944484852924546 0 -0.40963996911948719 0.2716963208446882 0 -0.42023882237364663 0.2944484852924546 0 -0.40097379277094869 0.28588466565053378 0 -0.40963996911948719 0.2716963208446882 0 -0.42023882237364663 0.2944484852924546 0 -0.42023882237364663 0.2944484852924546 0 -0.40097379277094869 0.28588466565053378 0 -0.40473017791897248 0.29940238800472357 0 -0.40097379277094869 0.28588466565053378 0 -0.39119228131300382 0.29613130972474672 0 -0.40473017791897248 0.29940238800472357 0 -0.40097379277094869 0.28588466565053378 0 -0.39119228131300382 0.29613130972474672 0 -0.38535705535530762 0.2840757489523566 0 -0.41294196261998639 0.31128827352804828 0 -0.40473017791897248 0.29940238800472357 0 -0.39769387179737747 0.31063904144471222 0 -0.39119228131300382 0.29613130972474672 0 -0.40473017791897248 0.29940238800472357 0 -0.39769387179737747 0.31063904144471222 0 -0.38287721312227713 0.30952934333549048 0 -0.37351804857760929 0.29378282502755892 0 -0.36965563605770541 0.30726264183188168 0 -0.39119228131300382 0.29613130972474672 0 -0.38287721312227713 0.30952934333549048 0 -0.37351804857760929 0.29378282502755892 0 -0.39119228131300382 0.29613130972474672 0 -0.39769387179737747 0.31063904144471222 0 -0.38287721312227713 0.30952934333549048 0 -0.38535705535530762 0.2840757489523566 0 -0.37374754166182211 0.27516601888415337 0 -0.37351804857760929 0.29378282502755892 0 -0.39119228131300382 0.29613130972474672 0 -0.38535705535530762 0.2840757489523566 0 -0.37351804857760929 0.29378282502755892 0 -0.38535705535530762 0.2840757489523566 0 -0.39126063677220829 0.27280926282267748 0 -0.37374754166182211 0.27516601888415337 0 -0.3838963946880507 0.26287711679894671 0 -0.39126063677220829 0.27280926282267748 0 -0.37374754166182211 0.27516601888415337 0 -0.3838963946880507 0.26287711679894671 0 -0.39414388130905392 0.26142687537537851 0 -0.39126063677220829 0.27280926282267748 0 -0.3838963946880507 0.26287711679894671 0 -0.37295803574958858 0.26039536504705268 0 -0.37374754166182211 0.27516601888415337 0 -0.37001552923335829 0.2484011340352327 0 -0.38681774245157019 0.25161314930746481 0 -0.37295803574958858 0.26039536504705268 0 -0.38681774245157019 0.25161314930746481 0 -0.3838963946880507 0.26287711679894671 0 -0.37295803574958858 0.26039536504705268 0 -0.38681774245157019 0.25161314930746481 0 -0.3838963946880507 0.26287711679894671 0 -0.39414388130905392 0.26142687537537851 0 -0.39904111586532792 0.24894415639692191 0 -0.40963996911948719 0.2716963208446882 0 -0.39904111586532792 0.24894415639692191 0 -0.40963996911948719 0.2716963208446882 0 -0.39414388130905392 0.26142687537537851 0 -0.39904111586532792 0.24894415639692191 0 -0.38681774245157019 0.25161314930746481 0 -0.39414388130905392 0.26142687537537851 0 -0.40963996911948719 0.2716963208446882 0 -0.39414388130905392 0.26142687537537851 0 -0.39126063677220829 0.27280926282267748 0 -0.40963996911948719 0.2716963208446882 0 -0.40097379277094869 0.28588466565053378 0 -0.39126063677220829 0.27280926282267748 0 -0.40097379277094869 0.28588466565053378 0 -0.38535705535530762 0.2840757489523566 0 -0.39126063677220829 0.27280926282267748 0 -0.35732987680655359 0.27079998600169009 0 -0.35767109359384142 0.25643819299583542 0 -0.34195815141655023 0.27232986633104073 0 -0.35732987680655359 0.27079998600169009 0 -0.35520187447286611 0.28500734794213423 0 -0.34195815141655023 0.27232986633104073 0 -0.34051608655218429 0.23834625362947881 0 -0.35767109359384142 0.25643819299583542 0 -0.33600798172510188 0.25614684907030572 0 -0.35767109359384142 0.25643819299583542 0 -0.34195815141655023 0.27232986633104073 0 -0.33600798172510188 0.25614684907030572 0 -0.35732987680655359 0.27079998600169009 0 -0.35767109359384142 0.25643819299583542 0 -0.37295803574958858 0.26039536504705268 0 -0.37001552923335829 0.2484011340352327 0 -0.35767109359384142 0.25643819299583542 0 -0.37295803574958858 0.26039536504705268 0 -0.35732987680655359 0.27079998600169009 0 -0.37374754166182211 0.27516601888415337 0 -0.35520187447286611 0.28500734794213423 0 -0.35732987680655359 0.27079998600169009 0 -0.37295803574958858 0.26039536504705268 0 -0.37374754166182211 0.27516601888415337 0 -0.37374754166182211 0.27516601888415337 0 -0.37351804857760929 0.29378282502755892 0 -0.35520187447286611 0.28500734794213423 0 -0.37351804857760929 0.29378282502755892 0 -0.35771904871551818 0.30167866324602483 0 -0.35520187447286611 0.28500734794213423 0 -0.37351804857760929 0.29378282502755892 0 -0.36965563605770541 0.30726264183188168 0 -0.35771904871551818 0.30167866324602483 0 -0.38287721312227713 0.30952934333549048 0 -0.36965563605770541 0.30726264183188168 0 -0.37085867422636931 0.3197290613630594 0 -0.36965563605770541 0.30726264183188168 0 -0.35771904871551818 0.30167866324602483 0 -0.35656993887951299 0.31583017235813282 0 -0.35771904871551818 0.30167866324602483 0 -0.33873593425224391 0.29196584980043577 0 -0.34247326701976699 0.30991721978985021 0 -0.35771904871551818 0.30167866324602483 0 -0.34247326701976699 0.30991721978985021 0 -0.35656993887951299 0.31583017235813282 0 -0.35520187447286611 0.28500734794213423 0 -0.33873593425224391 0.29196584980043577 0 -0.34195815141655023 0.27232986633104073 0 -0.35771904871551818 0.30167866324602483 0 -0.35520187447286611 0.28500734794213423 0 -0.33873593425224391 0.29196584980043577 0 -0.33873593425224391 0.29196584980043577 0 -0.32544457523407511 0.2804496830588642 0 -0.34195815141655023 0.27232986633104073 0 -0.33873593425224391 0.29196584980043577 0 -0.32216083907750498 0.2923089194124282 0 -0.32544457523407511 0.2804496830588642 0 -0.33873593425224391 0.29196584980043577 0 -0.32783606794931491 0.30234356169256221 0 -0.32216083907750498 0.2923089194124282 0 -0.34247326701976699 0.30991721978985021 0 -0.32783606794931491 0.30234356169256221 0 -0.32321274225505248 0.3187213701076565 0 -0.33873593425224391 0.29196584980043577 0 -0.34247326701976699 0.30991721978985021 0 -0.32783606794931491 0.30234356169256221 0 -0.32783606794931491 0.30234356169256221 0 -0.31377428694570969 0.30235767064562852 0 -0.32321274225505248 0.3187213701076565 0 -0.32783606794931491 0.30234356169256221 0 -0.31377428694570969 0.30235767064562852 0 -0.32216083907750498 0.2923089194124282 0 -0.31377428694570969 0.30235767064562852 0 -0.32216083907750498 0.2923089194124282 0 -0.3128962947816471 0.28574453363994662 0 -0.32216083907750498 0.2923089194124282 0 -0.3128962947816471 0.28574453363994662 0 -0.32544457523407511 0.2804496830588642 0 -0.3128962947816471 0.28574453363994662 0 -0.31711694099655291 0.27633364400762889 0 -0.30796542888677941 0.27268174655801408 0 -0.3128962947816471 0.28574453363994662 0 -0.31711694099655291 0.27633364400762889 0 -0.32544457523407511 0.2804496830588642 0 -0.31711694099655291 0.27633364400762889 0 -0.32216146508371002 0.26645861277369071 0 -0.30796542888677941 0.27268174655801408 0 -0.31711694099655291 0.27633364400762889 0 -0.32216146508371002 0.26645861277369071 0 -0.32544457523407511 0.2804496830588642 0 -0.32216146508371002 0.26645861277369071 0 -0.32544457523407511 0.2804496830588642 0 -0.34195815141655023 0.27232986633104073 0 -0.32216146508371002 0.26645861277369071 0 -0.34195815141655023 0.27232986633104073 0 -0.33600798172510188 0.25614684907030572 0 -0.32607681150539441 0.2417678342781108 0 -0.33600798172510188 0.25614684907030572 0 -0.31538669411996351 0.2525174034936134 0 -0.32216146508371002 0.26645861277369071 0 -0.33600798172510188 0.25614684907030572 0 -0.31538669411996351 0.2525174034936134 0 -0.32216146508371002 0.26645861277369071 0 -0.31538669411996351 0.2525174034936134 0 -0.30796542888677941 0.27268174655801408 0 -0.31538669411996351 0.2525174034936134 0 -0.30796542888677941 0.27268174655801408 0 -0.30400867076866228 0.23486656825400121 0 -0.31538669411996351 0.2525174034936134 0 -0.30227641721112758 0.26385632893820771 0 -0.31538669411996351 0.2525174034936134 0 -0.30227641721112758 0.26385632893820771 0 -0.30796542888677941 0.27268174655801408 0 -0.30227641721112758 0.26385632893820771 0 -0.30072236483416059 0.28986384169698831 0 -0.30227641721112758 0.26385632893820771 0 -0.29252892087867383 0.27597907154414852 0 -0.30072236483416059 0.28986384169698831 0 -0.30227641721112758 0.26385632893820771 0 -0.30796542888677941 0.27268174655801408 0 -0.30072236483416059 0.28986384169698831 0 -0.30227641721112758 0.26385632893820771 0 -0.29252892087867383 0.27597907154414852 0 -0.29118501966935029 0.26447880224842157 0 -0.29252892087867383 0.27597907154414852 0 -0.2816234460903419 0.27187504988166172 0 -0.29118501966935029 0.26447880224842157 0 -0.29252892087867383 0.27597907154414852 0 -0.2816234460903419 0.27187504988166172 0 -0.28476398772569678 0.28602109228730599 0 -0.29439235515317991 0.24935780631230101 0 -0.29118501966935029 0.26447880224842157 0 -0.28309371838124431 0.25740643330103258 0 -0.29439235515317991 0.24935780631230101 0 -0.30227641721112758 0.26385632893820771 0 -0.29118501966935029 0.26447880224842157 0 -0.2816234460903419 0.27187504988166172 0 -0.29118501966935029 0.26447880224842157 0 -0.28309371838124431 0.25740643330103258 0 -0.2816234460903419 0.27187504988166172 0 -0.28309371838124431 0.25740643330103258 0 -0.26392920582178991 0.25869804061771162 0 -0.28171657965588792 0.23878944274882741 0 -0.28309371838124431 0.25740643330103258 0 -0.26392920582178991 0.25869804061771162 0 -0.2816234460903419 0.27187504988166172 0 -0.26392920582178991 0.25869804061771162 0 -0.26935422727021269 0.28221112490570521 0 -0.26392920582178991 0.25869804061771162 0 -0.26935422727021269 0.28221112490570521 0 -0.2816234460903419 0.27187504988166172 0 -0.26935422727021269 0.28221112490570521 0 -0.28476398772569678 0.28602109228730599 0 -0.25426667820251952 0.27848082228469789 0 -0.26392920582178991 0.25869804061771162 0 -0.26935422727021269 0.28221112490570521 0 -0.25426667820251952 0.27848082228469789 0 -0.26392920582178991 0.25869804061771162 0 -0.2498269241437682 0.26406117714804328 0 -0.25426667820251952 0.27848082228469789 0 -0.26935422727021269 0.28221112490570521 0 -0.26392920582178991 0.25869804061771162 0 -0.2498269241437682 0.26406117714804328 0 -0.24200413324872599 0.24588660902703691 0 -0.26222850216444749 0.31431748396498332 0 -0.24943243083356259 0.28946269083431869 0 -0.26375218199039441 0.29781172569461078 0 -0.26222850216444749 0.31431748396498332 0 -0.24943243083356259 0.28946269083431869 0 -0.26375218199039441 0.29781172569461078 0 -0.26002428443836317 0.28757029413357249 0 -0.24943243083356259 0.28946269083431869 0 -0.25426667820251952 0.27848082228469789 0 -0.26002428443836317 0.28757029413357249 0 -0.24943243083356259 0.28946269083431869 0 -0.25426667820251952 0.27848082228469789 0 -0.26002428443836317 0.28757029413357249 0 -0.26935422727021269 0.28221112490570521 0 -0.26375218199039441 0.29781172569461078 0 -0.26002428443836317 0.28757029413357249 0 -0.26935422727021269 0.28221112490570521 0 -0.26935422727021269 0.28221112490570521 0 -0.27611761169680371 0.311524931239273 0 -0.26935422727021269 0.28221112490570521 0 -0.28756946636279651 0.30118979037336391 0 -0.28476398772569678 0.28602109228730599 0 -0.26935422727021269 0.28221112490570521 0 -0.28476398772569678 0.28602109228730599 0 -0.26935422727021269 0.28221112490570521 0 -0.27611761169680371 0.311524931239273 0 -0.28756946636279651 0.30118979037336391 0 -0.26375218199039441 0.29781172569461078 0 -0.26935422727021269 0.28221112490570521 0 -0.27611761169680371 0.311524931239273 0 -0.26375218199039441 0.29781172569461078 0 -0.27611761169680371 0.311524931239273 0 -0.26222850216444749 0.31431748396498332 0 -0.28756946636279651 0.30118979037336391 0 -0.3005441636535941 0.29284608962241421 0 -0.29171257988849508 0.31684241359762771 0 -0.27611761169680371 0.311524931239273 0 -0.28756946636279651 0.30118979037336391 0 -0.29171257988849508 0.31684241359762771 0 -0.3005441636535941 0.29284608962241421 0 -0.29171257988849508 0.31684241359762771 0 -0.29252892087867383 0.27597907154414852 0 -0.28476398772569678 0.28602109228730599 0 -0.30072236483416059 0.28986384169698831 0 -0.28476398772569678 0.28602109228730599 0 -0.29326284148081683 0.2924720079879975 0 -0.30072236483416059 0.28986384169698831 0 -0.28476398772569678 0.28602109228730599 0 -0.30072236483416059 0.28986384169698831 0 -0.28756946636279651 0.30118979037336391 0 -0.28476398772569678 0.28602109228730599 0 -0.29326284148081683 0.2924720079879975 0 -0.28756946636279651 0.30118979037336391 0 -0.29326284148081683 0.2924720079879975 0 -0.3005441636535941 0.29284608962241421 0 -0.30796542888677941 0.27268174655801408 0 -0.30072236483416059 0.28986384169698831 0 -0.3005441636535941 0.29284608962241421 0 -0.30796542888677941 0.27268174655801408 0 -0.3005441636535941 0.29284608962241421 0 -0.3128962947816471 0.28574453363994662 0 -0.30796542888677941 0.27268174655801408 0 -0.3005441636535941 0.29284608962241421 0 -0.31377428694570969 0.30235767064562852 0 -0.3128962947816471 0.28574453363994662 0 -0.3005441636535941 0.29284608962241421 0 -0.29326284148081683 0.2924720079879975 0 -0.30072236483416059 0.28986384169698831 0 -0.3005441636535941 0.29284608962241421 0 -0.30072236483416059 0.28986384169698831 0 -0.3005441636535941 0.29284608962241421 0 -0.3005441636535941 0.29284608962241421 0 -0.29883276388899549 0.32148685609386402 0 -0.3005441636535941 0.29284608962241421 0 -0.29883276388899549 0.32148685609386402 0 -0.29171257988849508 0.31684241359762771 0 -0.31377428694570969 0.30235767064562852 0 -0.3005441636535941 0.29284608962241421 0 -0.29883276388899549 0.32148685609386402 0 -0.31377428694570969 0.30235767064562852 0 -0.29883276388899549 0.32148685609386402 0 -0.32321274225505248 0.3187213701076565 0 -0.29883276388899549 0.32148685609386402 0 -0.29712136412439788 0.35012762256531388 0 -0.32152006943860428 0.34309697950749468 0 -0.29883276388899549 0.32148685609386402 0 -0.29712136412439788 0.35012762256531388 0 -0.28288099612339462 0.34083873757284072 0 -0.29171257988849508 0.31684241359762771 0 -0.29883276388899549 0.32148685609386402 0 -0.28288099612339462 0.34083873757284072 0 -0.29712136412439788 0.35012762256531388 0 -0.29883276388899549 0.32148685609386402 0 -0.28288099612339462 0.34083873757284072 0 -0.29171257988849508 0.31684241359762771 0 -0.27611761169680371 0.311524931239273 0 -0.28288099612339462 0.34083873757284072 0 -0.29171257988849508 0.31684241359762771 0 -0.27502457349533238 0.33917227709564779 0 -0.26222850216444749 0.31431748396498332 0 -0.27611761169680371 0.311524931239273 0 -0.27502457349533238 0.33917227709564779 0 -0.26222850216444749 0.31431748396498332 0 -0.27502457349533238 0.33917227709564779 0 -0.26222850216444749 0.31431748396498332 0 -0.26025122078584279 0.32768434967822868 0 -0.27611761169680371 0.311524931239273 0 -0.28288099612339462 0.34083873757284072 0 -0.27611761169680371 0.311524931239273 0 -0.28288099612339462 0.34083873757284072 0 -0.27502457349533238 0.33917227709564779 0 -0.27502457349533238 0.33917227709564779 0 -0.26287549380275332 0.33652427363899468 0 -0.26219427713705812 0.34683485476769149 0 -0.27502457349533238 0.33917227709564779 0 -0.26287549380275332 0.33652427363899468 0 -0.26025122078584279 0.32768434967822868 0 -0.26287549380275332 0.33652427363899468 0 -0.2521142134025085 0.33447309266895769 0 -0.26025122078584279 0.32768434967822868 0 -0.2521142134025085 0.33447309266895769 0 -0.26219427713705812 0.34683485476769149 0 -0.2456581274658958 0.34777764813554263 0 -0.26287549380275332 0.33652427363899468 0 -0.2521142134025085 0.33447309266895769 0 -0.26219427713705812 0.34683485476769149 0 -0.2521142134025085 0.33447309266895769 0 -0.26025122078584279 0.32768434967822868 0 -0.24517794028362941 0.31806958033165439 0 -0.26222850216444749 0.31431748396498332 0 -0.26025122078584279 0.32768434967822868 0 -0.24517794028362941 0.31806958033165439 0 -0.25780002720646422 0.36048977413529881 0 -0.26993216138390991 0.36964643071082998 0 -0.25168870764475709 0.38322255896485879 0 -0.25780002720646422 0.36048977413529881 0 -0.26219427713705812 0.34683485476769149 0 -0.2456581274658958 0.34777764813554263 0 -0.25780002720646422 0.36048977413529881 0 -0.26219427713705812 0.34683485476769149 0 -0.27140201793045482 0.35592187684500931 0 -0.27502457349533238 0.33917227709564779 0 -0.26219427713705812 0.34683485476769149 0 -0.27140201793045482 0.35592187684500931 0 -0.27502457349533238 0.33917227709564779 0 -0.27140201793045482 0.35592187684500931 0 -0.28821134996120967 0.36394151426505611 0 -0.26993216138390991 0.36964643071082998 0 -0.28821134996120967 0.36394151426505611 0 -0.27245644623902332 0.38570123432014419 0 -0.27140201793045482 0.35592187684500931 0 -0.26993216138390991 0.36964643071082998 0 -0.28821134996120967 0.36394151426505611 0 -0.28821134996120967 0.36394151426505611 0 -0.27245644623902332 0.38570123432014419 0 -0.25780002720646422 0.36048977413529881 0 -0.27140201793045482 0.35592187684500931 0 -0.26993216138390991 0.36964643071082998 0 -0.2885644092735391 0.36547174109427488 0 -0.29000511791228589 0.37171604887800169 0 -0.28482682149175981 0.38126648748024472 0 -0.28821134996120967 0.36394151426505611 0 -0.2885644092735391 0.36547174109427488 0 -0.28482682149175981 0.38126648748024472 0 -0.29712136412439788 0.35012762256531388 0 -0.29540996435980271 0.3787683890367638 0 -0.2885644092735391 0.36547174109427488 0 -0.29712136412439788 0.35012762256531388 0 -0.29540996435980271 0.3787683890367638 0 -0.28821134996120967 0.36394151426505611 0 -0.2885644092735391 0.36547174109427488 0 -0.28821134996120967 0.36394151426505611 0 -0.2885644092735391 0.36547174109427488 0 -0.29712136412439788 0.35012762256531388 0 -0.2885644092735391 0.36547174109427488 0 -0.29000511791228589 0.37171604887800169 0 -0.29540996435980271 0.3787683890367638 0 -0.2885644092735391 0.36547174109427488 0 -0.29540996435980271 0.3787683890367638 0 -0.2885644092735391 0.36547174109427488 0 -0.29000511791228589 0.37171604887800169 0 -0.28288099612339462 0.34083873757284072 0 -0.28821134996120967 0.36394151426505611 0 -0.29712136412439788 0.35012762256531388 0 -0.27502457349533238 0.33917227709564779 0 -0.28821134996120967 0.36394151426505611 0 -0.28288099612339462 0.34083873757284072 0 -0.27502457349533238 0.33917227709564779 0 -0.28821134996120967 0.36394151426505611 0 -0.28288099612339462 0.34083873757284072 0 -0.28821134996120967 0.36394151426505611 0 -0.29712136412439788 0.35012762256531388 0 -0.30818963678241018 0.36516051060843968 0 -0.32152006943860428 0.34309697950749468 0 -0.29712136412439788 0.35012762256531388 0 -0.30818963678241018 0.36516051060843968 0 -0.29540996435980271 0.3787683890367638 0 -0.30818963678241018 0.36516051060843968 0 -0.33219543642004662 0.37642241021665979 0 -0.30417521981401707 0.38339177054715862 0 -0.30818963678241018 0.36516051060843968 0 -0.33083686888559682 0.35878897212382899 0 -0.33219543642004662 0.37642241021665979 0 -0.33083686888559682 0.35878897212382899 0 -0.36021565302607611 0.36945304988616112 0 -0.33219543642004662 0.37642241021665979 0 -0.33083686888559682 0.35878897212382899 0 -0.32152006943860428 0.34309697950749468 0 -0.34700060293823559 0.34924747714356902 0 -0.30818963678241018 0.36516051060843968 0 -0.33083686888559682 0.35878897212382899 0 -0.32152006943860428 0.34309697950749468 0 -0.29883276388899549 0.32148685609386402 0 -0.32152006943860428 0.34309697950749468 0 -0.32321274225505248 0.3187213701076565 0 -0.34247326701976699 0.30991721978985021 0 -0.32321274225505248 0.3187213701076565 0 -0.34136489823803501 0.32726872996688577 0 -0.32152006943860428 0.34309697950749468 0 -0.34136489823803501 0.32726872996688577 0 -0.34700060293823559 0.34924747714356902 0 -0.32152006943860428 0.34309697950749468 0 -0.32321274225505248 0.3187213701076565 0 -0.34136489823803501 0.32726872996688577 0 -0.35734810901968339 0.32912471795109532 0 -0.36796863622532899 0.34081168497163888 0 -0.34700060293823559 0.34924747714356902 0 -0.34136489823803501 0.32726872996688577 0 -0.35734810901968339 0.32912471795109532 0 -0.34700060293823559 0.34924747714356902 0 -0.34247326701976699 0.30991721978985021 0 -0.34136489823803501 0.32726872996688577 0 -0.35656993887951299 0.31583017235813282 0 -0.34136489823803501 0.32726872996688577 0 -0.35734810901968339 0.32912471795109532 0 -0.35656993887951299 0.31583017235813282 0 -0.36965563605770541 0.30726264183188168 0 -0.35656993887951299 0.31583017235813282 0 -0.37085867422636931 0.3197290613630594 0 -0.35734810901968339 0.32912471795109532 0 -0.35656993887951299 0.31583017235813282 0 -0.37085867422636931 0.3197290613630594 0 -0.37980943950020618 0.33080559235268819 0 -0.37085867422636931 0.3197290613630594 0 -0.36796863622532899 0.34081168497163888 0 -0.35734810901968339 0.32912471795109532 0 -0.37085867422636931 0.3197290613630594 0 -0.36796863622532899 0.34081168497163888 0 -0.36192497685270142 0.35454573283993429 0 -0.37381994658517559 0.35379367276160528 0 -0.36021565302607611 0.36945304988616112 0 -0.36796863622532899 0.34081168497163888 0 -0.36192497685270142 0.35454573283993429 0 -0.37381994658517559 0.35379367276160528 0 -0.37825637517968769 0.34322058707867509 0 -0.36796863622532899 0.34081168497163888 0 -0.37381994658517559 0.35379367276160528 0 -0.38823586963210571 0.36248368955566218 0 -0.36021565302607611 0.36945304988616112 0 -0.38823586963210571 0.36248368955566218 0 -0.37381994658517559 0.35379367276160528 0 -0.36021565302607611 0.36945304988616112 0 -0.36021565302607611 0.36945304988616112 0 -0.33219543642004662 0.37642241021665979 0 -0.36796863622532899 0.34081168497163888 0 -0.36192497685270142 0.35454573283993429 0 -0.34700060293823559 0.34924747714356902 0 -0.36192497685270142 0.35454573283993429 0 -0.36021565302607611 0.36945304988616112 0 -0.34700060293823559 0.34924747714356902 0 -0.33083686888559682 0.35878897212382899 0 -0.36021565302607611 0.36945304988616112 0 -0.34700060293823559 0.34924747714356902 0 -0.36548141986303823 0.38689307603592688 0 -0.34009408667548963 0.40258244944130861 0 -0.34744393361081383 0.38609080618669311 0 -0.36548141986303823 0.38689307603592688 0 -0.34009408667548963 0.40258244944130861 0 -0.36548141986303823 0.38689307603592688 0 -0.35969538309266968 0.40475413135343058 0 -0.34009408667548963 0.40258244944130861 0 -0.36021565302607611 0.36945304988616112 0 -0.34744393361081383 0.38609080618669311 0 -0.33219543642004662 0.37642241021665979 0 -0.36021565302607611 0.36945304988616112 0 -0.34744393361081383 0.38609080618669311 0 -0.36548141986303823 0.38689307603592688 0 -0.39086875305058671 0.37120370263054531 0 -0.36021565302607611 0.36945304988616112 0 -0.36548141986303823 0.38689307603592688 0 -0.38513049595684412 0.39576476442101471 0 -0.36548141986303823 0.38689307603592688 0 -0.37242725709595331 0.40301382776538652 0 -0.36548141986303823 0.38689307603592688 0 -0.35969538309266968 0.40475413135343058 0 -0.37242725709595331 0.40301382776538652 0 -0.35969538309266968 0.40475413135343058 0 -0.36908249367241802 0.41635184961289162 0 -0.35070944435903328 0.4174427288288749 0 -0.38259601051331937 0.41119903478337733 0 -0.37242725709595331 0.40301382776538652 0 -0.36908249367241802 0.41635184961289162 0 -0.35969538309266968 0.40475413135343058 0 -0.37242725709595331 0.40301382776538652 0 -0.36908249367241802 0.41635184961289162 0 -0.36908249367241802 0.41635184961289162 0 -0.36034934959903042 0.43524351486690882 0 -0.35070944435903328 0.4174427288288749 0 -0.38665527987840032 0.42996023713276582 0 -0.36908249367241802 0.41635184961289162 0 -0.36034934959903042 0.43524351486690882 0 -0.36034934959903042 0.43524351486690882 0 -0.35070944435903328 0.4174427288288749 0 -0.3424579287441597 0.43141965802552351 0 -0.36034934959903042 0.43524351486690882 0 -0.3424579287441597 0.43141965802552351 0 -0.34378884419298472 0.44509914369105458 0 -0.35969538309266968 0.40475413135343058 0 -0.35070944435903328 0.4174427288288749 0 -0.34009408667548963 0.40258244944130861 0 -0.3350221394671507 0.41709959411115088 0 -0.32216227787174539 0.39975186283876712 0 -0.34009408667548963 0.40258244944130861 0 -0.35070944435903328 0.4174427288288749 0 -0.3350221394671507 0.41709959411115088 0 -0.34009408667548963 0.40258244944130861 0 -0.35070944435903328 0.4174427288288749 0 -0.3350221394671507 0.41709959411115088 0 -0.3424579287441597 0.43141965802552351 0 -0.3424579287441597 0.43141965802552351 0 -0.33245527424175059 0.43007471552176979 0 -0.33414361468075793 0.43995013436288999 0 -0.3350221394671507 0.41709959411115088 0 -0.3424579287441597 0.43141965802552351 0 -0.33245527424175059 0.43007471552176979 0 -0.3350221394671507 0.41709959411115088 0 -0.33245527424175059 0.43007471552176979 0 -0.32480696447722052 0.42070128287670011 0 -0.33245527424175059 0.43007471552176979 0 -0.32564217208846707 0.43767764656708757 0 -0.33414361468075793 0.43995013436288999 0 -0.32487576634648152 0.43070191430668953 0 -0.31924971220400039 0.43480310809916461 0 -0.32564217208846707 0.43767764656708757 0 -0.31924971220400039 0.43480310809916461 0 -0.32026927780202641 0.43930826839855391 0 -0.32564217208846707 0.43767764656708757 0 -0.33245527424175059 0.43007471552176979 0 -0.32487576634648152 0.43070191430668953 0 -0.32564217208846707 0.43767764656708757 0 -0.32487576634648152 0.43070191430668953 0 -0.31957680708785258 0.4279331658528685 0 -0.31924971220400039 0.43480310809916461 0 -0.33245527424175059 0.43007471552176979 0 -0.32487576634648152 0.43070191430668953 0 -0.32480696447722052 0.42070128287670011 0 -0.32487576634648152 0.43070191430668953 0 -0.31957680708785258 0.4279331658528685 0 -0.32480696447722052 0.42070128287670011 0 -0.31957680708785258 0.4279331658528685 0 -0.32480696447722052 0.42070128287670011 0 -0.3147495218483421 0.41864644462895523 0 -0.31957680708785258 0.4279331658528685 0 -0.3138351707423267 0.43217539402532967 0 -0.3147495218483421 0.41864644462895523 0 -0.31957680708785258 0.4279331658528685 0 -0.3138351707423267 0.43217539402532967 0 -0.31924971220400039 0.43480310809916461 0 -0.3138351707423267 0.43217539402532967 0 -0.3140237008612734 0.43659650536341882 0 -0.31924971220400039 0.43480310809916461 0 -0.3140237008612734 0.43659650536341882 0 -0.31924971220400039 0.43480310809916461 0 -0.31634494437186561 0.43924895882512671 0 -0.3147495218483421 0.41864644462895523 0 -0.32216227787174539 0.39975186283876712 0 -0.3350221394671507 0.41709959411115088 0 -0.32480696447722052 0.42070128287670011 0 -0.32216227787174539 0.39975186283876712 0 -0.3147495218483421 0.41864644462895523 0 -0.31305348313061199 0.40188594754046431 0 -0.32216227787174539 0.39975186283876712 0 -0.32480696447722052 0.42070128287670011 0 -0.3147495218483421 0.41864644462895523 0 -0.32216227787174539 0.39975186283876712 0 -0.31305348313061199 0.40188594754046431 0 -0.32216227787174539 0.39975186283876712 0 -0.31506412265775752 0.39014257189394469 0 -0.32216227787174539 0.39975186283876712 0 -0.34009408667548963 0.40258244944130861 0 -0.33219543642004662 0.37642241021665979 0 -0.34744393361081383 0.38609080618669311 0 -0.34009408667548963 0.40258244944130861 0 -0.33219543642004662 0.37642241021665979 0 -0.32216227787174539 0.39975186283876712 0 -0.33219543642004662 0.37642241021665979 0 -0.31506412265775752 0.39014257189394469 0 -0.33219543642004662 0.37642241021665979 0 -0.30417521981401707 0.38339177054715862 0 -0.33219543642004662 0.37642241021665979 0 -0.31506412265775752 0.39014257189394469 0 -0.30417521981401707 0.38339177054715862 0 -0.30818963678241018 0.36516051060843968 0 -0.30417521981401707 0.38339177054715862 0 -0.29540996435980271 0.3787683890367638 0 -0.31506412265775752 0.39014257189394469 0 -0.30672797751442649 0.38975770096605689 0 -0.30417521981401707 0.38339177054715862 0 -0.30417521981401707 0.38339177054715862 0 -0.30120853154048249 0.38932989402940998 0 -0.29781144158570588 0.38343296288246342 0 -0.30672797751442649 0.38975770096605689 0 -0.30417521981401707 0.38339177054715862 0 -0.30120853154048249 0.38932989402940998 0 -0.30120853154048249 0.38932989402940998 0 -0.29781144158570588 0.38343296288246342 0 -0.29469755260728131 0.39069080427691011 0 -0.30417521981401707 0.38339177054715862 0 -0.29781144158570588 0.38343296288246342 0 -0.29540996435980271 0.3787683890367638 0 -0.31305348313061199 0.40188594754046431 0 -0.30646403604544881 0.39616656739371409 0 -0.30394834670380821 0.40276010841959758 0 -0.31305348313061199 0.40188594754046431 0 -0.30394834670380821 0.40276010841959758 0 -0.30857589128618418 0.40897180779185599 0 -0.31506412265775752 0.39014257189394469 0 -0.30672797751442649 0.38975770096605689 0 -0.30646403604544881 0.39616656739371409 0 -0.31305348313061199 0.40188594754046431 0 -0.31506412265775752 0.39014257189394469 0 -0.30646403604544881 0.39616656739371409 0 -0.30672797751442649 0.38975770096605689 0 -0.30120853154048249 0.38932989402940998 0 -0.30646403604544881 0.39616656739371409 0 -0.30120853154048249 0.38932989402940998 0 -0.30646403604544881 0.39616656739371409 0 -0.29886380455200262 0.39665988955784731 0 -0.30120853154048249 0.38932989402940998 0 -0.29886380455200262 0.39665988955784731 0 -0.29469755260728131 0.39069080427691011 0 -0.29886380455200262 0.39665988955784731 0 -0.30394834670380821 0.40276010841959758 0 -0.29588936286374712 0.40350977397383742 0 -0.30394834670380821 0.40276010841959758 0 -0.29588936286374712 0.40350977397383742 0 -0.29959095741671993 0.40838295546462627 0 -0.30646403604544881 0.39616656739371409 0 -0.29886380455200262 0.39665988955784731 0 -0.30394834670380821 0.40276010841959758 0 -0.28973239129365119 0.40409935467461611 0 -0.29588936286374712 0.40350977397383742 0 -0.29238369238650702 0.4103516684765825 0 -0.29886380455200262 0.39665988955784731 0 -0.29588936286374712 0.40350977397383742 0 -0.29235024308755009 0.39854302555712451 0 -0.28973239129365119 0.40409935467461611 0 -0.29588936286374712 0.40350977397383742 0 -0.29235024308755009 0.39854302555712451 0 -0.29235024308755009 0.39854302555712451 0 -0.29469755260728131 0.39069080427691011 0 -0.28393245564430808 0.39754989608493629 0 -0.29886380455200262 0.39665988955784731 0 -0.29235024308755009 0.39854302555712451 0 -0.29469755260728131 0.39069080427691011 0 -0.28973239129365119 0.40409935467461611 0 -0.29235024308755009 0.39854302555712451 0 -0.28393245564430808 0.39754989608493629 0 -0.28973239129365119 0.40409935467461611 0 -0.28393245564430808 0.39754989608493629 0 -0.28410620248614388 0.41054240928059982 0 -0.29469755260728131 0.39069080427691011 0 -0.28393245564430808 0.39754989608493629 0 -0.28482682149175981 0.38126648748024472 0 -0.28821134996120967 0.36394151426505611 0 -0.28482682149175981 0.38126648748024472 0 -0.27245644623902332 0.38570123432014419 0 -0.29000511791228589 0.37171604887800169 0 -0.29540996435980271 0.3787683890367638 0 -0.28482682149175981 0.38126648748024472 0 -0.29781144158570588 0.38343296288246342 0 -0.29540996435980271 0.3787683890367638 0 -0.29781144158570588 0.38343296288246342 0 -0.29469755260728131 0.39069080427691011 0 -0.29540996435980271 0.3787683890367638 0 -0.29469755260728131 0.39069080427691011 0 -0.29540996435980271 0.3787683890367638 0 -0.29469755260728131 0.39069080427691011 0 -0.29540996435980271 0.3787683890367638 0 -0.28482682149175981 0.38126648748024472 0 -0.28393245564430808 0.39754989608493629 0 -0.28482682149175981 0.38126648748024472 0 -0.27245644623902332 0.38570123432014419 0 -0.28393245564430808 0.39754989608493629 0 -0.27245644623902332 0.38570123432014419 0 -0.27425918533315041 0.40609040726113432 0 -0.27245644623902332 0.38570123432014419 0 -0.27425918533315041 0.40609040726113432 0 -0.25710839951787751 0.40736708289797091 0 -0.28393245564430808 0.39754989608493629 0 -0.27425918533315041 0.40609040726113432 0 -0.28410620248614388 0.41054240928059982 0 -0.25168870764475709 0.38322255896485879 0 -0.25710839951787751 0.40736708289797091 0 -0.24124337553804329 0.41289809241253062 0 -0.27245644623902332 0.38570123432014419 0 -0.25168870764475709 0.38322255896485879 0 -0.25710839951787751 0.40736708289797091 0 -0.27245644623902332 0.38570123432014419 0 -0.25710839951787751 0.40736708289797091 0 -0.26993216138390991 0.36964643071082998 0 -0.27245644623902332 0.38570123432014419 0 -0.25168870764475709 0.38322255896485879 0 -0.2632034949995522 0.43511172627614358 0 -0.2469503930272248 0.43323527255600192 0 -0.24470861237627889 0.43600883315885569 0 -0.2632034949995522 0.43511172627614358 0 -0.26172936520977902 0.43162377543461672 0 -0.2469503930272248 0.43323527255600192 0 -0.26172936520977902 0.43162377543461672 0 -0.2469503930272248 0.43323527255600192 0 -0.24176035279673269 0.42903293147579852 0 -0.26172936520977902 0.43162377543461672 0 -0.25710839951787751 0.40736708289797091 0 -0.24176035279673269 0.42903293147579852 0 -0.26172936520977902 0.43162377543461672 0 -0.24176035279673269 0.42903293147579852 0 -0.2632034949995522 0.43511172627614358 0 -0.24470861237627889 0.43600883315885569 0 -0.26172936520977902 0.43162377543461672 0 -0.25710839951787751 0.40736708289797091 0 -0.26938967260425167 0.41778017533453859 0 -0.27425918533315041 0.40609040726113432 0 -0.25710839951787751 0.40736708289797091 0 -0.26938967260425167 0.41778017533453859 0 -0.27425918533315041 0.40609040726113432 0 -0.27889794423381292 0.41726900351698021 0 -0.28410620248614388 0.41054240928059982 0 -0.27425918533315041 0.40609040726113432 0 -0.26938967260425167 0.41778017533453859 0 -0.27889794423381292 0.41726900351698021 0 -0.27889794423381292 0.41726900351698021 0 -0.2767512928391434 0.42528157147616608 0 -0.28402826617612592 0.42267422569981788 0 -0.26938967260425167 0.41778017533453859 0 -0.27889794423381292 0.41726900351698021 0 -0.2767512928391434 0.42528157147616608 0 -0.2767512928391434 0.42528157147616608 0 -0.28169837762282551 0.43421461939343348 0 -0.28510013991458022 0.42779498734597321 0 -0.26172936520977902 0.43162377543461672 0 -0.2767512928391434 0.42528157147616608 0 -0.28169837762282551 0.43421461939343348 0 -0.2632034949995522 0.43511172627614358 0 -0.28169837762282551 0.43421461939343348 0 -0.2632034949995522 0.43511172627614358 0 -0.26172936520977902 0.43162377543461672 0 -0.28169837762282551 0.43421461939343348 0 -0.26172936520977902 0.43162377543461672 0 -0.28169837762282551 0.43421461939343348 0 -0.26172936520977902 0.43162377543461672 0 -0.26938967260425167 0.41778017533453859 0 -0.2767512928391434 0.42528157147616608 0 -0.28169837762282551 0.43421461939343348 0 -0.28766069895952712 0.43498819015878759 0 -0.28169837762282551 0.43421461939343348 0 -0.28766069895952712 0.43498819015878759 0 -0.28794581279194398 0.43139451493022862 0 -0.28766069895952712 0.43498819015878759 0 -0.28794581279194398 0.43139451493022862 0 -0.28965952400680389 0.43353193214553548 0 -0.28169837762282551 0.43421461939343348 0 -0.28794581279194398 0.43139451493022862 0 -0.28510013991458022 0.42779498734597321 0 -0.2767512928391434 0.42528157147616608 0 -0.28510013991458022 0.42779498734597321 0 -0.28402826617612592 0.42267422569981788 0 -0.28510013991458022 0.42779498734597321 0 -0.28402826617612592 0.42267422569981788 0 -0.28850758519906361 0.42398726615616589 0 -0.28510013991458022 0.42779498734597321 0 -0.28850758519906361 0.42398726615616589 0 -0.29131105724799788 0.42797940414438501 0 -0.28794581279194398 0.43139451493022862 0 -0.28510013991458022 0.42779498734597321 0 -0.29131105724799788 0.42797940414438501 0 -0.28850758519906361 0.42398726615616589 0 -0.29131105724799788 0.42797940414438501 0 -0.29265735864423159 0.4222022431819249 0 -0.29131105724799788 0.42797940414438501 0 -0.29265735864423159 0.4222022431819249 0 -0.2959518969908469 0.42462366936219181 0 -0.29131105724799788 0.42797940414438501 0 -0.2961118678021587 0.42946129197629668 0 -0.29383959995063091 0.43160716417473061 0 -0.29131105724799788 0.42797940414438501 0 -0.2959518969908469 0.42462366936219181 0 -0.2961118678021587 0.42946129197629668 0 -0.2961118678021587 0.42946129197629668 0 -0.29383959995063091 0.43160716417473061 0 -0.30067189953277612 0.4366763052094948 0 -0.28766069895952712 0.43498819015878759 0 -0.30067189953277612 0.4366763052094948 0 -0.29383959995063091 0.43160716417473061 0 -0.2917076080530292 0.43312292927548851 0 -0.30067189953277612 0.4366763052094948 0 -0.28766069895952712 0.43498819015878759 0 -0.2917076080530292 0.43312292927548851 0 -0.30067189953277612 0.4366763052094948 0 -0.28766069895952712 0.43498819015878759 0 -0.28965952400680389 0.43353193214553548 0 -0.2917076080530292 0.43312292927548851 0 -0.28965952400680389 0.43353193214553548 0 -0.29065153828297441 0.43103206969102281 0 -0.2917076080530292 0.43312292927548851 0 -0.28794581279194398 0.43139451493022862 0 -0.28965952400680389 0.43353193214553548 0 -0.29065153828297441 0.43103206969102281 0 -0.28794581279194398 0.43139451493022862 0 -0.29131105724799788 0.42797940414438501 0 -0.29065153828297441 0.43103206969102281 0 -0.29131105724799788 0.42797940414438501 0 -0.29383959995063091 0.43160716417473061 0 -0.29065153828297441 0.43103206969102281 0 -0.29383959995063091 0.43160716417473061 0 -0.29065153828297441 0.43103206969102281 0 -0.2917076080530292 0.43312292927548851 0 -0.28410620248614388 0.41054240928059982 0 -0.28836904127831398 0.4177644647841906 0 -0.29238369238650702 0.4103516684765825 0 -0.28973239129365119 0.40409935467461611 0 -0.28410620248614388 0.41054240928059982 0 -0.29238369238650702 0.4103516684765825 0 -0.27889794423381292 0.41726900351698021 0 -0.28402826617612592 0.42267422569981788 0 -0.28836904127831398 0.4177644647841906 0 -0.27889794423381292 0.41726900351698021 0 -0.28410620248614388 0.41054240928059982 0 -0.28836904127831398 0.4177644647841906 0 -0.28402826617612592 0.42267422569981788 0 -0.28850758519906361 0.42398726615616589 0 -0.28836904127831398 0.4177644647841906 0 -0.28836904127831398 0.4177644647841906 0 -0.29238369238650702 0.4103516684765825 0 -0.2971574938433531 0.41632141866125782 0 -0.29265735864423159 0.4222022431819249 0 -0.2959518969908469 0.42462366936219181 0 -0.2971574938433531 0.41632141866125782 0 -0.29265735864423159 0.4222022431819249 0 -0.28836904127831398 0.4177644647841906 0 -0.2971574938433531 0.41632141866125782 0 -0.28850758519906361 0.42398726615616589 0 -0.29265735864423159 0.4222022431819249 0 -0.28836904127831398 0.4177644647841906 0 -0.29238369238650702 0.4103516684765825 0 -0.29959095741671993 0.40838295546462627 0 -0.2971574938433531 0.41632141866125782 0 -0.29588936286374712 0.40350977397383742 0 -0.29238369238650702 0.4103516684765825 0 -0.29959095741671993 0.40838295546462627 0 -0.3147495218483421 0.41864644462895523 0 -0.30857589128618418 0.40897180779185599 0 -0.30067189953277612 0.4366763052094948 0 -0.3147495218483421 0.41864644462895523 0 -0.31305348313061199 0.40188594754046431 0 -0.30857589128618418 0.40897180779185599 0 -0.30394834670380821 0.40276010841959758 0 -0.29959095741671993 0.40838295546462627 0 -0.30857589128618418 0.40897180779185599 0 -0.29959095741671993 0.40838295546462627 0 -0.2971574938433531 0.41632141866125782 0 -0.30857589128618418 0.40897180779185599 0 -0.2959518969908469 0.42462366936219181 0 -0.2971574938433531 0.41632141866125782 0 -0.29980692579208101 0.42336862221009403 0 -0.2971574938433531 0.41632141866125782 0 -0.30857589128618418 0.40897180779185599 0 -0.29980692579208101 0.42336862221009403 0 -0.3147495218483421 0.41864644462895523 0 -0.30067189953277612 0.4366763052094948 0 -0.3073367658249393 0.43754102641914328 0 -0.3138351707423267 0.43217539402532967 0 -0.3147495218483421 0.41864644462895523 0 -0.3073367658249393 0.43754102641914328 0 -0.3147495218483421 0.41864644462895523 0 -0.3073367658249393 0.43754102641914328 0 -0.30857589128618418 0.40897180779185599 0 -0.30067189953277612 0.4366763052094948 0 -0.29980692579208101 0.42336862221009403 0 -0.30857589128618418 0.40897180779185599 0 -0.30067189953277612 0.4366763052094948 0 -0.2961118678021587 0.42946129197629668 0 -0.30067189953277612 0.4366763052094948 0 -0.29980692579208101 0.42336862221009403 0 -0.30067189953277612 0.4366763052094948 0 -0.3073367658249393 0.43754102641914328 0 -0.2959518969908469 0.42462366936219181 0 -0.2961118678021587 0.42946129197629668 0 -0.29980692579208101 0.42336862221009403 0 -0.3138351707423267 0.43217539402532967 0 -0.3140237008612734 0.43659650536341882 0 -0.3073367658249393 0.43754102641914328 0 -0.3073367658249393 0.43754102641914328 0 -0.30916863345515427 0.44970385863659779 0 -0.29872916663280419 0.45948117748299461 0 -0.3073367658249393 0.43754102641914328 0 -0.31096030146615222 0.4423842980534145 0 -0.3129032070420561 0.43975887128429447 0 -0.30067189953277612 0.4366763052094948 0 -0.29400219007698192 0.46005448602740751 0 -0.3073367658249393 0.43754102641914328 0 -0.31096030146615222 0.4423842980534145 0 -0.30916863345515427 0.44970385863659779 0 -0.3140237008612734 0.43659650536341882 0 -0.3073367658249393 0.43754102641914328 0 -0.3129032070420561 0.43975887128429447 0 -0.3073367658249393 0.43754102641914328 0 -0.29872916663280419 0.45948117748299461 0 -0.30067189953277612 0.4366763052094948 0 -0.29872916663280419 0.45948117748299461 0 -0.29400219007698192 0.46005448602740751 0 -0.30067189953277612 0.4366763052094948 0 -0.3073367658249393 0.43754102641914328 0 -0.29872916663280419 0.45948117748299461 0 -0.31096030146615222 0.4423842980534145 0 -0.30916863345515427 0.44970385863659779 0 -0.31423100727498487 0.44719874831408668 0 -0.30916863345515427 0.44970385863659779 0 -0.31102507031341431 0.45675895339239758 0 -0.31560445242411922 0.4518362655134181 0 -0.30949799988627608 0.46744809530307369 0 -0.31102507031341431 0.45675895339239758 0 -0.29872916663280419 0.45948117748299461 0 -0.30916863345515427 0.44970385863659779 0 -0.31102507031341431 0.45675895339239758 0 -0.29872916663280419 0.45948117748299461 0 -0.29400219007698192 0.46005448602740751 0 -0.28620417141483873 0.44869198617916378 0 -0.27269915637672892 0.46851745039545001 0 -0.29872916663280419 0.45948117748299461 0 -0.29400219007698192 0.46005448602740751 0 -0.29012156744066953 0.48142132854684588 0 -0.30067189953277612 0.4366763052094948 0 -0.29400219007698192 0.46005448602740751 0 -0.28620417141483873 0.44869198617916378 0 -0.28766069895952712 0.43498819015878759 0 -0.30067189953277612 0.4366763052094948 0 -0.28620417141483873 0.44869198617916378 0 -0.28766069895952712 0.43498819015878759 0 -0.28620417141483873 0.44869198617916378 0 -0.27323732857698058 0.44402545806130478 0 -0.28766069895952712 0.43498819015878759 0 -0.27323732857698058 0.44402545806130478 0 -0.28169837762282551 0.43421461939343348 0 -0.28766069895952712 0.43498819015878759 0 -0.27323732857698058 0.44402545806130478 0 -0.2632034949995522 0.43511172627614358 0 -0.28169837762282551 0.43421461939343348 0 -0.27323732857698058 0.44402545806130478 0 -0.27323732857698058 0.44402545806130478 0 -0.25881395819443431 0.45306272596382219 0 -0.27323732857698058 0.44402545806130478 0 -0.27269915637672892 0.46851745039545001 0 -0.25881395819443431 0.45306272596382219 0 -0.28620417141483873 0.44869198617916378 0 -0.27323732857698058 0.44402545806130478 0 -0.27269915637672892 0.46851745039545001 0 -0.27269915637672892 0.46851745039545001 0 -0.25881395819443431 0.45306272596382219 0 -0.25881395819443431 0.45306272596382219 0 -0.25635858754318203 0.47944182771343791 0 -0.23905908977103529 0.46544055677493978 0 -0.27269915637672892 0.46851745039545001 0 -0.25881395819443431 0.45306272596382219 0 -0.25635858754318203 0.47944182771343791 0 -0.25881395819443431 0.45306272596382219 0 -0.24470861237627889 0.43600883315885569 0 -0.2632034949995522 0.43511172627614358 0 -0.27323732857698058 0.44402545806130478 0 -0.25881395819443431 0.45306272596382219 0 -0.2632034949995522 0.43511172627614358 0 -0.25881395819443431 0.45306272596382219 0 -0.24470861237627889 0.43600883315885569 0 -0.26435885625844541 0.49999999999999961 0 -0.25635858754318203 0.47944182771343791 0 -0.27000023868434531 0.48298286323399181 0 -0.26435885625844541 0.49999999999999961 0 -0.25635858754318203 0.47944182771343791 0 -0.2465728159182641 0.49999999999999939 0 -0.27269915637672892 0.46851745039545001 0 -0.25635858754318203 0.47944182771343791 0 -0.27000023868434531 0.48298286323399181 0 -0.27269915637672892 0.46851745039545001 0 -0.27000023868434531 0.48298286323399181 0 -0.28733248062118938 0.48343266684532071 0 -0.27269915637672892 0.46851745039545001 0 -0.28733248062118938 0.48343266684532071 0 -0.26435885625844541 0.49999999999999961 0 -0.28733248062118938 0.48343266684532071 0 -0.26435885625844541 0.49999999999999961 0 -0.27000023868434531 0.48298286323399181 0 -0.28733248062118938 0.48343266684532071 0 -0.26435885625844541 0.49999999999999961 0 -0.28283274992406549 0.50000000000000233 0 -0.28733248062118938 0.48343266684532071 0 -0.28283274992406549 0.50000000000000233 0 -0.28733248062118938 0.48343266684532071 0 -0.28283274992406549 0.50000000000000233 0 -0.2883498702498587 0.48593725722081937 0 -0.28283274992406549 0.50000000000000233 0 -0.2883498702498587 0.48593725722081937 0 -0.30098445143178648 0.50000000000000355 0 -0.2883498702498587 0.48593725722081937 0 -0.29012156744066953 0.48142132854684588 0 -0.30098445143178648 0.50000000000000355 0 -0.28283274992406549 0.50000000000000233 0 -0.2883498702498587 0.48593725722081937 0 -0.28733248062118938 0.48343266684532071 0 -0.2883498702498587 0.48593725722081937 0 -0.28733248062118938 0.48343266684532071 0 -0.2883498702498587 0.48593725722081937 0 -0.30098445143178648 0.50000000000000355 0 -0.29400219007698192 0.46005448602740751 0 -0.27269915637672892 0.46851745039545001 0 -0.28733248062118938 0.48343266684532071 0 -0.29400219007698192 0.46005448602740751 0 -0.28733248062118938 0.48343266684532071 0 -0.29012156744066953 0.48142132854684588 0 -0.29872916663280419 0.45948117748299461 0 -0.29012156744066953 0.48142132854684588 0 -0.29400219007698192 0.46005448602740751 0 -0.28733248062118938 0.48343266684532071 0 -0.2883498702498587 0.48593725722081937 0 -0.28733248062118938 0.48343266684532071 0 -0.29012156744066953 0.48142132854684588 0 -0.28733248062118938 0.48343266684532071 0 -0.29012156744066953 0.48142132854684588 0 -0.2883498702498587 0.48593725722081937 0 -0.29012156744066953 0.48142132854684588 0 -0.30949799988627608 0.46744809530307369 0 -0.29012156744066953 0.48142132854684588 0 -0.30949799988627608 0.46744809530307369 0 -0.29012156744066953 0.48142132854684588 0 -0.31254840446174897 0.48073351869321929 0 -0.30949799988627608 0.46744809530307369 0 -0.29872916663280419 0.45948117748299461 0 -0.29012156744066953 0.48142132854684588 0 -0.29012156744066953 0.48142132854684588 0 -0.30098445143178648 0.50000000000000355 0 -0.31254840446174897 0.48073351869321929 0 -0.30098445143178648 0.50000000000000355 0 -0.33600967677478688 0.48379027047929918 0 -0.31254840446174897 0.48073351869321929 0 -0.30098445143178648 0.50000000000000355 0 -0.33600967677478688 0.48379027047929918 0 -0.37187713941782302 0.5 0 -0.33600967677478688 0.48379027047929918 0 -0.3261283267752253 0.47100789913687757 0 -0.3412975644480839 0.46505040720526453 0 -0.33600967677478688 0.48379027047929918 0 -0.3261283267752253 0.47100789913687757 0 -0.31254840446174897 0.48073351869321929 0 -0.30949799988627608 0.46744809530307369 0 -0.3261283267752253 0.47100789913687757 0 -0.31254840446174897 0.48073351869321929 0 -0.30949799988627608 0.46744809530307369 0 -0.31102507031341431 0.45675895339239758 0 -0.32580402868901648 0.45345959072335318 0 -0.30949799988627608 0.46744809530307369 0 -0.32887443233188313 0.45347486205930199 0 -0.30949799988627608 0.46744809530307369 0 -0.32580402868901648 0.45345959072335318 0 -0.32887443233188313 0.45347486205930199 0 -0.30949799988627608 0.46744809530307369 0 -0.3261283267752253 0.47100789913687757 0 -0.32887443233188313 0.45347486205930199 0 -0.31102507031341431 0.45675895339239758 0 -0.32580402868901648 0.45345959072335318 0 -0.31560445242411922 0.4518362655134181 0 -0.32580402868901648 0.45345959072335318 0 -0.32887443233188313 0.45347486205930199 0 -0.32026927780202641 0.43930826839855391 0 -0.31634494437186561 0.43924895882512671 0 -0.31911278906770202 0.4431606858734024 0 -0.31924971220400039 0.43480310809916461 0 -0.32026927780202641 0.43930826839855391 0 -0.31634494437186561 0.43924895882512671 0 -0.3140237008612734 0.43659650536341882 0 -0.31634494437186561 0.43924895882512671 0 -0.3129032070420561 0.43975887128429447 0 -0.31634494437186561 0.43924895882512671 0 -0.3129032070420561 0.43975887128429447 0 -0.31520993864367691 0.44285353016837842 0 -0.31096030146615222 0.4423842980534145 0 -0.3129032070420561 0.43975887128429447 0 -0.31520993864367691 0.44285353016837842 0 -0.31520993864367691 0.44285353016837842 0 -0.31736321665071959 0.44565436351054599 0 -0.31423100727498487 0.44719874831408668 0 -0.31096030146615222 0.4423842980534145 0 -0.31520993864367691 0.44285353016837842 0 -0.31423100727498487 0.44719874831408668 0 -0.31520993864367691 0.44285353016837842 0 -0.31911278906770202 0.4431606858734024 0 -0.31736321665071959 0.44565436351054599 0 -0.31634494437186561 0.43924895882512671 0 -0.31520993864367691 0.44285353016837842 0 -0.31911278906770202 0.4431606858734024 0 -0.31911278906770202 0.4431606858734024 0 -0.31996186557484019 0.44724356162073092 0 -0.31736321665071959 0.44565436351054599 0 -0.31996186557484019 0.44724356162073092 0 -0.31761215071523202 0.44838478127733161 0 -0.32055604566291501 0.45027571227847668 0 -0.31996186557484019 0.44724356162073092 0 -0.31761215071523202 0.44838478127733161 0 -0.31736321665071959 0.44565436351054599 0 -0.31761215071523202 0.44838478127733161 0 -0.31736321665071959 0.44565436351054599 0 -0.31423100727498487 0.44719874831408668 0 -0.31761215071523202 0.44838478127733161 0 -0.31423100727498487 0.44719874831408668 0 -0.31560445242411922 0.4518362655134181 0 -0.30916863345515427 0.44970385863659779 0 -0.31423100727498487 0.44719874831408668 0 -0.31560445242411922 0.4518362655134181 0 -0.31761215071523202 0.44838478127733161 0 -0.31560445242411922 0.4518362655134181 0 -0.32055604566291501 0.45027571227847668 0 -0.32580402868901648 0.45345959072335318 0 -0.31560445242411922 0.4518362655134181 0 -0.32055604566291501 0.45027571227847668 0 -0.32580402868901648 0.45345959072335318 0 -0.32055604566291501 0.45027571227847668 0 -0.32402965397793032 0.45010522486395188 0 -0.32055604566291501 0.45027571227847668 0 -0.32402965397793032 0.45010522486395188 0 -0.32192874569965679 0.44850135144746639 0 -0.32580402868901648 0.45345959072335318 0 -0.32402965397793032 0.45010522486395188 0 -0.32734943667166139 0.45141520981163902 0 -0.32580402868901648 0.45345959072335318 0 -0.32734943667166139 0.45141520981163902 0 -0.32887443233188313 0.45347486205930199 0 -0.32402965397793032 0.45010522486395188 0 -0.32734943667166139 0.45141520981163902 0 -0.32736218301043268 0.44885247364186759 0 -0.32402965397793032 0.45010522486395188 0 -0.32736218301043268 0.44885247364186759 0 -0.32316741758294149 0.44638090702670619 0 -0.32736218301043268 0.44885247364186759 0 -0.32316741758294149 0.44638090702670619 0 -0.32765509590519731 0.44432544517397399 0 -0.31911278906770202 0.4431606858734024 0 -0.31996186557484019 0.44724356162073092 0 -0.32316741758294149 0.44638090702670619 0 -0.32402965397793032 0.45010522486395188 0 -0.32316741758294149 0.44638090702670619 0 -0.32192874569965679 0.44850135144746639 0 -0.31996186557484019 0.44724356162073092 0 -0.32055604566291501 0.45027571227847668 0 -0.32192874569965679 0.44850135144746639 0 -0.31996186557484019 0.44724356162073092 0 -0.32316741758294149 0.44638090702670619 0 -0.32192874569965679 0.44850135144746639 0 -0.32026927780202641 0.43930826839855391 0 -0.31911278906770202 0.4431606858734024 0 -0.32316164208445758 0.44219771023175319 0 -0.31911278906770202 0.4431606858734024 0 -0.32316741758294149 0.44638090702670619 0 -0.32316164208445758 0.44219771023175319 0 -0.32316741758294149 0.44638090702670619 0 -0.32316164208445758 0.44219771023175319 0 -0.32765509590519731 0.44432544517397399 0 -0.32316164208445758 0.44219771023175319 0 -0.32765509590519731 0.44432544517397399 0 -0.32564217208846707 0.43767764656708757 0 -0.32026927780202641 0.43930826839855391 0 -0.32316164208445758 0.44219771023175319 0 -0.32564217208846707 0.43767764656708757 0 -0.33245354598412657 0.45089379921353978 0 -0.35370870859122328 0.45359838086006021 0 -0.34378884419298472 0.44509914369105458 0 -0.33245354598412657 0.45089379921353978 0 -0.32887443233188313 0.45347486205930199 0 -0.35370870859122328 0.45359838086006021 0 -0.32765509590519731 0.44432544517397399 0 -0.32564217208846707 0.43767764656708757 0 -0.33414361468075793 0.43995013436288999 0 -0.32765509590519731 0.44432544517397399 0 -0.33414361468075793 0.43995013436288999 0 -0.33245354598412657 0.45089379921353978 0 -0.32736218301043268 0.44885247364186759 0 -0.32765509590519731 0.44432544517397399 0 -0.33245354598412657 0.45089379921353978 0 -0.32734943667166139 0.45141520981163902 0 -0.32736218301043268 0.44885247364186759 0 -0.33245354598412657 0.45089379921353978 0 -0.32734943667166139 0.45141520981163902 0 -0.33245354598412657 0.45089379921353978 0 -0.32887443233188313 0.45347486205930199 0 -0.33245354598412657 0.45089379921353978 0 -0.32887443233188313 0.45347486205930199 0 -0.33414361468075793 0.43995013436288999 0 -0.33245354598412657 0.45089379921353978 0 -0.34378884419298472 0.44509914369105458 0 -0.3424579287441597 0.43141965802552351 0 -0.33414361468075793 0.43995013436288999 0 -0.34378884419298472 0.44509914369105458 0 -0.3261283267752253 0.47100789913687757 0 -0.3412975644480839 0.46505040720526453 0 -0.32887443233188313 0.45347486205930199 0 -0.3412975644480839 0.46505040720526453 0 -0.32887443233188313 0.45347486205930199 0 -0.35370870859122328 0.45359838086006021 0 -0.32887443233188313 0.45347486205930199 0 -0.35370870859122328 0.45359838086006021 0 -0.3412975644480839 0.46505040720526453 0 -0.35370870859122328 0.45359838086006021 0 -0.3622746873779944 0.47215086585185212 0 -0.36034934959903042 0.43524351486690882 0 -0.35370870859122328 0.45359838086006021 0 -0.34378884419298472 0.44509914369105458 0 -0.37854298485056348 0.453721899660818 0 -0.36034934959903042 0.43524351486690882 0 -0.35370870859122328 0.45359838086006021 0 -0.37854298485056348 0.453721899660818 0 -0.35370870859122328 0.45359838086006021 0 -0.37854298485056348 0.453721899660818 0 -0.35370870859122328 0.45359838086006021 0 -0.3622746873779944 0.47215086585185212 0 -0.33600967677478688 0.48379027047929918 0 -0.3622746873779944 0.47215086585185212 0 -0.37187713941782302 0.5 0 -0.33600967677478688 0.48379027047929918 0 -0.3412975644480839 0.46505040720526453 0 -0.3622746873779944 0.47215086585185212 0 -0.15404515099414931 0.47175981032259701 0 -0.14686471093138331 0.48652265627105867 0 -0.16450551625190959 0.48181836451084858 0 -0.15404515099414931 0.47175981032259701 0 -0.14686471093138331 0.48652265627105867 0 -0.13439108286602541 0.47903510652184761 0 -0.15404515099414931 0.47175981032259701 0 -0.13439108286602541 0.47903510652184761 0 -0.14033969626837181 0.46701320972467908 0 -0.15533092952187719 0.50000000000000266 0 -0.14686471093138331 0.48652265627105867 0 -0.16450551625190959 0.48181836451084858 0 -0.15533092952187719 0.50000000000000266 0 -0.14686471093138331 0.48652265627105867 0 -0.12605087502295509 0.5 0 -0.14686471093138331 0.48652265627105867 0 -0.12605087502295509 0.5 0 -0.13439108286602541 0.47903510652184761 0 -0.13439108286602541 0.47903510652184761 0 -0.12619369901322131 0.46037167570754067 0 -0.14033969626837181 0.46701320972467908 0 -0.12619369901322131 0.46037167570754067 0 -0.14037784218400809 0.45250913266456932 0 -0.12619369901322131 0.46037167570754067 0 -0.14033969626837181 0.46701320972467908 0 -0.14037784218400809 0.45250913266456932 0 -0.12619369901322131 0.46037167570754067 0 -0.13252646067075019 0.44145030486009662 0 -0.14037784218400809 0.45250913266456932 0 -0.13252646067075019 0.44145030486009662 0 -0.14037784218400809 0.45250913266456932 0 -0.13252646067075019 0.44145030486009662 0 -0.1477603349338219 0.44071137540971161 0 -0.14011438812477861 0.43495376793797519 0 -0.13252646067075019 0.44145030486009662 0 -0.14037784218400809 0.45250913266456932 0 -0.1477603349338219 0.44071137540971161 0 -0.13252646067075019 0.44145030486009662 0 -0.1477603349338219 0.44071137540971161 0 -0.14037784218400809 0.45250913266456932 0 -0.1629942091968937 0.43997244595932677 0 -0.14037784218400809 0.45250913266456932 0 -0.15601819351116911 0.45405608371136819 0 -0.1629942091968937 0.43997244595932677 0 -0.14037784218400809 0.45250913266456932 0 -0.1477603349338219 0.44071137540971161 0 -0.1629942091968937 0.43997244595932677 0 -0.1477603349338219 0.44071137540971161 0 -0.1629942091968937 0.43997244595932677 0 -0.14037784218400809 0.45250913266456932 0 -0.15601819351116911 0.45405608371136819 0 -0.15653185517555229 0.461663061890147 0 -0.15404515099414931 0.47175981032259701 0 -0.14037784218400809 0.45250913266456932 0 -0.15404515099414931 0.47175981032259701 0 -0.14037784218400809 0.45250913266456932 0 -0.15653185517555229 0.461663061890147 0 -0.15404515099414931 0.47175981032259701 0 -0.14033969626837181 0.46701320972467908 0 -0.14037784218400809 0.45250913266456932 0 -0.15404515099414931 0.47175981032259701 0 -0.16386754221964739 0.46717934173493791 0 -0.15653185517555229 0.461663061890147 0 -0.16386754221964739 0.46717934173493791 0 -0.15653185517555229 0.461663061890147 0 -0.16463597263734561 0.4621043994994477 0 -0.15653185517555229 0.461663061890147 0 -0.16301269457652309 0.45764700835754829 0 -0.16463597263734561 0.4621043994994477 0 -0.15601819351116911 0.45405608371136819 0 -0.15653185517555229 0.461663061890147 0 -0.16301269457652309 0.45764700835754829 0 -0.15601819351116911 0.45405608371136819 0 -0.16301269457652309 0.45764700835754829 0 -0.16246890127077401 0.45009906952248901 0 -0.16301269457652309 0.45764700835754829 0 -0.16935800217996219 0.45649661993864588 0 -0.16463597263734561 0.4621043994994477 0 -0.16935800217996219 0.45649661993864588 0 -0.16976099251517179 0.46168164091814401 0 -0.16463597263734561 0.4621043994994477 0 -0.16301269457652309 0.45764700835754829 0 -0.16935800217996219 0.45649661993864588 0 -0.16785050779850999 0.44872074006171292 0 -0.16935800217996219 0.45649661993864588 0 -0.16976099251517179 0.46168164091814401 0 -0.17368010298194089 0.46363672902169389 0 -0.16976099251517179 0.46168164091814401 0 -0.17368010298194089 0.46363672902169389 0 -0.16386754221964739 0.46717934173493791 0 -0.16976099251517179 0.46168164091814401 0 -0.17368010298194089 0.46363672902169389 0 -0.16386754221964739 0.46717934173493791 0 -0.16976099251517179 0.46168164091814401 0 -0.16463597263734561 0.4621043994994477 0 -0.15601819351116911 0.45405608371136819 0 -0.1629942091968937 0.43997244595932677 0 -0.16246890127077401 0.45009906952248901 0 -0.16301269457652309 0.45764700835754829 0 -0.16246890127077401 0.45009906952248901 0 -0.16785050779850999 0.44872074006171292 0 -0.1629942091968937 0.43997244595932677 0 -0.16246890127077401 0.45009906952248901 0 -0.16785050779850999 0.44872074006171292 0 -0.1629942091968937 0.43997244595932677 0 -0.16785050779850999 0.44872074006171292 0 -0.1689809931810218 0.43968205292321649 0 -0.1689809931810218 0.43968205292321649 0 -0.16616404900712639 0.43821534285854907 0 -0.1629942091968937 0.43997244595932677 0 -0.1689809931810218 0.43968205292321649 0 -0.16616404900712639 0.43821534285854907 0 -0.1629942091968937 0.43997244595932677 0 -0.1689809931810218 0.43968205292321649 0 -0.1629942091968937 0.43997244595932677 0 -0.16616404900712639 0.43821534285854907 0 -0.1689809931810218 0.43968205292321649 0 -0.18227499533386521 0.44660389643647341 0 -0.18618899703849101 0.43884736697182719 0 -0.1689809931810218 0.43968205292321649 0 -0.18618899703849101 0.43884736697182719 0 -0.16785050779850999 0.44872074006171292 0 -0.1689809931810218 0.43968205292321649 0 -0.18227499533386521 0.44660389643647341 0 -0.1689809931810218 0.43968205292321649 0 -0.18227499533386521 0.44660389643647341 0 -0.16935800217996219 0.45649661993864588 0 -0.16785050779850999 0.44872074006171292 0 -0.18227499533386521 0.44660389643647341 0 -0.18227499533386521 0.44660389643647341 0 -0.18618899703849101 0.43884736697182719 0 -0.17368010298194089 0.46363672902169389 0 -0.1910323400777901 0.47229306892424622 0 -0.16935800217996219 0.45649661993864588 0 -0.18227499533386521 0.44660389643647341 0 -0.17368010298194089 0.46363672902169389 0 -0.18227499533386521 0.44660389643647341 0 -0.17368010298194089 0.46363672902169389 0 -0.18227499533386521 0.44660389643647341 0 -0.18705486483606629 0.4597520060909624 0 -0.17368010298194089 0.46363672902169389 0 -0.18705486483606629 0.4597520060909624 0 -0.17368010298194089 0.46363672902169389 0 -0.1910323400777901 0.47229306892424622 0 -0.17368010298194089 0.46363672902169389 0 -0.16450551625190959 0.48181836451084858 0 -0.1835726759369416 0.48674160605853489 0 -0.17368010298194089 0.46363672902169389 0 -0.1835726759369416 0.48674160605853489 0 -0.1910323400777901 0.47229306892424622 0 -0.16386754221964739 0.46717934173493791 0 -0.17368010298194089 0.46363672902169389 0 -0.16450551625190959 0.48181836451084858 0 -0.17368010298194089 0.46363672902169389 0 -0.16450551625190959 0.48181836451084858 0 -0.15404515099414931 0.47175981032259701 0 -0.16386754221964739 0.46717934173493791 0 -0.16450551625190959 0.48181836451084858 0 -0.15533092952187719 0.50000000000000266 0 -0.16450551625190959 0.48181836451084858 0 -0.15533092952187719 0.50000000000000266 0 -0.16450551625190959 0.48181836451084858 0 -0.1741587604652535 0.5 0 -0.16450551625190959 0.48181836451084858 0 -0.1741587604652535 0.5 0 -0.1835726759369416 0.48674160605853489 0 -0.1741587604652535 0.5 0 -0.1835726759369416 0.48674160605853489 0 -0.19298659140862981 0.49999999999999872 0 -0.1835726759369416 0.48674160605853489 0 -0.19298659140862981 0.49999999999999872 0 -0.2083845771736377 0.48094940882680171 0 -0.19298659140862981 0.49999999999999872 0 -0.2083845771736377 0.48094940882680171 0 -0.1910323400777901 0.47229306892424622 0 -0.2083845771736377 0.48094940882680171 0 -0.1835726759369416 0.48674160605853489 0 -0.1910323400777901 0.47229306892424622 0 -0.2083845771736377 0.48094940882680171 0 -0.1910323400777901 0.47229306892424622 0 -0.2083845771736377 0.48094940882680171 0 -0.20123202095066911 0.45647432998143622 0 -0.2083845771736377 0.48094940882680171 0 -0.21765643938737059 0.47885084023927887 0 -0.21850371092865631 0.48599744158586339 0 -0.21765643938737059 0.47885084023927887 0 -0.21850371092865631 0.48599744158586339 0 -0.219304221347637 0.47781838758605832 0 -0.2083845771736377 0.48094940882680171 0 -0.21850371092865631 0.48599744158586339 0 -0.21765643938737059 0.47885084023927887 0 -0.219304221347637 0.47781838758605832 0 -0.2083845771736377 0.48094940882680171 0 -0.21765643938737059 0.47885084023927887 0 -0.22018904656747129 0.46634476352640197 0 -0.2083845771736377 0.48094940882680171 0 -0.22018904656747129 0.46634476352640197 0 -0.19298659140862981 0.49999999999999872 0 -0.2083845771736377 0.48094940882680171 0 -0.20911719393571909 0.49214709850821609 0 -0.19298659140862981 0.49999999999999872 0 -0.20911719393571909 0.49214709850821609 0 -0.21713323533292209 0.49999999999998879 0 -0.2083845771736377 0.48094940882680171 0 -0.20911719393571909 0.49214709850821609 0 -0.21850371092865631 0.48599744158586339 0 -0.20911719393571909 0.49214709850821609 0 -0.21850371092865631 0.48599744158586339 0 -0.21713323533292209 0.49999999999998879 0 -0.21850371092865631 0.48599744158586339 0 -0.21713323533292209 0.49999999999998879 0 -0.21850371092865631 0.48599744158586339 0 -0.21713323533292209 0.49999999999998879 0 -0.2325382634234604 0.49299872079293122 0 -0.21713323533292209 0.49999999999998879 0 -0.2325382634234604 0.49299872079293122 0 -0.2465728159182641 0.49999999999999939 0 -0.21850371092865631 0.48599744158586339 0 -0.2325382634234604 0.49299872079293122 0 -0.23033867800061761 0.48118652740586332 0 -0.21850371092865631 0.48599744158586339 0 -0.2325382634234604 0.49299872079293122 0 -0.21850371092865631 0.48599744158586339 0 -0.219304221347637 0.47781838758605832 0 -0.23033867800061761 0.48118652740586332 0 -0.21850371092865631 0.48599744158586339 0 -0.219304221347637 0.47781838758605832 0 -0.219304221347637 0.47781838758605832 0 -0.23905908977103529 0.46544055677493978 0 -0.219304221347637 0.47781838758605832 0 -0.23033867800061761 0.48118652740586332 0 -0.23905908977103529 0.46544055677493978 0 -0.219304221347637 0.47781838758605832 0 -0.23905908977103529 0.46544055677493978 0 -0.22018904656747129 0.46634476352640197 0 -0.21765643938737059 0.47885084023927887 0 -0.219304221347637 0.47781838758605832 0 -0.22018904656747129 0.46634476352640197 0 -0.219304221347637 0.47781838758605832 0 -0.22018904656747129 0.46634476352640197 0 -0.23033867800061761 0.48118652740586332 0 -0.24228810453229949 0.48367753028952498 0 -0.23905908977103529 0.46544055677493978 0 -0.25635858754318203 0.47944182771343791 0 -0.24228810453229949 0.48367753028952498 0 -0.23905908977103529 0.46544055677493978 0 -0.2325382634234604 0.49299872079293122 0 -0.24228810453229949 0.48367753028952498 0 -0.2465728159182641 0.49999999999999939 0 -0.25635858754318203 0.47944182771343791 0 -0.24228810453229949 0.48367753028952498 0 -0.2465728159182641 0.49999999999999939 0 -0.2325382634234604 0.49299872079293122 0 -0.2465728159182641 0.49999999999999939 0 -0.2325382634234604 0.49299872079293122 0 -0.23033867800061761 0.48118652740586332 0 -0.24228810453229949 0.48367753028952498 0 -0.25881395819443431 0.45306272596382219 0 -0.23229621795450089 0.45136561132572028 0 -0.24470861237627889 0.43600883315885569 0 -0.2326379277824982 0.44191047104887238 0 -0.24470861237627889 0.43600883315885569 0 -0.23653787978286411 0.43640516011023839 0 -0.23229621795450089 0.45136561132572028 0 -0.2326379277824982 0.44191047104887238 0 -0.24470861237627889 0.43600883315885569 0 -0.23229621795450089 0.45136561132572028 0 -0.24470861237627889 0.43600883315885569 0 -0.2326379277824982 0.44191047104887238 0 -0.23653787978286411 0.43640516011023839 0 -0.25881395819443431 0.45306272596382219 0 -0.23905908977103529 0.46544055677493978 0 -0.23229621795450089 0.45136561132572028 0 -0.25881395819443431 0.45306272596382219 0 -0.23905908977103529 0.46544055677493978 0 -0.23905908977103529 0.46544055677493978 0 -0.22018904656747129 0.46634476352640197 0 -0.23229621795450089 0.45136561132572028 0 -0.22018904656747129 0.46634476352640197 0 -0.23229621795450089 0.45136561132572028 0 -0.22018904656747129 0.46634476352640197 0 -0.22329459634821469 0.43704753459624679 0 -0.22018904656747129 0.46634476352640197 0 -0.23229621795450089 0.45136561132572028 0 -0.22329459634821469 0.43704753459624679 0 -0.23229621795450089 0.45136561132572028 0 -0.2326379277824982 0.44191047104887238 0 -0.22329459634821469 0.43704753459624679 0 -0.2326379277824982 0.44191047104887238 0 -0.22329459634821469 0.43704753459624679 0 -0.23653787978286411 0.43640516011023839 0 -0.22018904656747129 0.46634476352640197 0 -0.21095742672195919 0.45161302465203962 0 -0.22329459634821469 0.43704753459624679 0 -0.21095742672195919 0.45161302465203962 0 -0.20474179669335291 0.43794745078403852 0 -0.22329459634821469 0.43704753459624679 0 -0.21095742672195919 0.45161302465203962 0 -0.20474179669335291 0.43794745078403852 0 -0.1958271091716178 0.44585452103052858 0 -0.2083845771736377 0.48094940882680171 0 -0.22018904656747129 0.46634476352640197 0 -0.20123202095066911 0.45647432998143622 0 -0.22018904656747129 0.46634476352640197 0 -0.21095742672195919 0.45161302465203962 0 -0.20123202095066911 0.45647432998143622 0 -0.22018904656747129 0.46634476352640197 0 -0.20123202095066911 0.45647432998143622 0 -0.18227499533386521 0.44660389643647341 0 -0.18705486483606629 0.4597520060909624 0 -0.20123202095066911 0.45647432998143622 0 -0.18705486483606629 0.4597520060909624 0 -0.1910323400777901 0.47229306892424622 0 -0.20123202095066911 0.45647432998143622 0 -0.18227499533386521 0.44660389643647341 0 -0.20123202095066911 0.45647432998143622 0 -0.1958271091716178 0.44585452103052858 0 -0.18618899703849101 0.43884736697182719 0 -0.20474179669335291 0.43794745078403852 0 -0.1958271091716178 0.44585452103052858 0 -0.18618899703849101 0.43884736697182719 0 -0.20474179669335291 0.43794745078403852 0 -0.18227499533386521 0.44660389643647341 0 -0.20123202095066911 0.45647432998143622 0 -0.21095742672195919 0.45161302465203962 0 -0.20123202095066911 0.45647432998143622 0 -0.1958271091716178 0.44585452103052858 0 -0.18227499533386521 0.44660389643647341 0 -0.18618899703849101 0.43884736697182719 0 -0.1958271091716178 0.44585452103052858 0 -0.18618899703849101 0.43884736697182719 0 -0.19440818969320939 0.42255907309433749 0 -0.18618899703849101 0.43884736697182719 0 -0.20474179669335291 0.43794745078403852 0 -0.19440818969320939 0.42255907309433749 0 -0.19440818969320939 0.42255907309433749 0 -0.20771522609375381 0.39618800130713883 0 -0.1868985478712912 0.40222670268893612 0 -0.19440818969320939 0.42255907309433749 0 -0.20771522609375381 0.39618800130713883 0 -0.19440818969320939 0.42255907309433749 0 -0.21124323884875279 0.4132270819389845 0 -0.21124323884875279 0.4132270819389845 0 -0.2253703633412473 0.41583880336125889 0 -0.20771522609375381 0.39618800130713883 0 -0.19440818969320939 0.42255907309433749 0 -0.21124323884875279 0.4132270819389845 0 -0.211811636984956 0.42532398875497401 0 -0.19440818969320939 0.42255907309433749 0 -0.21124323884875279 0.4132270819389845 0 -0.20771522609375381 0.39618800130713883 0 -0.21124323884875279 0.4132270819389845 0 -0.211811636984956 0.42532398875497401 0 -0.2253703633412473 0.41583880336125889 0 -0.20474179669335291 0.43794745078403852 0 -0.19440818969320939 0.42255907309433749 0 -0.211811636984956 0.42532398875497401 0 -0.20474179669335291 0.43794745078403852 0 -0.211811636984956 0.42532398875497401 0 -0.22329459634821469 0.43704753459624679 0 -0.20474179669335291 0.43794745078403852 0 -0.22329459634821469 0.43704753459624679 0 -0.22329459634821469 0.43704753459624679 0 -0.22710011873939431 0.42713086551196139 0 -0.2253703633412473 0.41583880336125889 0 -0.211811636984956 0.42532398875497401 0 -0.22329459634821469 0.43704753459624679 0 -0.2253703633412473 0.41583880336125889 0 -0.22329459634821469 0.43704753459624679 0 -0.2253703633412473 0.41583880336125889 0 -0.22329459634821469 0.43704753459624679 0 -0.23653787978286411 0.43640516011023839 0 -0.22329459634821469 0.43704753459624679 0 -0.23088966210877029 0.43223758779562038 0 -0.22710011873939431 0.42713086551196139 0 -0.22329459634821469 0.43704753459624679 0 -0.23088966210877029 0.43223758779562038 0 -0.23653787978286411 0.43640516011023839 0 -0.22710011873939431 0.42713086551196139 0 -0.23662605356460681 0.42836679096402991 0 -0.22710011873939431 0.42713086551196139 0 -0.2253703633412473 0.41583880336125889 0 -0.23662605356460681 0.42836679096402991 0 -0.23088966210877029 0.43223758779562038 0 -0.22710011873939431 0.42713086551196139 0 -0.23662605356460681 0.42836679096402991 0 -0.2253703633412473 0.41583880336125889 0 -0.23662605356460681 0.42836679096402991 0 -0.25710839951787751 0.40736708289797091 0 -0.24124337553804329 0.41289809241253062 0 -0.24176035279673269 0.42903293147579852 0 -0.2253703633412473 0.41583880336125889 0 -0.24124337553804329 0.41289809241253062 0 -0.23662605356460681 0.42836679096402991 0 -0.25710839951787751 0.40736708289797091 0 -0.24176035279673269 0.42903293147579852 0 -0.24124337553804329 0.41289809241253062 0 -0.23662605356460681 0.42836679096402991 0 -0.24176035279673269 0.42903293147579852 0 -0.2469503930272248 0.43323527255600192 0 -0.24470861237627889 0.43600883315885569 0 -0.23976067917053931 0.43185574188139908 0 -0.24470861237627889 0.43600883315885569 0 -0.23976067917053931 0.43185574188139908 0 -0.2469503930272248 0.43323527255600192 0 -0.24470861237627889 0.43600883315885569 0 -0.2469503930272248 0.43323527255600192 0 -0.23976067917053931 0.43185574188139908 0 -0.24176035279673269 0.42903293147579852 0 -0.23976067917053931 0.43185574188139908 0 -0.23653787978286411 0.43640516011023839 0 -0.23662605356460681 0.42836679096402991 0 -0.23976067917053931 0.43185574188139908 0 -0.23662605356460681 0.42836679096402991 0 -0.24176035279673269 0.42903293147579852 0 -0.23976067917053931 0.43185574188139908 0 -0.24176035279673269 0.42903293147579852 0 -0.23088966210877029 0.43223758779562038 0 -0.23653787978286411 0.43640516011023839 0 -0.23662605356460681 0.42836679096402991 0 -0.24470861237627889 0.43600883315885569 0 -0.23653787978286411 0.43640516011023839 0 -0.24470861237627889 0.43600883315885569 0 -0.23976067917053931 0.43185574188139908 0 -0.23653787978286411 0.43640516011023839 0 -0.23976067917053931 0.43185574188139908 0 -0.23653787978286411 0.43640516011023839 0 -0.23976067917053931 0.43185574188139908 0 -0.23662605356460681 0.42836679096402991 0 -0.23662605356460681 0.42836679096402991 0 -0.24176035279673269 0.42903293147579852 0 -0.25168870764475709 0.38322255896485879 0 -0.22813211649996279 0.38762114662174491 0 -0.23089386965867911 0.35940348988223109 0 -0.25168870764475709 0.38322255896485879 0 -0.24124337553804329 0.41289809241253062 0 -0.22813211649996279 0.38762114662174491 0 -0.2253703633412473 0.41583880336125889 0 -0.22813211649996279 0.38762114662174491 0 -0.2253703633412473 0.41583880336125889 0 -0.24124337553804329 0.41289809241253062 0 -0.22813211649996279 0.38762114662174491 0 -0.2253703633412473 0.41583880336125889 0 -0.22813211649996279 0.38762114662174491 0 -0.20885606355203221 0.39392715932818312 0 -0.22813211649996279 0.38762114662174491 0 -0.20885606355203221 0.39392715932818312 0 -0.2113454964237472 0.36768748177661159 0 -0.2253703633412473 0.41583880336125889 0 -0.20771522609375381 0.39618800130713883 0 -0.2253703633412473 0.41583880336125889 0 -0.20885606355203221 0.39392715932818312 0 -0.20771522609375381 0.39618800130713883 0 -0.20885606355203221 0.39392715932818312 0 -0.20771522609375381 0.39618800130713883 0 -0.20771522609375381 0.39618800130713883 0 -0.1868985478712912 0.40222670268893612 0 -0.1884293491202626 0.37472212735024218 0 -0.20771522609375381 0.39618800130713883 0 -0.1884293491202626 0.37472212735024218 0 -0.20885606355203221 0.39392715932818312 0 -0.1884293491202626 0.37472212735024218 0 -0.2113454964237472 0.36768748177661159 0 -0.20885606355203221 0.39392715932818312 0 -0.20771522609375381 0.39618800130713883 0 -0.1884293491202626 0.37472212735024218 0 -0.1749088286968796 0.38911472061737418 0 -0.1609044956370396 0.37818054962569458 0 -0.1884293491202626 0.37472212735024218 0 -0.1749088286968796 0.38911472061737418 0 -0.1868985478712912 0.40222670268893612 0 -0.1884293491202626 0.37472212735024218 0 -0.1749088286968796 0.38911472061737418 0 -0.1609044956370396 0.37818054962569458 0 -0.15514647711029589 0.3945981304046815 0 -0.1749088286968796 0.38911472061737418 0 -0.16670926445048839 0.40469522237868971 0 -0.15514647711029589 0.3945981304046815 0 -0.1749088286968796 0.38911472061737418 0 -0.16670926445048839 0.40469522237868971 0 -0.1868985478712912 0.40222670268893612 0 -0.16670926445048839 0.40469522237868971 0 -0.1868985478712912 0.40222670268893612 0 -0.17859431830204611 0.41617889052721968 0 -0.19440818969320939 0.42255907309433749 0 -0.1868985478712912 0.40222670268893612 0 -0.17859431830204611 0.41617889052721968 0 -0.19440818969320939 0.42255907309433749 0 -0.17859431830204611 0.41617889052721968 0 -0.18028611935016711 0.43038720797644192 0 -0.1689809931810218 0.43968205292321649 0 -0.18618899703849101 0.43884736697182719 0 -0.18028611935016711 0.43038720797644192 0 -0.18618899703849101 0.43884736697182719 0 -0.19440818969320939 0.42255907309433749 0 -0.18028611935016711 0.43038720797644192 0 -0.19440818969320939 0.42255907309433749 0 -0.18028611935016711 0.43038720797644192 0 -0.17859431830204611 0.41617889052721968 0 -0.18028611935016711 0.43038720797644192 0 -0.1646694701450723 0.42102624649769221 0 -0.16616404900712639 0.43821534285854907 0 -0.18028611935016711 0.43038720797644192 0 -0.16616404900712639 0.43821534285854907 0 -0.14716143377627661 0.42832117197921121 0 -0.16616404900712639 0.43821534285854907 0 -0.1646694701450723 0.42102624649769221 0 -0.14716143377627661 0.42832117197921121 0 -0.16616404900712639 0.43821534285854907 0 -0.18028611935016711 0.43038720797644192 0 -0.1646694701450723 0.42102624649769221 0 -0.1629942091968937 0.43997244595932677 0 -0.16616404900712639 0.43821534285854907 0 -0.14716143377627661 0.42832117197921121 0 -0.1689809931810218 0.43968205292321649 0 -0.16616404900712639 0.43821534285854907 0 -0.18028611935016711 0.43038720797644192 0 -0.16670926445048839 0.40469522237868971 0 -0.1646694701450723 0.42102624649769221 0 -0.1458384661532505 0.40898745567127981 0 -0.16670926445048839 0.40469522237868971 0 -0.17859431830204611 0.41617889052721968 0 -0.1646694701450723 0.42102624649769221 0 -0.1646694701450723 0.42102624649769221 0 -0.1458384661532505 0.40898745567127981 0 -0.14716143377627661 0.42832117197921121 0 -0.1477603349338219 0.44071137540971161 0 -0.1629942091968937 0.43997244595932677 0 -0.14716143377627661 0.42832117197921121 0 -0.1477603349338219 0.44071137540971161 0 -0.14716143377627661 0.42832117197921121 0 -0.14011438812477861 0.43495376793797519 0 -0.14716143377627661 0.42832117197921121 0 -0.13372330030991411 0.42961408232801868 0 -0.1281588185454271 0.41842700109987291 0 -0.13252646067075019 0.44145030486009662 0 -0.13372330030991411 0.42961408232801868 0 -0.1208413319926628 0.42499156754031681 0 -0.14716143377627661 0.42832117197921121 0 -0.1281588185454271 0.41842700109987291 0 -0.13252646067075019 0.44145030486009662 0 -0.1208413319926628 0.42499156754031681 0 -0.13252646067075019 0.44145030486009662 0 -0.14011438812477861 0.43495376793797519 0 -0.13372330030991411 0.42961408232801868 0 -0.14716143377627661 0.42832117197921121 0 -0.14011438812477861 0.43495376793797519 0 -0.13372330030991411 0.42961408232801868 0 -0.13372330030991411 0.42961408232801868 0 -0.1281588185454271 0.41842700109987291 0 -0.1208413319926628 0.42499156754031681 0 -0.1458384661532505 0.40898745567127981 0 -0.1281588185454271 0.41842700109987291 0 -0.12482705478989629 0.40247287004669718 0 -0.1458384661532505 0.40898745567127981 0 -0.14716143377627661 0.42832117197921121 0 -0.1281588185454271 0.41842700109987291 0 -0.13798175199007109 0.39097309043278078 0 -0.1204155880014323 0.38657803722566692 0 -0.12482705478989629 0.40247287004669718 0 -0.1458384661532505 0.40898745567127981 0 -0.13798175199007109 0.39097309043278078 0 -0.12482705478989629 0.40247287004669718 0 -0.13798175199007109 0.39097309043278078 0 -0.13025956691316251 0.37039779880250961 0 -0.13798175199007109 0.39097309043278078 0 -0.13025956691316251 0.37039779880250961 0 -0.1204155880014323 0.38657803722566692 0 -0.1609044956370396 0.37818054962569458 0 -0.13798175199007109 0.39097309043278078 0 -0.15514647711029589 0.3945981304046815 0 -0.1609044956370396 0.37818054962569458 0 -0.13798175199007109 0.39097309043278078 0 -0.14877455890660751 0.36171845417703258 0 -0.16670926445048839 0.40469522237868971 0 -0.1458384661532505 0.40898745567127981 0 -0.15514647711029589 0.3945981304046815 0 -0.1458384661532505 0.40898745567127981 0 -0.13798175199007109 0.39097309043278078 0 -0.15514647711029589 0.3945981304046815 0 -0.14877455890660751 0.36171845417703258 0 -0.14292127449795039 0.3411173057437254 0 -0.1691434721467682 0.35325625339334832 0 -0.13025956691316251 0.37039779880250961 0 -0.1225373818362538 0.34982250717223839 0 -0.13798175199007109 0.39097309043278078 0 -0.14877455890660751 0.36171845417703258 0 -0.13025956691316251 0.37039779880250961 0 -0.14877455890660751 0.36171845417703258 0 -0.13025956691316251 0.37039779880250961 0 -0.1225373818362538 0.34982250717223839 0 -0.14877455890660751 0.36171845417703258 0 -0.14292127449795039 0.3411173057437254 0 -0.1225373818362538 0.34982250717223839 0 -0.12833380547985149 0.33499320808007232 0 -0.14292127449795039 0.3411173057437254 0 -0.1225373818362538 0.34982250717223839 0 -0.12833380547985149 0.33499320808007232 0 -0.1330613688258564 0.31978580386235811 0 -0.14292127449795039 0.3411173057437254 0 -0.12833380547985149 0.33499320808007232 0 -0.1330613688258564 0.31978580386235811 0 -0.11481519675934521 0.32924721554196718 0 -0.1330613688258564 0.31978580386235811 0 -0.1544108610661227 0.3266857723675019 0 -0.15130754089236781 0.31032439218274932 0 -0.1330613688258564 0.31978580386235811 0 -0.15130754089236781 0.31032439218274932 0 -0.1544108610661227 0.3266857723675019 0 -0.14292127449795039 0.3411173057437254 0 -0.1691434721467682 0.35325625339334832 0 -0.1330613688258564 0.31978580386235811 0 -0.1544108610661227 0.3266857723675019 0 -0.14292127449795039 0.3411173057437254 0 -0.1544108610661227 0.3266857723675019 0 -0.17336660482475261 0.32369716071382598 0 -0.1691434721467682 0.35325625339334832 0 -0.1544108610661227 0.3266857723675019 0 -0.17336660482475261 0.32369716071382598 0 -0.15130754089236781 0.31032439218274932 0 -0.17336660482475261 0.32369716071382598 0 -0.19628478772211869 0.32727052812007729 0 -0.19142562645358011 0.30770291105692371 0 -0.17336660482475261 0.32369716071382598 0 -0.1833111920541472 0.34006216438152842 0 -0.1691434721467682 0.35325625339334832 0 -0.17336660482475261 0.32369716071382598 0 -0.1833111920541472 0.34006216438152842 0 -0.19628478772211869 0.32727052812007729 0 -0.1833111920541472 0.34006216438152842 0 -0.1691434721467682 0.35325625339334832 0 -0.19776892639773361 0.35189224101830302 0 -0.1609044956370396 0.37818054962569458 0 -0.14877455890660751 0.36171845417703258 0 -0.1691434721467682 0.35325625339334832 0 -0.1609044956370396 0.37818054962569458 0 -0.1691434721467682 0.35325625339334832 0 -0.1884293491202626 0.37472212735024218 0 -0.1691434721467682 0.35325625339334832 0 -0.1884293491202626 0.37472212735024218 0 -0.19776892639773361 0.35189224101830302 0 -0.1691434721467682 0.35325625339334832 0 -0.1884293491202626 0.37472212735024218 0 -0.1884293491202626 0.37472212735024218 0 -0.19776892639773361 0.35189224101830302 0 -0.2113454964237472 0.36768748177661159 0 -0.19776892639773361 0.35189224101830302 0 -0.2113454964237472 0.36768748177661159 0 -0.21419719164429671 0.3412385918979165 0 -0.22813211649996279 0.38762114662174491 0 -0.2113454964237472 0.36768748177661159 0 -0.23089386965867911 0.35940348988223109 0 -0.22813211649996279 0.38762114662174491 0 -0.23089386965867911 0.35940348988223109 0 -0.23089386965867911 0.35940348988223109 0 -0.23365562281739549 0.33118583314271721 0 -0.21419719164429671 0.3412385918979165 0 -0.2113454964237472 0.36768748177661159 0 -0.23089386965867911 0.35940348988223109 0 -0.21419719164429671 0.3412385918979165 0 -0.23089386965867911 0.35940348988223109 0 -0.23365562281739549 0.33118583314271721 0 -0.25780002720646422 0.36048977413529881 0 -0.23089386965867911 0.35940348988223109 0 -0.2456581274658958 0.34777764813554263 0 -0.23089386965867911 0.35940348988223109 0 -0.2456581274658958 0.34777764813554263 0 -0.23365562281739549 0.33118583314271721 0 -0.25780002720646422 0.36048977413529881 0 -0.25168870764475709 0.38322255896485879 0 -0.23089386965867911 0.35940348988223109 0 -0.24517794028362941 0.31806958033165439 0 -0.23365562281739549 0.33118583314271721 0 -0.2364173759761119 0.30296817640320339 0 -0.2521142134025085 0.33447309266895769 0 -0.24517794028362941 0.31806958033165439 0 -0.23365562281739549 0.33118583314271721 0 -0.23365562281739549 0.33118583314271721 0 -0.2364173759761119 0.30296817640320339 0 -0.2521142134025085 0.33447309266895769 0 -0.2456581274658958 0.34777764813554263 0 -0.23365562281739549 0.33118583314271721 0 -0.23365562281739549 0.33118583314271721 0 -0.21572533883926751 0.31642365450104187 0 -0.21419719164429671 0.3412385918979165 0 -0.23365562281739549 0.33118583314271721 0 -0.21572533883926751 0.31642365450104187 0 -0.2364173759761119 0.30296817640320339 0 -0.21572533883926751 0.31642365450104187 0 -0.21419719164429671 0.3412385918979165 0 -0.19628478772211869 0.32727052812007729 0 -0.19776892639773361 0.35189224101830302 0 -0.21419719164429671 0.3412385918979165 0 -0.19628478772211869 0.32727052812007729 0 -0.1833111920541472 0.34006216438152842 0 -0.19776892639773361 0.35189224101830302 0 -0.19628478772211869 0.32727052812007729 0 -0.21572533883926751 0.31642365450104187 0 -0.19628478772211869 0.32727052812007729 0 -0.19142562645358011 0.30770291105692371 0 -0.19142562645358011 0.30770291105692371 0 -0.1900775423216762 0.2858392513802096 0 -0.21202151784183429 0.29617067496681843 0 -0.21202151784183429 0.29617067496681843 0 -0.22464229288209531 0.28464865726362931 0 -0.21089634931869719 0.27803366992144979 0 -0.1900775423216762 0.2858392513802096 0 -0.21202151784183429 0.29617067496681843 0 -0.21089634931869719 0.27803366992144979 0 -0.21572533883926751 0.31642365450104187 0 -0.19142562645358011 0.30770291105692371 0 -0.21202151784183429 0.29617067496681843 0 -0.21572533883926751 0.31642365450104187 0 -0.21202151784183429 0.29617067496681843 0 -0.2364173759761119 0.30296817640320339 0 -0.21202151784183429 0.29617067496681843 0 -0.22464229288209531 0.28464865726362931 0 -0.2364173759761119 0.30296817640320339 0 -0.22464229288209531 0.28464865726362931 0 -0.2364173759761119 0.30296817640320339 0 -0.23917912913482639 0.27475051966368952 0 -0.2364173759761119 0.30296817640320339 0 -0.23917912913482639 0.27475051966368952 0 -0.24943243083356259 0.28946269083431869 0 -0.2364173759761119 0.30296817640320339 0 -0.23917912913482639 0.27475051966368952 0 -0.26222850216444749 0.31431748396498332 0 -0.24517794028362941 0.31806958033165439 0 -0.2364173759761119 0.30296817640320339 0 -0.26222850216444749 0.31431748396498332 0 -0.24943243083356259 0.28946269083431869 0 -0.2364173759761119 0.30296817640320339 0 -0.23917912913482639 0.27475051966368952 0 -0.24200413324872599 0.24588660902703691 0 -0.2498269241437682 0.26406117714804328 0 -0.23917912913482639 0.27475051966368952 0 -0.24200413324872599 0.24588660902703691 0 -0.25426667820251952 0.27848082228469789 0 -0.2498269241437682 0.26406117714804328 0 -0.23917912913482639 0.27475051966368952 0 -0.25426667820251952 0.27848082228469789 0 -0.24943243083356259 0.28946269083431869 0 -0.23917912913482639 0.27475051966368952 0 -0.25426667820251952 0.27848082228469789 0 -0.23917912913482639 0.27475051966368952 0 -0.23917912913482639 0.27475051966368952 0 -0.22460878231198819 0.27114809207930402 0 -0.23917912913482639 0.27475051966368952 0 -0.22460878231198819 0.27114809207930402 0 -0.22179826369086589 0.25342840633496871 0 -0.22464229288209531 0.28464865726362931 0 -0.23917912913482639 0.27475051966368952 0 -0.22460878231198819 0.27114809207930402 0 -0.22464229288209531 0.28464865726362931 0 -0.22460878231198819 0.27114809207930402 0 -0.21089634931869719 0.27803366992144979 0 -0.22460878231198819 0.27114809207930402 0 -0.22179826369086589 0.25342840633496871 0 -0.21243785487997879 0.26385445211500302 0 -0.23917912913482639 0.27475051966368952 0 -0.22179826369086589 0.25342840633496871 0 -0.24200413324872599 0.24588660902703691 0 -0.22179826369086589 0.25342840633496871 0 -0.21243785487997879 0.26385445211500302 0 -0.205943712426465 0.25091483246910667 0 -0.21243785487997879 0.26385445211500302 0 -0.205943712426465 0.25091483246910667 0 -0.19894216665187789 0.26574725977018571 0 -0.22460878231198819 0.27114809207930402 0 -0.21243785487997879 0.26385445211500302 0 -0.21089634931869719 0.27803366992144979 0 -0.21243785487997879 0.26385445211500302 0 -0.21089634931869719 0.27803366992144979 0 -0.19894216665187789 0.26574725977018571 0 -0.1900775423216762 0.2858392513802096 0 -0.19894216665187789 0.26574725977018571 0 -0.17954919037560019 0.26129903543025118 0 -0.1900775423216762 0.2858392513802096 0 -0.21089634931869719 0.27803366992144979 0 -0.19894216665187789 0.26574725977018571 0 -0.19894216665187789 0.26574725977018571 0 -0.19258181182304029 0.25358286531321689 0 -0.17954919037560019 0.26129903543025118 0 -0.205943712426465 0.25091483246910667 0 -0.19894216665187789 0.26574725977018571 0 -0.19258181182304029 0.25358286531321689 0 -0.17954919037560019 0.26129903543025118 0 -0.1681571050197464 0.25712804122722249 0 -0.16902083842952409 0.23675881948029301 0 -0.19258181182304029 0.25358286531321689 0 -0.17954919037560019 0.26129903543025118 0 -0.1840115833650097 0.2441122260861677 0 -0.1681571050197464 0.25712804122722249 0 -0.15753037363914901 0.25820487887292731 0 -0.16902083842952409 0.23675881948029301 0 -0.17954919037560019 0.26129903543025118 0 -0.1681571050197464 0.25712804122722249 0 -0.16570326988222639 0.26956311838488251 0 -0.1681571050197464 0.25712804122722249 0 -0.15753037363914901 0.25820487887292731 0 -0.16570326988222639 0.26956311838488251 0 -0.16570326988222639 0.26956311838488251 0 -0.17404266277377681 0.2807115788132154 0 -0.16168768874564141 0.28594387446946828 0 -0.16570326988222639 0.26956311838488251 0 -0.16168768874564141 0.28594387446946828 0 -0.14603990884877541 0.27965093826556242 0 -0.15753037363914901 0.25820487887292731 0 -0.16570326988222639 0.26956311838488251 0 -0.14603990884877541 0.27965093826556242 0 -0.17954919037560019 0.26129903543025118 0 -0.16570326988222639 0.26956311838488251 0 -0.17404266277377681 0.2807115788132154 0 -0.1900775423216762 0.2858392513802096 0 -0.17954919037560019 0.26129903543025118 0 -0.1900775423216762 0.2858392513802096 0 -0.17954919037560019 0.26129903543025118 0 -0.17404266277377681 0.2807115788132154 0 -0.1900775423216762 0.2858392513802096 0 -0.17404266277377681 0.2807115788132154 0 -0.16955371295887919 0.30086298050314042 0 -0.17336660482475261 0.32369716071382598 0 -0.19142562645358011 0.30770291105692371 0 -0.16955371295887919 0.30086298050314042 0 -0.19142562645358011 0.30770291105692371 0 -0.1900775423216762 0.2858392513802096 0 -0.16955371295887919 0.30086298050314042 0 -0.16955371295887919 0.30086298050314042 0 -0.15174526878526079 0.29530160510363501 0 -0.15130754089236781 0.31032439218274932 0 -0.16955371295887919 0.30086298050314042 0 -0.15130754089236781 0.31032439218274932 0 -0.17336660482475261 0.32369716071382598 0 -0.16955371295887919 0.30086298050314042 0 -0.15130754089236781 0.31032439218274932 0 -0.16955371295887919 0.30086298050314042 0 -0.16168768874564141 0.28594387446946828 0 -0.15174526878526079 0.29530160510363501 0 -0.17404266277377681 0.2807115788132154 0 -0.16955371295887919 0.30086298050314042 0 -0.16168768874564141 0.28594387446946828 0 -0.15174526878526079 0.29530160510363501 0 -0.13602265036182301 0.29834737260322869 0 -0.14603990884877541 0.27965093826556242 0 -0.16168768874564141 0.28594387446946828 0 -0.15174526878526079 0.29530160510363501 0 -0.14603990884877541 0.27965093826556242 0 -0.13602265036182301 0.29834737260322869 0 -0.14603990884877541 0.27965093826556242 0 -0.15174526878526079 0.29530160510363501 0 -0.15130754089236781 0.31032439218274932 0 -0.13602265036182301 0.29834737260322869 0 -0.1330613688258564 0.31978580386235811 0 -0.13602265036182301 0.29834737260322869 0 -0.1226582076255654 0.30776857084557652 0 -0.1330613688258564 0.31978580386235811 0 -0.15130754089236781 0.31032439218274932 0 -0.13602265036182301 0.29834737260322869 0 -0.13602265036182301 0.29834737260322869 0 -0.12514391034319289 0.29037113349529742 0 -0.1226582076255654 0.30776857084557652 0 -0.13602265036182301 0.29834737260322869 0 -0.12514391034319289 0.29037113349529742 0 -0.14603990884877541 0.27965093826556242 0 -0.12514391034319289 0.29037113349529742 0 -0.14603990884877541 0.27965093826556242 0 -0.12514391034319289 0.29037113349529742 0 -0.12784894141554551 0.27441952997663932 0 -0.14603990884877541 0.27965093826556242 0 -0.12784894141554551 0.27441952997663932 0 -0.1378654665521892 0.25938631581791138 0 -0.14603990884877541 0.27965093826556242 0 -0.1378654665521892 0.25938631581791138 0 -0.11231118999407171 0.2546280081215449 0 -0.1379975732107715 0.23947362567545449 0 -0.12784894141554551 0.27441952997663932 0 -0.1378654665521892 0.25938631581791138 0 -0.11231118999407171 0.2546280081215449 0 -0.15753037363914901 0.25820487887292731 0 -0.1378654665521892 0.25938631581791138 0 -0.15388866550062 0.2424524725570032 0 -0.16570326988222639 0.26956311838488251 0 -0.14603990884877541 0.27965093826556242 0 -0.15753037363914901 0.25820487887292731 0 -0.14603990884877541 0.27965093826556242 0 -0.15753037363914901 0.25820487887292731 0 -0.1378654665521892 0.25938631581791138 0 -0.14603990884877541 0.27965093826556242 0 -0.099124599249220166 0.27796447429246568 0 -0.11231118999407171 0.2546280081215449 0 -0.086624806777372221 0.26978239056763509 0 -0.099124599249220166 0.27796447429246568 0 -0.11231118999407171 0.2546280081215449 0 -0.1126962265335363 0.27380895381642523 0 -0.099124599249220166 0.27796447429246568 0 -0.1126962265335363 0.27380895381642523 0 -0.1122839691843234 0.28673347868484272 0 -0.11231118999407171 0.2546280081215449 0 -0.086624806777372221 0.26978239056763509 0 -0.086504980287282318 0.2450403185754591 0 -0.11231118999407171 0.2546280081215449 0 -0.086624806777372221 0.26978239056763509 0 -0.12784894141554551 0.27441952997663932 0 -0.11231118999407171 0.2546280081215449 0 -0.1126962265335363 0.27380895381642523 0 -0.12784894141554551 0.27441952997663932 0 -0.1126962265335363 0.27380895381642523 0 -0.1122839691843234 0.28673347868484272 0 -0.12514391034319289 0.29037113349529742 0 -0.1042479118376098 0.30109132872503119 0 -0.12514391034319289 0.29037113349529742 0 -0.12784894141554551 0.27441952997663932 0 -0.1122839691843234 0.28673347868484272 0 -0.12514391034319289 0.29037113349529742 0 -0.1122839691843234 0.28673347868484272 0 -0.1042479118376098 0.30109132872503119 0 -0.12514391034319289 0.29037113349529742 0 -0.1226582076255654 0.30776857084557652 0 -0.1042479118376098 0.30109132872503119 0 -0.1042479118376098 0.30109132872503119 0 -0.08271291482191187 0.31213934694815221 0 -0.10010873428519521 0.31870578385816961 0 -0.1042479118376098 0.30109132872503119 0 -0.1009928402951794 0.29241838892937988 0 -0.089093149533793548 0.2985542280948455 0 -0.099124599249220166 0.27796447429246568 0 -0.1009928402951794 0.29241838892937988 0 -0.08294178474469803 0.28459133332398051 0 -0.099124599249220166 0.27796447429246568 0 -0.1122839691843234 0.28673347868484272 0 -0.1009928402951794 0.29241838892937988 0 -0.1042479118376098 0.30109132872503119 0 -0.1009928402951794 0.29241838892937988 0 -0.1122839691843234 0.28673347868484272 0 -0.1042479118376098 0.30109132872503119 0 -0.1009928402951794 0.29241838892937988 0 -0.1009928402951794 0.29241838892937988 0 -0.08294178474469803 0.28459133332398051 0 -0.089093149533793548 0.2985542280948455 0 -0.08294178474469803 0.28459133332398051 0 -0.089093149533793548 0.2985542280948455 0 -0.073710330680678449 0.29613408831389409 0 -0.08271291482191187 0.31213934694815221 0 -0.089093149533793548 0.2985542280948455 0 -0.073710330680678449 0.29613408831389409 0 -0.1042479118376098 0.30109132872503119 0 -0.08271291482191187 0.31213934694815221 0 -0.089093149533793548 0.2985542280948455 0 -0.1042479118376098 0.30109132872503119 0 -0.08271291482191187 0.31213934694815221 0 -0.08271291482191187 0.31213934694815221 0 -0.062997559921464608 0.30407155387350249 0 -0.073710330680678449 0.29613408831389409 0 -0.062997559921464608 0.30407155387350249 0 -0.073710330680678449 0.29613408831389409 0 -0.060878112549773933 0.29416953315565952 0 -0.08294178474469803 0.28459133332398051 0 -0.073710330680678449 0.29613408831389409 0 -0.067714625579742449 0.28611746538929977 0 -0.073710330680678449 0.29613408831389409 0 -0.067714625579742449 0.28611746538929977 0 -0.060878112549773933 0.29416953315565952 0 -0.067714625579742449 0.28611746538929977 0 -0.068600823223793989 0.27300501707505831 0 -0.052442076699767859 0.28268735507790671 0 -0.068600823223793989 0.27300501707505831 0 -0.086624806777372221 0.26978239056763509 0 -0.070762388403913967 0.25672530696493517 0 -0.08294178474469803 0.28459133332398051 0 -0.067714625579742449 0.28611746538929977 0 -0.068600823223793989 0.27300501707505831 0 -0.099124599249220166 0.27796447429246568 0 -0.08294178474469803 0.28459133332398051 0 -0.086624806777372221 0.26978239056763509 0 -0.08294178474469803 0.28459133332398051 0 -0.068600823223793989 0.27300501707505831 0 -0.086624806777372221 0.26978239056763509 0 -0.086624806777372221 0.26978239056763509 0 -0.070762388403913967 0.25672530696493517 0 -0.086504980287282318 0.2450403185754591 0 -0.068600823223793989 0.27300501707505831 0 -0.070762388403913967 0.25672530696493517 0 -0.053162561201304678 0.2598115484802323 0 -0.070762388403913967 0.25672530696493517 0 -0.053162561201304678 0.2598115484802323 0 -0.061455895061020033 0.24853211852235971 0 -0.053162561201304678 0.2598115484802323 0 -0.044096303703192952 0.2497816203347738 0 -0.047695933177701093 0.24472587219290301 0 -0.068600823223793989 0.27300501707505831 0 -0.053162561201304678 0.2598115484802323 0 -0.052442076699767859 0.28268735507790671 0 -0.053162561201304678 0.2598115484802323 0 -0.052442076699767859 0.28268735507790671 0 -0.053162561201304678 0.2598115484802323 0 -0.04084311985699831 0.26830746443020548 0 -0.052442076699767859 0.28268735507790671 0 -0.04084311985699831 0.26830746443020548 0 -0.043479498228000679 0.29199138885906578 0 -0.04084311985699831 0.26830746443020548 0 -0.043479498228000679 0.29199138885906578 0 -0.052442076699767859 0.28268735507790671 0 -0.04084311985699831 0.26830746443020548 0 -0.036504573517939752 0.27969709415817712 0 -0.043479498228000679 0.29199138885906578 0 -0.04084311985699831 0.26830746443020548 0 -0.032181814383788858 0.272140104121876 0 -0.036504573517939752 0.27969709415817712 0 -0.032181814383788858 0.272140104121876 0 -0.036504573517939752 0.27969709415817712 0 -0.02912353484222303 0.2815069985096697 0 -0.053162561201304678 0.2598115484802323 0 -0.04084311985699831 0.26830746443020548 0 -0.035949373735450922 0.25569494722108133 0 -0.053162561201304678 0.2598115484802323 0 -0.035949373735450922 0.25569494722108133 0 -0.044096303703192952 0.2497816203347738 0 -0.04084311985699831 0.26830746443020548 0 -0.032181814383788858 0.272140104121876 0 -0.035949373735450922 0.25569494722108133 0 -0.035949373735450922 0.25569494722108133 0 -0.020806135622180932 0.2744280851232534 0 -0.035949373735450922 0.25569494722108133 0 -0.020365214436054799 0.25537064076252869 0 -0.03061724185871674 0.2464976304608929 0 -0.035949373735450922 0.25569494722108133 0 -0.020365214436054799 0.25537064076252869 0 -0.020806135622180932 0.2744280851232534 0 -0.020365214436054799 0.25537064076252869 0 -0.014130693699615589 0.27700607215604189 0 -0.020365214436054799 0.25537064076252869 0 -0.020806135622180932 0.2744280851232534 0 -0.014130693699615589 0.27700607215604189 0 -0.032181814383788858 0.272140104121876 0 -0.035949373735450922 0.25569494722108133 0 -0.020806135622180932 0.2744280851232534 0 -0.032181814383788858 0.272140104121876 0 -0.020806135622180932 0.2744280851232534 0 -0.02912353484222303 0.2815069985096697 0 -0.020806135622180932 0.2744280851232534 0 -0.014130693699615589 0.27700607215604189 0 -0.01269870898214942 0.27807385161519621 0 -0.014130693699615589 0.27700607215604189 0 -0.0024700602076885869 0.2783212407398884 0 -0.01116840043678153 0.25816598542702801 0 -0.0024700602076885869 0.2783212407398884 0 -0.01116840043678153 0.25816598542702801 0 -0.0024700602076885869 0.2783212407398884 0 -0.01116840043678153 0.25816598542702801 0 0.00073250227177334287 0.26383188057125512 0 -0.014130693699615589 0.27700607215604189 0 -0.01269870898214942 0.27807385161519621 0 -0.0024700602076885869 0.2783212407398884 0 -0.020365214436054799 0.25537064076252869 0 -0.014130693699615589 0.27700607215604189 0 -0.01116840043678153 0.25816598542702801 0 -0.0034487942078763869 0.25047567664513981 0 -0.01116840043678153 0.25816598542702801 0 0.00073250227177334287 0.26383188057125512 0 -0.020365214436054799 0.25537064076252869 0 -0.01116840043678153 0.25816598542702801 0 -0.01244324598223333 0.2494398909106863 0 -0.0034487942078763869 0.25047567664513981 0 -0.01116840043678153 0.25816598542702801 0 -0.01244324598223333 0.2494398909106863 0 -0.0152339300870151 0.3035998747297739 0 -0.0056628975089109412 0.29316122302542558 0 0.001529262752131347 0.30858386382712621 0 -0.0152339300870151 0.3035998747297739 0 -0.0081216408355762101 0.31663706529269531 0 0.001529262752131347 0.30858386382712621 0 -0.0152339300870151 0.3035998747297739 0 -0.02079765229526986 0.31717459005653581 0 -0.0081216408355762101 0.31663706529269531 0 -0.0056628975089109412 0.29316122302542558 0 0.001529262752131347 0.30858386382712621 0 -0.0056628975089109412 0.29316122302542558 0 0.0046318613707928592 0.30589648719551771 0 -0.0024700602076885869 0.2783212407398884 0 -0.0056628975089109412 0.29316122302542558 0 0.006228280021404381 0.29847649605274901 0 -0.0152339300870151 0.3035998747297739 0 -0.0056628975089109412 0.29316122302542558 0 -0.022608466548365229 0.2911090202685207 0 -0.020806135622180932 0.2744280851232534 0 -0.01269870898214942 0.27807385161519621 0 -0.0056628975089109412 0.29316122302542558 0 -0.020806135622180932 0.2744280851232534 0 -0.0056628975089109412 0.29316122302542558 0 -0.01269870898214942 0.27807385161519621 0 -0.0024700602076885869 0.2783212407398884 0 -0.0056628975089109412 0.29316122302542558 0 -0.01269870898214942 0.27807385161519621 0 -0.0056628975089109412 0.29316122302542558 0 -0.020806135622180932 0.2744280851232534 0 -0.022608466548365229 0.2911090202685207 0 -0.02912353484222303 0.2815069985096697 0 -0.020806135622180932 0.2744280851232534 0 -0.0056628975089109412 0.29316122302542558 0 -0.022608466548365229 0.2911090202685207 0 -0.022608466548365229 0.2911090202685207 0 -0.02912353484222303 0.2815069985096697 0 -0.033516684138840409 0.29016068887652152 0 -0.022608466548365229 0.2911090202685207 0 -0.033625282746869503 0.30273132017948728 0 -0.033516684138840409 0.29016068887652152 0 -0.0152339300870151 0.3035998747297739 0 -0.033625282746869503 0.30273132017948728 0 -0.02079765229526986 0.31717459005653581 0 -0.0152339300870151 0.3035998747297739 0 -0.022608466548365229 0.2911090202685207 0 -0.033625282746869503 0.30273132017948728 0 -0.04560004723935647 0.3110413564529001 0 -0.043479498228000679 0.29199138885906578 0 -0.033625282746869503 0.30273132017948728 0 -0.04560004723935647 0.3110413564529001 0 -0.043479498228000679 0.29199138885906578 0 -0.033625282746869503 0.30273132017948728 0 -0.04560004723935647 0.3110413564529001 0 -0.034813394084775601 0.32277725204014363 0 -0.036504573517939752 0.27969709415817712 0 -0.033516684138840409 0.29016068887652152 0 -0.043479498228000679 0.29199138885906578 0 -0.036504573517939752 0.27969709415817712 0 -0.02912353484222303 0.2815069985096697 0 -0.033516684138840409 0.29016068887652152 0 -0.033625282746869503 0.30273132017948728 0 -0.033516684138840409 0.29016068887652152 0 -0.043479498228000679 0.29199138885906578 0 -0.036504573517939752 0.27969709415817712 0 -0.043479498228000679 0.29199138885906578 0 -0.043479498228000679 0.29199138885906578 0 -0.052442076699767859 0.28268735507790671 0 -0.051721592198231033 0.30556316167558112 0 -0.052442076699767859 0.28268735507790671 0 -0.060878112549773933 0.29416953315565952 0 -0.051721592198231033 0.30556316167558112 0 -0.052442076699767859 0.28268735507790671 0 -0.051721592198231033 0.30556316167558112 0 -0.067714625579742449 0.28611746538929977 0 -0.052442076699767859 0.28268735507790671 0 -0.060878112549773933 0.29416953315565952 0 -0.04560004723935647 0.3110413564529001 0 -0.043479498228000679 0.29199138885906578 0 -0.0523287080171079 0.30758937701516997 0 -0.062997559921464608 0.30407155387350249 0 -0.0523287080171079 0.30758937701516997 0 -0.061177917806214448 0.32318736517127439 0 -0.043479498228000679 0.29199138885906578 0 -0.051721592198231033 0.30556316167558112 0 -0.0523287080171079 0.30758937701516997 0 -0.043479498228000679 0.29199138885906578 0 -0.0523287080171079 0.30758937701516997 0 -0.062997559921464608 0.30407155387350249 0 -0.060878112549773933 0.29416953315565952 0 -0.051721592198231033 0.30556316167558112 0 -0.062997559921464608 0.30407155387350249 0 -0.051721592198231033 0.30556316167558112 0 -0.0523287080171079 0.30758937701516997 0 -0.0523287080171079 0.30758937701516997 0 -0.061177917806214448 0.32318736517127439 0 -0.04560004723935647 0.3110413564529001 0 -0.061177917806214448 0.32318736517127439 0 -0.04772059625071353 0.3300913240467343 0 -0.061177917806214448 0.32318736517127439 0 -0.04772059625071353 0.3300913240467343 0 -0.04560004723935647 0.3110413564529001 0 -0.0523287080171079 0.30758937701516997 0 -0.061177917806214448 0.32318736517127439 0 -0.059116871711828313 0.33963958442692638 0 -0.04772059625071353 0.3300913240467343 0 -0.050442922420471638 0.35454736115599678 0 -0.04772059625071353 0.3300913240467343 0 -0.050442922420471638 0.35454736115599678 0 -0.061177917806214448 0.32318736517127439 0 -0.059116871711828313 0.33963958442692638 0 -0.04772059625071353 0.3300913240467343 0 -0.04772059625071353 0.3300913240467343 0 -0.033225787707984178 0.33752754095468318 0 -0.050442922420471638 0.35454736115599678 0 -0.04772059625071353 0.3300913240467343 0 -0.033225787707984178 0.33752754095468318 0 -0.04772059625071353 0.3300913240467343 0 -0.033225787707984178 0.33752754095468318 0 -0.034813394084775601 0.32277725204014363 0 -0.04560004723935647 0.3110413564529001 0 -0.04772059625071353 0.3300913240467343 0 -0.034813394084775601 0.32277725204014363 0 -0.04560004723935647 0.3110413564529001 0 -0.04772059625071353 0.3300913240467343 0 -0.033625282746869503 0.30273132017948728 0 -0.034813394084775601 0.32277725204014363 0 -0.02079765229526986 0.31717459005653581 0 -0.02079765229526986 0.31717459005653581 0 -0.02275554443164229 0.33008974650354111 0 -0.0087609401411649687 0.32956484562867921 0 -0.034813394084775601 0.32277725204014363 0 -0.02079765229526986 0.31717459005653581 0 -0.02275554443164229 0.33008974650354111 0 -0.033225787707984178 0.33752754095468318 0 -0.034813394084775601 0.32277725204014363 0 -0.02275554443164229 0.33008974650354111 0 -0.033225787707984178 0.33752754095468318 0 -0.02275554443164229 0.33008974650354111 0 -0.01873097916525426 0.34496375786263112 0 -0.033225787707984178 0.33752754095468318 0 -0.01873097916525426 0.34496375786263112 0 -0.02275554443164229 0.33008974650354111 0 -0.0087609401411649687 0.32956484562867921 0 -0.01873097916525426 0.34496375786263112 0 -0.0087609401411649687 0.32956484562867921 0 -0.002403143129345516 0.34530328237259428 0 0.0027678611910452091 0.33438370688767077 0 -0.0087609401411649687 0.32956484562867921 0 -0.002403143129345516 0.34530328237259428 0 -0.01873097916525426 0.34496375786263112 0 -0.0087609401411649687 0.32956484562867921 0 -0.0081216408355762101 0.31663706529269531 0 0.0087214230131738516 0.32400650462882669 0 -0.02079765229526986 0.31717459005653581 0 -0.0087609401411649687 0.32956484562867921 0 -0.0081216408355762101 0.31663706529269531 0 -0.016333334800930011 0.38368361590383848 0 0.0071563883231025999 0.36548863895536982 0 -0.01093469601381628 0.36033853910416069 0 -0.016333334800930011 0.38368361590383848 0 0.0071563883231025999 0.36548863895536982 0 -0.016333334800930011 0.38368361590383848 0 0.0071563883231025999 0.36548863895536982 0 0.0050970088877844641 0.3741788572440583 0 -0.01093469601381628 0.36033853910416069 0 -0.002403143129345516 0.34530328237259428 0 0.0071563883231025999 0.36548863895536982 0 -0.01093469601381628 0.36033853910416069 0 -0.002403143129345516 0.34530328237259428 0 -0.01873097916525426 0.34496375786263112 0 -0.01873097916525426 0.34496375786263112 0 -0.025661878913780019 0.36482710251946859 0 -0.034438991301002697 0.35535245654790798 0 -0.033225787707984178 0.33752754095468318 0 -0.01873097916525426 0.34496375786263112 0 -0.034438991301002697 0.35535245654790798 0 -0.01093469601381628 0.36033853910416069 0 -0.01873097916525426 0.34496375786263112 0 -0.025661878913780019 0.36482710251946859 0 -0.025661878913780019 0.36482710251946859 0 -0.044133388297523418 0.3748965202467604 0 -0.016333334800930011 0.38368361590383848 0 -0.01093469601381628 0.36033853910416069 0 -0.025661878913780019 0.36482710251946859 0 -0.016333334800930011 0.38368361590383848 0 -0.025661878913780019 0.36482710251946859 0 -0.044133388297523418 0.3748965202467604 0 -0.034438991301002697 0.35535245654790798 0 -0.044133388297523418 0.3748965202467604 0 -0.034438991301002697 0.35535245654790798 0 -0.050442922420471638 0.35454736115599678 0 -0.033225787707984178 0.33752754095468318 0 -0.034438991301002697 0.35535245654790798 0 -0.050442922420471638 0.35454736115599678 0 -0.059116871711828313 0.33963958442692638 0 -0.050442922420471638 0.35454736115599678 0 -0.065887555117731714 0.35100794996134987 0 -0.044133388297523418 0.3748965202467604 0 -0.050442922420471638 0.35454736115599678 0 -0.071933441794115885 0.36610942458967888 0 -0.044133388297523418 0.3748965202467604 0 -0.071933441794115885 0.36610942458967888 0 -0.044133388297523418 0.3748965202467604 0 -0.071933441794115885 0.36610942458967888 0 -0.061707623193669528 0.38232382442905921 0 -0.071933441794115885 0.36610942458967888 0 -0.086648580587592242 0.37165526666582738 0 -0.099733495290708338 0.35732232893259741 0 -0.071933441794115885 0.36610942458967888 0 -0.086648580587592242 0.37165526666582738 0 -0.076546747051707109 0.37894418261848078 0 -0.071933441794115885 0.36610942458967888 0 -0.079532816121805558 0.35554047842727732 0 -0.099733495290708338 0.35732232893259741 0 -0.071933441794115885 0.36610942458967888 0 -0.099733495290708338 0.35732232893259741 0 -0.089933588784828336 0.34746833754421819 0 -0.079532816121805558 0.35554047842727732 0 -0.099733495290708338 0.35732232893259741 0 -0.089933588784828336 0.34746833754421819 0 -0.079532816121805558 0.35554047842727732 0 -0.081945954554092287 0.34318723457307221 0 -0.079532816121805558 0.35554047842727732 0 -0.065887555117731714 0.35100794996134987 0 -0.070355366964009985 0.33936392179927588 0 -0.079532816121805558 0.35554047842727732 0 -0.070355366964009985 0.33936392179927588 0 -0.081945954554092287 0.34318723457307221 0 -0.050442922420471638 0.35454736115599678 0 -0.071933441794115885 0.36610942458967888 0 -0.065887555117731714 0.35100794996134987 0 -0.079532816121805558 0.35554047842727732 0 -0.070355366964009985 0.33936392179927588 0 -0.071933441794115885 0.36610942458967888 0 -0.079532816121805558 0.35554047842727732 0 -0.065887555117731714 0.35100794996134987 0 -0.061177917806214448 0.32318736517127439 0 -0.070355366964009985 0.33936392179927588 0 -0.074130324872610398 0.32673754030468688 0 -0.061177917806214448 0.32318736517127439 0 -0.070355366964009985 0.33936392179927588 0 -0.061177917806214448 0.32318736517127439 0 -0.059116871711828313 0.33963958442692638 0 -0.070355366964009985 0.33936392179927588 0 -0.059116871711828313 0.33963958442692638 0 -0.065887555117731714 0.35100794996134987 0 -0.070355366964009985 0.33936392179927588 0 -0.070355366964009985 0.33936392179927588 0 -0.074130324872610398 0.32673754030468688 0 -0.083514035688362062 0.3318876280130087 0 -0.08271291482191187 0.31213934694815221 0 -0.061177917806214448 0.32318736517127439 0 -0.074130324872610398 0.32673754030468688 0 -0.08271291482191187 0.31213934694815221 0 -0.061177917806214448 0.32318736517127439 0 -0.08271291482191187 0.31213934694815221 0 -0.062997559921464608 0.30407155387350249 0 -0.061177917806214448 0.32318736517127439 0 -0.08271291482191187 0.31213934694815221 0 -0.10010873428519521 0.31870578385816961 0 -0.093811273816898383 0.32740493070877591 0 -0.08271291482191187 0.31213934694815221 0 -0.074130324872610398 0.32673754030468688 0 -0.083514035688362062 0.3318876280130087 0 -0.08271291482191187 0.31213934694815221 0 -0.083514035688362062 0.3318876280130087 0 -0.093811273816898383 0.32740493070877591 0 -0.070355366964009985 0.33936392179927588 0 -0.081945954554092287 0.34318723457307221 0 -0.083514035688362062 0.3318876280130087 0 -0.081945954554092287 0.34318723457307221 0 -0.083514035688362062 0.3318876280130087 0 -0.091120872269030623 0.33853684215882091 0 -0.083514035688362062 0.3318876280130087 0 -0.091120872269030623 0.33853684215882091 0 -0.093811273816898383 0.32740493070877591 0 -0.089933588784828336 0.34746833754421819 0 -0.091120872269030623 0.33853684215882091 0 -0.097269587336663077 0.34447344765243021 0 -0.089933588784828336 0.34746833754421819 0 -0.081945954554092287 0.34318723457307221 0 -0.091120872269030623 0.33853684215882091 0 -0.091120872269030623 0.33853684215882091 0 -0.1002507934333397 0.33679947446142072 0 -0.097269587336663077 0.34447344765243021 0 -0.1002507934333397 0.33679947446142072 0 -0.10458387264920289 0.34359896651138683 0 -0.097269587336663077 0.34447344765243021 0 -0.091120872269030623 0.33853684215882091 0 -0.1002507934333397 0.33679947446142072 0 -0.093811273816898383 0.32740493070877591 0 -0.1002507934333397 0.33679947446142072 0 -0.093811273816898383 0.32740493070877591 0 -0.1022464995736946 0.32803935114258331 0 -0.1002507934333397 0.33679947446142072 0 -0.11481519675934521 0.32924721554196718 0 -0.1002507934333397 0.33679947446142072 0 -0.1022464995736946 0.32803935114258331 0 -0.11481519675934521 0.32924721554196718 0 -0.1002507934333397 0.33679947446142072 0 -0.10458387264920289 0.34359896651138683 0 -0.11481519675934521 0.32924721554196718 0 -0.1042479118376098 0.30109132872503119 0 -0.10010873428519521 0.31870578385816961 0 -0.11481519675934521 0.32924721554196718 0 -0.10010873428519521 0.31870578385816961 0 -0.093811273816898383 0.32740493070877591 0 -0.1022464995736946 0.32803935114258331 0 -0.10010873428519521 0.31870578385816961 0 -0.1022464995736946 0.32803935114258331 0 -0.11481519675934521 0.32924721554196718 0 -0.1330613688258564 0.31978580386235811 0 -0.1226582076255654 0.30776857084557652 0 -0.11481519675934521 0.32924721554196718 0 -0.1226582076255654 0.30776857084557652 0 -0.1042479118376098 0.30109132872503119 0 -0.11481519675934521 0.32924721554196718 0 -0.1330613688258564 0.31978580386235811 0 -0.11481519675934521 0.32924721554196718 0 -0.1042479118376098 0.30109132872503119 0 -0.11481519675934521 0.32924721554196718 0 -0.10458387264920289 0.34359896651138683 0 -0.11481519675934521 0.32924721554196718 0 -0.1225373818362538 0.34982250717223839 0 -0.11481519675934521 0.32924721554196718 0 -0.1225373818362538 0.34982250717223839 0 -0.12833380547985149 0.33499320808007232 0 -0.11481519675934521 0.32924721554196718 0 -0.1225373818362538 0.34982250717223839 0 -0.10458387264920289 0.34359896651138683 0 -0.1225373818362538 0.34982250717223839 0 -0.1106011129717426 0.35957712034845751 0 -0.1225373818362538 0.34982250717223839 0 -0.11552186410174579 0.3706165781188141 0 -0.1106011129717426 0.35957712034845751 0 -0.13025956691316251 0.37039779880250961 0 -0.1225373818362538 0.34982250717223839 0 -0.11552186410174579 0.3706165781188141 0 -0.11552186410174579 0.3706165781188141 0 -0.1106011129717426 0.35957712034845751 0 -0.1006348550136818 0.37281939966028588 0 -0.086648580587592242 0.37165526666582738 0 -0.1006348550136818 0.37281939966028588 0 -0.099733495290708338 0.35732232893259741 0 -0.10458387264920289 0.34359896651138683 0 -0.1006348550136818 0.37281939966028588 0 -0.10458387264920289 0.34359896651138683 0 -0.1006348550136818 0.37281939966028588 0 -0.099733495290708338 0.35732232893259741 0 -0.10458387264920289 0.34359896651138683 0 -0.1106011129717426 0.35957712034845751 0 -0.1006348550136818 0.37281939966028588 0 -0.10458387264920289 0.34359896651138683 0 -0.099733495290708338 0.35732232893259741 0 -0.097269587336663077 0.34447344765243021 0 -0.089933588784828336 0.34746833754421819 0 -0.099733495290708338 0.35732232893259741 0 -0.097269587336663077 0.34447344765243021 0 -0.097831107145104151 0.39356550279824792 0 -0.1086826798742016 0.38450460550372662 0 -0.1111903086099517 0.39610231581644101 0 -0.097831107145104151 0.39356550279824792 0 -0.1091562033145769 0.40853283022053599 0 -0.097831107145104151 0.39356550279824792 0 -0.1111903086099517 0.39610231581644101 0 -0.1091562033145769 0.40853283022053599 0 -0.096685837378161194 0.40203983280918498 0 -0.1091562033145769 0.40853283022053599 0 -0.096685837378161194 0.40203983280918498 0 -0.097831107145104151 0.39356550279824792 0 -0.1091562033145769 0.40853283022053599 0 -0.096685837378161194 0.40203983280918498 0 -0.097831107145104151 0.39356550279824792 0 -0.1006348550136818 0.37281939966028588 0 -0.097831107145104151 0.39356550279824792 0 -0.086607452198690094 0.38344820441136701 0 -0.1006348550136818 0.37281939966028588 0 -0.097831107145104151 0.39356550279824792 0 -0.1086826798742016 0.38450460550372662 0 -0.1006348550136818 0.37281939966028588 0 -0.097831107145104151 0.39356550279824792 0 -0.11552186410174579 0.3706165781188141 0 -0.1006348550136818 0.37281939966028588 0 -0.1086826798742016 0.38450460550372662 0 -0.13025956691316251 0.37039779880250961 0 -0.11552186410174579 0.3706165781188141 0 -0.1204155880014323 0.38657803722566692 0 -0.1086826798742016 0.38450460550372662 0 -0.1204155880014323 0.38657803722566692 0 -0.1111903086099517 0.39610231581644101 0 -0.11552186410174579 0.3706165781188141 0 -0.1086826798742016 0.38450460550372662 0 -0.1204155880014323 0.38657803722566692 0 -0.1204155880014323 0.38657803722566692 0 -0.12482705478989629 0.40247287004669718 0 -0.1111903086099517 0.39610231581644101 0 -0.12482705478989629 0.40247287004669718 0 -0.1111903086099517 0.39610231581644101 0 -0.1091562033145769 0.40853283022053599 0 -0.1281588185454271 0.41842700109987291 0 -0.1208413319926628 0.42499156754031681 0 -0.1091562033145769 0.40853283022053599 0 -0.1208413319926628 0.42499156754031681 0 -0.1074882882015978 0.42295653107807568 0 -0.1091562033145769 0.40853283022053599 0 -0.1281588185454271 0.41842700109987291 0 -0.12482705478989629 0.40247287004669718 0 -0.1091562033145769 0.40853283022053599 0 -0.1281588185454271 0.41842700109987291 0 -0.1091562033145769 0.40853283022053599 0 -0.1208413319926628 0.42499156754031681 0 -0.1091562033145769 0.40853283022053599 0 -0.13252646067075019 0.44145030486009662 0 -0.1208413319926628 0.42499156754031681 0 -0.1090116898163191 0.44259090484164693 0 -0.1208413319926628 0.42499156754031681 0 -0.1074882882015978 0.42295653107807568 0 -0.1090116898163191 0.44259090484164693 0 -0.1074882882015978 0.42295653107807568 0 -0.099578675549673742 0.43183250187980199 0 -0.1090116898163191 0.44259090484164693 0 -0.099578675549673742 0.43183250187980199 0 -0.094084340752437018 0.42128939441034863 0 -0.091482844126713342 0.44053895601151227 0 -0.1074882882015978 0.42295653107807568 0 -0.1007902561001386 0.42356818559153092 0 -0.099578675549673742 0.43183250187980199 0 -0.1007902561001386 0.42356818559153092 0 -0.099578675549673742 0.43183250187980199 0 -0.094084340752437018 0.42128939441034863 0 -0.096685837378161194 0.40203983280918498 0 -0.094084340752437018 0.42128939441034863 0 -0.1002660221928504 0.41278994653279938 0 -0.096685837378161194 0.40203983280918498 0 -0.094084340752437018 0.42128939441034863 0 -0.091706454204555657 0.41809361167245679 0 -0.096685837378161194 0.40203983280918498 0 -0.094084340752437018 0.42128939441034863 0 -0.1091562033145769 0.40853283022053599 0 -0.102009719896846 0.41819431499789761 0 -0.1002660221928504 0.41278994653279938 0 -0.096685837378161194 0.40203983280918498 0 -0.1091562033145769 0.40853283022053599 0 -0.1002660221928504 0.41278994653279938 0 -0.1074882882015978 0.42295653107807568 0 -0.1091562033145769 0.40853283022053599 0 -0.102009719896846 0.41819431499789761 0 -0.1074882882015978 0.42295653107807568 0 -0.1007902561001386 0.42356818559153092 0 -0.102009719896846 0.41819431499789761 0 -0.102009719896846 0.41819431499789761 0 -0.094084340752437018 0.42128939441034863 0 -0.1002660221928504 0.41278994653279938 0 -0.1007902561001386 0.42356818559153092 0 -0.102009719896846 0.41819431499789761 0 -0.094084340752437018 0.42128939441034863 0 -0.091706454204555657 0.41809361167245679 0 -0.079204675818487419 0.41840007626160691 0 -0.074011573587109553 0.42816801736518678 0 -0.096685837378161194 0.40203983280918498 0 -0.088900831773559064 0.41023966368498399 0 -0.091706454204555657 0.41809361167245679 0 -0.088900831773559064 0.41023966368498399 0 -0.091706454204555657 0.41809361167245679 0 -0.085388423305491276 0.41381397587390001 0 -0.096685837378161194 0.40203983280918498 0 -0.088900831773559064 0.41023966368498399 0 -0.081851091354149599 0.40647908033785979 0 -0.091706454204555657 0.41809361167245679 0 -0.079204675818487419 0.41840007626160691 0 -0.085388423305491276 0.41381397587390001 0 -0.079204675818487419 0.41840007626160691 0 -0.081851091354149599 0.40647908033785979 0 -0.085388423305491276 0.41381397587390001 0 -0.088900831773559064 0.41023966368498399 0 -0.081851091354149599 0.40647908033785979 0 -0.085388423305491276 0.41381397587390001 0 -0.094084340752437018 0.42128939441034863 0 -0.091706454204555657 0.41809361167245679 0 -0.075925954689308003 0.44225485622362948 0 -0.094084340752437018 0.42128939441034863 0 -0.091482844126713342 0.44053895601151227 0 -0.094084340752437018 0.42128939441034863 0 -0.075925954689308003 0.44225485622362948 0 -0.091482844126713342 0.44053895601151227 0 -0.091706454204555657 0.41809361167245679 0 -0.074011573587109553 0.42816801736518678 0 -0.075925954689308003 0.44225485622362948 0 -0.091706454204555657 0.41809361167245679 0 -0.075925954689308003 0.44225485622362948 0 -0.074011573587109553 0.42816801736518678 0 -0.059453263815816351 0.4347181493067096 0 -0.075925954689308003 0.44225485622362948 0 -0.079204675818487419 0.41840007626160691 0 -0.074011573587109553 0.42816801736518678 0 -0.066250558735518952 0.41969385213763288 0 -0.074011573587109553 0.42816801736518678 0 -0.066250558735518952 0.41969385213763288 0 -0.059453263815816351 0.4347181493067096 0 -0.072815356555457691 0.40766086706806731 0 -0.066250558735518952 0.41969385213763288 0 -0.060933819384664627 0.40254713360676531 0 -0.079204675818487419 0.41840007626160691 0 -0.081851091354149599 0.40647908033785979 0 -0.072815356555457691 0.40766086706806731 0 -0.079204675818487419 0.41840007626160691 0 -0.072815356555457691 0.40766086706806731 0 -0.066250558735518952 0.41969385213763288 0 -0.072815356555457691 0.40766086706806731 0 -0.075836637484467811 0.39118419299647139 0 -0.060933819384664627 0.40254713360676531 0 -0.081851091354149599 0.40647908033785979 0 -0.072815356555457691 0.40766086706806731 0 -0.075836637484467811 0.39118419299647139 0 -0.075836637484467811 0.39118419299647139 0 -0.061707623193669528 0.38232382442905921 0 -0.060933819384664627 0.40254713360676531 0 -0.096685837378161194 0.40203983280918498 0 -0.075836637484467811 0.39118419299647139 0 -0.086607452198690094 0.38344820441136701 0 -0.096685837378161194 0.40203983280918498 0 -0.097831107145104151 0.39356550279824792 0 -0.086607452198690094 0.38344820441136701 0 -0.096685837378161194 0.40203983280918498 0 -0.075836637484467811 0.39118419299647139 0 -0.096685837378161194 0.40203983280918498 0 -0.081851091354149599 0.40647908033785979 0 -0.075836637484467811 0.39118419299647139 0 -0.086648580587592242 0.37165526666582738 0 -0.1006348550136818 0.37281939966028588 0 -0.086607452198690094 0.38344820441136701 0 -0.075836637484467811 0.39118419299647139 0 -0.086607452198690094 0.38344820441136701 0 -0.076546747051707109 0.37894418261848078 0 -0.086648580587592242 0.37165526666582738 0 -0.086607452198690094 0.38344820441136701 0 -0.076546747051707109 0.37894418261848078 0 -0.071933441794115885 0.36610942458967888 0 -0.076546747051707109 0.37894418261848078 0 -0.061707623193669528 0.38232382442905921 0 -0.075836637484467811 0.39118419299647139 0 -0.076546747051707109 0.37894418261848078 0 -0.061707623193669528 0.38232382442905921 0 -0.044133388297523418 0.3748965202467604 0 -0.061707623193669528 0.38232382442905921 0 -0.048573792323615153 0.39215466418153982 0 -0.060933819384664627 0.40254713360676531 0 -0.048573792323615153 0.39215466418153982 0 -0.045284975561167527 0.40610935644879831 0 -0.061707623193669528 0.38232382442905921 0 -0.060933819384664627 0.40254713360676531 0 -0.048573792323615153 0.39215466418153982 0 -0.048573792323615153 0.39215466418153982 0 -0.045284975561167527 0.40610935644879831 0 -0.030809155181050631 0.39489648617631601 0 -0.045284975561167527 0.40610935644879831 0 -0.030809155181050631 0.39489648617631601 0 -0.044133388297523418 0.3748965202467604 0 -0.048573792323615153 0.39215466418153982 0 -0.030809155181050631 0.39489648617631601 0 -0.044133388297523418 0.3748965202467604 0 -0.016333334800930011 0.38368361590383848 0 -0.030809155181050631 0.39489648617631601 0 -0.044133388297523418 0.3748965202467604 0 -0.016333334800930011 0.38368361590383848 0 -0.016333334800930011 0.38368361590383848 0 -0.030809155181050631 0.39489648617631601 0 -0.030809155181050631 0.39489648617631601 0 -0.015391737890491509 0.40026488339163657 0 -0.0268099098985215 0.4193340945120928 0 -0.016333334800930011 0.38368361590383848 0 -0.030809155181050631 0.39489648617631601 0 -0.015391737890491509 0.40026488339163657 0 -0.016333334800930011 0.38368361590383848 0 -0.015391737890491509 0.40026488339163657 0 -0.0001494777101052891 0.38879904132469778 0 -0.015391737890491509 0.40026488339163657 0 -0.0001494777101052891 0.38879904132469778 0 -0.0059281738682262766 0.41426559178769701 0 -0.016333334800930011 0.38368361590383848 0 -0.0001494777101052891 0.38879904132469778 0 -0.016333334800930011 0.38368361590383848 0 -0.0001494777101052891 0.38879904132469778 0 0.0050970088877844641 0.3741788572440583 0 -0.0043148768851538526 0.43185202329179762 0 -0.0059281738682262766 0.41426559178769701 0 -0.0268099098985215 0.4193340945120928 0 -0.015391737890491509 0.40026488339163657 0 -0.0059281738682262766 0.41426559178769701 0 -0.0268099098985215 0.4193340945120928 0 -0.0268099098985215 0.4193340945120928 0 -0.039628158077903042 0.43723879628438028 0 -0.017771858731780721 0.44723308381999261 0 -0.0043148768851538526 0.43185202329179762 0 -0.0268099098985215 0.4193340945120928 0 -0.017771858731780721 0.44723308381999261 0 -0.0268099098985215 0.4193340945120928 0 -0.039628158077903042 0.43723879628438028 0 -0.050565118615442148 0.4215874684082177 0 -0.045284975561167527 0.40610935644879831 0 -0.030809155181050631 0.39489648617631601 0 -0.0268099098985215 0.4193340945120928 0 -0.045284975561167527 0.40610935644879831 0 -0.0268099098985215 0.4193340945120928 0 -0.050565118615442148 0.4215874684082177 0 -0.060933819384664627 0.40254713360676531 0 -0.045284975561167527 0.40610935644879831 0 -0.050565118615442148 0.4215874684082177 0 -0.066250558735518952 0.41969385213763288 0 -0.060933819384664627 0.40254713360676531 0 -0.050565118615442148 0.4215874684082177 0 -0.039628158077903042 0.43723879628438028 0 -0.050565118615442148 0.4215874684082177 0 -0.059453263815816351 0.4347181493067096 0 -0.066250558735518952 0.41969385213763288 0 -0.050565118615442148 0.4215874684082177 0 -0.059453263815816351 0.4347181493067096 0 -0.050650501877871811 0.44981020308007441 0 -0.06014545517406035 0.46641610077480211 0 -0.075925954689308003 0.44225485622362948 0 -0.039628158077903042 0.43723879628438028 0 -0.059453263815816351 0.4347181493067096 0 -0.050650501877871811 0.44981020308007441 0 -0.059453263815816351 0.4347181493067096 0 -0.050650501877871811 0.44981020308007441 0 -0.075925954689308003 0.44225485622362948 0 -0.050650501877871811 0.44981020308007441 0 -0.06014545517406035 0.46641610077480211 0 -0.034375210713042892 0.46508490886650822 0 -0.050650501877871811 0.44981020308007441 0 -0.034375210713042892 0.46508490886650822 0 -0.032278173658832843 0.45008424624266968 0 -0.039628158077903042 0.43723879628438028 0 -0.050650501877871811 0.44981020308007441 0 -0.032278173658832843 0.45008424624266968 0 -0.039628158077903042 0.43723879628438028 0 -0.032278173658832843 0.45008424624266968 0 -0.017771858731780721 0.44723308381999261 0 -0.034375210713042892 0.46508490886650822 0 -0.032278173658832843 0.45008424624266968 0 -0.017771858731780721 0.44723308381999261 0 -0.034375210713042892 0.46508490886650822 0 -0.017771858731780721 0.44723308381999261 0 -0.021551613070635901 0.47584007852363819 0 -0.017771858731780721 0.44723308381999261 0 -0.0027406958227696931 0.46374371954028792 0 -0.021551613070635901 0.47584007852363819 0 -0.0043148768851538526 0.43185202329179762 0 -0.017771858731780721 0.44723308381999261 0 0.0101340645638862 0.44412225376119452 0 -0.017771858731780721 0.44723308381999261 0 -0.0027406958227696931 0.46374371954028792 0 0.0101340645638862 0.44412225376119452 0 -0.00939010514443165 0.48525963680111012 0 -0.014345929392909681 0.5 0 0.0095188527403693435 0.5 0 -0.00939010514443165 0.48525963680111012 0 -0.014345929392909681 0.5 0 -0.020406537602030459 0.49566788957563018 0 -0.0027406958227696931 0.46374371954028792 0 -0.00939010514443165 0.48525963680111012 0 -0.021551613070635901 0.47584007852363819 0 -0.00939010514443165 0.48525963680111012 0 -0.021551613070635901 0.47584007852363819 0 -0.03372788694596817 0.4928374473427693 0 -0.014345929392909681 0.5 0 -0.020406537602030459 0.49566788957563018 0 -0.038210711526188733 0.50000000000000466 0 -0.00939010514443165 0.48525963680111012 0 -0.03372788694596817 0.4928374473427693 0 -0.00939010514443165 0.48525963680111012 0 -0.020406537602030459 0.49566788957563018 0 -0.03372788694596817 0.4928374473427693 0 -0.020406537602030459 0.49566788957563018 0 -0.038210711526188733 0.50000000000000466 0 -0.03372788694596817 0.4928374473427693 0 -0.020406537602030459 0.49566788957563018 0 -0.03372788694596817 0.4928374473427693 0 -0.038210711526188733 0.50000000000000466 0 -0.03372788694596817 0.4928374473427693 0 -0.041340676877845137 0.49520776524058258 0 -0.03372788694596817 0.4928374473427693 0 -0.041340676877845137 0.49520776524058258 0 -0.03372788694596817 0.4928374473427693 0 -0.044364955658812218 0.49057734532597441 0 -0.03372788694596817 0.4928374473427693 0 -0.044364955658812218 0.49057734532597441 0 -0.038833024312503919 0.4781511761667383 0 -0.038210711526188733 0.50000000000000466 0 -0.041340676877845137 0.49520776524058258 0 -0.047029598403887173 0.49697906756641469 0 -0.041340676877845137 0.49520776524058258 0 -0.047029598403887173 0.49697906756641469 0 -0.03372788694596817 0.4928374473427693 0 -0.044364955658812218 0.49057734532597441 0 -0.041340676877845137 0.49520776524058258 0 -0.044364955658812218 0.49057734532597441 0 -0.041340676877845137 0.49520776524058258 0 -0.047029598403887173 0.49697906756641469 0 -0.038210711526188733 0.50000000000000466 0 -0.041340676877845137 0.49520776524058258 0 -0.044364955658812218 0.49057734532597441 0 -0.041340676877845137 0.49520776524058258 0 -0.034375210713042892 0.46508490886650822 0 -0.021551613070635901 0.47584007852363819 0 -0.038833024312503919 0.4781511761667383 0 -0.06014545517406035 0.46641610077480211 0 -0.034375210713042892 0.46508490886650822 0 -0.038833024312503919 0.4781511761667383 0 -0.021551613070635901 0.47584007852363819 0 -0.03372788694596817 0.4928374473427693 0 -0.038833024312503919 0.4781511761667383 0 -0.06014545517406035 0.46641610077480211 0 -0.044364955658812218 0.49057734532597441 0 -0.066234359441925419 0.48593066258558221 0 -0.06014545517406035 0.46641610077480211 0 -0.044364955658812218 0.49057734532597441 0 -0.038833024312503919 0.4781511761667383 0 -0.06014545517406035 0.46641610077480211 0 -0.044364955658812218 0.49057734532597441 0 -0.047029598403887173 0.49697906756641469 0 -0.05795838978157479 0.49376048327366379 0 -0.067490766025110838 0.5 0 -0.044364955658812218 0.49057734532597441 0 -0.05795838978157479 0.49376048327366379 0 -0.066234359441925419 0.48593066258558221 0 -0.044364955658812218 0.49057734532597441 0 -0.066234359441925419 0.48593066258558221 0 -0.038210711526188733 0.50000000000000466 0 -0.047029598403887173 0.49697906756641469 0 -0.067490766025110838 0.5 0 -0.044364955658812218 0.49057734532597441 0 -0.047029598403887173 0.49697906756641469 0 -0.05795838978157479 0.49376048327366379 0 -0.066234359441925419 0.48593066258558221 0 -0.07964992730402698 0.49180366060769309 0 -0.088103763225038698 0.48128397984519039 0 -0.05795838978157479 0.49376048327366379 0 -0.067490766025110838 0.5 0 -0.066234359441925419 0.48593066258558221 0 -0.067490766025110838 0.5 0 -0.066234359441925419 0.48593066258558221 0 -0.07964992730402698 0.49180366060769309 0 -0.067490766025110838 0.5 0 -0.07964992730402698 0.49180366060769309 0 -0.096770820524032963 0.5 0 -0.07964992730402698 0.49180366060769309 0 -0.088103763225038698 0.48128397984519039 0 -0.096770820524032963 0.5 0 -0.088103763225038698 0.48128397984519039 0 -0.074214466337594098 0.47352496222298313 0 -0.082374287509351912 0.46046910568635768 0 -0.06014545517406035 0.46641610077480211 0 -0.066234359441925419 0.48593066258558221 0 -0.074214466337594098 0.47352496222298313 0 -0.066234359441925419 0.48593066258558221 0 -0.088103763225038698 0.48128397984519039 0 -0.066234359441925419 0.48593066258558221 0 -0.088103763225038698 0.48128397984519039 0 -0.074214466337594098 0.47352496222298313 0 -0.06014545517406035 0.46641610077480211 0 -0.074214466337594098 0.47352496222298313 0 -0.082374287509351912 0.46046910568635768 0 -0.06014545517406035 0.46641610077480211 0 -0.075925954689308003 0.44225485622362948 0 -0.06014545517406035 0.46641610077480211 0 -0.075925954689308003 0.44225485622362948 0 -0.082374287509351912 0.46046910568635768 0 -0.075925954689308003 0.44225485622362948 0 -0.091482844126713342 0.44053895601151227 0 -0.082374287509351912 0.46046910568635768 0 -0.088103763225038698 0.48128397984519039 0 -0.082374287509351912 0.46046910568635768 0 -0.1006116988657736 0.45938530901832808 0 -0.091482844126713342 0.44053895601151227 0 -0.082374287509351912 0.46046910568635768 0 -0.1006116988657736 0.45938530901832808 0 -0.1006116988657736 0.45938530901832808 0 -0.11514667623683721 0.45385460284013329 0 -0.109973167008152 0.47663729710479857 0 -0.099578675549673742 0.43183250187980199 0 -0.091482844126713342 0.44053895601151227 0 -0.1090116898163191 0.44259090484164693 0 -0.091482844126713342 0.44053895601151227 0 -0.1006116988657736 0.45938530901832808 0 -0.1090116898163191 0.44259090484164693 0 -0.1006116988657736 0.45938530901832808 0 -0.1090116898163191 0.44259090484164693 0 -0.11514667623683721 0.45385460284013329 0 -0.13252646067075019 0.44145030486009662 0 -0.1090116898163191 0.44259090484164693 0 -0.12619369901322131 0.46037167570754067 0 -0.13252646067075019 0.44145030486009662 0 -0.11514667623683721 0.45385460284013329 0 -0.13252646067075019 0.44145030486009662 0 -0.1090116898163191 0.44259090484164693 0 -0.11514667623683721 0.45385460284013329 0 -0.12619369901322131 0.46037167570754067 0 -0.11514667623683721 0.45385460284013329 0 -0.109973167008152 0.47663729710479857 0 -0.13439108286602541 0.47903510652184761 0 -0.12619369901322131 0.46037167570754067 0 -0.109973167008152 0.47663729710479857 0 -0.12605087502295509 0.5 0 -0.13439108286602541 0.47903510652184761 0 -0.109973167008152 0.47663729710479857 0 -0.12605087502295509 0.5 0 -0.109973167008152 0.47663729710479857 0 -0.096770820524032963 0.5 0 -0.088103763225038698 0.48128397984519039 0 -0.109973167008152 0.47663729710479857 0 -0.096770820524032963 0.5 0 -0.088103763225038698 0.48128397984519039 0 -0.109973167008152 0.47663729710479857 0 -0.088103763225038698 0.48128397984519039 0 -0.1006116988657736 0.45938530901832808 0 -0.109973167008152 0.47663729710479857 0 -0.1694530488378202 0.091339126653838615 0 -0.1712636516334832 0.068118074480482294 0 -0.14373943792490351 0.068358545007663876 0 -0.1712636516334832 0.068118074480482294 0 -0.1881801162081459 0.08731609967601385 0 -0.19295898710017059 0.068747025389174127 0 -0.1694530488378202 0.091339126653838615 0 -0.1712636516334832 0.068118074480482294 0 -0.1881801162081459 0.08731609967601385 0 -0.1694530488378202 0.091339126653838615 0 -0.18343356766415561 0.1064573380367433 0 -0.16842186132133299 0.1205521560472238 0 -0.1694530488378202 0.091339126653838615 0 -0.18343356766415561 0.1064573380367433 0 -0.1881801162081459 0.08731609967601385 0 -0.18343356766415561 0.1064573380367433 0 -0.16842186132133299 0.1205521560472238 0 -0.19263793401531851 0.1216939755062222 0 -0.16842186132133299 0.1205521560472238 0 -0.15455347400740749 0.10929442231804321 0 -0.15175864183493801 0.12459543246868519 0 -0.1694530488378202 0.091339126653838615 0 -0.15455347400740749 0.10929442231804321 0 -0.14654703245161119 0.095266474365565262 0 -0.1694530488378202 0.091339126653838615 0 -0.16842186132133299 0.1205521560472238 0 -0.1694530488378202 0.091339126653838615 0 -0.16842186132133299 0.1205521560472238 0 -0.15455347400740749 0.10929442231804321 0 -0.15455347400740749 0.10929442231804321 0 -0.14654703245161119 0.095266474365565262 0 -0.13658678559133511 0.11471892205490319 0 -0.15455347400740749 0.10929442231804321 0 -0.15175864183493801 0.12459543246868519 0 -0.13658678559133511 0.11471892205490319 0 -0.15175864183493801 0.12459543246868519 0 -0.13658678559133511 0.11471892205490319 0 -0.136620971560557 0.13427050162229701 0 -0.14654703245161119 0.095266474365565262 0 -0.13658678559133511 0.11471892205490319 0 -0.12529467281462861 0.090330504996161076 0 -0.14654703245161119 0.095266474365565262 0 -0.12529467281462861 0.090330504996161076 0 -0.14373943792490351 0.068358545007663876 0 -0.12529467281462861 0.090330504996161076 0 -0.14373943792490351 0.068358545007663876 0 -0.1694530488378202 0.091339126653838615 0 -0.14654703245161119 0.095266474365565262 0 -0.14373943792490351 0.068358545007663876 0 -0.12529467281462861 0.090330504996161076 0 -0.14373943792490351 0.068358545007663876 0 -0.12627960163495039 0.061057938431840507 0 -0.12627960163495039 0.061057938431840507 0 -0.1306417631107884 0.031504741888382953 0 -0.14232445143694289 0.048393049795875269 0 -0.14373943792490351 0.068358545007663876 0 -0.12627960163495039 0.061057938431840507 0 -0.14232445143694289 0.048393049795875269 0 -0.1306417631107884 0.031504741888382953 0 -0.14958886250163531 0.033185435152838533 0 -0.14232445143694289 0.048393049795875269 0 -0.14958886250163531 0.033185435152838533 0 -0.14232445143694289 0.048393049795875269 0 -0.16218420303517839 0.046386585019166662 0 -0.14373943792490351 0.068358545007663876 0 -0.16218420303517839 0.046386585019166662 0 -0.14373943792490351 0.068358545007663876 0 -0.14232445143694289 0.048393049795875269 0 -0.16218420303517839 0.046386585019166662 0 -0.1306417631107884 0.031504741888382953 0 -0.13009559241693869 0.0053842442487262599 0 -0.15145477029810669 0.01158056611123915 0 -0.1306417631107884 0.031504741888382953 0 -0.14958886250163531 0.033185435152838533 0 -0.15170021806907899 0.01362142663120855 0 -0.1306417631107884 0.031504741888382953 0 -0.15170021806907899 0.01362142663120855 0 -0.15145477029810669 0.01158056611123915 0 -0.14958886250163531 0.033185435152838533 0 -0.15170021806907899 0.01362142663120855 0 -0.16176727472764041 0.026067932521724329 0 -0.1306417631107884 0.031504741888382953 0 -0.15145477029810669 0.01158056611123915 0 -0.14891271452870819 -0.0095562372045475789 0 -0.15145477029810669 0.01158056611123915 0 -0.14891271452870819 -0.0095562372045475789 0 -0.13009559241693869 0.0053842442487262599 0 -0.15145477029810669 0.01158056611123915 0 -0.15170021806907899 0.01362142663120855 0 -0.15145477029810669 0.01158056611123915 0 -0.16895767135906231 -0.0051748635203301419 0 -0.15145477029810669 0.01158056611123915 0 -0.16895767135906231 -0.0051748635203301419 0 -0.15145477029810669 0.01158056611123915 0 -0.1663138524450333 0.01280860749756985 0 -0.15170021806907899 0.01362142663120855 0 -0.15145477029810669 0.01158056611123915 0 -0.1663138524450333 0.01280860749756985 0 -0.1663138524450333 0.01280860749756985 0 -0.16176727472764041 0.026067932521724329 0 -0.18062896814545329 0.02441462503066933 0 -0.15170021806907899 0.01362142663120855 0 -0.1663138524450333 0.01280860749756985 0 -0.16176727472764041 0.026067932521724329 0 -0.16895767135906231 -0.0051748635203301419 0 -0.1663138524450333 0.01280860749756985 0 -0.18286617783018069 0.001262403386312232 0 -0.1663138524450333 0.01280860749756985 0 -0.18062896814545329 0.02441462503066933 0 -0.18286617783018069 0.001262403386312232 0 -0.1712636516334832 0.068118074480482294 0 -0.16218420303517839 0.046386585019166662 0 -0.1954433978918626 0.044175191519837773 0 -0.18062896814545329 0.02441462503066933 0 -0.16218420303517839 0.046386585019166662 0 -0.1954433978918626 0.044175191519837773 0 -0.1712636516334832 0.068118074480482294 0 -0.14373943792490351 0.068358545007663876 0 -0.16218420303517839 0.046386585019166662 0 -0.18062896814545329 0.02441462503066933 0 -0.16218420303517839 0.046386585019166662 0 -0.14958886250163531 0.033185435152838533 0 -0.16176727472764041 0.026067932521724329 0 -0.16218420303517839 0.046386585019166662 0 -0.16176727472764041 0.026067932521724329 0 -0.18062896814545329 0.02441462503066933 0 -0.16218420303517839 0.046386585019166662 0 -0.1712636516334832 0.068118074480482294 0 -0.1954433978918626 0.044175191519837773 0 -0.19295898710017059 0.068747025389174127 0 -0.1954433978918626 0.044175191519837773 0 -0.20866957509838061 0.063590454525033049 0 -0.19295898710017059 0.068747025389174127 0 -0.2147907653101061 0.019884193727375019 0 -0.22003473017972849 0.046458542783201009 0 -0.1954433978918626 0.044175191519837773 0 -0.2147907653101061 0.019884193727375019 0 -0.22003473017972849 0.046458542783201009 0 -0.1954433978918626 0.044175191519837773 0 -0.22003473017972849 0.046458542783201009 0 -0.20866957509838061 0.063590454525033049 0 -0.22003473017972849 0.046458542783201009 0 -0.22527869504935091 0.073032891839027003 0 -0.20866957509838061 0.063590454525033049 0 -0.18062896814545329 0.02441462503066933 0 -0.1990737332557283 0.002442665042172013 0 -0.18062896814545329 0.02441462503066933 0 -0.1990737332557283 0.002442665042172013 0 -0.19739293295682531 0.019759564688053191 0 -0.18062896814545329 0.02441462503066933 0 -0.18286617783018069 0.001262403386312232 0 -0.1990737332557283 0.002442665042172013 0 -0.18062896814545329 0.02441462503066933 0 -0.1954433978918626 0.044175191519837773 0 -0.19739293295682531 0.019759564688053191 0 -0.1954433978918626 0.044175191519837773 0 -0.19739293295682531 0.019759564688053191 0 -0.2147907653101061 0.019884193727375019 0 -0.20954680044048371 -0.0066901553284509146 0 -0.1990737332557283 0.002442665042172013 0 -0.2147907653101061 0.019884193727375019 0 -0.20954680044048371 -0.0066901553284509146 0 -0.2147907653101061 0.019884193727375019 0 -0.2255503991944133 0.0020888331674113491 0 -0.1990737332557283 0.002442665042172013 0 -0.19739293295682531 0.019759564688053191 0 -0.2147907653101061 0.019884193727375019 0 -0.20954680044048371 -0.0066901553284509146 0 -0.2147907653101061 0.019884193727375019 0 -0.2147907653101061 0.019884193727375019 0 -0.2255503991944133 0.0020888331674113491 0 -0.2303568661906519 0.014760914932597969 0 -0.2255503991944133 0.0020888331674113491 0 -0.2303568661906519 0.014760914932597969 0 -0.2377124350523262 0.0061100338606466234 0 -0.2303568661906519 0.014760914932597969 0 -0.22935598525996809 0.027540564808510401 0 -0.2430353850626531 0.019208339250458902 0 -0.2147907653101061 0.019884193727375019 0 -0.2303568661906519 0.014760914932597969 0 -0.22935598525996809 0.027540564808510401 0 -0.22935598525996809 0.027540564808510401 0 -0.2430353850626531 0.019208339250458902 0 -0.24351035361676959 0.035932197947529727 0 -0.25180929196985008 0.02887374275159469 0 -0.2430353850626531 0.019208339250458902 0 -0.24351035361676959 0.035932197947529727 0 -0.25490883242214929 0.017970069340037961 0 -0.25180929196985008 0.02887374275159469 0 -0.2430353850626531 0.019208339250458902 0 -0.23886619580121421 -0.010286958395508351 0 -0.25075332901269842 0.0047790403482732462 0 -0.2377124350523262 0.0061100338606466234 0 -0.2303568661906519 0.014760914932597969 0 -0.2430353850626531 0.019208339250458902 0 -0.2377124350523262 0.0061100338606466234 0 -0.25075332901269842 0.0047790403482732462 0 -0.25490883242214929 0.017970069340037961 0 -0.2430353850626531 0.019208339250458902 0 -0.25075332901269842 0.0047790403482732462 0 -0.2430353850626531 0.019208339250458902 0 -0.2377124350523262 0.0061100338606466234 0 -0.22003473017972849 0.046458542783201009 0 -0.22527869504935091 0.073032891839027003 0 -0.23315582236220561 0.05965883481914485 0 -0.22003473017972849 0.046458542783201009 0 -0.23996856400374131 0.047757379211438362 0 -0.23315582236220561 0.05965883481914485 0 -0.22003473017972849 0.046458542783201009 0 -0.22527869504935091 0.073032891839027003 0 -0.2147907653101061 0.019884193727375019 0 -0.22935598525996809 0.027540564808510401 0 -0.22003473017972849 0.046458542783201009 0 -0.22935598525996809 0.027540564808510401 0 -0.22003473017972849 0.046458542783201009 0 -0.23269170594577229 0.039201120063197793 0 -0.22003473017972849 0.046458542783201009 0 -0.23269170594577229 0.039201120063197793 0 -0.23996856400374131 0.047757379211438362 0 -0.23269170594577229 0.039201120063197793 0 -0.24351035361676959 0.035932197947529727 0 -0.23996856400374131 0.047757379211438362 0 -0.22935598525996809 0.027540564808510401 0 -0.23269170594577229 0.039201120063197793 0 -0.24351035361676959 0.035932197947529727 0 -0.25259112912022519 0.039322587031199438 0 -0.25180929196985008 0.02887374275159469 0 -0.24351035361676959 0.035932197947529727 0 -0.25259112912022519 0.039322587031199438 0 -0.24351035361676959 0.035932197947529727 0 -0.2465160740677855 0.046373072251766928 0 -0.25053535301768698 0.05413877055831598 0 -0.25259112912022519 0.039322587031199438 0 -0.2465160740677855 0.046373072251766928 0 -0.24351035361676959 0.035932197947529727 0 -0.2465160740677855 0.046373072251766928 0 -0.23996856400374131 0.047757379211438362 0 -0.25053535301768698 0.05413877055831598 0 -0.24168419138138469 0.056611550023646227 0 -0.23824514345550449 0.075129693277565066 0 -0.25053535301768698 0.05413877055831598 0 -0.2465160740677855 0.046373072251766928 0 -0.24168419138138469 0.056611550023646227 0 -0.2465160740677855 0.046373072251766928 0 -0.23996856400374131 0.047757379211438362 0 -0.24168419138138469 0.056611550023646227 0 -0.23315582236220561 0.05965883481914485 0 -0.23996856400374131 0.047757379211438362 0 -0.24168419138138469 0.056611550023646227 0 -0.23315582236220561 0.05965883481914485 0 -0.24168419138138469 0.056611550023646227 0 -0.23824514345550449 0.075129693277565066 0 -0.25940894567195699 0.068056443060078922 0 -0.25053535301768698 0.05413877055831598 0 -0.23824514345550449 0.075129693277565066 0 -0.25053535301768698 0.05413877055831598 0 -0.23824514345550449 0.075129693277565066 0 -0.25940894567195699 0.068056443060078922 0 -0.23824514345550449 0.075129693277565066 0 -0.24618490346394989 0.092738089954052416 0 -0.23824514345550449 0.075129693277565066 0 -0.24618490346394989 0.092738089954052416 0 -0.22919829213244319 0.091386013098286534 0 -0.23824514345550449 0.075129693277565066 0 -0.22919829213244319 0.091386013098286534 0 -0.22527869504935091 0.073032891839027003 0 -0.22919829213244319 0.091386013098286534 0 -0.22527869504935091 0.073032891839027003 0 -0.20963206527079001 0.085538621093925307 0 -0.23315582236220561 0.05965883481914485 0 -0.23824514345550449 0.075129693277565066 0 -0.22527869504935091 0.073032891839027003 0 -0.20866957509838061 0.063590454525033049 0 -0.20963206527079001 0.085538621093925307 0 -0.19295898710017059 0.068747025389174127 0 -0.22527869504935091 0.073032891839027003 0 -0.20866957509838061 0.063590454525033049 0 -0.20963206527079001 0.085538621093925307 0 -0.22919829213244319 0.091386013098286534 0 -0.20963206527079001 0.085538621093925307 0 -0.21734646858434059 0.10391727821952521 0 -0.20963206527079001 0.085538621093925307 0 -0.1881801162081459 0.08731609967601385 0 -0.2023393767424557 0.1036964124019196 0 -0.20963206527079001 0.085538621093925307 0 -0.1881801162081459 0.08731609967601385 0 -0.19295898710017059 0.068747025389174127 0 -0.18343356766415561 0.1064573380367433 0 -0.19263793401531851 0.1216939755062222 0 -0.2023393767424557 0.1036964124019196 0 -0.19263793401531851 0.1216939755062222 0 -0.2023393767424557 0.1036964124019196 0 -0.2126017475200728 0.1215456076554695 0 -0.18343356766415561 0.1064573380367433 0 -0.1881801162081459 0.08731609967601385 0 -0.2023393767424557 0.1036964124019196 0 -0.20963206527079001 0.085538621093925307 0 -0.2023393767424557 0.1036964124019196 0 -0.21734646858434059 0.10391727821952521 0 -0.2023393767424557 0.1036964124019196 0 -0.21734646858434059 0.10391727821952521 0 -0.2126017475200728 0.1215456076554695 0 -0.21734646858434059 0.10391727821952521 0 -0.2126017475200728 0.1215456076554695 0 -0.23296086125594109 0.11741973684802499 0 -0.22919829213244319 0.091386013098286534 0 -0.21734646858434059 0.10391727821952521 0 -0.23296086125594109 0.11741973684802499 0 -0.25470702399378159 0.1160973809375397 0 -0.24618490346394989 0.092738089954052416 0 -0.23296086125594109 0.11741973684802499 0 -0.24618490346394989 0.092738089954052416 0 -0.22919829213244319 0.091386013098286534 0 -0.23296086125594109 0.11741973684802499 0 -0.24618490346394989 0.092738089954052416 0 -0.23296086125594109 0.11741973684802499 0 -0.25470702399378159 0.1160973809375397 0 -0.23296086125594109 0.11741973684802499 0 -0.2358238104468928 0.13744845236536951 0 -0.252356063154695 0.1401178498762701 0 -0.25470702399378159 0.1160973809375397 0 -0.2358238104468928 0.13744845236536951 0 -0.23296086125594109 0.11741973684802499 0 -0.2358238104468928 0.13744845236536951 0 -0.21973681904793221 0.14210138374199749 0 -0.2126017475200728 0.1215456076554695 0 -0.23296086125594109 0.11741973684802499 0 -0.21973681904793221 0.14210138374199749 0 -0.23296086125594109 0.11741973684802499 0 -0.21973681904793221 0.14210138374199749 0 -0.2358238104468928 0.13744845236536951 0 -0.21973681904793221 0.14210138374199749 0 -0.22862513469915949 0.1524845747583323 0 -0.21973681904793221 0.14210138374199749 0 -0.22862513469915949 0.1524845747583323 0 -0.21912742673164509 0.16393604402930639 0 -0.2358238104468928 0.13744845236536951 0 -0.22862513469915949 0.1524845747583323 0 -0.23971225587098879 0.1537371310978409 0 -0.252356063154695 0.1401178498762701 0 -0.2358238104468928 0.13744845236536951 0 -0.23971225587098879 0.1537371310978409 0 -0.2500051023156083 0.1641383188150006 0 -0.252356063154695 0.1401178498762701 0 -0.23971225587098879 0.1537371310978409 0 -0.2500051023156083 0.1641383188150006 0 -0.23971225587098879 0.1537371310978409 0 -0.2436831986737546 0.170947959425786 0 -0.23971225587098879 0.1537371310978409 0 -0.2436831986737546 0.170947959425786 0 -0.23971225587098879 0.1537371310978409 0 -0.2436831986737546 0.170947959425786 0 -0.2322382441777526 0.16452507044867321 0 -0.2436831986737546 0.170947959425786 0 -0.22822104423922099 0.17859332996959709 0 -0.2322382441777526 0.16452507044867321 0 -0.2436831986737546 0.170947959425786 0 -0.24765414147652101 0.1881587877537311 0 -0.2500051023156083 0.1641383188150006 0 -0.24765414147652101 0.1881587877537311 0 -0.2500051023156083 0.1641383188150006 0 -0.2436831986737546 0.170947959425786 0 -0.24765414147652101 0.1881587877537311 0 -0.2436831986737546 0.170947959425786 0 -0.23489986396182691 0.18648758076141669 0 -0.24765414147652101 0.1881587877537311 0 -0.25186566999020421 0.1825078729950303 0 -0.2500051023156083 0.1641383188150006 0 -0.24765414147652101 0.1881587877537311 0 -0.2436831986737546 0.170947959425786 0 -0.23489986396182691 0.18648758076141669 0 -0.22822104423922099 0.17859332996959709 0 -0.22822104423922099 0.17859332996959709 0 -0.21912742673164509 0.16393604402930639 0 -0.22001770571805199 0.19376683146452711 0 -0.21912742673164509 0.16393604402930639 0 -0.22001770571805199 0.19376683146452711 0 -0.23489986396182691 0.18648758076141669 0 -0.22822104423922099 0.17859332996959709 0 -0.22001770571805199 0.19376683146452711 0 -0.22862513469915949 0.1524845747583323 0 -0.23971225587098879 0.1537371310978409 0 -0.2322382441777526 0.16452507044867321 0 -0.22862513469915949 0.1524845747583323 0 -0.2322382441777526 0.16452507044867321 0 -0.21912742673164509 0.16393604402930639 0 -0.22822104423922099 0.17859332996959709 0 -0.2322382441777526 0.16452507044867321 0 -0.21912742673164509 0.16393604402930639 0 -0.21912742673164509 0.16393604402930639 0 -0.20651277683992339 0.16678303063596989 0 -0.20982866624557289 0.18201703486499851 0 -0.21973681904793221 0.14210138374199749 0 -0.21912742673164509 0.16393604402930639 0 -0.20651277683992339 0.16678303063596989 0 -0.21912742673164509 0.16393604402930639 0 -0.20982866624557289 0.18201703486499851 0 -0.22001770571805199 0.19376683146452711 0 -0.20651277683992339 0.16678303063596989 0 -0.20982866624557289 0.18201703486499851 0 -0.2015342465702411 0.18628711481906801 0 -0.20651277683992339 0.16678303063596989 0 -0.1932887346319154 0.19146467752994289 0 -0.1966238802561241 0.173131307356401 0 -0.19117824360790811 0.17417119830964159 0 -0.1932887346319154 0.19146467752994289 0 -0.20651277683992339 0.16678303063596989 0 -0.1966238802561241 0.173131307356401 0 -0.1932887346319154 0.19146467752994289 0 -0.20651277683992339 0.16678303063596989 0 -0.2015342465702411 0.18628711481906801 0 -0.1932887346319154 0.19146467752994289 0 -0.19117824360790811 0.17417119830964159 0 -0.1932887346319154 0.19146467752994289 0 -0.18033970421837961 0.17061493148527609 0 -0.20651277683992339 0.16678303063596989 0 -0.19270213762598579 0.16375313339510791 0 -0.2024123134578267 0.151816963253605 0 -0.20651277683992339 0.16678303063596989 0 -0.1966238802561241 0.173131307356401 0 -0.19270213762598579 0.16375313339510791 0 -0.19117824360790811 0.17417119830964159 0 -0.19270213762598579 0.16375313339510791 0 -0.18033970421837961 0.17061493148527609 0 -0.1966238802561241 0.173131307356401 0 -0.19117824360790811 0.17417119830964159 0 -0.19270213762598579 0.16375313339510791 0 -0.1885089805039212 0.15094963693283939 0 -0.20105997326441591 0.13675469664443249 0 -0.1819639330247321 0.13543756897403439 0 -0.19270213762598579 0.16375313339510791 0 -0.1885089805039212 0.15094963693283939 0 -0.2024123134578267 0.151816963253605 0 -0.1885089805039212 0.15094963693283939 0 -0.2024123134578267 0.151816963253605 0 -0.20105997326441591 0.13675469664443249 0 -0.19263793401531851 0.1216939755062222 0 -0.2126017475200728 0.1215456076554695 0 -0.20105997326441591 0.13675469664443249 0 -0.19263793401531851 0.1216939755062222 0 -0.20105997326441591 0.13675469664443249 0 -0.1819639330247321 0.13543756897403439 0 -0.2126017475200728 0.1215456076554695 0 -0.21973681904793221 0.14210138374199749 0 -0.20105997326441591 0.13675469664443249 0 -0.21973681904793221 0.14210138374199749 0 -0.2024123134578267 0.151816963253605 0 -0.20105997326441591 0.13675469664443249 0 -0.21973681904793221 0.14210138374199749 0 -0.20651277683992339 0.16678303063596989 0 -0.2024123134578267 0.151816963253605 0 -0.21973681904793221 0.14210138374199749 0 -0.20651277683992339 0.16678303063596989 0 -0.22179826369086589 0.25342840633496871 0 -0.24200413324872599 0.24588660902703691 0 -0.22090798470445891 0.22359761889974791 0 -0.22179826369086589 0.25342840633496871 0 -0.22090798470445891 0.22359761889974791 0 -0.25850418437336659 0.23518495632971809 0 -0.24200413324872599 0.24588660902703691 0 -0.24482913736262379 0.21702269839038399 0 -0.24200413324872599 0.24588660902703691 0 -0.22090798470445891 0.22359761889974791 0 -0.24482913736262379 0.21702269839038399 0 -0.24200413324872599 0.24588660902703691 0 -0.24482913736262379 0.21702269839038399 0 -0.22090798470445891 0.22359761889974791 0 -0.24482913736262379 0.21702269839038399 0 -0.23492322970158519 0.20097099519344239 0 -0.22090798470445891 0.22359761889974791 0 -0.22001770571805199 0.19376683146452711 0 -0.22090798470445891 0.22359761889974791 0 -0.23492322970158519 0.20097099519344239 0 -0.22001770571805199 0.19376683146452711 0 -0.25307916292494348 0.21167187204172461 0 -0.24482913736262379 0.21702269839038399 0 -0.24765414147652101 0.1881587877537311 0 -0.24482913736262379 0.21702269839038399 0 -0.24765414147652101 0.1881587877537311 0 -0.24482913736262379 0.21702269839038399 0 -0.23492322970158519 0.20097099519344239 0 -0.24765414147652101 0.1881587877537311 0 -0.23489986396182691 0.18648758076141669 0 -0.23492322970158519 0.20097099519344239 0 -0.24765414147652101 0.1881587877537311 0 -0.23489986396182691 0.18648758076141669 0 -0.23492322970158519 0.20097099519344239 0 -0.22001770571805199 0.19376683146452711 0 -0.20982866624557289 0.18201703486499851 0 -0.22001770571805199 0.19376683146452711 0 -0.2057351686306185 0.19461853716343799 0 -0.22001770571805199 0.19376683146452711 0 -0.2057351686306185 0.19461853716343799 0 -0.20876820287838391 0.20767167072114981 0 -0.2057351686306185 0.19461853716343799 0 -0.19901015526920901 0.20334270583879999 0 -0.20876820287838391 0.20767167072114981 0 -0.20982866624557289 0.18201703486499851 0 -0.2015342465702411 0.18628711481906801 0 -0.2057351686306185 0.19461853716343799 0 -0.2015342465702411 0.18628711481906801 0 -0.2057351686306185 0.19461853716343799 0 -0.19525203510225239 0.19462586527208461 0 -0.2015342465702411 0.18628711481906801 0 -0.19525203510225239 0.19462586527208461 0 -0.1932887346319154 0.19146467752994289 0 -0.1932887346319154 0.19146467752994289 0 -0.19193562563806041 0.20233295416686639 0 -0.18123304925339079 0.2139656772165012 0 -0.19525203510225239 0.19462586527208461 0 -0.1932887346319154 0.19146467752994289 0 -0.19525203510225239 0.19462586527208461 0 -0.1932887346319154 0.19146467752994289 0 -0.19193562563806041 0.20233295416686639 0 -0.2057351686306185 0.19461853716343799 0 -0.19525203510225239 0.19462586527208461 0 -0.19901015526920901 0.20334270583879999 0 -0.19525203510225239 0.19462586527208461 0 -0.19193562563806041 0.20233295416686639 0 -0.19901015526920901 0.20334270583879999 0 -0.19901015526920901 0.20334270583879999 0 -0.19089415393353121 0.2082658449770014 0 -0.20249838585764071 0.21919052283013241 0 -0.19193562563806041 0.20233295416686639 0 -0.19901015526920901 0.20334270583879999 0 -0.19089415393353121 0.2082658449770014 0 -0.19193562563806041 0.20233295416686639 0 -0.19089415393353121 0.2082658449770014 0 -0.18123304925339079 0.2139656772165012 0 -0.19089415393353121 0.2082658449770014 0 -0.20249838585764071 0.21919052283013241 0 -0.19074331748645679 0.22168501002131111 0 -0.19089415393353121 0.2082658449770014 0 -0.19074331748645679 0.22168501002131111 0 -0.18123304925339079 0.2139656772165012 0 -0.22090798470445891 0.22359761889974791 0 -0.20876820287838391 0.20767167072114981 0 -0.20249838585764071 0.21919052283013241 0 -0.22090798470445891 0.22359761889974791 0 -0.22001770571805199 0.19376683146452711 0 -0.20876820287838391 0.20767167072114981 0 -0.19901015526920901 0.20334270583879999 0 -0.20876820287838391 0.20767167072114981 0 -0.20249838585764071 0.21919052283013241 0 -0.22090798470445891 0.22359761889974791 0 -0.20249838585764071 0.21919052283013241 0 -0.20929967589833681 0.23675376174967361 0 -0.20249838585764071 0.21919052283013241 0 -0.1953500328122536 0.23663742821441219 0 -0.20929967589833681 0.23675376174967361 0 -0.20249838585764071 0.21919052283013241 0 -0.19074331748645679 0.22168501002131111 0 -0.1953500328122536 0.23663742821441219 0 -0.19074331748645679 0.22168501002131111 0 -0.1953500328122536 0.23663742821441219 0 -0.18374096557546449 0.23036557686850659 0 -0.205943712426465 0.25091483246910667 0 -0.19258181182304029 0.25358286531321689 0 -0.1953500328122536 0.23663742821441219 0 -0.19258181182304029 0.25358286531321689 0 -0.1953500328122536 0.23663742821441219 0 -0.1840115833650097 0.2441122260861677 0 -0.1953500328122536 0.23663742821441219 0 -0.1840115833650097 0.2441122260861677 0 -0.18374096557546449 0.23036557686850659 0 -0.22179826369086589 0.25342840633496871 0 -0.205943712426465 0.25091483246910667 0 -0.20929967589833681 0.23675376174967361 0 -0.22179826369086589 0.25342840633496871 0 -0.22090798470445891 0.22359761889974791 0 -0.20929967589833681 0.23675376174967361 0 -0.205943712426465 0.25091483246910667 0 -0.1953500328122536 0.23663742821441219 0 -0.20929967589833681 0.23675376174967361 0 -0.15753037363914901 0.25820487887292731 0 -0.16902083842952409 0.23675881948029301 0 -0.16902083842952409 0.23675881948029301 0 -0.16368395642747099 0.2243192432293637 0 -0.15388866550062 0.2424524725570032 0 -0.15753037363914901 0.25820487887292731 0 -0.16902083842952409 0.23675881948029301 0 -0.15388866550062 0.2424524725570032 0 -0.17954919037560019 0.26129903543025118 0 -0.16902083842952409 0.23675881948029301 0 -0.17954919037560019 0.26129903543025118 0 -0.16902083842952409 0.23675881948029301 0 -0.1840115833650097 0.2441122260861677 0 -0.16902083842952409 0.23675881948029301 0 -0.1840115833650097 0.2441122260861677 0 -0.18374096557546449 0.23036557686850659 0 -0.19074331748645679 0.22168501002131111 0 -0.18374096557546449 0.23036557686850659 0 -0.18123304925339079 0.2139656772165012 0 -0.16902083842952409 0.23675881948029301 0 -0.18374096557546449 0.23036557686850659 0 -0.18123304925339079 0.2139656772165012 0 -0.16902083842952409 0.23675881948029301 0 -0.18123304925339079 0.2139656772165012 0 -0.16368395642747099 0.2243192432293637 0 -0.18123304925339079 0.2139656772165012 0 -0.16484119895447771 0.22199053975367811 0 -0.16368395642747099 0.2243192432293637 0 -0.18123304925339079 0.2139656772165012 0 -0.16902083842952409 0.23675881948029301 0 -0.16368395642747099 0.2243192432293637 0 -0.18123304925339079 0.2139656772165012 0 -0.16902083842952409 0.23675881948029301 0 -0.16368395642747099 0.2243192432293637 0 -0.16484119895447771 0.22199053975367811 0 -0.16368395642747099 0.2243192432293637 0 -0.1584658321036492 0.2121564756455879 0 -0.16368395642747099 0.2243192432293637 0 -0.1584658321036492 0.2121564756455879 0 -0.1486359905669801 0.22031800702798349 0 -0.1584658321036492 0.2121564756455879 0 -0.16569102390460039 0.19791542164932169 0 -0.14941458246302519 0.1998520708794185 0 -0.16484119895447771 0.22199053975367811 0 -0.17131742240189249 0.21012022781307529 0 -0.16569102390460039 0.19791542164932169 0 -0.16484119895447771 0.22199053975367811 0 -0.1584658321036492 0.2121564756455879 0 -0.16569102390460039 0.19791542164932169 0 -0.16484119895447771 0.22199053975367811 0 -0.16569102390460039 0.19791542164932169 0 -0.16368395642747099 0.2243192432293637 0 -0.1584658321036492 0.2121564756455879 0 -0.17131742240189249 0.21012022781307529 0 -0.1769308949494024 0.20665605156432701 0 -0.16569102390460039 0.19791542164932169 0 -0.16484119895447771 0.22199053975367811 0 -0.17131742240189249 0.21012022781307529 0 -0.18123304925339079 0.2139656772165012 0 -0.19089415393353121 0.2082658449770014 0 -0.18123304925339079 0.2139656772165012 0 -0.17131742240189249 0.21012022781307529 0 -0.18123304925339079 0.2139656772165012 0 -0.1769308949494024 0.20665605156432701 0 -0.18123304925339079 0.2139656772165012 0 -0.1769308949494024 0.20665605156432701 0 -0.18087002712932601 0.19902232626546679 0 -0.1932887346319154 0.19146467752994289 0 -0.18123304925339079 0.2139656772165012 0 -0.18087002712932601 0.19902232626546679 0 -0.1769308949494024 0.20665605156432701 0 -0.18087002712932601 0.19902232626546679 0 -0.16569102390460039 0.19791542164932169 0 -0.1932887346319154 0.19146467752994289 0 -0.18123304925339079 0.2139656772165012 0 -0.18087002712932601 0.19902232626546679 0 -0.18259539513550599 0.18698022278936061 0 -0.17588311456240291 0.18681895587675659 0 -0.1932887346319154 0.19146467752994289 0 -0.18087002712932601 0.19902232626546679 0 -0.18259539513550599 0.18698022278936061 0 -0.18087002712932601 0.19902232626546679 0 -0.16569102390460039 0.19791542164932169 0 -0.17588311456240291 0.18681895587675659 0 -0.14941458246302519 0.1998520708794185 0 -0.1363291364949657 0.1919720581558482 0 -0.15359167505650381 0.1851692016834329 0 -0.16569102390460039 0.19791542164932169 0 -0.14941458246302519 0.1998520708794185 0 -0.15359167505650381 0.1851692016834329 0 -0.14941458246302519 0.1998520708794185 0 -0.1363291364949657 0.1919720581558482 0 -0.13939707893247241 0.2039786895990871 0 -0.1363291364949657 0.1919720581558482 0 -0.12632037284263031 0.17927529082694429 0 -0.12011465722083151 0.19262067006024591 0 -0.1363291364949657 0.1919720581558482 0 -0.1286561847730012 0.203153014056491 0 -0.12011465722083151 0.19262067006024591 0 -0.1363291364949657 0.1919720581558482 0 -0.13939707893247241 0.2039786895990871 0 -0.1286561847730012 0.203153014056491 0 -0.13939707893247241 0.2039786895990871 0 -0.1286561847730012 0.203153014056491 0 -0.13602502556368051 0.21453669309190551 0 -0.1286561847730012 0.203153014056491 0 -0.13602502556368051 0.21453669309190551 0 -0.1217315745075405 0.22378396236358039 0 -0.13602502556368051 0.21453669309190551 0 -0.1465604653676893 0.21037961181177239 0 -0.1486359905669801 0.22031800702798349 0 -0.14941458246302519 0.1998520708794185 0 -0.13939707893247241 0.2039786895990871 0 -0.1465604653676893 0.21037961181177239 0 -0.13939707893247241 0.2039786895990871 0 -0.13602502556368051 0.21453669309190551 0 -0.1465604653676893 0.21037961181177239 0 -0.1584658321036492 0.2121564756455879 0 -0.14941458246302519 0.1998520708794185 0 -0.1465604653676893 0.21037961181177239 0 -0.1584658321036492 0.2121564756455879 0 -0.1465604653676893 0.21037961181177239 0 -0.1486359905669801 0.22031800702798349 0 -0.16368395642747099 0.2243192432293637 0 -0.1486359905669801 0.22031800702798349 0 -0.1379975732107715 0.23947362567545449 0 -0.16368395642747099 0.2243192432293637 0 -0.1379975732107715 0.23947362567545449 0 -0.13602502556368051 0.21453669309190551 0 -0.1486359905669801 0.22031800702798349 0 -0.1379975732107715 0.23947362567545449 0 -0.13602502556368051 0.21453669309190551 0 -0.1379975732107715 0.23947362567545449 0 -0.1217315745075405 0.22378396236358039 0 -0.11231118999407171 0.2546280081215449 0 -0.1379975732107715 0.23947362567545449 0 -0.1378654665521892 0.25938631581791138 0 -0.1379975732107715 0.23947362567545449 0 -0.15388866550062 0.2424524725570032 0 -0.16368395642747099 0.2243192432293637 0 -0.1379975732107715 0.23947362567545449 0 -0.15388866550062 0.2424524725570032 0 -0.16739067380484449 0.14976518544060891 0 -0.15614704742110549 0.1616210400216237 0 -0.14852765157183739 0.14404120882259419 0 -0.16842186132133299 0.1205521560472238 0 -0.16739067380484449 0.14976518544060891 0 -0.16842186132133299 0.1205521560472238 0 -0.15175864183493801 0.12459543246868519 0 -0.16739067380484449 0.14976518544060891 0 -0.15175864183493801 0.12459543246868519 0 -0.16739067380484449 0.14976518544060891 0 -0.16842186132133299 0.1205521560472238 0 -0.16739067380484449 0.14976518544060891 0 -0.1819639330247321 0.13543756897403439 0 -0.16842186132133299 0.1205521560472238 0 -0.19263793401531851 0.1216939755062222 0 -0.1819639330247321 0.13543756897403439 0 -0.1885089805039212 0.15094963693283939 0 -0.16739067380484449 0.14976518544060891 0 -0.1819639330247321 0.13543756897403439 0 -0.19270213762598579 0.16375313339510791 0 -0.1885089805039212 0.15094963693283939 0 -0.18033970421837961 0.17061493148527609 0 -0.16739067380484449 0.14976518544060891 0 -0.18033970421837961 0.17061493148527609 0 -0.1885089805039212 0.15094963693283939 0 -0.16739067380484449 0.14976518544060891 0 -0.18033970421837961 0.17061493148527609 0 -0.1932887346319154 0.19146467752994289 0 -0.18033970421837961 0.17061493148527609 0 -0.18259539513550599 0.18698022278936061 0 -0.1932887346319154 0.19146467752994289 0 -0.18033970421837961 0.17061493148527609 0 -0.18033970421837961 0.17061493148527609 0 -0.17588311456240291 0.18681895587675659 0 -0.16654084885472309 0.17384030354496541 0 -0.18033970421837961 0.17061493148527609 0 -0.18259539513550599 0.18698022278936061 0 -0.17588311456240291 0.18681895587675659 0 -0.16569102390460039 0.19791542164932169 0 -0.16654084885472309 0.17384030354496541 0 -0.15359167505650381 0.1851692016834329 0 -0.16569102390460039 0.19791542164932169 0 -0.17588311456240291 0.18681895587675659 0 -0.16654084885472309 0.17384030354496541 0 -0.16569102390460039 0.19791542164932169 0 -0.16654084885472309 0.17384030354496541 0 -0.16654084885472309 0.17384030354496541 0 -0.15359167505650381 0.1851692016834329 0 -0.15541547235902251 0.1730870838768396 0 -0.16739067380484449 0.14976518544060891 0 -0.16654084885472309 0.17384030354496541 0 -0.16739067380484449 0.14976518544060891 0 -0.18033970421837961 0.17061493148527609 0 -0.16654084885472309 0.17384030354496541 0 -0.16739067380484449 0.14976518544060891 0 -0.16654084885472309 0.17384030354496541 0 -0.15614704742110549 0.1616210400216237 0 -0.16654084885472309 0.17384030354496541 0 -0.15614704742110549 0.1616210400216237 0 -0.15541547235902251 0.1730870838768396 0 -0.15614704742110549 0.1616210400216237 0 -0.14538231810375771 0.17171779025733649 0 -0.15541547235902251 0.1730870838768396 0 -0.15614704742110549 0.1616210400216237 0 -0.14538231810375771 0.17171779025733649 0 -0.14370338275473241 0.1591324697915599 0 -0.14538231810375771 0.17171779025733649 0 -0.14370338275473241 0.1591324697915599 0 -0.1348107526152478 0.16762746560821251 0 -0.1363291364949657 0.1919720581558482 0 -0.15359167505650381 0.1851692016834329 0 -0.137818186523158 0.17995186161586871 0 -0.14538231810375771 0.17171779025733649 0 -0.15359167505650381 0.1851692016834329 0 -0.137818186523158 0.17995186161586871 0 -0.14538231810375771 0.17171779025733649 0 -0.15359167505650381 0.1851692016834329 0 -0.15541547235902251 0.1730870838768396 0 -0.1363291364949657 0.1919720581558482 0 -0.137818186523158 0.17995186161586871 0 -0.12632037284263031 0.17927529082694429 0 -0.14538231810375771 0.17171779025733649 0 -0.137818186523158 0.17995186161586871 0 -0.1348107526152478 0.16762746560821251 0 -0.137818186523158 0.17995186161586871 0 -0.12632037284263031 0.17927529082694429 0 -0.1348107526152478 0.16762746560821251 0 -0.12632037284263031 0.17927529082694429 0 -0.1348107526152478 0.16762746560821251 0 -0.121981868823424 0.16336639441080941 0 -0.1348107526152478 0.16762746560821251 0 -0.13450051078338451 0.15186255767020049 0 -0.121981868823424 0.16336639441080941 0 -0.14370338275473241 0.1591324697915599 0 -0.1348107526152478 0.16762746560821251 0 -0.13450051078338451 0.15186255767020049 0 -0.13450051078338451 0.15186255767020049 0 -0.136620971560557 0.13427050162229701 0 -0.11846875732222199 0.14575376046521271 0 -0.13450051078338451 0.15186255767020049 0 -0.14852765157183739 0.14404120882259419 0 -0.136620971560557 0.13427050162229701 0 -0.14370338275473241 0.1591324697915599 0 -0.13450051078338451 0.15186255767020049 0 -0.14852765157183739 0.14404120882259419 0 -0.15614704742110549 0.1616210400216237 0 -0.14370338275473241 0.1591324697915599 0 -0.14852765157183739 0.14404120882259419 0 -0.15175864183493801 0.12459543246868519 0 -0.14852765157183739 0.14404120882259419 0 -0.136620971560557 0.13427050162229701 0 -0.15175864183493801 0.12459543246868519 0 -0.16739067380484449 0.14976518544060891 0 -0.14852765157183739 0.14404120882259419 0 -0.13658678559133511 0.11471892205490319 0 -0.136620971560557 0.13427050162229701 0 -0.12152692867898909 0.1285401161241661 0 -0.136620971560557 0.13427050162229701 0 -0.12152692867898909 0.1285401161241661 0 -0.11846875732222199 0.14575376046521271 0 -0.12152692867898909 0.1285401161241661 0 -0.1041484879677293 0.13647727302959689 0 -0.10684990770435381 0.1123024649846583 0 -0.12152692867898909 0.1285401161241661 0 -0.1041484879677293 0.13647727302959689 0 -0.11846875732222199 0.14575376046521271 0 -0.1041484879677293 0.13647727302959689 0 -0.1056054844525797 0.15810663323929991 0 -0.088181855826412331 0.150709720882889 0 -0.11846875732222199 0.14575376046521271 0 -0.121981868823424 0.16336639441080941 0 -0.1056054844525797 0.15810663323929991 0 -0.13450051078338451 0.15186255767020049 0 -0.11846875732222199 0.14575376046521271 0 -0.121981868823424 0.16336639441080941 0 -0.1041484879677293 0.13647727302959689 0 -0.11846875732222199 0.14575376046521271 0 -0.1056054844525797 0.15810663323929991 0 -0.121981868823424 0.16336639441080941 0 -0.10856112623942619 0.18086257945629289 0 -0.1056054844525797 0.15810663323929991 0 -0.12632037284263031 0.17927529082694429 0 -0.121981868823424 0.16336639441080941 0 -0.10856112623942619 0.18086257945629289 0 -0.12632037284263031 0.17927529082694429 0 -0.10856112623942619 0.18086257945629289 0 -0.12011465722083151 0.19262067006024591 0 -0.093976451990754661 0.18531435003083821 0 -0.10856112623942619 0.18086257945629289 0 -0.090472299496493408 0.17081079097338381 0 -0.1056054844525797 0.15810663323929991 0 -0.090472299496493408 0.17081079097338381 0 -0.088181855826412331 0.150709720882889 0 -0.10856112623942619 0.18086257945629289 0 -0.1056054844525797 0.15810663323929991 0 -0.090472299496493408 0.17081079097338381 0 -0.090472299496493408 0.17081079097338381 0 -0.069027864995721944 0.16384062046199049 0 -0.088181855826412331 0.150709720882889 0 -0.093976451990754661 0.18531435003083821 0 -0.090472299496493408 0.17081079097338381 0 -0.076741658208478405 0.1869042949323925 0 -0.090472299496493408 0.17081079097338381 0 -0.076741658208478405 0.1869042949323925 0 -0.069027864995721944 0.16384062046199049 0 -0.076741658208478405 0.1869042949323925 0 -0.069027864995721944 0.16384062046199049 0 -0.057405527256066971 0.1857989722396233 0 -0.069027864995721944 0.16384062046199049 0 -0.072023708879010176 0.13932002945882199 0 -0.088181855826412331 0.150709720882889 0 -0.069027864995721944 0.16384062046199049 0 -0.072023708879010176 0.13932002945882199 0 -0.052503272159949252 0.1438431036188782 0 -0.072023708879010176 0.13932002945882199 0 -0.059817480749202262 0.11846087059401721 0 -0.084257993821819213 0.1234509424813558 0 -0.072023708879010176 0.13932002945882199 0 -0.088181855826412331 0.150709720882889 0 -0.084257993821819213 0.1234509424813558 0 -0.1041484879677293 0.13647727302959689 0 -0.088181855826412331 0.150709720882889 0 -0.084257993821819213 0.1234509424813558 0 -0.11231118999407171 0.2546280081215449 0 -0.1014482830209771 0.22670956841009041 0 -0.086504980287282318 0.2450403185754591 0 -0.11231118999407171 0.2546280081215449 0 -0.1379975732107715 0.23947362567545449 0 -0.1217315745075405 0.22378396236358039 0 -0.11231118999407171 0.2546280081215449 0 -0.1217315745075405 0.22378396236358039 0 -0.1014482830209771 0.22670956841009041 0 -0.1217315745075405 0.22378396236358039 0 -0.1014482830209771 0.22670956841009041 0 -0.11460753728859541 0.20945965371402109 0 -0.1014482830209771 0.22670956841009041 0 -0.099585061443734871 0.20814257940946809 0 -0.088430423810436837 0.21497113703884391 0 -0.1014482830209771 0.22670956841009041 0 -0.099585061443734871 0.20814257940946809 0 -0.11460753728859541 0.20945965371402109 0 -0.099585061443734871 0.20814257940946809 0 -0.11460753728859541 0.20945965371402109 0 -0.1094217081464909 0.1973110099561437 0 -0.1286561847730012 0.203153014056491 0 -0.1217315745075405 0.22378396236358039 0 -0.11460753728859541 0.20945965371402109 0 -0.10856112623942619 0.18086257945629289 0 -0.1094217081464909 0.1973110099561437 0 -0.12011465722083151 0.19262067006024591 0 -0.11460753728859541 0.20945965371402109 0 -0.1094217081464909 0.1973110099561437 0 -0.12011465722083151 0.19262067006024591 0 -0.1286561847730012 0.203153014056491 0 -0.11460753728859541 0.20945965371402109 0 -0.12011465722083151 0.19262067006024591 0 -0.10856112623942619 0.18086257945629289 0 -0.1094217081464909 0.1973110099561437 0 -0.097761562292203202 0.1979270025715453 0 -0.093976451990754661 0.18531435003083821 0 -0.10856112623942619 0.18086257945629289 0 -0.097761562292203202 0.1979270025715453 0 -0.099585061443734871 0.20814257940946809 0 -0.1094217081464909 0.1973110099561437 0 -0.097761562292203202 0.1979270025715453 0 -0.099585061443734871 0.20814257940946809 0 -0.097761562292203202 0.1979270025715453 0 -0.085840854103705885 0.2024771047661641 0 -0.076741658208478405 0.1869042949323925 0 -0.085840854103705885 0.2024771047661641 0 -0.07353067254631418 0.2028870006978987 0 -0.093976451990754661 0.18531435003083821 0 -0.097761562292203202 0.1979270025715453 0 -0.085840854103705885 0.2024771047661641 0 -0.093976451990754661 0.18531435003083821 0 -0.076741658208478405 0.1869042949323925 0 -0.085840854103705885 0.2024771047661641 0 -0.076741658208478405 0.1869042949323925 0 -0.064330422324295256 0.19804947830885791 0 -0.057405527256066971 0.1857989722396233 0 -0.076741658208478405 0.1869042949323925 0 -0.064330422324295256 0.19804947830885791 0 -0.07353067254631418 0.2028870006978987 0 -0.064330422324295256 0.19804947830885791 0 -0.07353067254631418 0.2028870006978987 0 -0.064387816607514858 0.2139313169087898 0 -0.07353067254631418 0.2028870006978987 0 -0.064387816607514858 0.2139313169087898 0 -0.077907151984747972 0.21395120162017359 0 -0.064387816607514858 0.2139313169087898 0 -0.077907151984747972 0.21395120162017359 0 -0.072321065312403815 0.2233871676898436 0 -0.085840854103705885 0.2024771047661641 0 -0.077907151984747972 0.21395120162017359 0 -0.088430423810436837 0.21497113703884391 0 -0.085840854103705885 0.2024771047661641 0 -0.07353067254631418 0.2028870006978987 0 -0.077907151984747972 0.21395120162017359 0 -0.099585061443734871 0.20814257940946809 0 -0.085840854103705885 0.2024771047661641 0 -0.088430423810436837 0.21497113703884391 0 -0.1014482830209771 0.22670956841009041 0 -0.088430423810436837 0.21497113703884391 0 -0.084331737865005474 0.22770121427897519 0 -0.1014482830209771 0.22670956841009041 0 -0.084331737865005474 0.22770121427897519 0 -0.086504980287282318 0.2450403185754591 0 -0.077907151984747972 0.21395120162017359 0 -0.084331737865005474 0.22770121427897519 0 -0.072321065312403815 0.2233871676898436 0 -0.077907151984747972 0.21395120162017359 0 -0.088430423810436837 0.21497113703884391 0 -0.084331737865005474 0.22770121427897519 0 -0.064387816607514858 0.2139313169087898 0 -0.072321065312403815 0.2233871676898436 0 -0.063614055620245566 0.22724503377236979 0 -0.072321065312403815 0.2233871676898436 0 -0.063614055620245566 0.22724503377236979 0 -0.07359716685735207 0.2344412403402992 0 -0.063614055620245566 0.22724503377236979 0 -0.07359716685735207 0.2344412403402992 0 -0.062418446467796609 0.23793700701986301 0 -0.084331737865005474 0.22770121427897519 0 -0.072321065312403815 0.2233871676898436 0 -0.07359716685735207 0.2344412403402992 0 -0.07359716685735207 0.2344412403402992 0 -0.070947775415472994 0.2445351982845832 0 -0.086504980287282318 0.2450403185754591 0 -0.070762388403913967 0.25672530696493517 0 -0.070947775415472994 0.2445351982845832 0 -0.086504980287282318 0.2450403185754591 0 -0.07359716685735207 0.2344412403402992 0 -0.070947775415472994 0.2445351982845832 0 -0.062418446467796609 0.23793700701986301 0 -0.070762388403913967 0.25672530696493517 0 -0.070947775415472994 0.2445351982845832 0 -0.061455895061020033 0.24853211852235971 0 -0.070947775415472994 0.2445351982845832 0 -0.061455895061020033 0.24853211852235971 0 -0.062418446467796609 0.23793700701986301 0 -0.084331737865005474 0.22770121427897519 0 -0.07359716685735207 0.2344412403402992 0 -0.086504980287282318 0.2450403185754591 0 -0.039554644090868049 0.241189724490946 0 -0.05388304570284172 0.23693574188255789 0 -0.02659973517249321 0.23373520936901551 0 -0.05388304570284172 0.23693574188255789 0 -0.02659973517249321 0.23373520936901551 0 -0.035949373735450922 0.25569494722108133 0 -0.039554644090868049 0.241189724490946 0 -0.03061724185871674 0.2464976304608929 0 -0.039554644090868049 0.241189724490946 0 -0.02659973517249321 0.23373520936901551 0 -0.03061724185871674 0.2464976304608929 0 -0.035949373735450922 0.25569494722108133 0 -0.039554644090868049 0.241189724490946 0 -0.044096303703192952 0.2497816203347738 0 -0.039554644090868049 0.241189724490946 0 -0.044096303703192952 0.2497816203347738 0 -0.047695933177701093 0.24472587219290301 0 -0.053162561201304678 0.2598115484802323 0 -0.061455895061020033 0.24853211852235971 0 -0.05388304570284172 0.23693574188255789 0 -0.053162561201304678 0.2598115484802323 0 -0.047695933177701093 0.24472587219290301 0 -0.05388304570284172 0.23693574188255789 0 -0.053162561201304678 0.2598115484802323 0 -0.05388304570284172 0.23693574188255789 0 -0.062418446467796609 0.23793700701986301 0 -0.05388304570284172 0.23693574188255789 0 -0.058570537715975403 0.2309250734257654 0 -0.062418446467796609 0.23793700701986301 0 -0.05388304570284172 0.23693574188255789 0 -0.061455895061020033 0.24853211852235971 0 -0.062418446467796609 0.23793700701986301 0 -0.05388304570284172 0.23693574188255789 0 -0.039554644090868049 0.241189724490946 0 -0.047695933177701093 0.24472587219290301 0 -0.05388304570284172 0.23693574188255789 0 -0.05388304570284172 0.23693574188255789 0 -0.054366603073017702 0.22158251102827101 0 -0.05388304570284172 0.23693574188255789 0 -0.049607719606183223 0.22911685807361271 0 -0.040936880440742493 0.22926803779974531 0 -0.05388304570284172 0.23693574188255789 0 -0.049607719606183223 0.22911685807361271 0 -0.054366603073017702 0.22158251102827101 0 -0.05388304570284172 0.23693574188255789 0 -0.058570537715975403 0.2309250734257654 0 -0.054366603073017702 0.22158251102827101 0 -0.063614055620245566 0.22724503377236979 0 -0.058570537715975403 0.2309250734257654 0 -0.054366603073017702 0.22158251102827101 0 -0.063614055620245566 0.22724503377236979 0 -0.062418446467796609 0.23793700701986301 0 -0.058570537715975403 0.2309250734257654 0 -0.064387816607514858 0.2139313169087898 0 -0.063614055620245566 0.22724503377236979 0 -0.054366603073017702 0.22158251102827101 0 -0.049607719606183223 0.22911685807361271 0 -0.054366603073017702 0.22158251102827101 0 -0.044311238596116721 0.22382088045941981 0 -0.054366603073017702 0.22158251102827101 0 -0.044311238596116721 0.22382088045941981 0 -0.04623943540069031 0.21699939118881639 0 -0.05388304570284172 0.23693574188255789 0 -0.040936880440742493 0.22926803779974531 0 -0.02659973517249321 0.23373520936901551 0 -0.044311238596116721 0.22382088045941981 0 -0.04623943540069031 0.21699939118881639 0 -0.030560646392197442 0.21998980269346369 0 -0.049607719606183223 0.22911685807361271 0 -0.044311238596116721 0.22382088045941981 0 -0.040936880440742493 0.22926803779974531 0 -0.040936880440742493 0.22926803779974531 0 -0.030560646392197442 0.21998980269346369 0 -0.02659973517249321 0.23373520936901551 0 -0.044311238596116721 0.22382088045941981 0 -0.040936880440742493 0.22926803779974531 0 -0.030560646392197442 0.21998980269346369 0 -0.04623943540069031 0.21699939118881639 0 -0.037874854981443183 0.19460756966860041 0 -0.030560646392197442 0.21998980269346369 0 -0.04623943540069031 0.21699939118881639 0 -0.030560646392197442 0.21998980269346369 0 -0.037874854981443183 0.19460756966860041 0 -0.030560646392197442 0.21998980269346369 0 -0.04623943540069031 0.21699939118881639 0 -0.0548501604431939 0.20622928017398409 0 -0.037874854981443183 0.19460756966860041 0 -0.064330422324295256 0.19804947830885791 0 -0.064387816607514858 0.2139313169087898 0 -0.0548501604431939 0.20622928017398409 0 -0.054366603073017702 0.22158251102827101 0 -0.0548501604431939 0.20622928017398409 0 -0.054366603073017702 0.22158251102827101 0 -0.04623943540069031 0.21699939118881639 0 -0.0548501604431939 0.20622928017398409 0 -0.064387816607514858 0.2139313169087898 0 -0.054366603073017702 0.22158251102827101 0 -0.0548501604431939 0.20622928017398409 0 -0.064330422324295256 0.19804947830885791 0 -0.0548501604431939 0.20622928017398409 0 -0.057405527256066971 0.1857989722396233 0 -0.0548501604431939 0.20622928017398409 0 -0.037874854981443183 0.19460756966860041 0 -0.057405527256066971 0.1857989722396233 0 -0.01288155796053239 0.18821204247855369 0 -0.012351496615428651 0.21630622168916169 0 -0.024012643824159009 0.20325580617021241 0 -0.037874854981443183 0.19460756966860041 0 -0.025368134554265689 0.19138194682320109 0 -0.02705047402884244 0.1773322996915411 0 -0.037874854981443183 0.19460756966860041 0 -0.025368134554265689 0.19138194682320109 0 -0.024012643824159009 0.20325580617021241 0 -0.025368134554265689 0.19138194682320109 0 -0.01288155796053239 0.18821204247855369 0 -0.024012643824159009 0.20325580617021241 0 -0.01288155796053239 0.18821204247855369 0 -0.012351496615428651 0.21630622168916169 0 -0.01288155796053239 0.18821204247855369 0 -0.001044441071266438 0.20071055398770979 0 -4.9131202722265082e-05 0.1762711210916014 0 -0.01288155796053239 0.18821204247855369 0 -0.001044441071266438 0.20071055398770979 0 -0.012351496615428651 0.21630622168916169 0 -0.001044441071266438 0.20071055398770979 0 -4.9131202722265082e-05 0.1762711210916014 0 -0.001044441071266438 0.20071055398770979 0 -0.00039321897577982958 0.2142152044566647 0 -0.012351496615428651 0.21630622168916169 0 -0.00039321897577982958 0.2142152044566647 0 -0.012351496615428651 0.21630622168916169 0 -0.0046663278525170132 0.22492861958960669 0 -0.012351496615428651 0.21630622168916169 0 -0.024012643824159009 0.20325580617021241 0 -0.030560646392197442 0.21998980269346369 0 -0.037874854981443183 0.19460756966860041 0 -0.024012643824159009 0.20325580617021241 0 -0.030560646392197442 0.21998980269346369 0 -0.012351496615428651 0.21630622168916169 0 -0.030560646392197442 0.21998980269346369 0 -0.0046663278525170132 0.22492861958960669 0 -0.030560646392197442 0.21998980269346369 0 -0.0046663278525170132 0.22492861958960669 0 -0.02659973517249321 0.23373520936901551 0 -0.0058817396784369268 0.23130483648151029 0 -0.030560646392197442 0.21998980269346369 0 -0.02659973517249321 0.23373520936901551 0 -0.0046663278525170132 0.22492861958960669 0 -0.030560646392197442 0.21998980269346369 0 -0.02659973517249321 0.23373520936901551 0 -0.02659973517249321 0.23373520936901551 0 -0.0046663278525170132 0.22492861958960669 0 -0.0058817396784369268 0.23130483648151029 0 -0.00039321897577982958 0.2142152044566647 0 -0.0046663278525170132 0.22492861958960669 0 0.0035347026468745151 0.21988708306511981 0 -0.0058817396784369268 0.23130483648151029 0 -0.001481079408247309 0.23674014742695179 0 0.0047993945575842056 0.23441162296309601 0 -0.0080178404717960537 0.23791795784198111 0 -0.01024640300666501 0.24368255428029079 0 -0.016987417823788941 0.23950459743844399 0 -0.0058817396784369268 0.23130483648151029 0 -0.0080178404717960537 0.23791795784198111 0 -0.016987417823788941 0.23950459743844399 0 -0.0058817396784369268 0.23130483648151029 0 -0.0080178404717960537 0.23791795784198111 0 -0.001481079408247309 0.23674014742695179 0 -0.0080178404717960537 0.23791795784198111 0 -0.0038269320613605671 0.24168690675661861 0 -0.01024640300666501 0.24368255428029079 0 -0.0080178404717960537 0.23791795784198111 0 -0.0038269320613605671 0.24168690675661861 0 -0.001481079408247309 0.23674014742695179 0 -0.0034487942078763869 0.25047567664513981 0 -0.0038269320613605671 0.24168690675661861 0 -0.01024640300666501 0.24368255428029079 0 -0.0034487942078763869 0.25047567664513981 0 -0.0038269320613605671 0.24168690675661861 0 0.0056565850853924739 0.24193485226376851 0 -0.0034487942078763869 0.25047567664513981 0 -0.01244324598223333 0.2494398909106863 0 -0.01024640300666501 0.24368255428029079 0 -0.01244324598223333 0.2494398909106863 0 -0.01024640300666501 0.24368255428029079 0 -0.016987417823788941 0.23950459743844399 0 -0.02659973517249321 0.23373520936901551 0 -0.0058817396784369268 0.23130483648151029 0 -0.016987417823788941 0.23950459743844399 0 -0.020365214436054799 0.25537064076252869 0 -0.02659973517249321 0.23373520936901551 0 -0.03061724185871674 0.2464976304608929 0 -0.020365214436054799 0.25537064076252869 0 -0.01244324598223333 0.2494398909106863 0 -0.016987417823788941 0.23950459743844399 0 -0.020365214436054799 0.25537064076252869 0 -0.02659973517249321 0.23373520936901551 0 -0.020365214436054799 0.25537064076252869 0 -0.02659973517249321 0.23373520936901551 0 -0.016987417823788941 0.23950459743844399 0 -0.052503272159949252 0.1438431036188782 0 -0.045189063570696228 0.1692253366437392 0 -0.030630265658947279 0.14639064263851531 0 -0.037334916963188088 0.1264614935435012 0 -0.052503272159949252 0.1438431036188782 0 -0.030630265658947279 0.14639064263851531 0 -0.072023708879010176 0.13932002945882199 0 -0.052503272159949252 0.1438431036188782 0 -0.059817480749202262 0.11846087059401721 0 -0.052503272159949252 0.1438431036188782 0 -0.059817480749202262 0.11846087059401721 0 -0.037334916963188088 0.1264614935435012 0 -0.052503272159949252 0.1438431036188782 0 -0.059817480749202262 0.11846087059401721 0 -0.052503272159949252 0.1438431036188782 0 -0.045189063570696228 0.1692253366437392 0 -0.069027864995721944 0.16384062046199049 0 -0.052503272159949252 0.1438431036188782 0 -0.045189063570696228 0.1692253366437392 0 -0.069027864995721944 0.16384062046199049 0 -0.057405527256066971 0.1857989722396233 0 -0.045189063570696228 0.1692253366437392 0 -0.037874854981443183 0.19460756966860041 0 -0.045189063570696228 0.1692253366437392 0 -0.037874854981443183 0.19460756966860041 0 -0.057405527256066971 0.1857989722396233 0 -0.045189063570696228 0.1692253366437392 0 -0.037874854981443183 0.19460756966860041 0 -0.045189063570696228 0.1692253366437392 0 -0.02705047402884244 0.1773322996915411 0 -0.045189063570696228 0.1692253366437392 0 -0.029070355641030519 0.1632665355604353 0 -0.030630265658947279 0.14639064263851531 0 -0.045189063570696228 0.1692253366437392 0 -0.029070355641030519 0.1632665355604353 0 -0.02705047402884244 0.1773322996915411 0 -0.029070355641030519 0.1632665355604353 0 -0.013411619305636139 0.1601178632679455 0 -0.030630265658947279 0.14639064263851531 0 -0.029070355641030519 0.1632665355604353 0 -0.02705047402884244 0.1773322996915411 0 -0.013411619305636139 0.1601178632679455 0 -0.01288155796053239 0.18821204247855369 0 -0.02705047402884244 0.1773322996915411 0 -0.013411619305636139 0.1601178632679455 0 -0.025368134554265689 0.19138194682320109 0 -0.01288155796053239 0.18821204247855369 0 -0.02705047402884244 0.1773322996915411 0 -0.01288155796053239 0.18821204247855369 0 -0.013411619305636139 0.1601178632679455 0 -0.01288155796053239 0.18821204247855369 0 -4.9131202722265082e-05 0.1762711210916014 0 -0.013411619305636139 0.1601178632679455 0 -4.9131202722265082e-05 0.1762711210916014 0 -0.013411619305636139 0.1601178632679455 0 0.00094617866582191116 0.15183168819549289 0 -0.013411619305636139 0.1601178632679455 0 -0.01394168065073989 0.13202368405733739 0 0.00094617866582191116 0.15183168819549289 0 -0.013411619305636139 0.1601178632679455 0 -0.01394168065073989 0.13202368405733739 0 -0.013411619305636139 0.1601178632679455 0 -0.030630265658947279 0.14639064263851531 0 -0.01394168065073989 0.13202368405733739 0 -0.037334916963188088 0.1264614935435012 0 -0.030630265658947279 0.14639064263851531 0 -0.01394168065073989 0.13202368405733739 0 -0.01394168065073989 0.13202368405733739 0 0.0019414885343660921 0.1273922552993843 0 0.00094617866582191116 0.15183168819549289 0 -0.01394168065073989 0.13202368405733739 0 -0.0058837839273267883 0.1165745666516817 0 0.0019414885343660921 0.1273922552993843 0 -0.0058837839273267883 0.1165745666516817 0 0.002936798402910272 0.1029528224032757 0 0.0019414885343660921 0.1273922552993843 0 -0.01394168065073989 0.13202368405733739 0 -0.0058837839273267883 0.1165745666516817 0 -0.01447174199584363 0.10392950484672921 0 -0.01394168065073989 0.13202368405733739 0 -0.01447174199584363 0.10392950484672921 0 -0.0058837839273267883 0.1165745666516817 0 -0.01447174199584363 0.10392950484672921 0 0.002936798402910272 0.1029528224032757 0 -0.01447174199584363 0.10392950484672921 0 -0.0038962848946219519 0.090633549915429962 0 0.002936798402910272 0.1029528224032757 0 -0.01447174199584363 0.10392950484672921 0 -0.026819081595452661 0.1123071459331666 0 -0.02709761071756913 0.090115630897730697 0 -0.01394168065073989 0.13202368405733739 0 -0.01447174199584363 0.10392950484672921 0 -0.026819081595452661 0.1123071459331666 0 -0.037334916963188088 0.1264614935435012 0 -0.01394168065073989 0.13202368405733739 0 -0.026819081595452661 0.1123071459331666 0 -0.005212027911666816 0.069664214443384345 0 -0.01500180334094834 0.075835325636121137 0 0.00071908422755573125 0.079601227329601815 0 -0.01500180334094834 0.075835325636121137 0 0.00071908422755573125 0.079601227329601815 0 -0.01522761755389803 0.063866777041625161 0 -0.005212027911666816 0.069664214443384345 0 -0.01500180334094834 0.075835325636121137 0 -0.01522761755389803 0.063866777041625161 0 -0.005212027911666816 0.069664214443384345 0 -0.0048173443688815463 0.058844836654325848 0 -0.01522761755389803 0.063866777041625161 0 -0.01500180334094834 0.075835325636121137 0 -0.01447174199584363 0.10392950484672921 0 -0.01500180334094834 0.075835325636121137 0 -0.0038962848946219519 0.090633549915429962 0 -0.01500180334094834 0.075835325636121137 0 -0.0038962848946219519 0.090633549915429962 0 0.00071908422755573125 0.079601227329601815 0 -0.01447174199584363 0.10392950484672921 0 -0.01500180334094834 0.075835325636121137 0 -0.01500180334094834 0.075835325636121137 0 -0.02709761071756913 0.090115630897730697 0 -0.036461117438910583 0.070694797345317403 0 -0.01447174199584363 0.10392950484672921 0 -0.01500180334094834 0.075835325636121137 0 -0.02709761071756913 0.090115630897730697 0 -0.01500180334094834 0.075835325636121137 0 -0.036461117438910583 0.070694797345317403 0 -0.01500180334094834 0.075835325636121137 0 -0.036461117438910583 0.070694797345317403 0 -0.026520234894257321 0.061558996878322308 0 -0.01522761755389803 0.063866777041625161 0 -0.01500180334094834 0.075835325636121137 0 -0.026520234894257321 0.061558996878322308 0 -0.036461117438910583 0.070694797345317403 0 -0.040793510097551132 0.090611023977601415 0 -0.053368138299846581 0.0850214844471813 0 -0.02709761071756913 0.090115630897730697 0 -0.036461117438910583 0.070694797345317403 0 -0.040793510097551132 0.090611023977601415 0 -0.040793510097551132 0.090611023977601415 0 -0.053368138299846581 0.0850214844471813 0 -0.052458233492170887 0.09835459814392869 0 -0.053368138299846581 0.0850214844471813 0 -0.052458233492170887 0.09835459814392869 0 -0.067131689338455258 0.0930786375691562 0 -0.053368138299846581 0.0850214844471813 0 -0.067131689338455258 0.0930786375691562 0 -0.064526142669661446 0.081315424156311863 0 -0.053368138299846581 0.0850214844471813 0 -0.0559816599556359 0.075317409205742911 0 -0.064526142669661446 0.081315424156311863 0 -0.036461117438910583 0.070694797345317403 0 -0.057920431536872867 0.065554269054513864 0 -0.036461117438910583 0.070694797345317403 0 -0.0559816599556359 0.075317409205742911 0 -0.057920431536872867 0.065554269054513864 0 -0.036461117438910583 0.070694797345317403 0 -0.053368138299846581 0.0850214844471813 0 -0.0559816599556359 0.075317409205742911 0 -0.0559816599556359 0.075317409205742911 0 -0.057920431536872867 0.065554269054513864 0 -0.067105156621259376 0.072516341233966011 0 -0.037334916963188088 0.1264614935435012 0 -0.040297720964837219 0.1057435144190928 0 -0.059817480749202262 0.11846087059401721 0 -0.037334916963188088 0.1264614935435012 0 -0.026819081595452661 0.1123071459331666 0 -0.040297720964837219 0.1057435144190928 0 -0.02709761071756913 0.090115630897730697 0 -0.040793510097551132 0.090611023977601415 0 -0.040297720964837219 0.1057435144190928 0 -0.026819081595452661 0.1123071459331666 0 -0.02709761071756913 0.090115630897730697 0 -0.040297720964837219 0.1057435144190928 0 -0.040793510097551132 0.090611023977601415 0 -0.040297720964837219 0.1057435144190928 0 -0.052458233492170887 0.09835459814392869 0 -0.040297720964837219 0.1057435144190928 0 -0.052458233492170887 0.09835459814392869 0 -0.059817480749202262 0.11846087059401721 0 -0.052458233492170887 0.09835459814392869 0 -0.059817480749202262 0.11846087059401721 0 -0.067131689338455258 0.0930786375691562 0 -0.059817480749202262 0.11846087059401721 0 -0.084257993821819213 0.1234509424813558 0 -0.075542678363083787 0.1073756068612504 0 -0.084257993821819213 0.1234509424813558 0 -0.089392474118245815 0.1026899906878822 0 -0.10684990770435381 0.1123024649846583 0 -0.084257993821819213 0.1234509424813558 0 -0.089392474118245815 0.1026899906878822 0 -0.075542678363083787 0.1073756068612504 0 -0.089392474118245815 0.1026899906878822 0 -0.086869749420434225 0.090021887204160961 0 -0.1010382174883494 0.090827670891844514 0 -0.089392474118245815 0.1026899906878822 0 -0.078934170927881867 0.095446701530514544 0 -0.075542678363083787 0.1073756068612504 0 -0.089392474118245815 0.1026899906878822 0 -0.078934170927881867 0.095446701530514544 0 -0.086869749420434225 0.090021887204160961 0 -0.078934170927881867 0.095446701530514544 0 -0.075542678363083787 0.1073756068612504 0 -0.067131689338455258 0.0930786375691562 0 -0.059817480749202262 0.11846087059401721 0 -0.067131689338455258 0.0930786375691562 0 -0.059817480749202262 0.11846087059401721 0 -0.075542678363083787 0.1073756068612504 0 -0.067131689338455258 0.0930786375691562 0 -0.067131689338455258 0.0930786375691562 0 -0.064526142669661446 0.081315424156311863 0 -0.074445897927708268 0.067696404544295194 0 -0.067131689338455258 0.0930786375691562 0 -0.075734263399190288 0.084067385330123034 0 -0.074445897927708268 0.067696404544295194 0 -0.067131689338455258 0.0930786375691562 0 -0.074445897927708268 0.067696404544295194 0 -0.078934170927881867 0.095446701530514544 0 -0.067131689338455258 0.0930786375691562 0 -0.075734263399190288 0.084067385330123034 0 -0.057920431536872867 0.065554269054513864 0 -0.06687158811435534 0.064160691587541618 0 -0.067105156621259376 0.072516341233966011 0 -0.057920431536872867 0.065554269054513864 0 -0.067105156621259376 0.072516341233966011 0 -0.06687158811435534 0.064160691587541618 0 -0.067105156621259376 0.072516341233966011 0 -0.074445897927708268 0.067696404544295194 0 -0.064526142669661446 0.081315424156311863 0 -0.067105156621259376 0.072516341233966011 0 -0.074445897927708268 0.067696404544295194 0 -0.0559816599556359 0.075317409205742911 0 -0.064526142669661446 0.081315424156311863 0 -0.067105156621259376 0.072516341233966011 0 -0.075734263399190288 0.084067385330123034 0 -0.074445897927708268 0.067696404544295194 0 -0.089015748736150868 0.071353093442669491 0 -0.075734263399190288 0.084067385330123034 0 -0.089015748736150868 0.071353093442669491 0 -0.075734263399190288 0.084067385330123034 0 -0.089015748736150868 0.071353093442669491 0 -0.090726605773603863 0.07820037758811034 0 -0.089015748736150868 0.071353093442669491 0 -0.090726605773603863 0.07820037758811034 0 -0.078934170927881867 0.095446701530514544 0 -0.075734263399190288 0.084067385330123034 0 -0.086869749420434225 0.090021887204160961 0 -0.075734263399190288 0.084067385330123034 0 -0.090726605773603863 0.07820037758811034 0 -0.086869749420434225 0.090021887204160961 0 -0.090726605773603863 0.07820037758811034 0 -0.086869749420434225 0.090021887204160961 0 -0.1010382174883494 0.090827670891844514 0 -0.090726605773603863 0.07820037758811034 0 -0.1010382174883494 0.090827670891844514 0 -0.10779639505354791 0.072799062886671706 0 -0.089015748736150868 0.071353093442669491 0 -0.10779639505354791 0.072799062886671706 0 -0.1098287559234704 0.051428917665527041 0 -0.089015748736150868 0.071353093442669491 0 -0.090726605773603863 0.07820037758811034 0 -0.10779639505354791 0.072799062886671706 0 -0.12529467281462861 0.090330504996161076 0 -0.12627960163495039 0.061057938431840507 0 -0.10779639505354791 0.072799062886671706 0 -0.12529467281462861 0.090330504996161076 0 -0.1010382174883494 0.090827670891844514 0 -0.10779639505354791 0.072799062886671706 0 -0.12529467281462861 0.090330504996161076 0 -0.1010382174883494 0.090827670891844514 0 -0.10684990770435381 0.1123024649846583 0 -0.13658678559133511 0.11471892205490319 0 -0.12529467281462861 0.090330504996161076 0 -0.10684990770435381 0.1123024649846583 0 -0.12529467281462861 0.090330504996161076 0 -0.10684990770435381 0.1123024649846583 0 -0.13658678559133511 0.11471892205490319 0 -0.12152692867898909 0.1285401161241661 0 -0.10684990770435381 0.1123024649846583 0 -0.1041484879677293 0.13647727302959689 0 -0.084257993821819213 0.1234509424813558 0 -0.10684990770435381 0.1123024649846583 0 -0.089392474118245815 0.1026899906878822 0 -0.1010382174883494 0.090827670891844514 0 -0.10684990770435381 0.1123024649846583 0 -0.1086061966406595 0.01482910021235498 0 -0.10245887543960761 0.033381499369908252 0 -0.08777206233021187 0.021451099113855069 0 -0.093784018143462461 0.00058802670827588083 0 -0.1086061966406595 0.01482910021235498 0 -0.08777206233021187 0.021451099113855069 0 -0.114561435991735 -0.0060000272885384013 0 -0.093784018143462461 0.00058802670827588083 0 -0.1086061966406595 0.01482910021235498 0 -0.114561435991735 -0.0060000272885384013 0 -0.13009559241693869 0.0053842442487262599 0 -0.1086061966406595 0.01482910021235498 0 -0.1306417631107884 0.031504741888382953 0 -0.1086061966406595 0.01482910021235498 0 -0.10245887543960761 0.033381499369908252 0 -0.1306417631107884 0.031504741888382953 0 -0.13009559241693869 0.0053842442487262599 0 -0.1086061966406595 0.01482910021235498 0 -0.1306417631107884 0.031504741888382953 0 -0.1098287559234704 0.051428917665527041 0 -0.1306417631107884 0.031504741888382953 0 -0.1098287559234704 0.051428917665527041 0 -0.10245887543960761 0.033381499369908252 0 -0.12627960163495039 0.061057938431840507 0 -0.1306417631107884 0.031504741888382953 0 -0.1098287559234704 0.051428917665527041 0 -0.12627960163495039 0.061057938431840507 0 -0.10779639505354791 0.072799062886671706 0 -0.1098287559234704 0.051428917665527041 0 -0.089015748736150868 0.071353093442669491 0 -0.1098287559234704 0.051428917665527041 0 -0.1098287559234704 0.051428917665527041 0 -0.10245887543960761 0.033381499369908252 0 -0.081760106516960626 0.042314171519433993 0 -0.081760106516960626 0.042314171519433993 0 -0.08777206233021187 0.021451099113855069 0 -0.10245887543960761 0.033381499369908252 0 -0.081760106516960626 0.042314171519433993 0 -0.08777206233021187 0.021451099113855069 0 -0.089015748736150868 0.071353093442669491 0 -0.081760106516960626 0.042314171519433993 0 -0.089015748736150868 0.071353093442669491 0 -0.1098287559234704 0.051428917665527041 0 -0.081760106516960626 0.042314171519433993 0 -0.074445897927708268 0.067696404544295194 0 -0.089015748736150868 0.071353093442669491 0 -0.081760106516960626 0.042314171519433993 0 -0.074445897927708268 0.067696404544295194 0 -0.081760106516960626 0.042314171519433993 0 -0.068333306040366415 0.054117801075400047 0 -0.074445897927708268 0.067696404544295194 0 -0.081760106516960626 0.042314171519433993 0 -0.057920431536872867 0.065554269054513864 0 -0.06687158811435534 0.064160691587541618 0 -0.068333306040366415 0.054117801075400047 0 -0.06687158811435534 0.064160691587541618 0 -0.074445897927708268 0.067696404544295194 0 -0.068333306040366415 0.054117801075400047 0 -0.081760106516960626 0.042314171519433993 0 -0.068333306040366415 0.054117801075400047 0 -0.060727196653644427 0.032494073919757782 0 -0.081760106516960626 0.042314171519433993 0 -0.074832071119546345 0.01458641525620198 0 -0.060727196653644427 0.032494073919757782 0 -0.074832071119546345 0.01458641525620198 0 -0.055874442695779139 0.0083757522806137928 0 -0.060727196653644427 0.032494073919757782 0 -0.081760106516960626 0.042314171519433993 0 -0.08777206233021187 0.021451099113855069 0 -0.074832071119546345 0.01458641525620198 0 -0.081760106516960626 0.042314171519433993 0 -0.074832071119546345 0.01458641525620198 0 -0.080092532456141188 -0.003668773098679406 0 -0.093784018143462461 0.00058802670827588083 0 -0.074832071119546345 0.01458641525620198 0 -0.093784018143462461 0.00058802670827588083 0 -0.08777206233021187 0.021451099113855069 0 -0.093784018143462461 0.00058802670827588083 0 -0.08777206233021187 0.021451099113855069 0 -0.074832071119546345 0.01458641525620198 0 -0.067904035722132591 -0.013141341007030179 0 -0.074832071119546345 0.01458641525620198 0 -0.055874442695779139 0.0083757522806137928 0 -0.067904035722132591 -0.013141341007030179 0 -0.074832071119546345 0.01458641525620198 0 -0.046957999175683843 -0.0084560554011491752 0 -0.055874442695779139 0.0083757522806137928 0 -0.039298549269485908 0.0060831443704769516 0 -0.044214195943844008 0.021123618062535082 0 -0.060727196653644427 0.032494073919757782 0 -0.045817891260899898 0.03672989468891516 0 -0.055874442695779139 0.0083757522806137928 0 -0.044214195943844008 0.021123618062535082 0 -0.060727196653644427 0.032494073919757782 0 -0.044214195943844008 0.021123618062535082 0 -0.033877877061514447 0.031728179875546617 0 -0.024857074602024531 0.016175391017637718 0 -0.044214195943844008 0.021123618062535082 0 -0.045817891260899898 0.03672989468891516 0 -0.033877877061514447 0.031728179875546617 0 -0.044214195943844008 0.021123618062535082 0 -0.039298549269485908 0.0060831443704769516 0 -0.024857074602024531 0.016175391017637718 0 -0.055874442695779139 0.0083757522806137928 0 -0.044214195943844008 0.021123618062535082 0 -0.039298549269485908 0.0060831443704769516 0 -0.057920431536872867 0.065554269054513864 0 -0.054944311644764578 0.050352188464312997 0 -0.037473551679225427 0.050055421554386512 0 -0.057920431536872867 0.065554269054513864 0 -0.037473551679225427 0.050055421554386512 0 -0.057920431536872867 0.065554269054513864 0 -0.068333306040366415 0.054117801075400047 0 -0.054944311644764578 0.050352188464312997 0 -0.068333306040366415 0.054117801075400047 0 -0.054944311644764578 0.050352188464312997 0 -0.060727196653644427 0.032494073919757782 0 -0.054944311644764578 0.050352188464312997 0 -0.060727196653644427 0.032494073919757782 0 -0.045817891260899898 0.03672989468891516 0 -0.054944311644764578 0.050352188464312997 0 -0.045817891260899898 0.03672989468891516 0 -0.037473551679225427 0.050055421554386512 0 -0.045817891260899898 0.03672989468891516 0 -0.033877877061514447 0.031728179875546617 0 -0.037473551679225427 0.050055421554386512 0 -0.036461117438910583 0.070694797345317403 0 -0.037473551679225427 0.050055421554386512 0 -0.026520234894257321 0.061558996878322308 0 -0.036461117438910583 0.070694797345317403 0 -0.057920431536872867 0.065554269054513864 0 -0.037473551679225427 0.050055421554386512 0 -0.037473551679225427 0.050055421554386512 0 -0.026520234894257321 0.061558996878322308 0 -0.016686491881228289 0.052317731001348573 0 -0.01522761755389803 0.063866777041625161 0 -0.026520234894257321 0.061558996878322308 0 -0.016686491881228289 0.052317731001348573 0 -0.037473551679225427 0.050055421554386512 0 -0.01702667182157841 0.034556574054258583 0 -0.037473551679225427 0.050055421554386512 0 -0.016686491881228289 0.052317731001348573 0 -0.01702667182157841 0.034556574054258583 0 -0.033877877061514447 0.031728179875546617 0 -0.037473551679225427 0.050055421554386512 0 -0.01702667182157841 0.034556574054258583 0 -0.01702667182157841 0.034556574054258583 0 0.0034202080360686 0.019057726554130652 0 0.0022932947182048662 0.047008161505581292 0 -0.016686491881228289 0.052317731001348573 0 -0.01702667182157841 0.034556574054258583 0 0.0022932947182048662 0.047008161505581292 0 -0.016686491881228289 0.052317731001348573 0 -0.0048173443688815463 0.058844836654325848 0 0.0022932947182048662 0.047008161505581292 0 -0.01522761755389803 0.063866777041625161 0 -0.016686491881228289 0.052317731001348573 0 -0.0048173443688815463 0.058844836654325848 0 -0.026011962629234619 -0.0037707697952702041 0 -0.024857074602024531 0.016175391017637718 0 -0.011425331166199169 0.003120034382480649 0 -0.026011962629234619 -0.0037707697952702041 0 -0.039298549269485908 0.0060831443704769516 0 -0.024857074602024531 0.016175391017637718 0 -0.033877877061514447 0.031728179875546617 0 -0.01702667182157841 0.034556574054258583 0 -0.024857074602024531 0.016175391017637718 0 -0.01702667182157841 0.034556574054258583 0 -0.024857074602024531 0.016175391017637718 0 0.0034202080360686 0.019057726554130652 0 -0.01702667182157841 0.034556574054258583 0 0.0034202080360686 0.019057726554130652 0 -0.011425331166199169 0.003120034382480649 0 0.0034202080360686 0.019057726554130652 0 0.003446058010442044 -0.001436598912300188 0 -0.024857074602024531 0.016175391017637718 0 -0.011425331166199169 0.003120034382480649 0 0.0034202080360686 0.019057726554130652 0 0.0034202080360686 0.019057726554130652 0 0.02386708789371559 0.0035588790540027342 0 0.003446058010442044 -0.001436598912300188 0 0.0034202080360686 0.019057726554130652 0 0.02386708789371559 0.0035588790540027342 0 0.0034202080360686 0.019057726554130652 0 0.02386708789371559 0.0035588790540027342 0 0.033111938194293651 0.026370938779759441 0 0.0034202080360686 0.019057726554130652 0 0.02004644332509177 0.041189020751521983 0 0.033111938194293651 0.026370938779759441 0 0.0022932947182048662 0.047008161505581292 0 0.024648707736423268 0.058826771260248052 0 0.010742667987830129 0.068153761701326615 0 -0.0048173443688815463 0.058844836654325848 0 0.0022932947182048662 0.047008161505581292 0 0.010742667987830129 0.068153761701326615 0 0.0034202080360686 0.019057726554130652 0 0.0022932947182048662 0.047008161505581292 0 0.02004644332509177 0.041189020751521983 0 0.02004644332509177 0.041189020751521983 0 0.040111049005330378 0.050748563688530181 0 0.033111938194293651 0.026370938779759441 0 0.0022932947182048662 0.047008161505581292 0 0.02004644332509177 0.041189020751521983 0 0.024648707736423268 0.058826771260248052 0 0.02004644332509177 0.041189020751521983 0 0.024648707736423268 0.058826771260248052 0 0.040111049005330378 0.050748563688530181 0 0.040111049005330378 0.050748563688530181 0 0.055077358665997833 0.065828247336366663 0 0.039048442660089389 0.067481228966979515 0 0.024648707736423268 0.058826771260248052 0 0.040111049005330378 0.050748563688530181 0 0.039048442660089389 0.067481228966979515 0 0.040111049005330378 0.050748563688530181 0 0.050476126377234969 0.036716222253034142 0 0.033111938194293651 0.026370938779759441 0 0.050476126377234969 0.036716222253034142 0 0.062007074327820183 0.03074830206708452 0 0.065317983777254243 0.048514327431240081 0 0.040111049005330378 0.050748563688530181 0 0.050476126377234969 0.036716222253034142 0 0.065317983777254243 0.048514327431240081 0 0.040111049005330378 0.050748563688530181 0 0.065317983777254243 0.048514327431240081 0 0.055077358665997833 0.065828247336366663 0 0.02386708789371559 0.0035588790540027342 0 0.043375611754545601 0.011194706914472909 0 0.033111938194293651 0.026370938779759441 0 0.02386708789371559 0.0035588790540027342 0 0.043375611754545601 0.011194706914472909 0 0.045226102000073182 0.00069141601889222701 0 0.043375611754545601 0.011194706914472909 0 0.033111938194293651 0.026370938779759441 0 0.050705690742592423 0.022937770943604309 0 0.050476126377234969 0.036716222253034142 0 0.033111938194293651 0.026370938779759441 0 0.050705690742592423 0.022937770943604309 0 0.050705690742592423 0.022937770943604309 0 0.062007074327820183 0.03074830206708452 0 0.064523017660921722 0.011824945693661401 0 0.050476126377234969 0.036716222253034142 0 0.050705690742592423 0.022937770943604309 0 0.062007074327820183 0.03074830206708452 0 0.064523017660921722 0.011824945693661401 0 0.050050824939820632 -0.01118148312155649 0 0.045226102000073182 0.00069141601889222701 0 0.064523017660921722 0.011824945693661401 0 0.050050824939820632 -0.01118148312155649 0 0.043375611754545601 0.011194706914472909 0 0.050705690742592423 0.022937770943604309 0 0.064523017660921722 0.011824945693661401 0 0.043375611754545601 0.011194706914472909 0 0.045226102000073182 0.00069141601889222701 0 0.064523017660921722 0.011824945693661401 0 0.064523017660921722 0.011824945693661401 0 0.079604358272816672 0.009465173979337084 0 0.072328556726947588 -0.0026761394587571821 0 0.079604358272816672 0.009465173979337084 0 0.090577516026077137 0.019041373567984479 0 0.083867398807817822 -0.0077508972080709664 0 0.090577516026077137 0.019041373567984479 0 0.083867398807817822 -0.0077508972080709664 0 0.090577516026077137 0.019041373567984479 0 0.10023425327710089 0.0098333921491909459 0 0.083867398807817822 -0.0077508972080709664 0 0.079604358272816672 0.009465173979337084 0 0.086725302142319036 0.026886587301867691 0 0.090577516026077137 0.019041373567984479 0 0.086725302142319036 0.026886587301867691 0 0.095095598506680257 0.022147356713643339 0 0.095423485221204099 0.029901069440919231 0 0.086725302142319036 0.026886587301867691 0 0.090577516026077137 0.019041373567984479 0 0.095095598506680257 0.022147356713643339 0 0.062007074327820183 0.03074830206708452 0 0.064523017660921722 0.011824945693661401 0 0.078995210382024547 0.034831374508878098 0 0.064523017660921722 0.011824945693661401 0 0.078995210382024547 0.034831374508878098 0 0.064523017660921722 0.011824945693661401 0 0.086725302142319036 0.026886587301867691 0 0.078995210382024547 0.034831374508878098 0 0.064523017660921722 0.011824945693661401 0 0.079604358272816672 0.009465173979337084 0 0.086725302142319036 0.026886587301867691 0 0.062007074327820183 0.03074830206708452 0 0.065317983777254243 0.048514327431240081 0 0.078995210382024547 0.034831374508878098 0 0.065317983777254243 0.048514327431240081 0 0.093467403103127455 0.057837803324094932 0 0.075225336377407734 0.071457037603794599 0 0.065317983777254243 0.048514327431240081 0 0.075225336377407734 0.071457037603794599 0 0.055077358665997833 0.065828247336366663 0 0.065317983777254243 0.048514327431240081 0 0.093467403103127455 0.057837803324094932 0 0.078995210382024547 0.034831374508878098 0 0.086725302142319036 0.026886587301867691 0 0.078995210382024547 0.034831374508878098 0 0.096738622072100475 0.04010467370032085 0 0.093467403103127455 0.057837803324094932 0 0.078995210382024547 0.034831374508878098 0 0.096738622072100475 0.04010467370032085 0 0.093467403103127455 0.057837803324094932 0 0.078995210382024547 0.034831374508878098 0 0.086725302142319036 0.026886587301867691 0 0.096738622072100475 0.04010467370032085 0 0.095423485221204099 0.029901069440919231 0 0.096738622072100475 0.04010467370032085 0 0.095423485221204099 0.029901069440919231 0 0.1031344181637166 0.03046566004784506 0 0.096738622072100475 0.04010467370032085 0 0.11590610989724499 0.036604491885099878 0 0.1031344181637166 0.03046566004784506 0 0.096738622072100475 0.04010467370032085 0 0.1094380083458308 0.049502150751643742 0 0.11590610989724499 0.036604491885099878 0 0.093467403103127455 0.057837803324094932 0 0.1094380083458308 0.049502150751643742 0 0.1126168437540782 0.062680347557738172 0 0.093467403103127455 0.057837803324094932 0 0.096738622072100475 0.04010467370032085 0 0.1094380083458308 0.049502150751643742 0 0.1094380083458308 0.049502150751643742 0 0.12074391787073779 0.050898462848324763 0 0.1126168437540782 0.062680347557738172 0 0.12074391787073779 0.050898462848324763 0 0.1126168437540782 0.062680347557738172 0 0.12677175449691069 0.063830209479632929 0 0.12074391787073779 0.050898462848324763 0 0.11590610989724499 0.036604491885099878 0 0.1352485221970684 0.04210670774488702 0 0.1094380083458308 0.049502150751643742 0 0.12074391787073779 0.050898462848324763 0 0.11590610989724499 0.036604491885099878 0 0.11590610989724499 0.036604491885099878 0 0.1121992360972555 0.024659907184106461 0 0.13346825788191449 0.02203085139478261 0 0.1121992360972555 0.024659907184106461 0 0.113391796036721 0.01205117587916139 0 0.13346825788191449 0.02203085139478261 0 0.11590610989724499 0.036604491885099878 0 0.1121992360972555 0.024659907184106461 0 0.1031344181637166 0.03046566004784506 0 0.113391796036721 0.01205117587916139 0 0.1316879935667612 0.0019549950446782201 0 0.11207589959037929 -0.0058042570280256332 0 0.113391796036721 0.01205117587916139 0 0.1316879935667612 0.0019549950446782201 0 0.113391796036721 0.01205117587916139 0 0.10023425327710089 0.0098333921491909459 0 0.095095598506680257 0.022147356713643339 0 0.113391796036721 0.01205117587916139 0 0.10023425327710089 0.0098333921491909459 0 0.11207589959037929 -0.0058042570280256332 0 0.1121992360972555 0.024659907184106461 0 0.095095598506680257 0.022147356713643339 0 0.1031344181637166 0.03046566004784506 0 0.090577516026077137 0.019041373567984479 0 0.10023425327710089 0.0098333921491909459 0 0.095095598506680257 0.022147356713643339 0 0.1121992360972555 0.024659907184106461 0 0.113391796036721 0.01205117587916139 0 0.095095598506680257 0.022147356713643339 0 0.113391796036721 0.01205117587916139 0 0.095095598506680257 0.022147356713643339 0 0.095095598506680257 0.022147356713643339 0 0.095423485221204099 0.029901069440919231 0 0.1031344181637166 0.03046566004784506 0 0.1050662822240829 0.09695571235324614 0 0.097421399263471806 0.1169842204191802 0 0.1113063181824301 0.1112835730431949 0 0.1050662822240829 0.09695571235324614 0 0.097421399263471806 0.1169842204191802 0 0.086747407857210385 0.1113542803352489 0 0.1050662822240829 0.09695571235324614 0 0.086747407857210385 0.1113542803352489 0 0.097421399263471806 0.1169842204191802 0 0.1113063181824301 0.1112835730431949 0 0.11333316573298489 0.12446939465809979 0 0.097421399263471806 0.1169842204191802 0 0.11333316573298489 0.12446939465809979 0 0.097421399263471806 0.1169842204191802 0 0.11333316573298489 0.12446939465809979 0 0.099905364177083733 0.13247791247911819 0 0.11333316573298489 0.12446939465809979 0 0.1241834487212133 0.11681937204530039 0 0.1292449322024978 0.1319545688970197 0 0.1113063181824301 0.1112835730431949 0 0.11333316573298489 0.12446939465809979 0 0.1241834487212133 0.11681937204530039 0 0.1113063181824301 0.1112835730431949 0 0.1241834487212133 0.11681937204530039 0 0.1224117885453332 0.1038506609545285 0 0.1224117885453332 0.1038506609545285 0 0.11829498679675279 0.085553711214378825 0 0.12514985923169589 0.093622983114103789 0 0.1050662822240829 0.09695571235324614 0 0.1224117885453332 0.1038506609545285 0 0.10793959582423041 0.0808442321393118 0 0.1050662822240829 0.09695571235324614 0 0.1113063181824301 0.1112835730431949 0 0.1224117885453332 0.1038506609545285 0 0.11829498679675279 0.085553711214378825 0 0.12824035046038371 0.088233284582805216 0 0.12514985923169589 0.093622983114103789 0 0.1224117885453332 0.1038506609545285 0 0.11829498679675279 0.085553711214378825 0 0.10793959582423041 0.0808442321393118 0 0.1224117885453332 0.1038506609545285 0 0.10793959582423041 0.0808442321393118 0 0.11829498679675279 0.085553711214378825 0 0.11734038288363199 0.073169226803420931 0 0.10793959582423041 0.0808442321393118 0 0.11829498679675279 0.085553711214378825 0 0.11734038288363199 0.073169226803420931 0 0.12677175449691069 0.063830209479632929 0 0.11734038288363199 0.073169226803420931 0 0.1126168437540782 0.062680347557738172 0 0.10793959582423041 0.0808442321393118 0 0.11829498679675279 0.085553711214378825 0 0.12677175449691069 0.063830209479632929 0 0.11734038288363199 0.073169226803420931 0 0.1126168437540782 0.062680347557738172 0 0.12677175449691069 0.063830209479632929 0 0.093467403103127455 0.057837803324094932 0 0.10793959582423041 0.0808442321393118 0 0.091834145387761051 0.08164463123876875 0 0.093467403103127455 0.057837803324094932 0 0.10793959582423041 0.0808442321393118 0 0.093467403103127455 0.057837803324094932 0 0.1126168437540782 0.062680347557738172 0 0.10793959582423041 0.0808442321393118 0 0.1050662822240829 0.09695571235324614 0 0.10793959582423041 0.0808442321393118 0 0.091834145387761051 0.08164463123876875 0 0.1050662822240829 0.09695571235324614 0 0.091834145387761051 0.08164463123876875 0 0.08908510120717443 0.096028590650388351 0 0.091834145387761051 0.08164463123876875 0 0.080221153590543562 0.086744411361776658 0 0.075225336377407734 0.071457037603794599 0 0.091834145387761051 0.08164463123876875 0 0.080221153590543562 0.086744411361776658 0 0.08908510120717443 0.096028590650388351 0 0.093467403103127455 0.057837803324094932 0 0.091834145387761051 0.08164463123876875 0 0.075225336377407734 0.071457037603794599 0 0.075225336377407734 0.071457037603794599 0 0.06493319714456347 0.087536724974696001 0 0.055077358665997833 0.065828247336366663 0 0.080221153590543562 0.086744411361776658 0 0.075225336377407734 0.071457037603794599 0 0.06493319714456347 0.087536724974696001 0 0.080221153590543562 0.086744411361776658 0 0.06493319714456347 0.087536724974696001 0 0.078107534266518716 0.098961405803762906 0 0.06493319714456347 0.087536724974696001 0 0.067283597496037101 0.1069770607850016 0 0.078107534266518716 0.098961405803762906 0 0.067283597496037101 0.1069770607850016 0 0.078107534266518716 0.098961405803762906 0 0.086747407857210385 0.1113542803352489 0 0.080221153590543562 0.086744411361776658 0 0.078107534266518716 0.098961405803762906 0 0.08908510120717443 0.096028590650388351 0 0.1050662822240829 0.09695571235324614 0 0.08908510120717443 0.096028590650388351 0 0.086747407857210385 0.1113542803352489 0 0.078107534266518716 0.098961405803762906 0 0.08908510120717443 0.096028590650388351 0 0.086747407857210385 0.1113542803352489 0 0.097421399263471806 0.1169842204191802 0 0.086747407857210385 0.1113542803352489 0 0.087378778778080202 0.12784022218377389 0 0.086747407857210385 0.1113542803352489 0 0.087378778778080202 0.12784022218377389 0 0.068428533490337978 0.12575284831725159 0 0.067283597496037101 0.1069770607850016 0 0.086747407857210385 0.1113542803352489 0 0.068428533490337978 0.12575284831725159 0 0.086747407857210385 0.1113542803352489 0 0.068428533490337978 0.12575284831725159 0 0.067283597496037101 0.1069770607850016 0 0.050381734692377528 0.11946481459524839 0 0.068428533490337978 0.12575284831725159 0 0.050381734692377528 0.11946481459524839 0 0.050653810261288852 0.098778212891242029 0 0.050381734692377528 0.11946481459524839 0 0.050653810261288852 0.098778212891242029 0 0.043575492807682921 0.1090302070744384 0 0.06493319714456347 0.087536724974696001 0 0.067283597496037101 0.1069770607850016 0 0.050653810261288852 0.098778212891242029 0 0.067283597496037101 0.1069770607850016 0 0.050381734692377528 0.11946481459524839 0 0.050653810261288852 0.098778212891242029 0 0.050653810261288852 0.098778212891242029 0 0.03250152337773124 0.10332291666910511 0 0.039640107882928891 0.091025923027524949 0 0.050653810261288852 0.098778212891242029 0 0.043575492807682921 0.1090302070744384 0 0.03250152337773124 0.10332291666910511 0 0.050381734692377528 0.11946481459524839 0 0.043575492807682921 0.1090302070744384 0 0.036427931198385242 0.1255709893735337 0 0.03250152337773124 0.10332291666910511 0 0.036427931198385242 0.1255709893735337 0 0.043575492807682921 0.1090302070744384 0 0.03250152337773124 0.10332291666910511 0 0.036427931198385242 0.1255709893735337 0 0.06493319714456347 0.087536724974696001 0 0.055077358665997833 0.065828247336366663 0 0.046829982335618227 0.080927718585076067 0 0.055077358665997833 0.065828247336366663 0 0.046829982335618227 0.080927718585076067 0 0.039048442660089389 0.067481228966979515 0 0.06493319714456347 0.087536724974696001 0 0.050653810261288852 0.098778212891242029 0 0.046829982335618227 0.080927718585076067 0 0.050653810261288852 0.098778212891242029 0 0.039640107882928891 0.091025923027524949 0 0.046829982335618227 0.080927718585076067 0 0.03250152337773124 0.10332291666910511 0 0.039640107882928891 0.091025923027524949 0 0.028575115557077261 0.081074843964676596 0 0.039640107882928891 0.091025923027524949 0 0.046829982335618227 0.080927718585076067 0 0.028575115557077261 0.081074843964676596 0 0.046829982335618227 0.080927718585076067 0 0.039048442660089389 0.067481228966979515 0 0.028575115557077261 0.081074843964676596 0 0.024648707736423268 0.058826771260248052 0 0.039048442660089389 0.067481228966979515 0 0.028575115557077261 0.081074843964676596 0 0.024648707736423268 0.058826771260248052 0 0.028575115557077261 0.081074843964676596 0 0.010742667987830129 0.068153761701326615 0 0.028575115557077261 0.081074843964676596 0 0.016439971796059921 0.083367129023082243 0 0.010742667987830129 0.068153761701326615 0 0.024648707736423268 0.058826771260248052 0 0.028575115557077261 0.081074843964676596 0 0.028575115557077261 0.081074843964676596 0 0.016439971796059921 0.083367129023082243 0 0.01824921438912146 0.098706661349763955 0 0.03250152337773124 0.10332291666910511 0 0.028575115557077261 0.081074843964676596 0 0.016439971796059921 0.083367129023082243 0 0.00071908422755573125 0.079601227329601815 0 0.016439971796059921 0.083367129023082243 0 0.0068897567842050858 0.091052278004230755 0 0.00071908422755573125 0.079601227329601815 0 0.016439971796059921 0.083367129023082243 0 0.0068897567842050858 0.091052278004230755 0 0.01824921438912146 0.098706661349763955 0 -0.0038962848946219519 0.090633549915429962 0 0.0068897567842050858 0.091052278004230755 0 0.00071908422755573125 0.079601227329601815 0 -0.005212027911666816 0.069664214443384345 0 -0.0048173443688815463 0.058844836654325848 0 0.010742667987830129 0.068153761701326615 0 0.016439971796059921 0.083367129023082243 0 0.00071908422755573125 0.079601227329601815 0 0.010742667987830129 0.068153761701326615 0 -0.005212027911666816 0.069664214443384345 0 0.00071908422755573125 0.079601227329601815 0 0.010742667987830129 0.068153761701326615 0 0.024197060125871969 0.1138730864656938 0 0.01981082444144739 0.1272923262771547 0 0.036427931198385242 0.1255709893735337 0 0.03250152337773124 0.10332291666910511 0 0.024197060125871969 0.1138730864656938 0 0.036427931198385242 0.1255709893735337 0 0.024197060125871969 0.1138730864656938 0 0.01399580722267455 0.1144725386589116 0 0.01981082444144739 0.1272923262771547 0 0.024197060125871969 0.1138730864656938 0 0.01824921438912146 0.098706661349763955 0 0.01399580722267455 0.1144725386589116 0 0.03250152337773124 0.10332291666910511 0 0.028575115557077261 0.081074843964676596 0 0.01824921438912146 0.098706661349763955 0 0.03250152337773124 0.10332291666910511 0 0.024197060125871969 0.1138730864656938 0 0.01824921438912146 0.098706661349763955 0 0.01824921438912146 0.098706661349763955 0 0.002936798402910272 0.1029528224032757 0 0.01399580722267455 0.1144725386589116 0 0.0068897567842050858 0.091052278004230755 0 0.01824921438912146 0.098706661349763955 0 0.002936798402910272 0.1029528224032757 0 -0.0038962848946219519 0.090633549915429962 0 0.0068897567842050858 0.091052278004230755 0 0.002936798402910272 0.1029528224032757 0 0.002936798402910272 0.1029528224032757 0 0.01399580722267455 0.1144725386589116 0 0.0019414885343660921 0.1273922552993843 0 0.01399580722267455 0.1144725386589116 0 0.0019414885343660921 0.1273922552993843 0 0.01981082444144739 0.1272923262771547 0 0.002936798402910272 0.1029528224032757 0 0.0019414885343660921 0.1273922552993843 0 0.0019414885343660921 0.1273922552993843 0 0.00094617866582191116 0.15183168819549289 0 0.010425334323079811 0.13819514895531099 0 0.0019414885343660921 0.1273922552993843 0 0.01981082444144739 0.1272923262771547 0 0.010425334323079811 0.13819514895531099 0 0.0019414885343660921 0.1273922552993843 0 0.00094617866582191116 0.15183168819549289 0 0.010425334323079811 0.13819514895531099 0 0.01981082444144739 0.1272923262771547 0 0.019002845650683869 0.14626432604921219 0 0.01981082444144739 0.1272923262771547 0 0.019002845650683869 0.14626432604921219 0 0.01981082444144739 0.1272923262771547 0 0.029026886742801749 0.1391824807600219 0 0.019002845650683869 0.14626432604921219 0 0.01981082444144739 0.1272923262771547 0 0.029026886742801749 0.1391824807600219 0 0.036427931198385242 0.1255709893735337 0 0.019002845650683869 0.14626432604921219 0 0.01819486685991991 0.16523632582126979 0 0.02664473456811061 0.14962554867711669 0 0.019002845650683869 0.14626432604921219 0 0.01819486685991991 0.16523632582126979 0 0.02664473456811061 0.14962554867711669 0 0.01819486685991991 0.16523632582126979 0 0.040354339019036928 0.1478190620779628 0 0.029026886742801749 0.1391824807600219 0 0.02664473456811061 0.14962554867711669 0 0.019002845650683869 0.14626432604921219 0 0.010425334323079811 0.13819514895531099 0 0.019002845650683869 0.14626432604921219 0 0.00094617866582191116 0.15183168819549289 0 0.019002845650683869 0.14626432604921219 0 0.00094617866582191116 0.15183168819549289 0 0.0076036109287660426 0.16233854206417811 0 -4.9131202722265082e-05 0.1762711210916014 0 0.00094617866582191116 0.15183168819549289 0 0.019002845650683869 0.14626432604921219 0 0.0076036109287660426 0.16233854206417811 0 0.01819486685991991 0.16523632582126979 0 -4.9131202722265082e-05 0.1762711210916014 0 0.00094617866582191116 0.15183168819549289 0 0.0076036109287660426 0.16233854206417811 0 -4.9131202722265082e-05 0.1762711210916014 0 0.0076036109287660426 0.16233854206417811 0 0.007106334055567945 0.17395187188630801 0 0.007106334055567945 0.17395187188630801 0 0.01819486685991991 0.16523632582126979 0 0.0076036109287660426 0.16233854206417811 0 0.007106334055567945 0.17395187188630801 0 0.01819486685991991 0.16523632582126979 0 0.007106334055567945 0.17395187188630801 0 0.017358951900738911 0.18486428957024811 0 0.01819486685991991 0.16523632582126979 0 -4.9131202722265082e-05 0.1762711210916014 0 0.0065165978563279381 0.18631226521417329 0 0.007106334055567945 0.17395187188630801 0 0.0065165978563279381 0.18631226521417329 0 0.007106334055567945 0.17395187188630801 0 0.017358951900738911 0.18486428957024811 0 0.017358951900738911 0.18486428957024811 0 0.01819486685991991 0.16523632582126979 0 0.017358951900738911 0.18486428957024811 0 0.026892259017853332 0.17524199690237971 0 0.01819486685991991 0.16523632582126979 0 0.017358951900738911 0.18486428957024811 0 0.026892259017853332 0.17524199690237971 0 0.029905379816241889 0.18456082491829701 0 0.01819486685991991 0.16523632582126979 0 0.033901848516340642 0.1646360325161926 0 0.040354339019036928 0.1478190620779628 0 0.01819486685991991 0.16523632582126979 0 0.040354339019036928 0.1478190620779628 0 0.026892259017853332 0.17524199690237971 0 0.01819486685991991 0.16523632582126979 0 0.033901848516340642 0.1646360325161926 0 0.033901848516340642 0.1646360325161926 0 0.041994004534960029 0.15710984369704381 0 0.040354339019036928 0.1478190620779628 0 0.033901848516340642 0.1646360325161926 0 0.040704522953970979 0.16608535754601839 0 0.041994004534960029 0.15710984369704381 0 0.033901848516340642 0.1646360325161926 0 0.040704522953970979 0.16608535754601839 0 0.037574240913306092 0.17675669134170599 0 0.040704522953970979 0.16608535754601839 0 0.037574240913306092 0.17675669134170599 0 0.049770718601567648 0.16592193147604831 0 0.040704522953970979 0.16608535754601839 0 0.041994004534960029 0.15710984369704381 0 0.049770718601567648 0.16592193147604831 0 0.037574240913306092 0.17675669134170599 0 0.049770718601567648 0.16592193147604831 0 0.049431778079669079 0.19169244665284199 0 0.029905379816241889 0.18456082491829701 0 0.037574240913306092 0.17675669134170599 0 0.037823398487945421 0.19026508503250289 0 0.026892259017853332 0.17524199690237971 0 0.033901848516340642 0.1646360325161926 0 0.037574240913306092 0.17675669134170599 0 0.026892259017853332 0.17524199690237971 0 0.029905379816241889 0.18456082491829701 0 0.037574240913306092 0.17675669134170599 0 0.037574240913306092 0.17675669134170599 0 0.037823398487945421 0.19026508503250289 0 0.049431778079669079 0.19169244665284199 0 0.049770718601567648 0.16592193147604831 0 0.049431778079669079 0.19169244665284199 0 0.0572045138919378 0.17938668091731391 0 0.049431778079669079 0.19169244665284199 0 0.067090054846954059 0.19040667950603399 0 0.0572045138919378 0.17938668091731391 0 0.049770718601567648 0.16592193147604831 0 0.049431778079669079 0.19169244665284199 0 0.0572045138919378 0.17938668091731391 0 0.060220922527985568 0.1712800353433975 0 0.066683221942283655 0.17723441958853109 0 0.0572045138919378 0.17938668091731391 0 0.049770718601567648 0.16592193147604831 0 0.060220922527985568 0.1712800353433975 0 0.049770718601567648 0.16592193147604831 0 0.060220922527985568 0.1712800353433975 0 0.060633618497776098 0.16407086131288379 0 0.049770718601567648 0.16592193147604831 0 0.060633618497776098 0.16407086131288379 0 0.059595578642691723 0.15358652574416329 0 0.049770718601567648 0.16592193147604831 0 0.050109659123465711 0.14015141629925459 0 0.059595578642691723 0.15358652574416329 0 0.050109659123465711 0.14015141629925459 0 0.065787456677535688 0.14172460686653321 0 0.049770718601567648 0.16592193147604831 0 0.059595578642691723 0.15358652574416329 0 0.050109659123465711 0.14015141629925459 0 0.041994004534960029 0.15710984369704381 0 0.049770718601567648 0.16592193147604831 0 0.050109659123465711 0.14015141629925459 0 0.050109659123465711 0.14015141629925459 0 0.068428533490337978 0.12575284831725159 0 0.065787456677535688 0.14172460686653321 0 0.050381734692377528 0.11946481459524839 0 0.050109659123465711 0.14015141629925459 0 0.068428533490337978 0.12575284831725159 0 0.050381734692377528 0.11946481459524839 0 0.050109659123465711 0.14015141629925459 0 0.050109659123465711 0.14015141629925459 0 0.068428533490337978 0.12575284831725159 0 0.029026886742801749 0.1391824807600219 0 0.036427931198385242 0.1255709893735337 0 0.040354339019036928 0.1478190620779628 0 0.036427931198385242 0.1255709893735337 0 0.040354339019036928 0.1478190620779628 0 0.050109659123465711 0.14015141629925459 0 0.036427931198385242 0.1255709893735337 0 0.040354339019036928 0.1478190620779628 0 0.050381734692377528 0.11946481459524839 0 0.050109659123465711 0.14015141629925459 0 0.036427931198385242 0.1255709893735337 0 0.041994004534960029 0.15710984369704381 0 0.050109659123465711 0.14015141629925459 0 0.040354339019036928 0.1478190620779628 0 0.029026886742801749 0.1391824807600219 0 0.02664473456811061 0.14962554867711669 0 0.040354339019036928 0.1478190620779628 0 0.041994004534960029 0.15710984369704381 0 0.040354339019036928 0.1478190620779628 0 0.050109659123465711 0.14015141629925459 0 0.040354339019036928 0.1478190620779628 0 0.02374078695113872 0.24704121500273679 0 0.026311947099859508 0.23824019207230759 0 0.034268254741715139 0.24495546749595951 0 0.02374078695113872 0.24704121500273679 0 0.026311947099859508 0.23824019207230759 0 0.01563307656510151 0.2402356869933579 0 0.026311947099859508 0.23824019207230759 0 0.01563307656510151 0.2402356869933579 0 0.017624777268624069 0.2343412010092219 0 0.02374078695113872 0.24704121500273679 0 0.013409000954929209 0.2472900534625472 0 0.019268315692661311 0.25322699798440051 0 0.02374078695113872 0.24704121500273679 0 0.01563307656510151 0.2402356869933579 0 0.013409000954929209 0.2472900534625472 0 0.01563307656510151 0.2402356869933579 0 0.013409000954929209 0.2472900534625472 0 0.0056565850853924739 0.24193485226376851 0 0.013409000954929209 0.2472900534625472 0 0.0056565850853924739 0.24193485226376851 0 0.0079553971018997711 0.25407995411845952 0 -0.0034487942078763869 0.25047567664513981 0 0.0056565850853924739 0.24193485226376851 0 0.0079553971018997711 0.25407995411845952 0 -0.0038269320613605671 0.24168690675661861 0 -0.001481079408247309 0.23674014742695179 0 0.0056565850853924739 0.24193485226376851 0 -0.001481079408247309 0.23674014742695179 0 0.0056565850853924739 0.24193485226376851 0 0.0047993945575842056 0.23441162296309601 0 0.0056565850853924739 0.24193485226376851 0 0.0047993945575842056 0.23441162296309601 0 0.01164620179114087 0.23590071178613081 0 0.01563307656510151 0.2402356869933579 0 0.0056565850853924739 0.24193485226376851 0 0.01164620179114087 0.23590071178613081 0 0.01563307656510151 0.2402356869933579 0 0.01164620179114087 0.23590071178613081 0 0.017624777268624069 0.2343412010092219 0 0.01164620179114087 0.23590071178613081 0 0.01487787000252069 0.22865627955640749 0 0.017624777268624069 0.2343412010092219 0 -0.0046663278525170132 0.22492861958960669 0 -0.0058817396784369268 0.23130483648151029 0 0.01487787000252069 0.22865627955640749 0 -0.0046663278525170132 0.22492861958960669 0 0.01487787000252069 0.22865627955640749 0 -0.0058817396784369268 0.23130483648151029 0 0.01487787000252069 0.22865627955640749 0 0.0047993945575842056 0.23441162296309601 0 0.01164620179114087 0.23590071178613081 0 0.01487787000252069 0.22865627955640749 0 -0.0058817396784369268 0.23130483648151029 0 0.0047993945575842056 0.23441162296309601 0 0.01487787000252069 0.22865627955640749 0 0.01487787000252069 0.22865627955640749 0 0.0096484884941627908 0.22228153596208311 0 0.02122799068716406 0.2298674364857464 0 -0.0046663278525170132 0.22492861958960669 0 0.01487787000252069 0.22865627955640749 0 0.0096484884941627908 0.22228153596208311 0 -0.0046663278525170132 0.22492861958960669 0 0.0035347026468745151 0.21988708306511981 0 0.0096484884941627908 0.22228153596208311 0 0.0035347026468745151 0.21988708306511981 0 0.0096484884941627908 0.22228153596208311 0 0.0095498689216321139 0.21812297225212449 0 0.0096484884941627908 0.22228153596208311 0 0.019849876765802941 0.21742310684096991 0 0.0095498689216321139 0.21812297225212449 0 0.0096484884941627908 0.22228153596208311 0 0.02122799068716406 0.2298674364857464 0 0.019849876765802941 0.21742310684096991 0 0.01487787000252069 0.22865627955640749 0 0.02122799068716406 0.2298674364857464 0 0.026311947099859508 0.23824019207230759 0 0.017624777268624069 0.2343412010092219 0 0.02122799068716406 0.2298674364857464 0 0.01487787000252069 0.22865627955640749 0 0.017624777268624069 0.2343412010092219 0 0.02122799068716406 0.2298674364857464 0 0.02122799068716406 0.2298674364857464 0 0.030322472443356761 0.2239367675449779 0 0.019849876765802941 0.21742310684096991 0 0.030322472443356761 0.2239367675449779 0 0.019849876765802941 0.21742310684096991 0 0.031468988692223802 0.21484481873112921 0 0.026368603530812509 0.20773218785149031 0 0.019849876765802941 0.21742310684096991 0 0.031468988692223802 0.21484481873112921 0 0.026368603530812509 0.20773218785149031 0 0.034123066493112628 0.20622469862147791 0 0.031468988692223802 0.21484481873112921 0 0.026368603530812509 0.20773218785149031 0 0.0298780487613657 0.19567606174464799 0 0.034123066493112628 0.20622469862147791 0 0.026368603530812509 0.20773218785149031 0 0.016523036941557479 0.2044922533192263 0 0.019849876765802941 0.21742310684096991 0 0.019849876765802941 0.21742310684096991 0 0.0095498689216321139 0.21812297225212449 0 0.0081999653190425337 0.20903103089566011 0 -0.00039321897577982958 0.2142152044566647 0 0.0095498689216321139 0.21812297225212449 0 0.0081999653190425337 0.20903103089566011 0 -0.00039321897577982958 0.2142152044566647 0 0.0035347026468745151 0.21988708306511981 0 0.0095498689216321139 0.21812297225212449 0 -0.001044441071266438 0.20071055398770979 0 -0.00039321897577982958 0.2142152044566647 0 0.0081999653190425337 0.20903103089566011 0 0.016523036941557479 0.2044922533192263 0 0.019849876765802941 0.21742310684096991 0 0.0081999653190425337 0.20903103089566011 0 0.017358951900738911 0.18486428957024811 0 0.016523036941557479 0.2044922533192263 0 0.0092112755993215348 0.1957634895349995 0 0.016523036941557479 0.2044922533192263 0 0.0081999653190425337 0.20903103089566011 0 0.0092112755993215348 0.1957634895349995 0 -0.001044441071266438 0.20071055398770979 0 -4.9131202722265082e-05 0.1762711210916014 0 0.0065165978563279381 0.18631226521417329 0 -0.001044441071266438 0.20071055398770979 0 0.0081999653190425337 0.20903103089566011 0 0.0092112755993215348 0.1957634895349995 0 -0.001044441071266438 0.20071055398770979 0 0.0065165978563279381 0.18631226521417329 0 0.0092112755993215348 0.1957634895349995 0 0.0065165978563279381 0.18631226521417329 0 0.017358951900738911 0.18486428957024811 0 0.0092112755993215348 0.1957634895349995 0 0.017358951900738911 0.18486428957024811 0 0.016523036941557479 0.2044922533192263 0 0.0298780487613657 0.19567606174464799 0 0.017358951900738911 0.18486428957024811 0 0.016523036941557479 0.2044922533192263 0 0.026368603530812509 0.20773218785149031 0 0.016523036941557479 0.2044922533192263 0 0.0298780487613657 0.19567606174464799 0 0.017358951900738911 0.18486428957024811 0 0.029905379816241889 0.18456082491829701 0 0.0298780487613657 0.19567606174464799 0 0.029905379816241889 0.18456082491829701 0 0.0298780487613657 0.19567606174464799 0 0.037823398487945421 0.19026508503250289 0 0.0298780487613657 0.19567606174464799 0 0.04480153778642517 0.2024835801608367 0 0.034123066493112628 0.20622469862147791 0 0.0298780487613657 0.19567606174464799 0 0.037823398487945421 0.19026508503250289 0 0.04480153778642517 0.2024835801608367 0 0.037823398487945421 0.19026508503250289 0 0.04480153778642517 0.2024835801608367 0 0.049431778079669079 0.19169244665284199 0 0.04480153778642517 0.2024835801608367 0 0.067090054846954059 0.19040667950603399 0 0.04480153778642517 0.2024835801608367 0 0.06179250908037185 0.2103552205065207 0 0.067090054846954059 0.19040667950603399 0 0.04480153778642517 0.2024835801608367 0 0.049431778079669079 0.19169244665284199 0 0.067090054846954059 0.19040667950603399 0 0.04480153778642517 0.2024835801608367 0 0.06179250908037185 0.2103552205065207 0 0.048488743585853443 0.2175931950673331 0 0.06179250908037185 0.2103552205065207 0 0.048488743585853443 0.2175931950673331 0 0.060568966261349111 0.2247309077475993 0 0.048488743585853443 0.2175931950673331 0 0.03969501545226381 0.21234319155199149 0 0.039592740703704027 0.22056966517918081 0 0.04480153778642517 0.2024835801608367 0 0.048488743585853443 0.2175931950673331 0 0.03969501545226381 0.21234319155199149 0 0.04480153778642517 0.2024835801608367 0 0.03969501545226381 0.21234319155199149 0 0.034123066493112628 0.20622469862147791 0 0.03969501545226381 0.21234319155199149 0 0.034123066493112628 0.20622469862147791 0 0.031468988692223802 0.21484481873112921 0 0.03969501545226381 0.21234319155199149 0 0.031468988692223802 0.21484481873112921 0 0.039592740703704027 0.22056966517918081 0 0.048488743585853443 0.2175931950673331 0 0.039592740703704027 0.22056966517918081 0 0.04712230922684512 0.23480625338188599 0 0.030322472443356761 0.2239367675449779 0 0.039592740703704027 0.22056966517918081 0 0.04712230922684512 0.23480625338188599 0 0.026311947099859508 0.23824019207230759 0 0.02122799068716406 0.2298674364857464 0 0.04712230922684512 0.23480625338188599 0 0.02122799068716406 0.2298674364857464 0 0.04712230922684512 0.23480625338188599 0 0.02122799068716406 0.2298674364857464 0 0.030322472443356761 0.2239367675449779 0 0.04712230922684512 0.23480625338188599 0 0.030322472443356761 0.2239367675449779 0 0.031468988692223802 0.21484481873112921 0 0.039592740703704027 0.22056966517918081 0 0.048488743585853443 0.2175931950673331 0 0.060568966261349111 0.2247309077475993 0 0.04712230922684512 0.23480625338188599 0 0.060568966261349111 0.2247309077475993 0 0.04712230922684512 0.23480625338188599 0 0.073016627766526704 0.23974507027802311 0 0.04712230922684512 0.23480625338188599 0 0.044642582184618529 0.2505978654143291 0 0.060428282689496772 0.25155792815465722 0 0.04712230922684512 0.23480625338188599 0 0.073016627766526704 0.23974507027802311 0 0.04712230922684512 0.23480625338188599 0 0.073016627766526704 0.23974507027802311 0 0.060428282689496772 0.25155792815465722 0 0.04712230922684512 0.23480625338188599 0 0.034268254741715139 0.24495546749595951 0 0.044642582184618529 0.2505978654143291 0 0.026311947099859508 0.23824019207230759 0 0.04712230922684512 0.23480625338188599 0 0.034268254741715139 0.24495546749595951 0 0.073016627766526704 0.23974507027802311 0 0.094055895061975411 0.24375788446511959 0 0.089353276661221434 0.23468459299258609 0 0.073016627766526704 0.23974507027802311 0 0.094055895061975411 0.24375788446511959 0 0.073016627766526704 0.23974507027802311 0 0.094055895061975411 0.24375788446511959 0 0.080715854223272432 0.25653893026780961 0 0.073016627766526704 0.23974507027802311 0 0.060428282689496772 0.25155792815465722 0 0.080715854223272432 0.25653893026780961 0 0.073016627766526704 0.23974507027802311 0 0.060428282689496772 0.25155792815465722 0 0.073016627766526704 0.23974507027802311 0 0.072424641647148943 0.22115479950423131 0 0.079818161513848032 0.22495880186990899 0 0.060568966261349111 0.2247309077475993 0 0.073016627766526704 0.23974507027802311 0 0.072424641647148943 0.22115479950423131 0 0.089353276661221434 0.23468459299258609 0 0.073016627766526704 0.23974507027802311 0 0.090939808000551792 0.2229260222215505 0 0.079818161513848032 0.22495880186990899 0 0.090939808000551792 0.2229260222215505 0 0.082891568641165231 0.21600931547582841 0 0.073016627766526704 0.23974507027802311 0 0.079818161513848032 0.22495880186990899 0 0.090939808000551792 0.2229260222215505 0 0.073016627766526704 0.23974507027802311 0 0.090939808000551792 0.2229260222215505 0 0.072424641647148943 0.22115479950423131 0 0.079818161513848032 0.22495880186990899 0 0.082891568641165231 0.21600931547582841 0 0.089353276661221434 0.23468459299258609 0 0.090939808000551792 0.2229260222215505 0 0.099400775815832329 0.2323093950056489 0 0.090939808000551792 0.2229260222215505 0 0.082891568641165231 0.21600931547582841 0 0.095410799197539864 0.21761462464871459 0 0.078809327936758086 0.20368527186345631 0 0.095410799197539864 0.21761462464871459 0 0.078809327936758086 0.20368527186345631 0 0.082891568641165231 0.21600931547582841 0 0.095410799197539864 0.21761462464871459 0 0.078809327936758086 0.20368527186345631 0 0.093852069318177009 0.2075857760832284 0 0.095410799197539864 0.21761462464871459 0 0.078809327936758086 0.20368527186345631 0 0.090279776427829667 0.19815114700885569 0 0.093852069318177009 0.2075857760832284 0 0.072424641647148943 0.22115479950423131 0 0.078809327936758086 0.20368527186345631 0 0.082891568641165231 0.21600931547582841 0 0.06179250908037185 0.2103552205065207 0 0.072424641647148943 0.22115479950423131 0 0.078809327936758086 0.20368527186345631 0 0.06179250908037185 0.2103552205065207 0 0.060568966261349111 0.2247309077475993 0 0.072424641647148943 0.22115479950423131 0 0.06179250908037185 0.2103552205065207 0 0.078809327936758086 0.20368527186345631 0 0.067090054846954059 0.19040667950603399 0 0.078809327936758086 0.20368527186345631 0 0.067090054846954059 0.19040667950603399 0 0.081916483226682407 0.19052710016417579 0 0.078809327936758086 0.20368527186345631 0 0.081916483226682407 0.19052710016417579 0 0.090279776427829667 0.19815114700885569 0 0.081916483226682407 0.19052710016417579 0 0.090279776427829667 0.19815114700885569 0 0.090610568304681893 0.1884780617376641 0 0.090279776427829667 0.19815114700885569 0 0.090610568304681893 0.1884780617376641 0 0.097794097431466553 0.19382637990591109 0 0.097794097431466553 0.19382637990591109 0 0.1036196844033519 0.1886735944215058 0 0.096796364189776773 0.1854497683370909 0 0.090610568304681893 0.1884780617376641 0 0.097794097431466553 0.19382637990591109 0 0.096796364189776773 0.1854497683370909 0 0.090279776427829667 0.19815114700885569 0 0.097794097431466553 0.19382637990591109 0 0.100926121772608 0.20493424253342049 0 0.097794097431466553 0.19382637990591109 0 0.1078305501040146 0.1979245409152402 0 0.100926121772608 0.20493424253342049 0 0.1078305501040146 0.1979245409152402 0 0.1036196844033519 0.1886735944215058 0 0.1131792007865489 0.1876682737746416 0 0.097794097431466553 0.19382637990591109 0 0.1078305501040146 0.1979245409152402 0 0.1036196844033519 0.1886735944215058 0 0.1131792007865489 0.1876682737746416 0 0.1213957056623647 0.20012774816356321 0 0.12592314890764281 0.18338191949317331 0 0.1078305501040146 0.1979245409152402 0 0.1131792007865489 0.1876682737746416 0 0.1213957056623647 0.20012774816356321 0 0.1078305501040146 0.1979245409152402 0 0.1213957056623647 0.20012774816356321 0 0.113186488567094 0.21328673241859869 0 0.1213957056623647 0.20012774816356321 0 0.113186488567094 0.21328673241859869 0 0.13268083529339841 0.2217909346054098 0 0.1078305501040146 0.1979245409152402 0 0.113186488567094 0.21328673241859869 0 0.100926121772608 0.20493424253342049 0 0.113186488567094 0.21328673241859869 0 0.1038343212561494 0.21354359436169501 0 0.100926121772608 0.20493424253342049 0 0.1038343212561494 0.21354359436169501 0 0.100926121772608 0.20493424253342049 0 0.093852069318177009 0.2075857760832284 0 0.090279776427829667 0.19815114700885569 0 0.100926121772608 0.20493424253342049 0 0.093852069318177009 0.2075857760832284 0 0.1038343212561494 0.21354359436169501 0 0.093852069318177009 0.2075857760832284 0 0.095410799197539864 0.21761462464871459 0 0.095410799197539864 0.21761462464871459 0 0.099400775815832329 0.2323093950056489 0 0.1120122704583216 0.2315439774339729 0 0.095410799197539864 0.21761462464871459 0 0.1120122704583216 0.2315439774339729 0 0.1038343212561494 0.21354359436169501 0 0.095410799197539864 0.21761462464871459 0 0.1120122704583216 0.2315439774339729 0 0.090939808000551792 0.2229260222215505 0 0.095410799197539864 0.21761462464871459 0 0.099400775815832329 0.2323093950056489 0 0.113186488567094 0.21328673241859869 0 0.1120122704583216 0.2315439774339729 0 0.13268083529339841 0.2217909346054098 0 0.1120122704583216 0.2315439774339729 0 0.12861374171910331 0.24547333021923129 0 0.13268083529339841 0.2217909346054098 0 0.113186488567094 0.21328673241859869 0 0.1038343212561494 0.21354359436169501 0 0.1120122704583216 0.2315439774339729 0 0.1120122704583216 0.2315439774339729 0 0.1150951623574246 0.2477706986522136 0 0.12861374171910331 0.24547333021923129 0 0.1120122704583216 0.2315439774339729 0 0.12861374171910331 0.24547333021923129 0 0.1150951623574246 0.2477706986522136 0 0.12861374171910331 0.24547333021923129 0 0.12818143969803791 0.24799059403441079 0 0.099400775815832329 0.2323093950056489 0 0.1120122704583216 0.2315439774339729 0 0.1150951623574246 0.2477706986522136 0 0.099400775815832329 0.2323093950056489 0 0.1150951623574246 0.2477706986522136 0 0.094055895061975411 0.24375788446511959 0 0.1150951623574246 0.2477706986522136 0 0.094055895061975411 0.24375788446511959 0 0.089353276661221434 0.23468459299258609 0 0.099400775815832329 0.2323093950056489 0 0.094055895061975411 0.24375788446511959 0 0.086939041785629279 0.1530426105950938 0 0.091035561798857426 0.13997773011414891 0 0.07880042498036624 0.14017687219826391 0 0.086939041785629279 0.1530426105950938 0 0.07880042498036624 0.14017687219826391 0 0.073233177351756967 0.15272321511278211 0 0.086939041785629279 0.1530426105950938 0 0.091035561798857426 0.13997773011414891 0 0.099540822691529751 0.1480688237892239 0 0.091035561798857426 0.13997773011414891 0 0.087378778778080202 0.12784022218377389 0 0.099905364177083733 0.13247791247911819 0 0.087378778778080202 0.12784022218377389 0 0.07880042498036624 0.14017687219826391 0 0.068428533490337978 0.12575284831725159 0 0.091035561798857426 0.13997773011414891 0 0.087378778778080202 0.12784022218377389 0 0.07880042498036624 0.14017687219826391 0 0.07880042498036624 0.14017687219826391 0 0.068428533490337978 0.12575284831725159 0 0.065787456677535688 0.14172460686653321 0 0.07880042498036624 0.14017687219826391 0 0.065787456677535688 0.14172460686653321 0 0.073233177351756967 0.15272321511278211 0 0.059595578642691723 0.15358652574416329 0 0.073233177351756967 0.15272321511278211 0 0.069890591333357344 0.16233662694810971 0 0.059595578642691723 0.15358652574416329 0 0.065787456677535688 0.14172460686653321 0 0.073233177351756967 0.15272321511278211 0 0.060633618497776098 0.16407086131288379 0 0.059595578642691723 0.15358652574416329 0 0.069890591333357344 0.16233662694810971 0 0.060633618497776098 0.16407086131288379 0 0.069890591333357344 0.16233662694810971 0 0.066812539706362667 0.16978628342221039 0 0.060220922527985568 0.1712800353433975 0 0.060633618497776098 0.16407086131288379 0 0.066812539706362667 0.16978628342221039 0 0.069890591333357344 0.16233662694810971 0 0.074907763689745763 0.17229194558548269 0 0.079147783313201631 0.16396133014124659 0 0.069890591333357344 0.16233662694810971 0 0.066812539706362667 0.16978628342221039 0 0.074907763689745763 0.17229194558548269 0 0.073233177351756967 0.15272321511278211 0 0.069890591333357344 0.16233662694810971 0 0.079147783313201631 0.16396133014124659 0 0.067090054846954059 0.19040667950603399 0 0.075359205161525888 0.18031679006580131 0 0.089378571907483093 0.17832977885123119 0 0.067090054846954059 0.19040667950603399 0 0.066683221942283655 0.17723441958853109 0 0.075359205161525888 0.18031679006580131 0 0.0572045138919378 0.17938668091731391 0 0.067090054846954059 0.19040667950603399 0 0.066683221942283655 0.17723441958853109 0 0.066812539706362667 0.16978628342221039 0 0.066683221942283655 0.17723441958853109 0 0.074907763689745763 0.17229194558548269 0 0.060220922527985568 0.1712800353433975 0 0.066812539706362667 0.16978628342221039 0 0.066683221942283655 0.17723441958853109 0 0.074907763689745763 0.17229194558548269 0 0.075359205161525888 0.18031679006580131 0 0.08243009921856978 0.17762520665275119 0 0.066683221942283655 0.17723441958853109 0 0.074907763689745763 0.17229194558548269 0 0.075359205161525888 0.18031679006580131 0 0.067090054846954059 0.19040667950603399 0 0.081916483226682407 0.19052710016417579 0 0.089378571907483093 0.17832977885123119 0 0.08243009921856978 0.17762520665275119 0 0.089378571907483093 0.17832977885123119 0 0.098035043546545964 0.1624016607341742 0 0.067090054846954059 0.19040667950603399 0 0.089378571907483093 0.17832977885123119 0 0.075359205161525888 0.18031679006580131 0 0.08243009921856978 0.17762520665275119 0 0.089378571907483093 0.17832977885123119 0 0.074907763689745763 0.17229194558548269 0 0.08243009921856978 0.17762520665275119 0 0.080524678677822412 0.1698737233849531 0 0.081916483226682407 0.19052710016417579 0 0.090610568304681893 0.1884780617376641 0 0.089378571907483093 0.17832977885123119 0 0.090610568304681893 0.1884780617376641 0 0.089378571907483093 0.17832977885123119 0 0.096796364189776773 0.1854497683370909 0 0.086939041785629279 0.1530426105950938 0 0.079147783313201631 0.16396133014124659 0 0.085613068489772501 0.16561641116033199 0 0.086939041785629279 0.1530426105950938 0 0.073233177351756967 0.15272321511278211 0 0.079147783313201631 0.16396133014124659 0 0.074907763689745763 0.17229194558548269 0 0.079147783313201631 0.16396133014124659 0 0.080524678677822412 0.1698737233849531 0 0.079147783313201631 0.16396133014124659 0 0.080524678677822412 0.1698737233849531 0 0.085613068489772501 0.16561641116033199 0 0.08243009921856978 0.17762520665275119 0 0.080524678677822412 0.1698737233849531 0 0.085613068489772501 0.16561641116033199 0 0.08243009921856978 0.17762520665275119 0 0.098035043546545964 0.1624016607341742 0 0.08243009921856978 0.17762520665275119 0 0.085613068489772501 0.16561641116033199 0 0.098035043546545964 0.1624016607341742 0 0.086939041785629279 0.1530426105950938 0 0.085613068489772501 0.16561641116033199 0 0.098035043546545964 0.1624016607341742 0 0.098035043546545964 0.1624016607341742 0 0.1116670889680121 0.16625287819642851 0 0.1136399878745222 0.14717811481559731 0 0.089378571907483093 0.17832977885123119 0 0.098035043546545964 0.1624016607341742 0 0.1116670889680121 0.16625287819642851 0 0.089378571907483093 0.17832977885123119 0 0.1116670889680121 0.16625287819642851 0 0.089378571907483093 0.17832977885123119 0 0.10459812140647309 0.17988245872531031 0 0.1116670889680121 0.16625287819642851 0 0.089378571907483093 0.17832977885123119 0 0.096796364189776773 0.1854497683370909 0 0.10459812140647309 0.17988245872531031 0 0.1036196844033519 0.1886735944215058 0 0.096796364189776773 0.1854497683370909 0 0.10459812140647309 0.17988245872531031 0 0.1036196844033519 0.1886735944215058 0 0.1131792007865489 0.1876682737746416 0 0.10459812140647309 0.17988245872531031 0 0.11570799423544641 0.17601938092905731 0 0.12624046206242959 0.16352436330199971 0 0.12592314890764281 0.18338191949317331 0 0.1131792007865489 0.1876682737746416 0 0.10459812140647309 0.17988245872531031 0 0.11570799423544641 0.17601938092905731 0 0.10459812140647309 0.17988245872531031 0 0.11570799423544641 0.17601938092905731 0 0.1116670889680121 0.16625287819642851 0 0.1131792007865489 0.1876682737746416 0 0.11570799423544641 0.17601938092905731 0 0.12592314890764281 0.18338191949317331 0 0.1116670889680121 0.16625287819642851 0 0.1136399878745222 0.14717811481559731 0 0.12624046206242959 0.16352436330199971 0 0.11570799423544641 0.17601938092905731 0 0.1116670889680121 0.16625287819642851 0 0.12624046206242959 0.16352436330199971 0 0.1136399878745222 0.14717811481559731 0 0.1292449322024978 0.1319545688970197 0 0.13199494219394381 0.1462776273525265 0 0.1136399878745222 0.14717811481559731 0 0.13199494219394381 0.1462776273525265 0 0.12624046206242959 0.16352436330199971 0 0.098035043546545964 0.1624016607341742 0 0.1136399878745222 0.14717811481559731 0 0.099540822691529751 0.1480688237892239 0 0.098035043546545964 0.1624016607341742 0 0.1136399878745222 0.14717811481559731 0 0.1136399878745222 0.14717811481559731 0 0.099540822691529751 0.1480688237892239 0 0.1110428836605368 0.13585677197244181 0 0.086939041785629279 0.1530426105950938 0 0.098035043546545964 0.1624016607341742 0 0.099540822691529751 0.1480688237892239 0 0.097421399263471806 0.1169842204191802 0 0.087378778778080202 0.12784022218377389 0 0.099905364177083733 0.13247791247911819 0 0.091035561798857426 0.13997773011414891 0 0.099540822691529751 0.1480688237892239 0 0.099905364177083733 0.13247791247911819 0 0.099540822691529751 0.1480688237892239 0 0.099905364177083733 0.13247791247911819 0 0.1110428836605368 0.13585677197244181 0 0.11333316573298489 0.12446939465809979 0 0.099905364177083733 0.13247791247911819 0 0.1110428836605368 0.13585677197244181 0 0.11333316573298489 0.12446939465809979 0 0.1292449322024978 0.1319545688970197 0 0.11333316573298489 0.12446939465809979 0 0.1110428836605368 0.13585677197244181 0 0.1292449322024978 0.1319545688970197 0 0.1136399878745222 0.14717811481559731 0 0.1110428836605368 0.13585677197244181 0 0.1292449322024978 0.1319545688970197 0 0.1136399878745222 0.14717811481559731 0 0.1292449322024978 0.1319545688970197 0 0.1292449322024978 0.1319545688970197 0 0.14382412356298729 0.1388128764145985 0 0.13199494219394381 0.1462776273525265 0 0.1292449322024978 0.1319545688970197 0 0.14296920125038501 0.1291720060156348 0 0.14382412356298729 0.1388128764145985 0 0.1292449322024978 0.1319545688970197 0 0.14382412356298729 0.1388128764145985 0 0.1292449322024978 0.1319545688970197 0 0.14296920125038501 0.1291720060156348 0 0.1364746863841543 0.1249015161945396 0 0.1292449322024978 0.1319545688970197 0 0.1364746863841543 0.1249015161945396 0 0.14296920125038501 0.1291720060156348 0 0.1364746863841543 0.1249015161945396 0 0.14801674372506959 0.13249103433471141 0 0.14669882413906379 0.14016518602383499 0 0.1688745169772406 0.14620613241343849 0 0.14801674372506959 0.13249103433471141 0 0.14296920125038501 0.1291720060156348 0 0.14296920125038501 0.1291720060156348 0 0.14382412356298729 0.1388128764145985 0 0.14801674372506959 0.13249103433471141 0 0.14296920125038501 0.1291720060156348 0 0.14382412356298729 0.1388128764145985 0 0.14801674372506959 0.13249103433471141 0 0.14382412356298729 0.1388128764145985 0 0.14669882413906379 0.14016518602383499 0 0.14382412356298729 0.1388128764145985 0 0.14669882413906379 0.14016518602383499 0 0.14801674372506959 0.13249103433471141 0 0.14669882413906379 0.14016518602383499 0 0.14801674372506959 0.13249103433471141 0 0.162302860737608 0.13348254899938761 0 0.15630345167492871 0.12406450028701239 0 0.15587701424369271 0.14937265994059329 0 0.14488211601628509 0.1507437477639455 0 0.1594863978950872 0.15430708080854411 0 0.14669882413906379 0.14016518602383499 0 0.15587701424369271 0.14937265994059329 0 0.14488211601628509 0.1507437477639455 0 0.14669882413906379 0.14016518602383499 0 0.14488211601628509 0.1507437477639455 0 0.14382412356298729 0.1388128764145985 0 0.14669882413906379 0.14016518602383499 0 0.14488211601628509 0.1507437477639455 0 0.14382412356298729 0.1388128764145985 0 0.14488211601628509 0.1507437477639455 0 0.14488211601628509 0.1507437477639455 0 0.13199494219394381 0.1462776273525265 0 0.12624046206242959 0.16352436330199971 0 0.14382412356298729 0.1388128764145985 0 0.14488211601628509 0.1507437477639455 0 0.13199494219394381 0.1462776273525265 0 0.14488211601628509 0.1507437477639455 0 0.12624046206242959 0.16352436330199971 0 0.1408150224419891 0.17442614337776691 0 0.12624046206242959 0.16352436330199971 0 0.12592314890764281 0.18338191949317331 0 0.1408150224419891 0.17442614337776691 0 0.1408150224419891 0.17442614337776691 0 0.1367479288676938 0.1981085389915884 0 0.12592314890764281 0.18338191949317331 0 0.1408150224419891 0.17442614337776691 0 0.1367479288676938 0.1981085389915884 0 0.1408150224419891 0.17442614337776691 0 0.1471982504342679 0.17686255577865651 0 0.1367479288676938 0.1981085389915884 0 0.1471982504342679 0.17686255577865651 0 0.1547279494894945 0.18738024951922219 0 0.15626318628762539 0.17425501522391459 0 0.14488211601628509 0.1507437477639455 0 0.1408150224419891 0.17442614337776691 0 0.1471982504342679 0.17686255577865651 0 0.14488211601628509 0.1507437477639455 0 0.161629207130285 0.1642499363856097 0 0.15626318628762539 0.17425501522391459 0 0.14488211601628509 0.1507437477639455 0 0.161629207130285 0.1642499363856097 0 0.1594863978950872 0.15430708080854411 0 0.14488211601628509 0.1507437477639455 0 0.1471982504342679 0.17686255577865651 0 0.14488211601628509 0.1507437477639455 0 0.1471982504342679 0.17686255577865651 0 0.15626318628762539 0.17425501522391459 0 0.14488211601628509 0.1507437477639455 0 0.1408150224419891 0.17442614337776691 0 0.161629207130285 0.1642499363856097 0 0.16645120216152501 0.1585128125915628 0 0.1594863978950872 0.15430708080854411 0 0.161629207130285 0.1642499363856097 0 0.17014676654702771 0.17092390019483519 0 0.17224848469639281 0.16321960800604859 0 0.161629207130285 0.1642499363856097 0 0.17014676654702771 0.17092390019483519 0 0.16435320101169479 0.1791051689879154 0 0.16645120216152501 0.1585128125915628 0 0.17224848469639281 0.16321960800604859 0 0.17244071892433491 0.15227462516604881 0 0.161629207130285 0.1642499363856097 0 0.16645120216152501 0.1585128125915628 0 0.17224848469639281 0.16321960800604859 0 0.1547279494894945 0.18738024951922219 0 0.16435320101169479 0.1791051689879154 0 0.1713208921016344 0.18747112491545359 0 0.1547279494894945 0.18738024951922219 0 0.15626318628762539 0.17425501522391459 0 0.16435320101169479 0.1791051689879154 0 0.161629207130285 0.1642499363856097 0 0.15626318628762539 0.17425501522391459 0 0.16435320101169479 0.1791051689879154 0 0.17014676654702771 0.17092390019483519 0 0.16435320101169479 0.1791051689879154 0 0.17634291568115351 0.17792626606050971 0 0.16435320101169479 0.1791051689879154 0 0.1713208921016344 0.18747112491545359 0 0.17634291568115351 0.17792626606050971 0 0.1713208921016344 0.18747112491545359 0 0.17634291568115351 0.17792626606050971 0 0.18344615149071461 0.1877394106290102 0 0.17014676654702771 0.17092390019483519 0 0.17634291568115351 0.17792626606050971 0 0.1777969508851561 0.1701513607507793 0 0.17634291568115351 0.17792626606050971 0 0.1777969508851561 0.1701513607507793 0 0.18814537025837 0.17437362433185261 0 0.17634291568115351 0.17792626606050971 0 0.18344615149071461 0.1877394106290102 0 0.18814537025837 0.17437362433185261 0 0.17244071892433491 0.15227462516604881 0 0.18954445590495159 0.16032052325548241 0 0.18210121724283679 0.16431340516065021 0 0.17244071892433491 0.15227462516604881 0 0.18954445590495159 0.16032052325548241 0 0.17224848469639281 0.16321960800604859 0 0.18210121724283679 0.16431340516065021 0 0.17244071892433491 0.15227462516604881 0 0.17224848469639281 0.16321960800604859 0 0.1777969508851561 0.1701513607507793 0 0.18210121724283679 0.16431340516065021 0 0.17014676654702771 0.17092390019483519 0 0.17224848469639281 0.16321960800604859 0 0.1777969508851561 0.1701513607507793 0 0.1777969508851561 0.1701513607507793 0 0.18210121724283679 0.16431340516065021 0 0.18814537025837 0.17437362433185261 0 0.18297636946721349 0.1498878607348475 0 0.1688745169772406 0.14620613241343849 0 0.18954445590495159 0.16032052325548241 0 0.17244071892433491 0.15227462516604881 0 0.1688745169772406 0.14620613241343849 0 0.18954445590495159 0.16032052325548241 0 0.1688745169772406 0.14620613241343849 0 0.18954445590495159 0.16032052325548241 0 0.17386448058242651 0.1419327080032238 0 0.1772734278435826 0.14491446551843221 0 0.1833783443474499 0.141631160922219 0 0.18297636946721349 0.1498878607348475 0 0.1772734278435826 0.14491446551843221 0 0.1688745169772406 0.14620613241343849 0 0.17386448058242651 0.1419327080032238 0 0.1772734278435826 0.14491446551843221 0 0.1688745169772406 0.14620613241343849 0 0.18297636946721349 0.1498878607348475 0 0.1772734278435826 0.14491446551843221 0 0.1833783443474499 0.141631160922219 0 0.18297636946721349 0.1498878607348475 0 0.1833783443474499 0.141631160922219 0 0.19204744337179919 0.14188619889184839 0 0.17386448058242651 0.1419327080032238 0 0.1833783443474499 0.141631160922219 0 0.1884199637150743 0.12969140832344939 0 0.17386448058242651 0.1419327080032238 0 0.1884199637150743 0.12969140832344939 0 0.1783333702846906 0.11767138953077801 0 0.17386448058242651 0.1419327080032238 0 0.1783333702846906 0.11767138953077801 0 0.17386448058242651 0.1419327080032238 0 0.162302860737608 0.13348254899938761 0 0.1688745169772406 0.14620613241343849 0 0.14801674372506959 0.13249103433471141 0 0.1688745169772406 0.14620613241343849 0 0.14801674372506959 0.13249103433471141 0 0.162302860737608 0.13348254899938761 0 0.1688745169772406 0.14620613241343849 0 0.17386448058242651 0.1419327080032238 0 0.162302860737608 0.13348254899938761 0 0.1783333702846906 0.11767138953077801 0 0.162302860737608 0.13348254899938761 0 0.15630345167492871 0.12406450028701239 0 0.16332108439941281 0.1185018961175012 0 0.14669882413906379 0.14016518602383499 0 0.17244071892433491 0.15227462516604881 0 0.14669882413906379 0.14016518602383499 0 0.17244071892433491 0.15227462516604881 0 0.1688745169772406 0.14620613241343849 0 0.15587701424369271 0.14937265994059329 0 0.17244071892433491 0.15227462516604881 0 0.1594863978950872 0.15430708080854411 0 0.14669882413906379 0.14016518602383499 0 0.15587701424369271 0.14937265994059329 0 0.17244071892433491 0.15227462516604881 0 0.16645120216152501 0.1585128125915628 0 0.17244071892433491 0.15227462516604881 0 0.1594863978950872 0.15430708080854411 0 0.15183051927023231 0.22910017180807871 0 0.1541466536882182 0.25521897982278952 0 0.1408736074266391 0.23920748190927221 0 0.1541466536882182 0.25521897982278952 0 0.13613442965287439 0.251783512839304 0 0.1408736074266391 0.23920748190927221 0 0.15183051927023231 0.22910017180807871 0 0.1541466536882182 0.25521897982278952 0 0.1150951623574246 0.2477706986522136 0 0.13613442965287439 0.251783512839304 0 0.1150951623574246 0.2477706986522136 0 0.12818143969803791 0.24799059403441079 0 0.13613442965287439 0.251783512839304 0 0.1408736074266391 0.23920748190927221 0 0.12861374171910331 0.24547333021923129 0 0.13268083529339841 0.2217909346054098 0 0.1408736074266391 0.23920748190927221 0 0.12861374171910331 0.24547333021923129 0 0.13613442965287439 0.251783512839304 0 0.12861374171910331 0.24547333021923129 0 0.12818143969803791 0.24799059403441079 0 0.13613442965287439 0.251783512839304 0 0.12861374171910331 0.24547333021923129 0 0.13613442965287439 0.251783512839304 0 0.12861374171910331 0.24547333021923129 0 0.12818143969803791 0.24799059403441079 0 0.12861374171910331 0.24547333021923129 0 0.13268083529339841 0.2217909346054098 0 0.1408736074266391 0.23920748190927221 0 0.13268083529339841 0.2217909346054098 0 0.15183051927023231 0.22910017180807871 0 0.13268083529339841 0.2217909346054098 0 0.15183051927023231 0.22910017180807871 0 0.14951438485224999 0.20298136379336759 0 0.15183051927023231 0.22910017180807871 0 0.14951438485224999 0.20298136379336759 0 0.15183051927023231 0.22910017180807871 0 0.14951438485224999 0.20298136379336759 0 0.16181216847691571 0.21480933107394709 0 0.13268083529339841 0.2217909346054098 0 0.1367479288676938 0.1981085389915884 0 0.14951438485224999 0.20298136379336759 0 0.13268083529339841 0.2217909346054098 0 0.1367479288676938 0.1981085389915884 0 0.1213957056623647 0.20012774816356321 0 0.13268083529339841 0.2217909346054098 0 0.1367479288676938 0.1981085389915884 0 0.1213957056623647 0.20012774816356321 0 0.12592314890764281 0.18338191949317331 0 0.1367479288676938 0.1981085389915884 0 0.1471982504342679 0.17686255577865651 0 0.1547279494894945 0.18738024951922219 0 0.14951438485224999 0.20298136379336759 0 0.1471982504342679 0.17686255577865651 0 0.14951438485224999 0.20298136379336759 0 0.1471982504342679 0.17686255577865651 0 0.1367479288676938 0.1981085389915884 0 0.14951438485224999 0.20298136379336759 0 0.1547279494894945 0.18738024951922219 0 0.14951438485224999 0.20298136379336759 0 0.17396823474679701 0.20317556774018961 0 0.1547279494894945 0.18738024951922219 0 0.1713208921016344 0.18747112491545359 0 0.17396823474679701 0.20317556774018961 0 0.1547279494894945 0.18738024951922219 0 0.17396823474679701 0.20317556774018961 0 0.18344615149071461 0.1877394106290102 0 0.17396823474679701 0.20317556774018961 0 0.19219513964345089 0.19838676462474869 0 0.1713208921016344 0.18747112491545359 0 0.18344615149071461 0.1877394106290102 0 0.17396823474679701 0.20317556774018961 0 0.17396823474679701 0.20317556774018961 0 0.19320852000409949 0.21897088596115699 0 0.17396823474679701 0.20317556774018961 0 0.19320852000409949 0.21897088596115699 0 0.19219513964345089 0.19838676462474869 0 0.17396823474679701 0.20317556774018961 0 0.17193553503838349 0.22398022095415249 0 0.19320852000409949 0.21897088596115699 0 0.17396823474679701 0.20317556774018961 0 0.16181216847691571 0.21480933107394709 0 0.17193553503838349 0.22398022095415249 0 0.14951438485224999 0.20298136379336759 0 0.17396823474679701 0.20317556774018961 0 0.16181216847691571 0.21480933107394709 0 0.15183051927023231 0.22910017180807871 0 0.16181216847691571 0.21480933107394709 0 0.17193553503838349 0.22398022095415249 0 0.15183051927023231 0.22910017180807871 0 0.17193553503838349 0.22398022095415249 0 0.16665392589959821 0.2409447006515508 0 0.17193553503838349 0.22398022095415249 0 0.1842853629231069 0.23921016234454071 0 0.19320852000409949 0.21897088596115699 0 0.17193553503838349 0.22398022095415249 0 0.1842853629231069 0.23921016234454071 0 0.16665392589959821 0.2409447006515508 0 0.1842853629231069 0.23921016234454071 0 0.16665392589959821 0.2409447006515508 0 0.17001361741948001 0.25824528184523038 0 0.15183051927023231 0.22910017180807871 0 0.16665392589959821 0.2409447006515508 0 0.1541466536882182 0.25521897982278952 0 0.21719832785989149 0.24983151519782201 0 0.212448805261402 0.23476620418212429 0 0.20761882160674389 0.24979959594897019 0 0.212448805261402 0.23476620418212429 0 0.20761882160674389 0.24979959594897019 0 0.19842034692444671 0.24118619622413329 0 0.20761882160674389 0.24979959594897019 0 0.19842034692444671 0.24118619622413329 0 0.1982272346661105 0.25638209447568738 0 0.1842853629231069 0.23921016234454071 0 0.19842034692444671 0.24118619622413329 0 0.1982272346661105 0.25638209447568738 0 0.212448805261402 0.23476620418212429 0 0.19842034692444671 0.24118619622413329 0 0.19320852000409949 0.21897088596115699 0 0.1842853629231069 0.23921016234454071 0 0.19842034692444671 0.24118619622413329 0 0.19320852000409949 0.21897088596115699 0 0.212448805261402 0.23476620418212429 0 0.19320852000409949 0.21897088596115699 0 0.212448805261402 0.23476620418212429 0 0.19320852000409949 0.21897088596115699 0 0.21618243148857791 0.21682281564618189 0 0.19320852000409949 0.21897088596115699 0 0.21618243148857791 0.21682281564618189 0 0.21134835410066971 0.19914410379368111 0 0.19320852000409949 0.21897088596115699 0 0.19219513964345089 0.19838676462474869 0 0.21134835410066971 0.19914410379368111 0 0.19219513964345089 0.19838676462474869 0 0.21134835410066971 0.19914410379368111 0 0.19870435651288201 0.18510311610130711 0 0.18344615149071461 0.1877394106290102 0 0.19219513964345089 0.19838676462474869 0 0.19870435651288201 0.18510311610130711 0 0.21134835410066971 0.19914410379368111 0 0.23207203388374209 0.2021347913043316 0 0.22985572397446399 0.1846933876997022 0 0.23207203388374209 0.2021347913043316 0 0.24430591087038289 0.1889697386129813 0 0.25204036357460868 0.20192182011028581 0 0.23207203388374209 0.2021347913043316 0 0.24430591087038289 0.1889697386129813 0 0.22985572397446399 0.1846933876997022 0 0.23581857601664169 0.22220247232673099 0 0.25795090256673242 0.21807061156216151 0 0.25204036357460868 0.20192182011028581 0 0.23207203388374209 0.2021347913043316 0 0.23581857601664169 0.22220247232673099 0 0.25204036357460868 0.20192182011028581 0 0.21618243148857791 0.21682281564618189 0 0.21134835410066971 0.19914410379368111 0 0.23207203388374209 0.2021347913043316 0 0.21618243148857791 0.21682281564618189 0 0.23207203388374209 0.2021347913043316 0 0.23581857601664169 0.22220247232673099 0 0.212448805261402 0.23476620418212429 0 0.23581857601664169 0.22220247232673099 0 0.23328912219725129 0.23744002369092859 0 0.212448805261402 0.23476620418212429 0 0.21618243148857791 0.21682281564618189 0 0.23581857601664169 0.22220247232673099 0 0.23581857601664169 0.22220247232673099 0 0.24475013637587639 0.24402629606784981 0 0.25795090256673242 0.21807061156216151 0 0.23581857601664169 0.22220247232673099 0 0.24475013637587639 0.24402629606784981 0 0.23328912219725129 0.23744002369092859 0 0.24475013637587639 0.24402629606784981 0 0.23328912219725129 0.23744002369092859 0 0.23168909051870451 0.25056152240309171 0 0.212448805261402 0.23476620418212429 0 0.23168909051870451 0.25056152240309171 0 0.21719832785989149 0.24983151519782201 0 0.212448805261402 0.23476620418212429 0 0.23168909051870451 0.25056152240309171 0 0.212448805261402 0.23476620418212429 0 0.23328912219725129 0.23744002369092859 0 0.23168909051870451 0.25056152240309171 0 0.21188831639545491 0.14559241569068879 0 0.2037416462177242 0.13990922501142869 0 0.1993439138813044 0.15219314056678421 0 0.21188831639545491 0.14559241569068879 0 0.1993439138813044 0.15219314056678421 0 0.21086701415665829 0.15710784615973461 0 0.21188831639545491 0.14559241569068879 0 0.21086701415665829 0.15710784615973461 0 0.2244071640004037 0.14862788550914879 0 0.21307723765119119 0.13131333152839039 0 0.20235131978887119 0.12856103837943181 0 0.21828738784346211 0.1195218373680591 0 0.21188831639545491 0.14559241569068879 0 0.21307723765119119 0.13131333152839039 0 0.223029939985359 0.1374904441170974 0 0.21307723765119119 0.13131333152839039 0 0.223029939985359 0.1374904441170974 0 0.21828738784346211 0.1195218373680591 0 0.21307723765119119 0.13131333152839039 0 0.2037416462177242 0.13990922501142869 0 0.20235131978887119 0.12856103837943181 0 0.21188831639545491 0.14559241569068879 0 0.21307723765119119 0.13131333152839039 0 0.2037416462177242 0.13990922501142869 0 0.2037416462177242 0.13990922501142869 0 0.20235131978887119 0.12856103837943181 0 0.19204744337179919 0.14188619889184839 0 0.20235131978887119 0.12856103837943181 0 0.1884199637150743 0.12969140832344939 0 0.19204744337179919 0.14188619889184839 0 0.1833783443474499 0.141631160922219 0 0.1884199637150743 0.12969140832344939 0 0.19204744337179919 0.14188619889184839 0 0.19204744337179919 0.14188619889184839 0 0.1993439138813044 0.15219314056678421 0 0.19102500423743221 0.15097210767141139 0 0.18297636946721349 0.1498878607348475 0 0.19204744337179919 0.14188619889184839 0 0.19102500423743221 0.15097210767141139 0 0.2037416462177242 0.13990922501142869 0 0.19204744337179919 0.14188619889184839 0 0.1993439138813044 0.15219314056678421 0 0.18297636946721349 0.1498878607348475 0 0.19102500423743221 0.15097210767141139 0 0.18954445590495159 0.16032052325548241 0 0.1993439138813044 0.15219314056678421 0 0.19102500423743221 0.15097210767141139 0 0.18954445590495159 0.16032052325548241 0 0.18210121724283679 0.16431340516065021 0 0.18954445590495159 0.16032052325548241 0 0.19818261370960591 0.1643840643082628 0 0.18954445590495159 0.16032052325548241 0 0.19818261370960591 0.1643840643082628 0 0.18210121724283679 0.16431340516065021 0 0.19818261370960591 0.1643840643082628 0 0.18814537025837 0.17437362433185261 0 0.19818261370960591 0.1643840643082628 0 0.20082042872614331 0.174019655670891 0 0.20974468593376869 0.1669383257663426 0 0.19818261370960591 0.1643840643082628 0 0.18814537025837 0.17437362433185261 0 0.20082042872614331 0.174019655670891 0 0.1993439138813044 0.15219314056678421 0 0.19818261370960591 0.1643840643082628 0 0.21086701415665829 0.15710784615973461 0 0.1993439138813044 0.15219314056678421 0 0.18954445590495159 0.16032052325548241 0 0.19818261370960591 0.1643840643082628 0 0.18344615149071461 0.1877394106290102 0 0.18814537025837 0.17437362433185261 0 0.19870435651288201 0.18510311610130711 0 0.18814537025837 0.17437362433185261 0 0.20082042872614331 0.174019655670891 0 0.19870435651288201 0.18510311610130711 0 0.21134835410066971 0.19914410379368111 0 0.21348558688471589 0.17688589255824461 0 0.22985572397446399 0.1846933876997022 0 0.21134835410066971 0.19914410379368111 0 0.19870435651288201 0.18510311610130711 0 0.21348558688471589 0.17688589255824461 0 0.20082042872614331 0.174019655670891 0 0.21348558688471589 0.17688589255824461 0 0.20974468593376869 0.1669383257663426 0 0.20082042872614331 0.174019655670891 0 0.19870435651288201 0.18510311610130711 0 0.21348558688471589 0.17688589255824461 0 0.19818261370960591 0.1643840643082628 0 0.21086701415665829 0.15710784615973461 0 0.20974468593376869 0.1669383257663426 0 0.21348558688471589 0.17688589255824461 0 0.20974468593376869 0.1669383257663426 0 0.22536778619172029 0.16229417013458031 0 0.21086701415665829 0.15710784615973461 0 0.20974468593376869 0.1669383257663426 0 0.22536778619172029 0.16229417013458031 0 0.21348558688471589 0.17688589255824461 0 0.22536778619172029 0.16229417013458031 0 0.23241604824465409 0.17260876725795099 0 0.21348558688471589 0.17688589255824461 0 0.22536778619172029 0.16229417013458031 0 0.22536778619172029 0.16229417013458031 0 0.23241604824465409 0.17260876725795099 0 0.2394926939802304 0.16448990883857301 0 0.22536778619172029 0.16229417013458031 0 0.23700062915085129 0.15746356324818081 0 0.2394926939802304 0.16448990883857301 0 0.21348558688471589 0.17688589255824461 0 0.23241604824465409 0.17260876725795099 0 0.22985572397446399 0.1846933876997022 0 0.24430591087038289 0.1889697386129813 0 0.22985572397446399 0.1846933876997022 0 0.24456287705253779 0.17366179352002639 0 0.23241604824465409 0.17260876725795099 0 0.22985572397446399 0.1846933876997022 0 0.24456287705253779 0.17366179352002639 0 0.2497662064238724 0.17897863289391569 0 0.24456287705253779 0.17366179352002639 0 0.25075127220542359 0.16659674348955811 0 0.24430591087038289 0.1889697386129813 0 0.2497662064238724 0.17897863289391569 0 0.24456287705253779 0.17366179352002639 0 0.23700062915085129 0.15746356324818081 0 0.2394926939802304 0.16448990883857301 0 0.24589205093272951 0.15536772630865411 0 0.23241604824465409 0.17260876725795099 0 0.24456287705253779 0.17366179352002639 0 0.2394926939802304 0.16448990883857301 0 0.24456287705253779 0.17366179352002639 0 0.2394926939802304 0.16448990883857301 0 0.25075127220542359 0.16659674348955811 0 0.24456287705253779 0.17366179352002639 0 0.25075127220542359 0.16659674348955811 0 0.2394926939802304 0.16448990883857301 0 0.24589205093272951 0.15536772630865411 0 0.25075127220542359 0.16659674348955811 0 0.24589205093272951 0.15536772630865411 0 0.25075127220542359 0.16659674348955811 0 0.24589205093272951 0.15536772630865411 0 0.2407271652921551 0.1434323592321739 0 0.24589205093272951 0.15536772630865411 0 0.2407271652921551 0.1434323592321739 0 0.25400373886860178 0.1451154723550033 0 0.2407271652921551 0.1434323592321739 0 0.2346997556330738 0.1454404627077048 0 0.23201397027626411 0.14011567133735481 0 0.2407271652921551 0.1434323592321739 0 0.23724998549872481 0.14770244771091601 0 0.2407271652921551 0.1434323592321739 0 0.23724998549872481 0.14770244771091601 0 0.2346997556330738 0.1454404627077048 0 0.23724998549872481 0.14770244771091601 0 0.2346997556330738 0.1454404627077048 0 0.23700062915085129 0.15746356324818081 0 0.24589205093272951 0.15536772630865411 0 0.23724998549872481 0.14770244771091601 0 0.24589205093272951 0.15536772630865411 0 0.2407271652921551 0.1434323592321739 0 0.23724998549872481 0.14770244771091601 0 0.24589205093272951 0.15536772630865411 0 0.23724998549872481 0.14770244771091601 0 0.22536778619172029 0.16229417013458031 0 0.23724998549872481 0.14770244771091601 0 0.22536778619172029 0.16229417013458031 0 0.23700062915085129 0.15746356324818081 0 0.23724998549872481 0.14770244771091601 0 0.22536778619172029 0.16229417013458031 0 0.23724998549872481 0.14770244771091601 0 0.2244071640004037 0.14862788550914879 0 0.2346997556330738 0.1454404627077048 0 0.22831189109322089 0.14344684338225311 0 0.2244071640004037 0.14862788550914879 0 0.23724998549872481 0.14770244771091601 0 0.2346997556330738 0.1454404627077048 0 0.2244071640004037 0.14862788550914879 0 0.2346997556330738 0.1454404627077048 0 0.22831189109322089 0.14344684338225311 0 0.23201397027626411 0.14011567133735481 0 0.22831189109322089 0.14344684338225311 0 0.2244071640004037 0.14862788550914879 0 0.223029939985359 0.1374904441170974 0 0.21188831639545491 0.14559241569068879 0 0.2244071640004037 0.14862788550914879 0 0.223029939985359 0.1374904441170974 0 0.21086701415665829 0.15710784615973461 0 0.22536778619172029 0.16229417013458031 0 0.2244071640004037 0.14862788550914879 0 0.2360299517717154 0.13257772052292319 0 0.21828738784346211 0.1195218373680591 0 0.223029939985359 0.1374904441170974 0 0.2360299517717154 0.13257772052292319 0 0.21828738784346211 0.1195218373680591 0 0.223029939985359 0.1374904441170974 0 0.23201397027626411 0.14011567133735481 0 0.2360299517717154 0.13257772052292319 0 0.22831189109322089 0.14344684338225311 0 0.223029939985359 0.1374904441170974 0 0.23201397027626411 0.14011567133735481 0 0.2360299517717154 0.13257772052292319 0 0.24216392071129431 0.1270960231064584 0 0.24021504211604469 0.1203646471346109 0 0.2407271652921551 0.1434323592321739 0 0.24934476370414299 0.125785797068376 0 0.25666287658781711 0.1238627938813526 0 0.2360299517717154 0.13257772052292319 0 0.24216392071129431 0.1270960231064584 0 0.23957989763849161 0.13518995168805359 0 0.2407271652921551 0.1434323592321739 0 0.23957989763849161 0.13518995168805359 0 0.24934476370414299 0.125785797068376 0 0.2407271652921551 0.1434323592321739 0 0.25666287658781711 0.1238627938813526 0 0.2407271652921551 0.1434323592321739 0 0.2360299517717154 0.13257772052292319 0 0.23957989763849161 0.13518995168805359 0 0.2407271652921551 0.1434323592321739 0 0.2360299517717154 0.13257772052292319 0 0.2407271652921551 0.1434323592321739 0 0.23201397027626411 0.14011567133735481 0 0.2360299517717154 0.13257772052292319 0 0.2360299517717154 0.13257772052292319 0 0.23957989763849161 0.13518995168805359 0 0.24216392071129431 0.1270960231064584 0 0.23957989763849161 0.13518995168805359 0 0.24934476370414299 0.125785797068376 0 0.2360299517717154 0.13257772052292319 0 0.24021504211604469 0.1203646471346109 0 0.23020355166464029 0.1154942924640374 0 0.2450921106690665 0.12195296760716789 0 0.24864471614478409 0.1145654031192265 0 0.24021504211604469 0.1203646471346109 0 0.24934476370414299 0.125785797068376 0 0.2450921106690665 0.12195296760716789 0 0.24864471614478409 0.1145654031192265 0 0.24216392071129431 0.1270960231064584 0 0.2450921106690665 0.12195296760716789 0 0.24021504211604469 0.1203646471346109 0 0.24216392071129431 0.1270960231064584 0 0.24934476370414299 0.125785797068376 0 0.2450921106690665 0.12195296760716789 0 0.24864471614478409 0.1145654031192265 0 0.24184271980189331 0.1128369656996512 0 0.24021504211604469 0.1203646471346109 0 0.24864471614478409 0.1145654031192265 0 0.24184271980189331 0.1128369656996512 0 0.24612343339228199 0.10879020540614549 0 0.2363343966199079 0.11380059778586001 0 0.24021504211604469 0.1203646471346109 0 0.23020355166464029 0.1154942924640374 0 0.24184271980189331 0.1128369656996512 0 0.2363343966199079 0.11380059778586001 0 0.24021504211604469 0.1203646471346109 0 0.2363343966199079 0.11380059778586001 0 0.2366370019302477 0.10857329486806951 0 0.23241387432892499 0.1114314322379414 0 0.24184271980189331 0.1128369656996512 0 0.2363343966199079 0.11380059778586001 0 0.2366370019302477 0.10857329486806951 0 0.23198938690444179 0.099539196893689619 0 0.24993669292447851 0.088369123013699799 0 0.2347844632728546 0.093924311590129844 0 0.23198938690444179 0.099539196893689619 0 0.24993669292447851 0.088369123013699799 0 0.2425839136850555 0.099860071639323214 0 0.23198938690444179 0.099539196893689619 0 0.24993669292447851 0.088369123013699799 0 0.2425839136850555 0.099860071639323214 0 0.24993669292447851 0.088369123013699799 0 0.25148743955955338 0.1017856843162549 0 0.2425839136850555 0.099860071639323214 0 0.2461587019201287 0.10373654763967249 0 0.25148743955955338 0.1017856843162549 0 0.24864471614478409 0.1145654031192265 0 0.24612343339228199 0.10879020540614549 0 0.25148743955955338 0.1017856843162549 0 0.2425839136850555 0.099860071639323214 0 0.2461587019201287 0.10373654763967249 0 0.24170619782414721 0.10608233706453631 0 0.2461587019201287 0.10373654763967249 0 0.24612343339228199 0.10879020540614549 0 0.25148743955955338 0.1017856843162549 0 0.2461587019201287 0.10373654763967249 0 0.24612343339228199 0.10879020540614549 0 0.24170619782414721 0.10608233706453631 0 0.24184271980189331 0.1128369656996512 0 0.24612343339228199 0.10879020540614549 0 0.24170619782414721 0.10608233706453631 0 0.24184271980189331 0.1128369656996512 0 0.24170619782414721 0.10608233706453631 0 0.2366370019302477 0.10857329486806951 0 0.24170619782414721 0.10608233706453631 0 0.2366370019302477 0.10857329486806951 0 0.23673287098110529 0.1038419863497437 0 0.2366370019302477 0.10857329486806951 0 0.23673287098110529 0.1038419863497437 0 0.23097843285159311 0.10546155050179799 0 0.2425839136850555 0.099860071639323214 0 0.24170619782414721 0.10608233706453631 0 0.23673287098110529 0.1038419863497437 0 0.2425839136850555 0.099860071639323214 0 0.23673287098110529 0.1038419863497437 0 0.23198938690444179 0.099539196893689619 0 0.23097843285159311 0.10546155050179799 0 0.227915988578234 0.11382742556994301 0 0.2187342083109739 0.092609546698740164 0 0.227915988578234 0.11382742556994301 0 0.21301497516729631 0.1029695803412387 0 0.2187342083109739 0.092609546698740164 0 0.227915988578234 0.11382742556994301 0 0.2187342083109739 0.092609546698740164 0 0.23198938690444179 0.099539196893689619 0 0.23097843285159311 0.10546155050179799 0 0.2187342083109739 0.092609546698740164 0 0.23198938690444179 0.099539196893689619 0 0.2187342083109739 0.092609546698740164 0 0.23294113118929929 0.092952528573107776 0 0.2347844632728546 0.093924311590129844 0 0.23198938690444179 0.099539196893689619 0 0.23294113118929929 0.092952528573107776 0 0.23673287098110529 0.1038419863497437 0 0.23198938690444179 0.099539196893689619 0 0.23097843285159311 0.10546155050179799 0 0.2366370019302477 0.10857329486806951 0 0.23097843285159311 0.10546155050179799 0 0.23241387432892499 0.1114314322379414 0 0.227915988578234 0.11382742556994301 0 0.21301497516729631 0.1029695803412387 0 0.2360299517717154 0.13257772052292319 0 0.227915988578234 0.11382742556994301 0 0.2360299517717154 0.13257772052292319 0 0.23020355166464029 0.1154942924640374 0 0.227915988578234 0.11382742556994301 0 0.227915988578234 0.11382742556994301 0 0.21828738784346211 0.1195218373680591 0 0.21301497516729631 0.1029695803412387 0 0.2360299517717154 0.13257772052292319 0 0.227915988578234 0.11382742556994301 0 0.21828738784346211 0.1195218373680591 0 0.23097843285159311 0.10546155050179799 0 0.23241387432892499 0.1114314322379414 0 0.227915988578234 0.11382742556994301 0 0.2363343966199079 0.11380059778586001 0 0.23241387432892499 0.1114314322379414 0 0.23020355166464029 0.1154942924640374 0 0.23241387432892499 0.1114314322379414 0 0.23020355166464029 0.1154942924640374 0 0.227915988578234 0.11382742556994301 0 0.23020355166464029 0.1154942924640374 0 0.227915988578234 0.11382742556994301 0 0.21828738784346211 0.1195218373680591 0 0.21301497516729631 0.1029695803412387 0 0.20054482391520831 0.1064659542131956 0 0.20235131978887119 0.12856103837943181 0 0.21828738784346211 0.1195218373680591 0 0.20054482391520831 0.1064659542131956 0 0.21828738784346211 0.1195218373680591 0 0.20054482391520831 0.1064659542131956 0 0.21301497516729631 0.1029695803412387 0 0.19811396175636081 0.092111735112531623 0 0.2187342083109739 0.092609546698740164 0 0.21301497516729631 0.1029695803412387 0 0.20054482391520831 0.1064659542131956 0 0.19811396175636081 0.092111735112531623 0 0.21301497516729631 0.1029695803412387 0 0.19811396175636081 0.092111735112531623 0 0.20054482391520831 0.1064659542131956 0 0.19811396175636081 0.092111735112531623 0 0.1828022599869546 0.0934100710583321 0 0.20054482391520831 0.1064659542131956 0 0.1828022599869546 0.0934100710583321 0 0.20235131978887119 0.12856103837943181 0 0.1884199637150743 0.12969140832344939 0 0.20054482391520831 0.1064659542131956 0 0.1884199637150743 0.12969140832344939 0 0.20054482391520831 0.1064659542131956 0 0.1783333702846906 0.11767138953077801 0 0.19407848519861259 0.077720254871750605 0 0.18908750222903889 0.059287889963905979 0 0.18482503388161201 0.082428560006228446 0 0.19804267651723501 0.070033704299998334 0 0.19407848519861259 0.077720254871750605 0 0.18908750222903889 0.059287889963905979 0 0.19804267651723501 0.070033704299998334 0 0.20194885627786319 0.081691001981831199 0 0.2060419239338781 0.07037661177770789 0 0.19804267651723501 0.070033704299998334 0 0.19407848519861259 0.077720254871750605 0 0.20194885627786319 0.081691001981831199 0 0.19804267651723501 0.070033704299998334 0 0.2007658984856443 0.061192857072884993 0 0.18908750222903889 0.059287889963905979 0 0.19804267651723501 0.070033704299998334 0 0.2060419239338781 0.07037661177770789 0 0.2007658984856443 0.061192857072884993 0 0.19407848519861259 0.077720254871750605 0 0.19811396175636081 0.092111735112531623 0 0.18482503388161201 0.082428560006228446 0 0.19811396175636081 0.092111735112531623 0 0.18310814028838049 0.091749466321635748 0 0.19811396175636081 0.092111735112531623 0 0.18482503388161201 0.082428560006228446 0 0.19811396175636081 0.092111735112531623 0 0.18310814028838049 0.091749466321635748 0 0.18482503388161201 0.082428560006228446 0 0.19811396175636081 0.092111735112531623 0 0.1828022599869546 0.0934100710583321 0 0.18310814028838049 0.091749466321635748 0 0.19407848519861259 0.077720254871750605 0 0.19811396175636081 0.092111735112531623 0 0.20194885627786319 0.081691001981831199 0 0.19811396175636081 0.092111735112531623 0 0.20194885627786319 0.081691001981831199 0 0.2187342083109739 0.092609546698740164 0 0.2187342083109739 0.092609546698740164 0 0.21175523782247549 0.076482069656119478 0 0.2187342083109739 0.092609546698740164 0 0.21175523782247549 0.076482069656119478 0 0.21913679597409541 0.082411096176785353 0 0.19811396175636081 0.092111735112531623 0 0.2187342083109739 0.092609546698740164 0 0.20194885627786319 0.081691001981831199 0 0.2187342083109739 0.092609546698740164 0 0.21175523782247549 0.076482069656119478 0 0.21185681954237059 0.070678861223536393 0 0.21175523782247549 0.076482069656119478 0 0.22011484638862211 0.072130198645666624 0 0.21175523782247549 0.076482069656119478 0 0.22011484638862211 0.072130198645666624 0 0.21913679597409541 0.082411096176785353 0 0.20194885627786319 0.081691001981831199 0 0.21175523782247549 0.076482069656119478 0 0.2060419239338781 0.07037661177770789 0 0.21185681954237059 0.070678861223536393 0 0.21175523782247549 0.076482069656119478 0 0.2060419239338781 0.07037661177770789 0 0.2060419239338781 0.07037661177770789 0 0.20951527002450679 0.063726564814651623 0 0.2007658984856443 0.061192857072884993 0 0.21185681954237059 0.070678861223536393 0 0.2060419239338781 0.07037661177770789 0 0.20951527002450679 0.063726564814651623 0 0.21185681954237059 0.070678861223536393 0 0.20951527002450679 0.063726564814651623 0 0.22011484638862211 0.072130198645666624 0 0.2239839787952275 0.063483549901915806 0 0.22011484638862211 0.072130198645666624 0 0.23104717284859541 0.068569555736544455 0 0.2239839787952275 0.063483549901915806 0 0.22011484638862211 0.072130198645666624 0 0.21624597018200351 0.058016237749441757 0 0.22011484638862211 0.072130198645666624 0 0.23072916661935269 0.078064701583725207 0 0.23104717284859541 0.068569555736544455 0 0.23072916661935269 0.078064701583725207 0 0.23104717284859541 0.068569555736544455 0 0.23697018396733879 0.077634740362559879 0 0.2239839787952275 0.063483549901915806 0 0.23104717284859541 0.068569555736544455 0 0.22941793455671711 0.056553333384691477 0 0.2347844632728546 0.093924311590129844 0 0.22011484638862211 0.072130198645666624 0 0.23294113118929929 0.092952528573107776 0 0.2347844632728546 0.093924311590129844 0 0.22011484638862211 0.072130198645666624 0 0.23072916661935269 0.078064701583725207 0 0.2347844632728546 0.093924311590129844 0 0.23072916661935269 0.078064701583725207 0 0.23697018396733879 0.077634740362559879 0 0.22011484638862211 0.072130198645666624 0 0.223649215725337 0.085996336004443619 0 0.23294113118929929 0.092952528573107776 0 0.2347844632728546 0.093924311590129844 0 0.22011484638862211 0.072130198645666624 0 0.2187342083109739 0.092609546698740164 0 0.223649215725337 0.085996336004443619 0 0.23294113118929929 0.092952528573107776 0 0.2187342083109739 0.092609546698740164 0 0.23294113118929929 0.092952528573107776 0 0.2187342083109739 0.092609546698740164 0 0.223649215725337 0.085996336004443619 0 0.21913679597409541 0.082411096176785353 0 0.22011484638862211 0.072130198645666624 0 0.223649215725337 0.085996336004443619 0 0.21913679597409541 0.082411096176785353 0 0.2347844632728546 0.093924311590129844 0 0.24202790702404139 0.08428857493325885 0 0.23697018396733879 0.077634740362559879 0 0.24202790702404139 0.08428857493325885 0 0.23697018396733879 0.077634740362559879 0 0.2473946545461817 0.077826493197345595 0 0.24202790702404139 0.08428857493325885 0 0.24993669292447851 0.088369123013699799 0 0.2473946545461817 0.077826493197345595 0 0.2347844632728546 0.093924311590129844 0 0.24202790702404139 0.08428857493325885 0 0.24993669292447851 0.088369123013699799 0 0.23104717284859541 0.068569555736544455 0 0.23697018396733879 0.077634740362559879 0 0.2486509667506161 0.066876191259200718 0 0.23104717284859541 0.068569555736544455 0 0.2486509667506161 0.066876191259200718 0 0.22941793455671711 0.056553333384691477 0 0.23697018396733879 0.077634740362559879 0 0.2473946545461817 0.077826493197345595 0 0.2486509667506161 0.066876191259200718 0 0.24478266942361149 0.05520512950251652 0 0.2349735052681636 0.05084196518616628 0 0.25230085111465561 0.043090443971759568 0 0.2349735052681636 0.05084196518616628 0 0.25230085111465561 0.043090443971759568 0 0.2486509667506161 0.066876191259200718 0 0.24478266942361149 0.05520512950251652 0 0.22941793455671711 0.056553333384691477 0 0.2486509667506161 0.066876191259200718 0 0.22941793455671711 0.056553333384691477 0 0.24478266942361149 0.05520512950251652 0 0.2349735052681636 0.05084196518616628 0 0.22941793455671711 0.056553333384691477 0 0.24092005999470739 0.033081662242973008 0 0.23786194391909979 0.041870642531287833 0 0.25230085111465561 0.043090443971759568 0 0.2349735052681636 0.05084196518616628 0 0.23786194391909979 0.041870642531287833 0 0.25230085111465561 0.043090443971759568 0 0.24092005999470739 0.033081662242973008 0 0.25151848521602149 0.028993860932569639 0 0.25230085111465561 0.043090443971759568 0 0.24092005999470739 0.033081662242973008 0 0.23786194391909979 0.041870642531287833 0 0.2319353214717417 0.037801452029833621 0 0.24092005999470739 0.033081662242973008 0 0.2319353214717417 0.037801452029833621 0 0.23090543652457221 0.03009700464399085 0 0.22917998174623069 0.044537689225706667 0 0.2319353214717417 0.037801452029833621 0 0.22360031347888751 0.038353053115609007 0 0.2349735052681636 0.05084196518616628 0 0.23786194391909979 0.041870642531287833 0 0.22917998174623069 0.044537689225706667 0 0.23786194391909979 0.041870642531287833 0 0.22917998174623069 0.044537689225706667 0 0.2319353214717417 0.037801452029833621 0 0.2319353214717417 0.037801452029833621 0 0.22360031347888751 0.038353053115609007 0 0.23090543652457221 0.03009700464399085 0 0.22360031347888751 0.038353053115609007 0 0.22017060871201241 0.02898905544556038 0 0.21565732772804561 0.035938799298497991 0 0.22360031347888751 0.038353053115609007 0 0.23090543652457221 0.03009700464399085 0 0.22017060871201241 0.02898905544556038 0 0.22917998174623069 0.044537689225706667 0 0.22360031347888751 0.038353053115609007 0 0.22192538387891769 0.047668158527797523 0 0.22360031347888751 0.038353053115609007 0 0.22192538387891769 0.047668158527797523 0 0.21609354139377149 0.041659074893473702 0 0.22941793455671711 0.056553333384691477 0 0.21624597018200351 0.058016237749441757 0 0.21270285102674849 0.052841148672223233 0 0.22941793455671711 0.056553333384691477 0 0.21018490236281789 0.04623047551018223 0 0.22192538387891769 0.047668158527797523 0 0.22941793455671711 0.056553333384691477 0 0.21018490236281789 0.04623047551018223 0 0.2239839787952275 0.063483549901915806 0 0.22941793455671711 0.056553333384691477 0 0.21624597018200351 0.058016237749441757 0 0.22192538387891769 0.047668158527797523 0 0.22941793455671711 0.056553333384691477 0 0.2288742013625073 0.049900286581090483 0 0.2349735052681636 0.05084196518616628 0 0.22941793455671711 0.056553333384691477 0 0.2288742013625073 0.049900286581090483 0 0.2349735052681636 0.05084196518616628 0 0.22917998174623069 0.044537689225706667 0 0.2288742013625073 0.049900286581090483 0 0.22917998174623069 0.044537689225706667 0 0.22192538387891769 0.047668158527797523 0 0.2288742013625073 0.049900286581090483 0 0.2499188484388136 0.0061028047584332926 0 0.23663775116382771 0.01258687930141994 0 0.24548223201585831 0.022814848730180179 0 0.23795762476692281 0.0011691324023924449 0 0.2499188484388136 0.0061028047584332926 0 0.23663775116382771 0.01258687930141994 0 0.23663775116382771 0.01258687930141994 0 0.24548223201585831 0.022814848730180179 0 0.23623221061863039 0.023939579820493041 0 0.24092005999470739 0.033081662242973008 0 0.24548223201585831 0.022814848730180179 0 0.25151848521602149 0.028993860932569639 0 0.24092005999470739 0.033081662242973008 0 0.24548223201585831 0.022814848730180179 0 0.23623221061863039 0.023939579820493041 0 0.24092005999470739 0.033081662242973008 0 0.23623221061863039 0.023939579820493041 0 0.23090543652457221 0.03009700464399085 0 0.23623221061863039 0.023939579820493041 0 0.23090543652457221 0.03009700464399085 0 0.2272155733941863 0.021117504183901199 0 0.22017060871201241 0.02898905544556038 0 0.2272155733941863 0.021117504183901199 0 0.2147170498466581 0.021400176750976569 0 0.23090543652457221 0.03009700464399085 0 0.22017060871201241 0.02898905544556038 0 0.2272155733941863 0.021117504183901199 0 0.2272155733941863 0.021117504183901199 0 0.22330444973354421 0.01202766897419065 0 0.2147170498466581 0.021400176750976569 0 0.23663775116382771 0.01258687930141994 0 0.23623221061863039 0.023939579820493041 0 0.2272155733941863 0.021117504183901199 0 0.23663775116382771 0.01258687930141994 0 0.22330444973354421 0.01202766897419065 0 0.22838105389242891 0.0041026387182808242 0 0.23663775116382771 0.01258687930141994 0 0.2272155733941863 0.021117504183901199 0 0.22330444973354421 0.01202766897419065 0 0.22330444973354421 0.01202766897419065 0 0.21924380989572151 0.00025174773304074098 0 0.22838105389242891 0.0041026387182808242 0 0.23795762476692281 0.0011691324023924449 0 0.23663775116382771 0.01258687930141994 0 0.22838105389242891 0.0041026387182808242 0 0.2108457127273925 0.0040726749941545921 0 0.2011490055967298 0.0042962305699134201 0 0.21016592791471819 -0.0049175676607110339 0 0.2108457127273925 0.0040726749941545921 0 0.20575532258383869 0.01039074104968968 0 0.2011490055967298 0.0042962305699134201 0 0.21924380989572151 0.00025174773304074098 0 0.2108457127273925 0.0040726749941545921 0 0.2136314602084429 0.012707067157524629 0 0.22330444973354421 0.01202766897419065 0 0.2136314602084429 0.012707067157524629 0 0.2147170498466581 0.021400176750976569 0 0.22330444973354421 0.01202766897419065 0 0.21924380989572151 0.00025174773304074098 0 0.2136314602084429 0.012707067157524629 0 0.2136314602084429 0.012707067157524629 0 0.20575532258383869 0.01039074104968968 0 0.20353512306765731 0.019146529431391709 0 0.2108457127273925 0.0040726749941545921 0 0.2136314602084429 0.012707067157524629 0 0.20575532258383869 0.01039074104968968 0 0.2136314602084429 0.012707067157524629 0 0.20353512306765731 0.019146529431391709 0 0.2147170498466581 0.021400176750976569 0 0.22017060871201241 0.02898905544556038 0 0.2147170498466581 0.021400176750976569 0 0.20914449538790761 0.0301123066739266 0 0.20353512306765731 0.019146529431391709 0 0.20914449538790761 0.0301123066739266 0 0.20162091382275371 0.02849892345957597 0 0.20353512306765731 0.019146529431391709 0 0.2147170498466581 0.021400176750976569 0 0.20914449538790761 0.0301123066739266 0 0.20353512306765731 0.019146529431391709 0 0.19077561262015641 0.028541972756740679 0 0.19410707641681429 0.010150971864904089 0 0.19077561262015641 0.028541972756740679 0 0.19410707641681429 0.010150971864904089 0 0.20162091382275371 0.02849892345957597 0 0.19077561262015641 0.028541972756740679 0 0.2030284242152946 0.036194884976245123 0 0.20353512306765731 0.019146529431391709 0 0.20162091382275371 0.02849892345957597 0 0.19077561262015641 0.028541972756740679 0 0.19410707641681429 0.010150971864904089 0 0.19743854021347099 -0.0082400290269327332 0 0.19410707641681429 0.010150971864904089 0 0.2011490055967298 0.0042962305699134201 0 0.19743854021347099 -0.0082400290269327332 0 0.20575532258383869 0.01039074104968968 0 0.19410707641681429 0.010150971864904089 0 0.2011490055967298 0.0042962305699134201 0 0.20575532258383869 0.01039074104968968 0 0.20353512306765731 0.019146529431391709 0 0.19410707641681429 0.010150971864904089 0 0.20951527002450679 0.063726564814651623 0 0.22011484638862211 0.072130198645666624 0 0.20544522950438951 0.050336085701203397 0 0.22941793455671711 0.056553333384691477 0 0.21270285102674849 0.052841148672223233 0 0.21018490236281789 0.04623047551018223 0 0.22011484638862211 0.072130198645666624 0 0.20544522950438951 0.050336085701203397 0 0.21624597018200351 0.058016237749441757 0 0.22011484638862211 0.072130198645666624 0 0.20544522950438951 0.050336085701203397 0 0.20544522950438951 0.050336085701203397 0 0.21270285102674849 0.052841148672223233 0 0.21018490236281789 0.04623047551018223 0 0.20951527002450679 0.063726564814651623 0 0.20544522950438951 0.050336085701203397 0 0.2007658984856443 0.061192857072884993 0 0.20544522950438951 0.050336085701203397 0 0.21624597018200351 0.058016237749441757 0 0.21270285102674849 0.052841148672223233 0 0.22192538387891769 0.047668158527797523 0 0.21609354139377149 0.041659074893473702 0 0.21018490236281789 0.04623047551018223 0 0.21609354139377149 0.041659074893473702 0 0.21018490236281789 0.04623047551018223 0 0.20909977952018841 0.040104888015281788 0 0.21609354139377149 0.041659074893473702 0 0.21565732772804561 0.035938799298497991 0 0.20909977952018841 0.040104888015281788 0 0.22017060871201241 0.02898905544556038 0 0.20914449538790761 0.0301123066739266 0 0.21565732772804561 0.035938799298497991 0 0.22360031347888751 0.038353053115609007 0 0.21609354139377149 0.041659074893473702 0 0.21565732772804561 0.035938799298497991 0 0.20914449538790761 0.0301123066739266 0 0.21565732772804561 0.035938799298497991 0 0.20909977952018841 0.040104888015281788 0 0.20914449538790761 0.0301123066739266 0 0.20909977952018841 0.040104888015281788 0 0.2030284242152946 0.036194884976245123 0 0.20914449538790761 0.0301123066739266 0 0.20162091382275371 0.02849892345957597 0 0.2030284242152946 0.036194884976245123 0 0.20544522950438951 0.050336085701203397 0 0.21018490236281789 0.04623047551018223 0 0.20909977952018841 0.040104888015281788 0 0.20544522950438951 0.050336085701203397 0 0.20909977952018841 0.040104888015281788 0 0.2030284242152946 0.036194884976245123 0 0.19077561262015641 0.028541972756740679 0 0.20544522950438951 0.050336085701203397 0 0.19334997057646511 0.036147219921583491 0 0.19077561262015641 0.028541972756740679 0 0.20544522950438951 0.050336085701203397 0 0.19077561262015641 0.028541972756740679 0 0.20544522950438951 0.050336085701203397 0 0.2030284242152946 0.036194884976245123 0 0.19077561262015641 0.028541972756740679 0 0.19334997057646511 0.036147219921583491 0 0.18501666238322881 0.035305068042755967 0 0.19334997057646511 0.036147219921583491 0 0.18908750222903889 0.059287889963905979 0 0.18071472180735301 0.046691438506190813 0 0.20544522950438951 0.050336085701203397 0 0.2007658984856443 0.061192857072884993 0 0.18908750222903889 0.059287889963905979 0 0.19334997057646511 0.036147219921583491 0 0.18908750222903889 0.059287889963905979 0 0.20544522950438951 0.050336085701203397 0 0.19334997057646511 0.036147219921583491 0 0.18908750222903889 0.059287889963905979 0 0.18908750222903889 0.059287889963905979 0 0.17928948964609831 0.060313305158781187 0 0.18071472180735301 0.046691438506190813 0 0.17928948964609831 0.060313305158781187 0 0.17237095785699219 0.055987449983118567 0 0.17201711571450801 0.062938985662421981 0 0.17928948964609831 0.060313305158781187 0 0.17237095785699219 0.055987449983118567 0 0.18071472180735301 0.046691438506190813 0 0.17237095785699219 0.055987449983118567 0 0.1721683465603944 0.047332722046644883 0 0.18071472180735301 0.046691438506190813 0 0.18071472180735301 0.046691438506190813 0 0.18501666238322881 0.035305068042755967 0 0.1791388731632102 0.037020786607232348 0 0.19334997057646511 0.036147219921583491 0 0.18071472180735301 0.046691438506190813 0 0.18501666238322881 0.035305068042755967 0 0.18501666238322881 0.035305068042755967 0 0.1791388731632102 0.037020786607232348 0 0.18054611948571939 0.027187486301588331 0 0.1791388731632102 0.037020786607232348 0 0.17194658533723209 0.034093619663046582 0 0.18054611948571939 0.027187486301588331 0 0.1791388731632102 0.037020786607232348 0 0.17194658533723209 0.034093619663046582 0 0.17438569056710429 0.041516196598536087 0 0.18071472180735301 0.046691438506190813 0 0.1791388731632102 0.037020786607232348 0 0.17438569056710429 0.041516196598536087 0 0.1721683465603944 0.047332722046644883 0 0.18071472180735301 0.046691438506190813 0 0.17438569056710429 0.041516196598536087 0 0.1683003317557209 0.042118073183795832 0 0.1595763656927498 0.043754169661393803 0 0.16575084239157939 0.04970176599004307 0 0.1721683465603944 0.047332722046644883 0 0.1683003317557209 0.042118073183795832 0 0.16575084239157939 0.04970176599004307 0 0.1721683465603944 0.047332722046644883 0 0.17438569056710429 0.041516196598536087 0 0.1683003317557209 0.042118073183795832 0 0.17194658533723209 0.034093619663046582 0 0.17438569056710429 0.041516196598536087 0 0.1683003317557209 0.042118073183795832 0 0.17194658533723209 0.034093619663046582 0 0.1683003317557209 0.042118073183795832 0 0.16338632265785441 0.036174979307378063 0 0.17194658533723209 0.034093619663046582 0 0.16338632265785441 0.036174979307378063 0 0.16456250318405219 0.025529119224054 0 0.16338632265785441 0.036174979307378063 0 0.1595763656927498 0.043754169661393803 0 0.15254582731951691 0.035379914804600093 0 0.16338632265785441 0.036174979307378063 0 0.16456250318405219 0.025529119224054 0 0.15254582731951691 0.035379914804600093 0 0.1683003317557209 0.042118073183795832 0 0.16338632265785441 0.036174979307378063 0 0.1595763656927498 0.043754169661393803 0 0.1595763656927498 0.043754169661393803 0 0.15859215161115331 0.052741312687129067 0 0.16575084239157939 0.04970176599004307 0 0.15859215161115331 0.052741312687129067 0 0.1644605254078168 0.055781037965036633 0 0.16575084239157939 0.04970176599004307 0 0.15859215161115331 0.052741312687129067 0 0.15979497849535829 0.059303000537333457 0 0.15410989487434651 0.057380071908245803 0 0.15979497849535829 0.059303000537333457 0 0.15557015693006909 0.063417192669631653 0 0.16080392950047001 0.063794565802265751 0 0.15979497849535829 0.059303000537333457 0 0.15410989487434651 0.057380071908245803 0 0.15557015693006909 0.063417192669631653 0 0.15979497849535829 0.059303000537333457 0 0.1644605254078168 0.055781037965036633 0 0.1657936966840009 0.061171660627558987 0 0.15979497849535829 0.059303000537333457 0 0.1657936966840009 0.061171660627558987 0 0.16080392950047001 0.063794565802265751 0 0.15859215161115331 0.052741312687129067 0 0.15979497849535829 0.059303000537333457 0 0.1644605254078168 0.055781037965036633 0 0.17237095785699219 0.055987449983118567 0 0.1644605254078168 0.055781037965036633 0 0.1657936966840009 0.061171660627558987 0 0.17237095785699219 0.055987449983118567 0 0.1657936966840009 0.061171660627558987 0 0.17201711571450801 0.062938985662421981 0 0.17237095785699219 0.055987449983118567 0 0.1721683465603944 0.047332722046644883 0 0.16575084239157939 0.04970176599004307 0 0.17237095785699219 0.055987449983118567 0 0.1644605254078168 0.055781037965036633 0 0.16575084239157939 0.04970176599004307 0 0.19077561262015641 0.028541972756740679 0 0.19410707641681429 0.010150971864904089 0 0.17624968729827681 0.0069613371078181691 0 0.19410707641681429 0.010150971864904089 0 0.17624968729827681 0.0069613371078181691 0 0.1819618510729403 -0.0083597454106819624 0 0.17194658533723209 0.034093619663046582 0 0.18054611948571939 0.027187486301588331 0 0.16456250318405219 0.025529119224054 0 0.19077561262015641 0.028541972756740679 0 0.17624968729827681 0.0069613371078181691 0 0.17624968729827681 0.0069613371078181691 0 0.18054611948571939 0.027187486301588331 0 0.16456250318405219 0.025529119224054 0 0.19077561262015641 0.028541972756740679 0 0.17624968729827681 0.0069613371078181691 0 0.18054611948571939 0.027187486301588331 0 0.19077561262015641 0.028541972756740679 0 0.18501666238322881 0.035305068042755967 0 0.18054611948571939 0.027187486301588331 0 0.17624968729827681 0.0069613371078181691 0 0.16456250318405219 0.025529119224054 0 0.16088985257273469 0.0043147555944088754 0 0.16456250318405219 0.025529119224054 0 0.16088985257273469 0.0043147555944088754 0 0.1457206108673389 0.015269775975387709 0 0.16088985257273469 0.0043147555944088754 0 0.1457206108673389 0.015269775975387709 0 0.15619269953761031 -0.011567155794111311 0 0.1457206108673389 0.015269775975387709 0 0.1316879935667612 0.0019549950446782201 0 0.15619269953761031 -0.011567155794111311 0 0.1457206108673389 0.015269775975387709 0 0.15619269953761031 -0.011567155794111311 0 0.1457206108673389 0.015269775975387709 0 0.15254582731951691 0.035379914804600093 0 0.1352485221970684 0.04210670774488702 0 0.16456250318405219 0.025529119224054 0 0.1457206108673389 0.015269775975387709 0 0.15254582731951691 0.035379914804600093 0 0.1457206108673389 0.015269775975387709 0 0.13346825788191449 0.02203085139478261 0 0.1352485221970684 0.04210670774488702 0 0.1457206108673389 0.015269775975387709 0 0.1352485221970684 0.04210670774488702 0 0.1457206108673389 0.015269775975387709 0 0.13346825788191449 0.02203085139478261 0 0.1316879935667612 0.0019549950446782201 0 0.13346825788191449 0.02203085139478261 0 0.1316879935667612 0.0019549950446782201 0 0.113391796036721 0.01205117587916139 0 0.13346825788191449 0.02203085139478261 0 0.1316879935667612 0.0019549950446782201 0 0.14819504617723139 0.0498474961460912 0 0.1483971411579201 0.061591357501043643 0 0.13740298744106511 0.066402389224092875 0 0.14819504617723139 0.0498474961460912 0 0.1483971411579201 0.061591357501043643 0 0.15410989487434651 0.057380071908245803 0 0.1483971411579201 0.061591357501043643 0 0.15410989487434651 0.057380071908245803 0 0.15557015693006909 0.063417192669631653 0 0.15859215161115331 0.052741312687129067 0 0.14819504617723139 0.0498474961460912 0 0.15410989487434651 0.057380071908245803 0 0.1595763656927498 0.043754169661393803 0 0.15859215161115331 0.052741312687129067 0 0.14819504617723139 0.0498474961460912 0 0.14819504617723139 0.0498474961460912 0 0.15254582731951691 0.035379914804600093 0 0.1352485221970684 0.04210670774488702 0 0.1595763656927498 0.043754169661393803 0 0.14819504617723139 0.0498474961460912 0 0.15254582731951691 0.035379914804600093 0 0.11590610989724499 0.036604491885099878 0 0.13346825788191449 0.02203085139478261 0 0.1352485221970684 0.04210670774488702 0 0.13346825788191449 0.02203085139478261 0 0.1352485221970684 0.04210670774488702 0 0.1352485221970684 0.04210670774488702 0 0.12677175449691069 0.063830209479632929 0 0.13740298744106511 0.066402389224092875 0 0.12074391787073779 0.050898462848324763 0 0.1352485221970684 0.04210670774488702 0 0.12677175449691069 0.063830209479632929 0 0.14819504617723139 0.0498474961460912 0 0.1352485221970684 0.04210670774488702 0 0.13740298744106511 0.066402389224092875 0 0.1352485221970684 0.04210670774488702 0 0.12677175449691069 0.063830209479632929 0 0.1352485221970684 0.04210670774488702 0 0.13740298744106511 0.066402389224092875 0 0.12677175449691069 0.063830209479632929 0 0.13740298744106511 0.066402389224092875 0 0.13095640778556569 0.080522293878629761 0 0.11829498679675279 0.085553711214378825 0 0.12677175449691069 0.063830209479632929 0 0.13095640778556569 0.080522293878629761 0 0.1483971411579201 0.061591357501043643 0 0.13740298744106511 0.066402389224092875 0 0.14505190962381539 0.073267310233593549 0 0.13740298744106511 0.066402389224092875 0 0.14505190962381539 0.073267310233593549 0 0.13955745268506131 0.090698070703298966 0 0.1483971411579201 0.061591357501043643 0 0.14505190962381539 0.073267310233593549 0 0.1504419158182006 0.069491095559170157 0 0.14505190962381539 0.073267310233593549 0 0.1504419158182006 0.069491095559170157 0 0.1494600510168291 0.07815363818036225 0 0.1504419158182006 0.069491095559170157 0 0.1494600510168291 0.07815363818036225 0 0.15909280366517001 0.067995927804168341 0 0.1483971411579201 0.061591357501043643 0 0.1504419158182006 0.069491095559170157 0 0.15557015693006909 0.063417192669631653 0 0.1504419158182006 0.069491095559170157 0 0.15557015693006909 0.063417192669631653 0 0.15909280366517001 0.067995927804168341 0 0.1551294919501805 0.09107400905818773 0 0.1494600510168291 0.07815363818036225 0 0.15909280366517001 0.067995927804168341 0 0.14505190962381539 0.073267310233593549 0 0.1494600510168291 0.07815363818036225 0 0.13955745268506131 0.090698070703298966 0 0.1551294919501805 0.09107400905818773 0 0.13955745268506131 0.090698070703298966 0 0.1551294919501805 0.09107400905818773 0 0.1494600510168291 0.07815363818036225 0 0.13955745268506131 0.090698070703298966 0 0.13740298744106511 0.066402389224092875 0 0.13955745268506131 0.090698070703298966 0 0.13095640778556569 0.080522293878629761 0 0.13955745268506131 0.090698070703298966 0 0.13529553979023071 0.090595180099507164 0 0.13740298744106511 0.066402389224092875 0 0.13955745268506131 0.090698070703298966 0 0.13955745268506131 0.090698070703298966 0 0.13529553979023071 0.090595180099507164 0 0.13095640778556569 0.080522293878629761 0 0.13955745268506131 0.090698070703298966 0 0.13529553979023071 0.090595180099507164 0 0.13115420861169499 0.095230418671281153 0 0.11829498679675279 0.085553711214378825 0 0.13095640778556569 0.080522293878629761 0 0.12824035046038371 0.088233284582805216 0 0.13529553979023071 0.090595180099507164 0 0.13095640778556569 0.080522293878629761 0 0.12824035046038371 0.088233284582805216 0 0.13529553979023071 0.090595180099507164 0 0.12824035046038371 0.088233284582805216 0 0.13115420861169499 0.095230418671281153 0 0.12824035046038371 0.088233284582805216 0 0.12514985923169589 0.093622983114103789 0 0.13115420861169499 0.095230418671281153 0 0.13955745268506131 0.090698070703298966 0 0.1332708121928039 0.1021376820980643 0 0.14126332696772309 0.1099350383594668 0 0.1224117885453332 0.1038506609545285 0 0.13115420861169499 0.095230418671281153 0 0.1332708121928039 0.1021376820980643 0 0.13955745268506131 0.090698070703298966 0 0.14126332696772309 0.1099350383594668 0 0.1224117885453332 0.1038506609545285 0 0.12514985923169589 0.093622983114103789 0 0.13115420861169499 0.095230418671281153 0 0.1224117885453332 0.1038506609545285 0 0.1332708121928039 0.1021376820980643 0 0.13359484533982521 0.1155392718012664 0 0.1332708121928039 0.1021376820980643 0 0.13359484533982521 0.1155392718012664 0 0.14126332696772309 0.1099350383594668 0 0.13955745268506131 0.090698070703298966 0 0.13115420861169499 0.095230418671281153 0 0.1332708121928039 0.1021376820980643 0 0.14296920125038501 0.1291720060156348 0 0.1364746863841543 0.1249015161945396 0 0.14126332696772309 0.1099350383594668 0 0.1241834487212133 0.11681937204530039 0 0.13359484533982521 0.1155392718012664 0 0.1364746863841543 0.1249015161945396 0 0.1241834487212133 0.11681937204530039 0 0.1364746863841543 0.1249015161945396 0 0.1241834487212133 0.11681937204530039 0 0.1292449322024978 0.1319545688970197 0 0.1364746863841543 0.1249015161945396 0 0.1241834487212133 0.11681937204530039 0 0.1224117885453332 0.1038506609545285 0 0.13359484533982521 0.1155392718012664 0 0.13359484533982521 0.1155392718012664 0 0.1364746863841543 0.1249015161945396 0 0.14126332696772309 0.1099350383594668 0 0.14801674372506959 0.13249103433471141 0 0.14296920125038501 0.1291720060156348 0 0.15157311783762459 0.1117825216964495 0 0.14296920125038501 0.1291720060156348 0 0.14126332696772309 0.1099350383594668 0 0.14296920125038501 0.1291720060156348 0 0.14126332696772309 0.1099350383594668 0 0.15157311783762459 0.1117825216964495 0 0.14801674372506959 0.13249103433471141 0 0.15157311783762459 0.1117825216964495 0 0.15630345167492871 0.12406450028701239 0 0.14801674372506959 0.13249103433471141 0 0.15157311783762459 0.1117825216964495 0 0.13955745268506131 0.090698070703298966 0 0.14126332696772309 0.1099350383594668 0 0.1470029733181544 0.10030828939098781 0 0.1551294919501805 0.09107400905818773 0 0.15157311783762459 0.1117825216964495 0 0.1470029733181544 0.10030828939098781 0 0.1551294919501805 0.09107400905818773 0 0.15157311783762459 0.1117825216964495 0 0.1551294919501805 0.09107400905818773 0 0.13955745268506131 0.090698070703298966 0 0.1470029733181544 0.10030828939098781 0 0.14126332696772309 0.1099350383594668 0 0.15157311783762459 0.1117825216964495 0 0.1470029733181544 0.10030828939098781 0 0.1551294919501805 0.09107400905818773 0 0.1687127698820671 0.1041290287629648 0 0.18045862091063941 0.09168550193397848 0 0.1551294919501805 0.09107400905818773 0 0.15157311783762459 0.1117825216964495 0 0.1687127698820671 0.1041290287629648 0 0.15157311783762459 0.1117825216964495 0 0.1687127698820671 0.1041290287629648 0 0.16332108439941281 0.1185018961175012 0 0.162302860737608 0.13348254899938761 0 0.16332108439941281 0.1185018961175012 0 0.1783333702846906 0.11767138953077801 0 0.15157311783762459 0.1117825216964495 0 0.15630345167492871 0.12406450028701239 0 0.16332108439941281 0.1185018961175012 0 0.1687127698820671 0.1041290287629648 0 0.16332108439941281 0.1185018961175012 0 0.1783333702846906 0.11767138953077801 0 0.20054482391520831 0.1064659542131956 0 0.1783333702846906 0.11767138953077801 0 0.1828022599869546 0.0934100710583321 0 0.1687127698820671 0.1041290287629648 0 0.1783333702846906 0.11767138953077801 0 0.1828022599869546 0.0934100710583321 0 0.1783333702846906 0.11767138953077801 0 0.1828022599869546 0.0934100710583321 0 0.1687127698820671 0.1041290287629648 0 0.1828022599869546 0.0934100710583321 0 0.18045862091063941 0.09168550193397848 0 0.18310814028838049 0.091749466321635748 0 0.17721062316298111 0.084204697310809137 0 0.18482503388161201 0.082428560006228446 0 0.18310814028838049 0.091749466321635748 0 0.18482503388161201 0.082428560006228446 0 0.18310814028838049 0.091749466321635748 0 0.18045862091063941 0.09168550193397848 0 0.17721062316298111 0.084204697310809137 0 0.1828022599869546 0.0934100710583321 0 0.18310814028838049 0.091749466321635748 0 0.18045862091063941 0.09168550193397848 0 0.1828022599869546 0.0934100710583321 0 0.18310814028838049 0.091749466321635748 0 0.18310814028838049 0.091749466321635748 0 0.18045862091063941 0.09168550193397848 0 0.1828022599869546 0.0934100710583321 0 0.18045862091063941 0.09168550193397848 0 0.18045862091063941 0.09168550193397848 0 0.17204429801376439 0.085493814136593183 0 0.18045862091063941 0.09168550193397848 0 0.17204429801376439 0.085493814136593183 0 0.17721062316298111 0.084204697310809137 0 0.17721062316298111 0.084204697310809137 0 0.18482503388161201 0.082428560006228446 0 0.16376801172775179 0.067085047372636333 0 0.18908750222903889 0.059287889963905979 0 0.18482503388161201 0.082428560006228446 0 0.1782047830947702 0.069393212869214321 0 0.18908750222903889 0.059287889963905979 0 0.18482503388161201 0.082428560006228446 0 0.18482503388161201 0.082428560006228446 0 0.1782047830947702 0.069393212869214321 0 0.16376801172775179 0.067085047372636333 0 0.18482503388161201 0.082428560006228446 0 0.16376801172775179 0.067085047372636333 0 0.18908750222903889 0.059287889963905979 0 0.17928948964609831 0.060313305158781187 0 0.1782047830947702 0.069393212869214321 0 0.17928948964609831 0.060313305158781187 0 0.1782047830947702 0.069393212869214321 0 0.17201711571450801 0.062938985662421981 0 0.17721062316298111 0.084204697310809137 0 0.16376801172775179 0.067085047372636333 0 0.1624251760853456 0.072646261113794644 0 0.1657936966840009 0.061171660627558987 0 0.17201711571450801 0.062938985662421981 0 0.16376801172775179 0.067085047372636333 0 0.1782047830947702 0.069393212869214321 0 0.17201711571450801 0.062938985662421981 0 0.16376801172775179 0.067085047372636333 0 0.1657936966840009 0.061171660627558987 0 0.16080392950047001 0.063794565802265751 0 0.16376801172775179 0.067085047372636333 0 0.16080392950047001 0.063794565802265751 0 0.16376801172775179 0.067085047372636333 0 0.15909280366517001 0.067995927804168341 0 0.16376801172775179 0.067085047372636333 0 0.15909280366517001 0.067995927804168341 0 0.1624251760853456 0.072646261113794644 0 0.15557015693006909 0.063417192669631653 0 0.16080392950047001 0.063794565802265751 0 0.15909280366517001 0.067995927804168341 0 0.15909280366517001 0.067995927804168341 0 0.1624251760853456 0.072646261113794644 0 0.1635192464385043 0.078261714425834961 0 0.1551294919501805 0.09107400905818773 0 0.15909280366517001 0.067995927804168341 0 0.1635192464385043 0.078261714425834961 0 0.1551294919501805 0.09107400905818773 0 0.18045862091063941 0.09168550193397848 0 0.1551294919501805 0.09107400905818773 0 0.18045862091063941 0.09168550193397848 0 0.17204429801376439 0.085493814136593183 0 0.1551294919501805 0.09107400905818773 0 0.17204429801376439 0.085493814136593183 0 0.1635192464385043 0.078261714425834961 0 0.1551294919501805 0.09107400905818773 0 0.15909280366517001 0.067995927804168341 0 0.17721062316298111 0.084204697310809137 0 0.1624251760853456 0.072646261113794644 0 0.1635192464385043 0.078261714425834961 0 0.17204429801376439 0.085493814136593183 0 0.17721062316298111 0.084204697310809137 0 0.1635192464385043 0.078261714425834961 0 0.099306478003755444 0.47154244512786703 0 0.1040614656495423 0.48731229893782141 0 0.089394841800696526 0.48224366414811393 0 0.1040614656495423 0.48731229893782141 0 0.1145648193261407 0.5000000000000091 0 0.087504424508643264 0.5 0 0.1145648193261407 0.5000000000000091 0 0.1265730498271404 0.47638910970401183 0 0.1040614656495423 0.48731229893782141 0 0.1145648193261407 0.5000000000000091 0 0.1265730498271404 0.47638910970401183 0 0.099306478003755444 0.47154244512786703 0 0.1040614656495423 0.48731229893782141 0 0.1265730498271404 0.47638910970401183 0 0.120328639321768 0.44905026282382171 0 0.1066166246102398 0.45759417790501861 0 0.1265730498271404 0.47638910970401183 0 0.099306478003755444 0.47154244512786703 0 0.1066166246102398 0.45759417790501861 0 0.1265730498271404 0.47638910970401183 0 0.120328639321768 0.44905026282382171 0 0.099463561867878678 0.44168060838887141 0 0.124223395864849 0.42811106413728373 0 0.120328639321768 0.44905026282382171 0 0.124223395864849 0.42811106413728373 0 0.1294169927150825 0.43787471834413999 0 0.120328639321768 0.44905026282382171 0 0.099463561867878678 0.44168060838887141 0 0.1066166246102398 0.45759417790501861 0 0.099463561867878678 0.44168060838887141 0 0.1066166246102398 0.45759417790501861 0 0.090868883675145382 0.4575616606873612 0 0.099306478003755444 0.47154244512786703 0 0.1066166246102398 0.45759417790501861 0 0.090868883675145382 0.4575616606873612 0 0.099306478003755444 0.47154244512786703 0 0.090868883675145382 0.4575616606873612 0 0.082932682603827093 0.46977084463598551 0 0.090868883675145382 0.4575616606873612 0 0.079911939561174983 0.46115359393818911 0 0.07470372787091073 0.45525015264046298 0 0.090868883675145382 0.4575616606873612 0 0.079911939561174983 0.46115359393818911 0 0.082932682603827093 0.46977084463598551 0 0.079911939561174983 0.46115359393818911 0 0.076449730271108421 0.46416392666160272 0 0.082932682603827093 0.46977084463598551 0 0.099463561867878678 0.44168060838887141 0 0.074871843413352748 0.44884960673663821 0 0.087300883961523718 0.43460936310595177 0 0.099463561867878678 0.44168060838887141 0 0.090868883675145382 0.4575616606873612 0 0.07470372787091073 0.45525015264046298 0 0.099463561867878678 0.44168060838887141 0 0.07470372787091073 0.45525015264046298 0 0.074871843413352748 0.44884960673663821 0 0.075345133424525756 0.43083036593123059 0 0.087300883961523718 0.43460936310595177 0 0.099463561867878678 0.44168060838887141 0 0.074871843413352748 0.44884960673663821 0 0.07470372787091073 0.45525015264046298 0 0.074871843413352748 0.44884960673663821 0 0.087300883961523718 0.43460936310595177 0 0.074871843413352748 0.44884960673663821 0 0.061550552249165558 0.44761852681324937 0 0.075345133424525756 0.43083036593123059 0 0.074871843413352748 0.44884960673663821 0 0.075345133424525756 0.43083036593123059 0 0.074871843413352748 0.44884960673663821 0 0.07470372787091073 0.45525015264046298 0 0.074871843413352748 0.44884960673663821 0 0.064316957451397039 0.4609425874466061 0 0.061550552249165558 0.44761852681324937 0 0.076449730271108421 0.46416392666160272 0 0.071658126297777083 0.46901646938674252 0 0.082932682603827093 0.46977084463598551 0 0.071541515065331282 0.46210229345357179 0 0.076449730271108421 0.46416392666160272 0 0.074604673384883621 0.45902138506553369 0 0.071541515065331282 0.46210229345357179 0 0.076449730271108421 0.46416392666160272 0 0.071658126297777083 0.46901646938674252 0 0.079911939561174983 0.46115359393818911 0 0.076449730271108421 0.46416392666160272 0 0.074604673384883621 0.45902138506553369 0 0.074871843413352748 0.44884960673663821 0 0.07470372787091073 0.45525015264046298 0 0.064316957451397039 0.4609425874466061 0 0.079911939561174983 0.46115359393818911 0 0.074604673384883621 0.45902138506553369 0 0.07470372787091073 0.45525015264046298 0 0.074604673384883621 0.45902138506553369 0 0.07470372787091073 0.45525015264046298 0 0.071541515065331282 0.46210229345357179 0 0.074604673384883621 0.45902138506553369 0 0.07470372787091073 0.45525015264046298 0 0.07470372787091073 0.45525015264046298 0 0.064316957451397039 0.4609425874466061 0 0.071541515065331282 0.46210229345357179 0 0.07470372787091073 0.45525015264046298 0 0.064316957451397039 0.4609425874466061 0 0.074871843413352748 0.44884960673663821 0 0.064316957451397039 0.4609425874466061 0 0.064316957451397039 0.4609425874466061 0 0.063360677546250715 0.47514221948501822 0 0.071658126297777083 0.46901646938674252 0 0.071541515065331282 0.46210229345357179 0 0.064316957451397039 0.4609425874466061 0 0.071658126297777083 0.46901646938674252 0 0.063360677546250715 0.47514221948501822 0 0.073169158237714582 0.48259273203889619 0 0.071658126297777083 0.46901646938674252 0 0.063360677546250715 0.47514221948501822 0 0.073169158237714582 0.48259273203889619 0 0.058769514537007343 0.48545946756718228 0 0.073169158237714582 0.48259273203889619 0 0.071658126297777083 0.46901646938674252 0 0.082932682603827093 0.46977084463598551 0 0.099306478003755444 0.47154244512786703 0 0.082932682603827093 0.46977084463598551 0 0.089394841800696526 0.48224366414811393 0 0.073169158237714582 0.48259273203889619 0 0.082932682603827093 0.46977084463598551 0 0.089394841800696526 0.48224366414811393 0 0.073169158237714582 0.48259273203889619 0 0.089394841800696526 0.48224366414811393 0 0.087504424508643264 0.5 0 0.1040614656495423 0.48731229893782141 0 0.089394841800696526 0.48224366414811393 0 0.087504424508643264 0.5 0 0.073169158237714582 0.48259273203889619 0 0.060444029691145817 0.5 0 0.058769514537007343 0.48545946756718228 0 0.073169158237714582 0.48259273203889619 0 0.087504424508643264 0.5 0 0.060444029691145817 0.5 0 0.060444029691145817 0.5 0 0.047355127741197447 0.49166494969618202 0 0.033383634873648371 0.49999999999999761 0 0.060444029691145817 0.5 0 0.058769514537007343 0.48545946756718228 0 0.047355127741197447 0.49166494969618202 0 0.058769514537007343 0.48545946756718228 0 0.047355127741197447 0.49166494969618202 0 0.049518579468728167 0.47789743661581491 0 0.064316957451397039 0.4609425874466061 0 0.049518579468728167 0.47789743661581491 0 0.045066820201835923 0.47149256081432428 0 0.064316957451397039 0.4609425874466061 0 0.063360677546250715 0.47514221948501822 0 0.049518579468728167 0.47789743661581491 0 0.064316957451397039 0.4609425874466061 0 0.049518579468728167 0.47789743661581491 0 0.063360677546250715 0.47514221948501822 0 0.058769514537007343 0.48545946756718228 0 0.049518579468728167 0.47789743661581491 0 0.045066820201835923 0.47149256081432428 0 0.039285458458641481 0.47010401571779292 0 0.036334546666144857 0.48505200785889518 0 0.045066820201835923 0.47149256081432428 0 0.039285458458641481 0.47010401571779292 0 0.053783097558861653 0.4655900315224093 0 0.049518579468728167 0.47789743661581491 0 0.045066820201835923 0.47149256081432428 0 0.036334546666144857 0.48505200785889518 0 0.039285458458641481 0.47010401571779292 0 0.036334546666144857 0.48505200785889518 0 0.047355127741197447 0.49166494969618202 0 0.049518579468728167 0.47789743661581491 0 0.034411871095066229 0.49479141769129098 0 0.049518579468728167 0.47789743661581491 0 0.036334546666144857 0.48505200785889518 0 0.034411871095066229 0.49479141769129098 0 0.049518579468728167 0.47789743661581491 0 0.034411871095066229 0.49479141769129098 0 0.036334546666144857 0.48505200785889518 0 0.034411871095066229 0.49479141769129098 0 0.047355127741197447 0.49166494969618202 0 0.034411871095066229 0.49479141769129098 0 0.033383634873648371 0.49999999999999761 0 0.034411871095066229 0.49479141769129098 0 0.033383634873648371 0.49999999999999761 0 0.033383634873648371 0.49999999999999761 0 0.022627662860514 0.49011137429115331 0 0.0095188527403693435 0.5 0 0.034411871095066229 0.49479141769129098 0 0.033383634873648371 0.49999999999999761 0 0.022627662860514 0.49011137429115331 0 0.022627662860514 0.49011137429115331 0 0.01494767665710481 0.47768182625945121 0 0.0095188527403693435 0.5 0 0.036334546666144857 0.48505200785889518 0 0.034411871095066229 0.49479141769129098 0 0.022627662860514 0.49011137429115331 0 0.036334546666144857 0.48505200785889518 0 0.022627662860514 0.49011137429115331 0 0.01494767665710481 0.47768182625945121 0 0.039285458458641481 0.47010401571779292 0 0.01494767665710481 0.47768182625945121 0 0.039285458458641481 0.47010401571779292 0 0.036334546666144857 0.48505200785889518 0 0.01494767665710481 0.47768182625945121 0 -0.00939010514443165 0.48525963680111012 0 0.01494767665710481 0.47768182625945121 0 -0.0027406958227696931 0.46374371954028792 0 -0.00939010514443165 0.48525963680111012 0 0.01494767665710481 0.47768182625945121 0 -0.00939010514443165 0.48525963680111012 0 0.01494767665710481 0.47768182625945121 0 0.0095188527403693435 0.5 0 -0.0027406958227696931 0.46374371954028792 0 0.0101340645638862 0.44412225376119452 0 0.022413008806312359 0.45673876922062978 0 -0.0027406958227696931 0.46374371954028792 0 0.01494767665710481 0.47768182625945121 0 0.022413008806312359 0.45673876922062978 0 0.039285458458641481 0.47010401571779292 0 0.01494767665710481 0.47768182625945121 0 0.022413008806312359 0.45673876922062978 0 0.0101340645638862 0.44412225376119452 0 0.022413008806312359 0.45673876922062978 0 0.02930660627438408 0.43505080233464871 0 0.022413008806312359 0.45673876922062978 0 0.043958186893150217 0.44643407475441538 0 0.02930660627438408 0.43505080233464871 0 0.039285458458641481 0.47010401571779292 0 0.043958186893150217 0.44643407475441538 0 0.053783097558861653 0.4655900315224093 0 0.039285458458641481 0.47010401571779292 0 0.043958186893150217 0.44643407475441538 0 0.039285458458641481 0.47010401571779292 0 0.022413008806312359 0.45673876922062978 0 0.043958186893150217 0.44643407475441538 0 0.039285458458641481 0.47010401571779292 0 0.053783097558861653 0.4655900315224093 0 0.064316957451397039 0.4609425874466061 0 0.045066820201835923 0.47149256081432428 0 0.064316957451397039 0.4609425874466061 0 0.045066820201835923 0.47149256081432428 0 0.053783097558861653 0.4655900315224093 0 0.064316957451397039 0.4609425874466061 0 0.053783097558861653 0.4655900315224093 0 0.061550552249165558 0.44761852681324937 0 0.043958186893150217 0.44643407475441538 0 0.053783097558861653 0.4655900315224093 0 0.061550552249165558 0.44761852681324937 0 0.043958186893150217 0.44643407475441538 0 0.061550552249165558 0.44761852681324937 0 0.058614116497581983 0.43383055250981412 0 0.043958186893150217 0.44643407475441538 0 0.058614116497581983 0.43383055250981412 0 0.048630915327658647 0.42276413379103778 0 0.058614116497581983 0.43383055250981412 0 0.048630915327658647 0.42276413379103778 0 0.063585794593409753 0.42150566125913752 0 0.048630915327658647 0.42276413379103778 0 0.055890408750708588 0.40651223899906619 0 0.063585794593409753 0.42150566125913752 0 0.048630915327658647 0.42276413379103778 0 0.055890408750708588 0.40651223899906619 0 0.03456226345737911 0.41613194850519858 0 0.055890408750708588 0.40651223899906619 0 0.03456226345737911 0.41613194850519858 0 0.035962394065714547 0.40021335287231002 0 0.043958186893150217 0.44643407475441538 0 0.048630915327658647 0.42276413379103778 0 0.048630915327658647 0.42276413379103778 0 0.03456226345737911 0.41613194850519858 0 0.02930660627438408 0.43505080233464871 0 0.043958186893150217 0.44643407475441538 0 0.048630915327658647 0.42276413379103778 0 0.02930660627438408 0.43505080233464871 0 0.03456226345737911 0.41613194850519858 0 0.02930660627438408 0.43505080233464871 0 0.01465002331135397 0.42524954091721728 0 0.0101340645638862 0.44412225376119452 0 0.02930660627438408 0.43505080233464871 0 0.01465002331135397 0.42524954091721728 0 0.03456226345737911 0.41613194850519858 0 0.019354412326701181 0.40972779877723497 0 0.035962394065714547 0.40021335287231002 0 0.03456226345737911 0.41613194850519858 0 0.019354412326701181 0.40972779877723497 0 0.01465002331135397 0.42524954091721728 0 -0.0059281738682262766 0.41426559178769701 0 0.019354412326701181 0.40972779877723497 0 0.01465002331135397 0.42524954091721728 0 -0.0043148768851538526 0.43185202329179762 0 -0.0059281738682262766 0.41426559178769701 0 0.01465002331135397 0.42524954091721728 0 -0.0043148768851538526 0.43185202329179762 0 0.0101340645638862 0.44412225376119452 0 0.01465002331135397 0.42524954091721728 0 -0.0001494777101052891 0.38879904132469778 0 0.01266896062397708 0.38230819319500148 0 0.016034379380721189 0.39391446674555181 0 0.01266896062397708 0.38230819319500148 0 0.0050970088877844641 0.3741788572440583 0 0.014424229044923759 0.37219357864983532 0 -0.0001494777101052891 0.38879904132469778 0 0.01266896062397708 0.38230819319500148 0 0.0050970088877844641 0.3741788572440583 0 -0.0001494777101052891 0.38879904132469778 0 -0.0059281738682262766 0.41426559178769701 0 0.016034379380721189 0.39391446674555181 0 -0.0059281738682262766 0.41426559178769701 0 0.016034379380721189 0.39391446674555181 0 -0.0001494777101052891 0.38879904132469778 0 0.016034379380721189 0.39391446674555181 0 -0.0059281738682262766 0.41426559178769701 0 0.019354412326701181 0.40972779877723497 0 0.016034379380721189 0.39391446674555181 0 0.016034379380721189 0.39391446674555181 0 0.035962394065714547 0.40021335287231002 0 0.03194939955854191 0.39502635819046122 0 0.019354412326701181 0.40972779877723497 0 0.016034379380721189 0.39391446674555181 0 0.035962394065714547 0.40021335287231002 0 0.016034379380721189 0.39391446674555181 0 0.035962394065714547 0.40021335287231002 0 0.0279688183079345 0.38285567698815398 0 0.03194939955854191 0.39502635819046122 0 0.016034379380721189 0.39391446674555181 0 0.0279688183079345 0.38285567698815398 0 0.03194939955854191 0.39502635819046122 0 0.0279688183079345 0.38285567698815398 0 0.033697162036392947 0.38771843819142132 0 0.03194939955854191 0.39502635819046122 0 0.01266896062397708 0.38230819319500148 0 0.016034379380721189 0.39391446674555181 0 0.0279688183079345 0.38285567698815398 0 0.016034379380721189 0.39391446674555181 0 0.0279688183079345 0.38285567698815398 0 0.01266896062397708 0.38230819319500148 0 0.0279688183079345 0.38285567698815398 0 0.014424229044923759 0.37219357864983532 0 0.0279688183079345 0.38285567698815398 0 0.033691933226094553 0.37755247630789479 0 0.033691933226094553 0.37755247630789479 0 0.034980090087299083 0.38031475910548412 0 0.039406606513578087 0.38104346067410649 0 0.034980090087299083 0.38031475910548412 0 0.035131319610070891 0.38415395857140278 0 0.039406606513578087 0.38104346067410649 0 0.0279688183079345 0.38285567698815398 0 0.034980090087299083 0.38031475910548412 0 0.035131319610070891 0.38415395857140278 0 0.0279688183079345 0.38285567698815398 0 0.033691933226094553 0.37755247630789479 0 0.034980090087299083 0.38031475910548412 0 0.033691933226094553 0.37755247630789479 0 0.034980090087299083 0.38031475910548412 0 0.0279688183079345 0.38285567698815398 0 0.035131319610070891 0.38415395857140278 0 0.033697162036392947 0.38771843819142132 0 0.033697162036392947 0.38771843819142132 0 0.039141233327684537 0.38634507923656658 0 0.036951710637646552 0.39182916903997222 0 0.035131319610070891 0.38415395857140278 0 0.039141233327684537 0.38634507923656658 0 0.039406606513578087 0.38104346067410649 0 0.035131319610070891 0.38415395857140278 0 0.033697162036392947 0.38771843819142132 0 0.039141233327684537 0.38634507923656658 0 0.039141233327684537 0.38634507923656658 0 0.044614396679369062 0.3832585060440612 0 0.039406606513578087 0.38104346067410649 0 0.039141233327684537 0.38634507923656658 0 0.044008364199898821 0.38984261670910192 0 0.044614396679369062 0.3832585060440612 0 0.039141233327684537 0.38634507923656658 0 0.044008364199898821 0.38984261670910192 0 0.036951710637646552 0.39182916903997222 0 0.044008364199898821 0.38984261670910192 0 0.044614396679369062 0.3832585060440612 0 0.051751176687498818 0.38552873975258689 0 0.044614396679369062 0.3832585060440612 0 0.039406606513578087 0.38104346067410649 0 0.04905160588259809 0.37600759079641999 0 0.033691933226094553 0.37755247630789479 0 0.039406606513578087 0.38104346067410649 0 0.04905160588259809 0.37600759079641999 0 0.044008364199898821 0.38984261670910192 0 0.035962394065714547 0.40021335287231002 0 0.051801683626632032 0.39539361348568097 0 0.055890408750708588 0.40651223899906619 0 0.035962394065714547 0.40021335287231002 0 0.044008364199898821 0.38984261670910192 0 0.035962394065714547 0.40021335287231002 0 0.036951710637646552 0.39182916903997222 0 0.035962394065714547 0.40021335287231002 0 0.03194939955854191 0.39502635819046122 0 0.036951710637646552 0.39182916903997222 0 0.033697162036392947 0.38771843819142132 0 0.03194939955854191 0.39502635819046122 0 0.036951710637646552 0.39182916903997222 0 0.055890408750708588 0.40651223899906619 0 0.035962394065714547 0.40021335287231002 0 0.051801683626632032 0.39539361348568097 0 0.055890408750708588 0.40651223899906619 0 0.051801683626632032 0.39539361348568097 0 0.060828603520689528 0.38964181914958479 0 0.044614396679369062 0.3832585060440612 0 0.04905160588259809 0.37600759079641999 0 0.051751176687498818 0.38552873975258689 0 0.04905160588259809 0.37600759079641999 0 0.051751176687498818 0.38552873975258689 0 0.05834882054698718 0.38019801293882799 0 0.044008364199898821 0.38984261670910192 0 0.051801683626632032 0.39539361348568097 0 0.051751176687498818 0.38552873975258689 0 0.051751176687498818 0.38552873975258689 0 0.060828603520689528 0.38964181914958479 0 0.05834882054698718 0.38019801293882799 0 0.060828603520689528 0.38964181914958479 0 0.05834882054698718 0.38019801293882799 0 0.067202104669884383 0.38015278985889389 0 0.051801683626632032 0.39539361348568097 0 0.051751176687498818 0.38552873975258689 0 0.060828603520689528 0.38964181914958479 0 0.04905160588259809 0.37600759079641999 0 0.05834882054698718 0.38019801293882799 0 0.06291061197426509 0.36965912513665478 0 0.067202104669884383 0.38015278985889389 0 0.076366397001417716 0.39194850938804399 0 0.076914370567136042 0.37108589365026501 0 0.05834882054698718 0.38019801293882799 0 0.067202104669884383 0.38015278985889389 0 0.06291061197426509 0.36965912513665478 0 0.076366397001417716 0.39194850938804399 0 0.076914370567136042 0.37108589365026501 0 0.060828603520689528 0.38964181914958479 0 0.067202104669884383 0.38015278985889389 0 0.076366397001417716 0.39194850938804399 0 0.091133339433695698 0.3925066579923322 0 0.083250362652112275 0.3680368319668727 0 0.076914370567136042 0.37108589365026501 0 0.091133339433695698 0.3925066579923322 0 0.076366397001417716 0.39194850938804399 0 0.076914370567136042 0.37108589365026501 0 0.091133339433695698 0.3925066579923322 0 0.076914370567136042 0.37108589365026501 0 0.091133339433695698 0.3925066579923322 0 0.1005896576763506 0.38377744873546898 0 0.083250362652112275 0.3680368319668727 0 0.1005896576763506 0.38377744873546898 0 0.083250362652112275 0.3680368319668727 0 0.083667419983063984 0.40126756930486929 0 0.076366397001417716 0.39194850938804399 0 0.07581842343570247 0.41281112512582308 0 0.091133339433695698 0.3925066579923322 0 0.083667419983063984 0.40126756930486929 0 0.091351520061442315 0.40780398471327822 0 0.091133339433695698 0.3925066579923322 0 0.083667419983063984 0.40126756930486929 0 0.076366397001417716 0.39194850938804399 0 0.055890408750708588 0.40651223899906619 0 0.060828603520689528 0.38964181914958479 0 0.076366397001417716 0.39194850938804399 0 0.055890408750708588 0.40651223899906619 0 0.076366397001417716 0.39194850938804399 0 0.07581842343570247 0.41281112512582308 0 0.076366397001417716 0.39194850938804399 0 0.07581842343570247 0.41281112512582308 0 0.055890408750708588 0.40651223899906619 0 0.063585794593409753 0.42150566125913752 0 0.07581842343570247 0.41281112512582308 0 0.07581842343570247 0.41281112512582308 0 0.075345133424525756 0.43083036593123059 0 0.063585794593409753 0.42150566125913752 0 0.07581842343570247 0.41281112512582308 0 0.075345133424525756 0.43083036593123059 0 0.055890408750708588 0.40651223899906619 0 0.07581842343570247 0.41281112512582308 0 0.061550552249165558 0.44761852681324937 0 0.058614116497581983 0.43383055250981412 0 0.075345133424525756 0.43083036593123059 0 0.058614116497581983 0.43383055250981412 0 0.063585794593409753 0.42150566125913752 0 0.075345133424525756 0.43083036593123059 0 0.07581842343570247 0.41281112512582308 0 0.087300883961523718 0.43460936310595177 0 0.099729924509697976 0.42036911947526812 0 0.07581842343570247 0.41281112512582308 0 0.075345133424525756 0.43083036593123059 0 0.087300883961523718 0.43460936310595177 0 0.087300883961523718 0.43460936310595177 0 0.099729924509697976 0.42036911947526812 0 0.07581842343570247 0.41281112512582308 0 0.099729924509697976 0.42036911947526812 0 0.07581842343570247 0.41281112512582308 0 0.091351520061442315 0.40780398471327822 0 0.099729924509697976 0.42036911947526812 0 0.083667419983063984 0.40126756930486929 0 0.07581842343570247 0.41281112512582308 0 0.091351520061442315 0.40780398471327822 0 0.091351520061442315 0.40780398471327822 0 0.099729924509697976 0.42036911947526812 0 0.1053523083002549 0.4139274223343995 0 0.099729924509697976 0.42036911947526812 0 0.10865651877661391 0.41890518933107268 0 0.1053523083002549 0.4139274223343995 0 0.099729924509697976 0.42036911947526812 0 0.1053523083002549 0.4139274223343995 0 0.10865651877661391 0.41890518933107268 0 0.1053523083002549 0.4139274223343995 0 0.099463561867878678 0.44168060838887141 0 0.087300883961523718 0.43460936310595177 0 0.099729924509697976 0.42036911947526812 0 0.099463561867878678 0.44168060838887141 0 0.099729924509697976 0.42036911947526812 0 0.124223395864849 0.42811106413728373 0 0.099729924509697976 0.42036911947526812 0 0.124223395864849 0.42811106413728373 0 0.099729924509697976 0.42036911947526812 0 0.10865651877661391 0.41890518933107268 0 0.124223395864849 0.42811106413728373 0 0.099463561867878678 0.44168060838887141 0 0.124223395864849 0.42811106413728373 0 0.10865651877661391 0.41890518933107268 0 0.12233007750047351 0.42254641277357791 0 0.124223395864849 0.42811106413728373 0 0.12233007750047351 0.42254641277357791 0 0.124223395864849 0.42811106413728373 0 0.1259477935028786 0.42481333000798338 0 0.11990135260899221 0.41492149193951011 0 0.1179289527005889 0.39951806550406532 0 0.13425923176485621 0.41434269730804241 0 0.1053523083002549 0.4139274223343995 0 0.1179289527005889 0.39951806550406532 0 0.1053523083002549 0.4139274223343995 0 0.11990135260899221 0.41492149193951011 0 0.1179289527005889 0.39951806550406532 0 0.10865651877661391 0.41890518933107268 0 0.12233007750047351 0.42254641277357791 0 0.11990135260899221 0.41492149193951011 0 0.10865651877661391 0.41890518933107268 0 0.1053523083002549 0.4139274223343995 0 0.11990135260899221 0.41492149193951011 0 0.12233007750047351 0.42254641277357791 0 0.11990135260899221 0.41492149193951011 0 0.12988080440721589 0.42138777444222769 0 0.1179289527005889 0.39951806550406532 0 0.12435094550417559 0.39731348797371169 0 0.131885687944581 0.40265630670116281 0 0.1179289527005889 0.39951806550406532 0 0.1190421989509793 0.39287301264249969 0 0.1121750138620994 0.38774148584204071 0 0.1179289527005889 0.39951806550406532 0 0.1199544464847456 0.39719740971031731 0 0.12435094550417559 0.39731348797371169 0 0.1179289527005889 0.39951806550406532 0 0.1190421989509793 0.39287301264249969 0 0.1199544464847456 0.39719740971031731 0 0.1190421989509793 0.39287301264249969 0 0.1199544464847456 0.39719740971031731 0 0.1230445022742277 0.39356612030829519 0 0.1179289527005889 0.39951806550406532 0 0.1199544464847456 0.39719740971031731 0 0.1199544464847456 0.39719740971031731 0 0.12435094550417559 0.39731348797371169 0 0.1230445022742277 0.39356612030829519 0 0.1190421989509793 0.39287301264249969 0 0.1230445022742277 0.39356612030829519 0 0.1226151833168425 0.38731235794836072 0 0.1230445022742277 0.39356612030829519 0 0.1226151833168425 0.38731235794836072 0 0.1289411381167351 0.39362953764471831 0 0.1179289527005889 0.39951806550406532 0 0.1121750138620994 0.38774148584204071 0 0.1005896576763506 0.38377744873546898 0 0.1226151833168425 0.38731235794836072 0 0.1193143140642889 0.37816761607626842 0 0.1121750138620994 0.38774148584204071 0 0.1190421989509793 0.39287301264249969 0 0.1226151833168425 0.38731235794836072 0 0.1121750138620994 0.38774148584204071 0 0.1226151833168425 0.38731235794836072 0 0.1193143140642889 0.37816761607626842 0 0.12805816438154441 0.38021913467605328 0 0.1193143140642889 0.37816761607626842 0 0.10945591611827089 0.37738864921804322 0 0.1121750138620994 0.38774148584204071 0 0.1193143140642889 0.37816761607626842 0 0.10945591611827089 0.37738864921804322 0 0.1152145863960332 0.37071968365946462 0 0.10945591611827089 0.37738864921804322 0 0.1121750138620994 0.38774148584204071 0 0.1005896576763506 0.38377744873546898 0 0.10945591611827089 0.37738864921804322 0 0.1005896576763506 0.38377744873546898 0 0.1015302705704382 0.36923667383127562 0 0.091133339433695698 0.3925066579923322 0 0.1005896576763506 0.38377744873546898 0 0.1042209558770307 0.39719782078185312 0 0.091133339433695698 0.3925066579923322 0 0.1053523083002549 0.4139274223343995 0 0.1042209558770307 0.39719782078185312 0 0.1053523083002549 0.4139274223343995 0 0.1179289527005889 0.39951806550406532 0 0.1042209558770307 0.39719782078185312 0 0.1179289527005889 0.39951806550406532 0 0.1005896576763506 0.38377744873546898 0 0.1042209558770307 0.39719782078185312 0 0.091133339433695698 0.3925066579923322 0 0.091351520061442315 0.40780398471327822 0 0.1053523083002549 0.4139274223343995 0 0.091133339433695698 0.3925066579923322 0 0.1053523083002549 0.4139274223343995 0 0.1179289527005889 0.39951806550406532 0 0.1005896576763506 0.38377744873546898 0 0.1015302705704382 0.36923667383127562 0 0.1178686938659408 0.35774099961424488 0 0.1049240058357447 0.34150681917865833 0 0.1015302705704382 0.36923667383127562 0 0.1049240058357447 0.34150681917865833 0 0.093035642971071877 0.35641231495060488 0 0.1015302705704382 0.36923667383127562 0 0.1049240058357447 0.34150681917865833 0 0.1049240058357447 0.34150681917865833 0 0.093035642971071877 0.35641231495060488 0 0.086531515088395336 0.3444945925551855 0 0.1015302705704382 0.36923667383127562 0 0.093035642971071877 0.35641231495060488 0 0.092776742582612884 0.36751652987986883 0 0.1005896576763506 0.38377744873546898 0 0.1015302705704382 0.36923667383127562 0 0.092776742582612884 0.36751652987986883 0 0.10945591611827089 0.37738864921804322 0 0.1015302705704382 0.36923667383127562 0 0.1152145863960332 0.37071968365946462 0 0.1015302705704382 0.36923667383127562 0 0.1152145863960332 0.37071968365946462 0 0.1178686938659408 0.35774099961424488 0 0.1193143140642889 0.37816761607626842 0 0.1152145863960332 0.37071968365946462 0 0.12790373736122701 0.37106447955749072 0 0.1152145863960332 0.37071968365946462 0 0.1178686938659408 0.35774099961424488 0 0.12790373736122701 0.37106447955749072 0 0.1178686938659408 0.35774099961424488 0 0.1049240058357447 0.34150681917865833 0 0.12534780460516259 0.33864851202732921 0 0.1128759122913104 0.32797096504297568 0 0.1049240058357447 0.34150681917865833 0 0.12534780460516259 0.33864851202732921 0 0.1129140976232829 0.3179515644398746 0 0.12534780460516259 0.33864851202732921 0 0.1128759122913104 0.32797096504297568 0 0.1129140976232829 0.3179515644398746 0 0.12534780460516259 0.33864851202732921 0 0.1233601924894574 0.31681781602104742 0 0.1129140976232829 0.3179515644398746 0 0.12534780460516259 0.33864851202732921 0 0.1233601924894574 0.31681781602104742 0 0.1141950927470984 0.31285621807114039 0 0.11822276392407451 0.30983272177294913 0 0.1233601924894574 0.31681781602104742 0 0.1129140976232829 0.3179515644398746 0 0.1141950927470984 0.31285621807114039 0 0.1128759122913104 0.32797096504297568 0 0.1129140976232829 0.3179515644398746 0 0.1083177411010513 0.31377696452604092 0 0.1129140976232829 0.3179515644398746 0 0.1141950927470984 0.31285621807114039 0 0.1083177411010513 0.31377696452604092 0 0.1128759122913104 0.32797096504297568 0 0.1083177411010513 0.31377696452604092 0 0.1049240058357447 0.34150681917865833 0 0.1083177411010513 0.31377696452604092 0 0.1049240058357447 0.34150681917865833 0 0.1083177411010513 0.31377696452604092 0 0.099269953078038015 0.3235931221463445 0 0.1049240058357447 0.34150681917865833 0 0.099269953078038015 0.3235931221463445 0 0.089796369195062398 0.32716292291492838 0 0.094041696180293705 0.31192578196575038 0 0.1083177411010513 0.31377696452604092 0 0.099269953078038015 0.3235931221463445 0 0.094041696180293705 0.31192578196575038 0 0.099269953078038015 0.3235931221463445 0 0.1049240058357447 0.34150681917865833 0 0.089796369195062398 0.32716292291492838 0 0.1049240058357447 0.34150681917865833 0 0.089796369195062398 0.32716292291492838 0 0.086531515088395336 0.3444945925551855 0 0.089796369195062398 0.32716292291492838 0 0.077458442359416388 0.3299981756867848 0 0.086531515088395336 0.3444945925551855 0 0.072373583398576219 0.34170896164119102 0 0.077458442359416388 0.3299981756867848 0 0.086531515088395336 0.3444945925551855 0 0.089796369195062398 0.32716292291492838 0 0.075315823396388537 0.31279016312129881 0 0.094041696180293705 0.31192578196575038 0 0.089796369195062398 0.32716292291492838 0 0.075315823396388537 0.31279016312129881 0 0.077458442359416388 0.3299981756867848 0 0.075315823396388537 0.31279016312129881 0 0.065704590851476286 0.3250136723965012 0 0.05451392206336915 0.3109432396870207 0 0.075315823396388537 0.31279016312129881 0 0.065704590851476286 0.3250136723965012 0 0.077458442359416388 0.3299981756867848 0 0.065704590851476286 0.3250136723965012 0 0.072373583398576219 0.34170896164119102 0 0.058903983469556422 0.33269428998192219 0 0.065704590851476286 0.3250136723965012 0 0.072373583398576219 0.34170896164119102 0 0.077458442359416388 0.3299981756867848 0 0.072373583398576219 0.34170896164119102 0 0.058903983469556422 0.33269428998192219 0 0.058285535734485118 0.34173484515281521 0 0.072373583398576219 0.34170896164119102 0 0.066258481625178806 0.35503288108493392 0 0.053032758312335268 0.3596307189745428 0 0.072373583398576219 0.34170896164119102 0 0.053032758312335268 0.3596307189745428 0 0.066258481625178806 0.35503288108493392 0 0.079566562945985006 0.35312607645126409 0 0.078565653854531348 0.36128371218411331 0 0.072373583398576219 0.34170896164119102 0 0.066258481625178806 0.35503288108493392 0 0.079566562945985006 0.35312607645126409 0 0.072373583398576219 0.34170896164119102 0 0.079566562945985006 0.35312607645126409 0 0.086531515088395336 0.3444945925551855 0 0.079566562945985006 0.35312607645126409 0 0.086056877129232198 0.35323975843859579 0 0.086531515088395336 0.3444945925551855 0 0.079566562945985006 0.35312607645126409 0 0.085477779043091506 0.36011937991512172 0 0.078565653854531348 0.36128371218411331 0 0.079566562945985006 0.35312607645126409 0 0.086056877129232198 0.35323975843859579 0 0.085477779043091506 0.36011937991512172 0 0.086056877129232198 0.35323975843859579 0 0.093035642971071877 0.35641231495060488 0 0.085477779043091506 0.36011937991512172 0 0.086056877129232198 0.35323975843859579 0 0.093035642971071877 0.35641231495060488 0 0.086531515088395336 0.3444945925551855 0 0.1005896576763506 0.38377744873546898 0 0.092776742582612884 0.36751652987986883 0 0.083250362652112275 0.3680368319668727 0 0.093035642971071877 0.35641231495060488 0 0.092776742582612884 0.36751652987986883 0 0.085477779043091506 0.36011937991512172 0 0.092776742582612884 0.36751652987986883 0 0.085477779043091506 0.36011937991512172 0 0.083250362652112275 0.3680368319668727 0 0.085477779043091506 0.36011937991512172 0 0.078565653854531348 0.36128371218411331 0 0.083250362652112275 0.3680368319668727 0 0.078565653854531348 0.36128371218411331 0 0.083250362652112275 0.3680368319668727 0 0.076973247552376237 0.36884431121686079 0 0.083250362652112275 0.3680368319668727 0 0.076914370567136042 0.37108589365026501 0 0.076973247552376237 0.36884431121686079 0 0.066258481625178806 0.35503288108493392 0 0.076914370567136042 0.37108589365026501 0 0.066258481625178806 0.35503288108493392 0 0.076914370567136042 0.37108589365026501 0 0.06291061197426509 0.36965912513665478 0 0.066258481625178806 0.35503288108493392 0 0.076914370567136042 0.37108589365026501 0 0.076973247552376237 0.36884431121686079 0 0.076914370567136042 0.37108589365026501 0 0.076973247552376237 0.36884431121686079 0 0.066258481625178806 0.35503288108493392 0 0.078565653854531348 0.36128371218411331 0 0.076973247552376237 0.36884431121686079 0 0.067202104669884383 0.38015278985889389 0 0.076914370567136042 0.37108589365026501 0 0.06291061197426509 0.36965912513665478 0 0.04905160588259809 0.37600759079641999 0 0.06291061197426509 0.36965912513665478 0 0.053032758312335268 0.3596307189745428 0 0.066258481625178806 0.35503288108493392 0 0.06291061197426509 0.36965912513665478 0 0.053032758312335268 0.3596307189745428 0 0.072373583398576219 0.34170896164119102 0 0.055717512591686821 0.34814559807136253 0 0.058285535734485118 0.34173484515281521 0 0.072373583398576219 0.34170896164119102 0 0.053032758312335268 0.3596307189745428 0 0.055717512591686821 0.34814559807136253 0 0.053032758312335268 0.3596307189745428 0 0.045971569289322313 0.35192455456750821 0 0.041686843469932053 0.36141248790854419 0 0.053032758312335268 0.3596307189745428 0 0.055717512591686821 0.34814559807136253 0 0.045971569289322313 0.35192455456750821 0 0.055717512591686821 0.34814559807136253 0 0.045971569289322313 0.35192455456750821 0 0.051063270447756201 0.33989501463528859 0 0.045971569289322313 0.35192455456750821 0 0.037263242078639257 0.35424777689466119 0 0.033987022233154217 0.34470581563606989 0 0.045971569289322313 0.35192455456750821 0 0.037263242078639257 0.35424777689466119 0 0.041686843469932053 0.36141248790854419 0 0.034595956208466727 0.36420831857567809 0 0.028135440074920422 0.34923841067428812 0 0.037263242078639257 0.35424777689466119 0 0.034595956208466727 0.36420831857567809 0 0.028135440074920422 0.34923841067428812 0 0.037263242078639257 0.35424777689466119 0 0.033987022233154217 0.34470581563606989 0 0.028135440074920422 0.34923841067428812 0 0.033691933226094553 0.37755247630789479 0 0.053032758312335268 0.3596307189745428 0 0.033691933226094553 0.37755247630789479 0 0.053032758312335268 0.3596307189745428 0 0.041686843469932053 0.36141248790854419 0 0.033691933226094553 0.37755247630789479 0 0.04905160588259809 0.37600759079641999 0 0.053032758312335268 0.3596307189745428 0 0.033691933226094553 0.37755247630789479 0 0.041686843469932053 0.36141248790854419 0 0.034595956208466727 0.36420831857567809 0 0.037263242078639257 0.35424777689466119 0 0.041686843469932053 0.36141248790854419 0 0.034595956208466727 0.36420831857567809 0 0.0279688183079345 0.38285567698815398 0 0.01922996908182064 0.35613652686659358 0 0.0279688183079345 0.38285567698815398 0 0.01922996908182064 0.35613652686659358 0 0.014424229044923759 0.37219357864983532 0 0.033691933226094553 0.37755247630789479 0 0.034595956208466727 0.36420831857567809 0 0.02251738103862248 0.35359012031857578 0 0.0279688183079345 0.38285567698815398 0 0.033691933226094553 0.37755247630789479 0 0.01922996908182064 0.35613652686659358 0 0.033691933226094553 0.37755247630789479 0 0.02251738103862248 0.35359012031857578 0 0.01922996908182064 0.35613652686659358 0 0.033691933226094553 0.37755247630789479 0 0.02251738103862248 0.35359012031857578 0 0.028135440074920422 0.34923841067428812 0 0.02251738103862248 0.35359012031857578 0 0.0142017672767194 0.33575838139166392 0 0.02251738103862248 0.35359012031857578 0 0.0142017672767194 0.33575838139166392 0 0.034595956208466727 0.36420831857567809 0 0.028135440074920422 0.34923841067428812 0 0.02251738103862248 0.35359012031857578 0 0.01922996908182064 0.35613652686659358 0 0.01351410502151726 0.33866019492058302 0 0.02251738103862248 0.35359012031857578 0 0.01922996908182064 0.35613652686659358 0 0.01351410502151726 0.33866019492058302 0 0.033987022233154217 0.34470581563606989 0 0.028135440074920422 0.34923841067428812 0 0.028135440074920422 0.34923841067428812 0 0.02251738103862248 0.35359012031857578 0 0.02251738103862248 0.35359012031857578 0 0.01922996908182064 0.35613652686659358 0 0.01922996908182064 0.35613652686659358 0 0.0071563883231025999 0.36548863895536982 0 0.01351410502151726 0.33866019492058302 0 -0.002403143129345516 0.34530328237259428 0 0.0071563883231025999 0.36548863895536982 0 0.01351410502151726 0.33866019492058302 0 0.0071563883231025999 0.36548863895536982 0 0.01351410502151726 0.33866019492058302 0 0.01922996908182064 0.35613652686659358 0 0.0071563883231025999 0.36548863895536982 0 0.014424229044923759 0.37219357864983532 0 0.0071563883231025999 0.36548863895536982 0 0.0050970088877844641 0.3741788572440583 0 0.0071563883231025999 0.36548863895536982 0 0.0050970088877844641 0.3741788572440583 0 0.014424229044923759 0.37219357864983532 0 0.01922996908182064 0.35613652686659358 0 0.0071563883231025999 0.36548863895536982 0 -0.0081216408355762101 0.31663706529269531 0 0.0087214230131738516 0.32400650462882669 0 0.001529262752131347 0.30858386382712621 0 0.0087214230131738516 0.32400650462882669 0 0.014926620250496949 0.31863175136560962 0 0.017078671702204569 0.32361835171845399 0 0.0087214230131738516 0.32400650462882669 0 0.0142017672767194 0.33575838139166392 0 0.017078671702204569 0.32361835171845399 0 0.0087214230131738516 0.32400650462882669 0 0.014926620250496949 0.31863175136560962 0 0.0063628834774128867 0.31679523798569409 0 0.014926620250496949 0.31863175136560962 0 0.0063628834774128867 0.31679523798569409 0 0.0046318613707928592 0.30589648719551771 0 0.0087214230131738516 0.32400650462882669 0 0.0063628834774128867 0.31679523798569409 0 0.001529262752131347 0.30858386382712621 0 0.0087214230131738516 0.32400650462882669 0 0.001529262752131347 0.30858386382712621 0 0.0087214230131738516 0.32400650462882669 0 0.0063628834774128867 0.31679523798569409 0 -0.0087609401411649687 0.32956484562867921 0 0.0087214230131738516 0.32400650462882669 0 0.0027678611910452091 0.33438370688767077 0 -0.002403143129345516 0.34530328237259428 0 0.0027678611910452091 0.33438370688767077 0 0.01351410502151726 0.33866019492058302 0 0.01351410502151726 0.33866019492058302 0 0.0142017672767194 0.33575838139166392 0 0.0087214230131738516 0.32400650462882669 0 0.0027678611910452091 0.33438370688767077 0 0.01351410502151726 0.33866019492058302 0 0.0087214230131738516 0.32400650462882669 0 0.01351410502151726 0.33866019492058302 0 0.0142017672767194 0.33575838139166392 0 0.0087214230131738516 0.32400650462882669 0 0.01351410502151726 0.33866019492058302 0 0.0087214230131738516 0.32400650462882669 0 0.0142017672767194 0.33575838139166392 0 0.028135440074920422 0.34923841067428812 0 0.0142017672767194 0.33575838139166392 0 0.017078671702204569 0.32361835171845399 0 0.02251738103862248 0.35359012031857578 0 0.01351410502151726 0.33866019492058302 0 0.0142017672767194 0.33575838139166392 0 0.028284079156505899 0.33473397401059252 0 0.02459942376432574 0.32670164130670171 0 0.017078671702204569 0.32361835171845399 0 0.0142017672767194 0.33575838139166392 0 0.017078671702204569 0.32361835171845399 0 0.028135440074920422 0.34923841067428812 0 0.028284079156505899 0.33473397401059252 0 0.017078671702204569 0.32361835171845399 0 0.028135440074920422 0.34923841067428812 0 0.017078671702204569 0.32361835171845399 0 0.033987022233154217 0.34470581563606989 0 0.028135440074920422 0.34923841067428812 0 0.028284079156505899 0.33473397401059252 0 0.028284079156505899 0.33473397401059252 0 0.030866678892955048 0.33031378860834038 0 0.02459942376432574 0.32670164130670171 0 0.028284079156505899 0.33473397401059252 0 0.030866678892955048 0.33031378860834038 0 0.033451830808100089 0.33534271459898829 0 0.030866678892955048 0.33031378860834038 0 0.02765645783926976 0.32344641843276872 0 0.02459942376432574 0.32670164130670171 0 0.02765645783926976 0.32344641843276872 0 0.01750462472461067 0.32182090503041849 0 0.033618502993119997 0.30985354999012882 0 0.02765645783926976 0.32344641843276872 0 0.02459942376432574 0.32670164130670171 0 0.01750462472461067 0.32182090503041849 0 0.02459942376432574 0.32670164130670171 0 0.01750462472461067 0.32182090503041849 0 0.017078671702204569 0.32361835171845399 0 0.014926620250496949 0.31863175136560962 0 0.017078671702204569 0.32361835171845399 0 0.014926620250496949 0.31863175136560962 0 0.01750462472461067 0.32182090503041849 0 0.017078671702204569 0.32361835171845399 0 0.01750462472461067 0.32182090503041849 0 0.017078671702204569 0.32361835171845399 0 0.014926620250496949 0.31863175136560962 0 0.01750462472461067 0.32182090503041849 0 0.039795036141221318 0.33088905227881849 0 0.033618502993119997 0.30985354999012882 0 0.039795036141221318 0.33088905227881849 0 0.048775562572285783 0.3310648000665718 0 0.033618502993119997 0.30985354999012882 0 0.02765645783926976 0.32344641843276872 0 0.039795036141221318 0.33088905227881849 0 0.033618502993119997 0.30985354999012882 0 0.048775562572285783 0.3310648000665718 0 0.055321264016343713 0.32267104105266331 0 0.033618502993119997 0.30985354999012882 0 0.048775562572285783 0.3310648000665718 0 0.033618502993119997 0.30985354999012882 0 0.045971569289322313 0.35192455456750821 0 0.033987022233154217 0.34470581563606989 0 0.039795036141221318 0.33088905227881849 0 0.045971569289322313 0.35192455456750821 0 0.039795036141221318 0.33088905227881849 0 0.045971569289322313 0.35192455456750821 0 0.039795036141221318 0.33088905227881849 0 0.051063270447756201 0.33989501463528859 0 0.033987022233154217 0.34470581563606989 0 0.028284079156505899 0.33473397401059252 0 0.033451830808100089 0.33534271459898829 0 0.033987022233154217 0.34470581563606989 0 0.033451830808100089 0.33534271459898829 0 0.039795036141221318 0.33088905227881849 0 0.030866678892955048 0.33031378860834038 0 0.02765645783926976 0.32344641843276872 0 0.039795036141221318 0.33088905227881849 0 0.030866678892955048 0.33031378860834038 0 0.033451830808100089 0.33534271459898829 0 0.039795036141221318 0.33088905227881849 0 0.039795036141221318 0.33088905227881849 0 0.051063270447756201 0.33989501463528859 0 0.048775562572285783 0.3310648000665718 0 0.051063270447756201 0.33989501463528859 0 0.048775562572285783 0.3310648000665718 0 0.058903983469556422 0.33269428998192219 0 0.048775562572285783 0.3310648000665718 0 0.058903983469556422 0.33269428998192219 0 0.055321264016343713 0.32267104105266331 0 0.055717512591686821 0.34814559807136253 0 0.051063270447756201 0.33989501463528859 0 0.058285535734485118 0.34173484515281521 0 0.051063270447756201 0.33989501463528859 0 0.058903983469556422 0.33269428998192219 0 0.058285535734485118 0.34173484515281521 0 0.055321264016343713 0.32267104105266331 0 0.05451392206336915 0.3109432396870207 0 0.033618502993119997 0.30985354999012882 0 0.065704590851476286 0.3250136723965012 0 0.058903983469556422 0.33269428998192219 0 0.055321264016343713 0.32267104105266331 0 0.065704590851476286 0.3250136723965012 0 0.055321264016343713 0.32267104105266331 0 0.05451392206336915 0.3109432396870207 0 0.048466518689754608 0.30152649669330622 0 0.05451392206336915 0.3109432396870207 0 0.063213037377246623 0.30085055034500352 0 0.048466518689754608 0.30152649669330622 0 0.051695093236372919 0.29148891151648471 0 0.063213037377246623 0.30085055034500352 0 0.051695093236372919 0.29148891151648471 0 0.054627622985100398 0.277706821291138 0 0.069526003894230526 0.28784878313603612 0 0.051695093236372919 0.29148891151648471 0 0.069526003894230526 0.28784878313603612 0 0.063213037377246623 0.30085055034500352 0 0.051695093236372919 0.29148891151648471 0 0.040856052972295637 0.28226978763780242 0 0.054627622985100398 0.277706821291138 0 0.03929203777866408 0.29449623192789359 0 0.033618502993119997 0.30985354999012882 0 0.026270775279322599 0.284829294564932 0 0.051695093236372919 0.29148891151648471 0 0.040856052972295637 0.28226978763780242 0 0.03929203777866408 0.29449623192789359 0 0.048466518689754608 0.30152649669330622 0 0.051695093236372919 0.29148891151648471 0 0.03929203777866408 0.29449623192789359 0 0.040856052972295637 0.28226978763780242 0 0.03929203777866408 0.29449623192789359 0 0.026270775279322599 0.284829294564932 0 0.040856052972295637 0.28226978763780242 0 0.026641980800241119 0.28326287268491901 0 0.026270775279322599 0.284829294564932 0 0.048466518689754608 0.30152649669330622 0 0.05451392206336915 0.3109432396870207 0 0.033618502993119997 0.30985354999012882 0 0.048466518689754608 0.30152649669330622 0 0.03929203777866408 0.29449623192789359 0 0.033618502993119997 0.30985354999012882 0 0.014926620250496949 0.31863175136560962 0 0.01750462472461067 0.32182090503041849 0 0.023647362746766921 0.29589963312334 0 0.01750462472461067 0.32182090503041849 0 0.033618502993119997 0.30985354999012882 0 0.023647362746766921 0.29589963312334 0 0.033618502993119997 0.30985354999012882 0 0.026270775279322599 0.284829294564932 0 0.01750462472461067 0.32182090503041849 0 0.023647362746766921 0.29589963312334 0 0.033618502993119997 0.30985354999012882 0 0.023647362746766921 0.29589963312334 0 0.023647362746766921 0.29589963312334 0 0.01218993250927047 0.27986575684729731 0 0.033618502993119997 0.30985354999012882 0 0.023647362746766921 0.29589963312334 0 0.026270775279322599 0.284829294564932 0 0.023647362746766921 0.29589963312334 0 0.026270775279322599 0.284829294564932 0 0.023647362746766921 0.29589963312334 0 0.023770674429786861 0.28595729628603023 0 0.01218993250927047 0.27986575684729731 0 0.023647362746766921 0.29589963312334 0 0.023770674429786861 0.28595729628603023 0 0.026270775279322599 0.284829294564932 0 0.023770674429786861 0.28595729628603023 0 0.026641980800241119 0.28326287268491901 0 0.020293596562726661 0.28002776591549478 0 0.023770674429786861 0.28595729628603023 0 0.026641980800241119 0.28326287268491901 0 0.026270775279322599 0.284829294564932 0 0.026641980800241119 0.28326287268491901 0 0.026270775279322599 0.284829294564932 0 0.023770674429786861 0.28595729628603023 0 0.026641980800241119 0.28326287268491901 0 0.023770674429786861 0.28595729628603023 0 0.01218993250927047 0.27986575684729731 0 0.020293596562726661 0.28002776591549478 0 -0.0024700602076885869 0.2783212407398884 0 0.006228280021404381 0.29847649605274901 0 0.01218993250927047 0.27986575684729731 0 -0.0024700602076885869 0.2783212407398884 0 0.006228280021404381 0.29847649605274901 0 0.023647362746766921 0.29589963312334 0 0.006228280021404381 0.29847649605274901 0 0.01218993250927047 0.27986575684729731 0 -0.0056628975089109412 0.29316122302542558 0 0.0046318613707928592 0.30589648719551771 0 0.001529262752131347 0.30858386382712621 0 -0.0056628975089109412 0.29316122302542558 0 0.006228280021404381 0.29847649605274901 0 0.0046318613707928592 0.30589648719551771 0 0.014926620250496949 0.31863175136560962 0 0.006228280021404381 0.29847649605274901 0 0.014926620250496949 0.31863175136560962 0 0.006228280021404381 0.29847649605274901 0 0.0046318613707928592 0.30589648719551771 0 0.014926620250496949 0.31863175136560962 0 0.023647362746766921 0.29589963312334 0 0.006228280021404381 0.29847649605274901 0 0.0063628834774128867 0.31679523798569409 0 0.0046318613707928592 0.30589648719551771 0 0.001529262752131347 0.30858386382712621 0 0.014926620250496949 0.31863175136560962 0 0.0046318613707928592 0.30589648719551771 0 0.0079553971018997711 0.25407995411845952 0 0.01238101184300504 0.2676186730606539 0 0.019268315692661311 0.25322699798440051 0 0.013409000954929209 0.2472900534625472 0 0.0079553971018997711 0.25407995411845952 0 0.019268315692661311 0.25322699798440051 0 -0.0034487942078763869 0.25047567664513981 0 0.0079553971018997711 0.25407995411845952 0 0.00073250227177334287 0.26383188057125512 0 0.0079553971018997711 0.25407995411845952 0 0.00073250227177334287 0.26383188057125512 0 0.01238101184300504 0.2676186730606539 0 0.00073250227177334287 0.26383188057125512 0 0.01218993250927047 0.27986575684729731 0 0.01238101184300504 0.2676186730606539 0 0.00073250227177334287 0.26383188057125512 0 0.01218993250927047 0.27986575684729731 0 -0.0024700602076885869 0.2783212407398884 0 0.00073250227177334287 0.26383188057125512 0 0.01218993250927047 0.27986575684729731 0 0.01218993250927047 0.27986575684729731 0 0.01238101184300504 0.2676186730606539 0 0.016962510859367761 0.27413514974705833 0 0.016962510859367761 0.27413514974705833 0 0.02300644617571538 0.27371192488788842 0 0.02229311542779398 0.26546085750054371 0 0.01238101184300504 0.2676186730606539 0 0.016962510859367761 0.27413514974705833 0 0.02229311542779398 0.26546085750054371 0 0.026641980800241119 0.28326287268491901 0 0.02300644617571538 0.27371192488788842 0 0.020293596562726661 0.28002776591549478 0 0.01218993250927047 0.27986575684729731 0 0.016962510859367761 0.27413514974705833 0 0.020293596562726661 0.28002776591549478 0 0.016962510859367761 0.27413514974705833 0 0.02300644617571538 0.27371192488788842 0 0.020293596562726661 0.28002776591549478 0 0.026641980800241119 0.28326287268491901 0 0.029662463108052602 0.27051696965129862 0 0.026641980800241119 0.28326287268491901 0 0.02300644617571538 0.27371192488788842 0 0.029662463108052602 0.27051696965129862 0 0.026641980800241119 0.28326287268491901 0 0.02300644617571538 0.27371192488788842 0 0.02300644617571538 0.27371192488788842 0 0.029662463108052602 0.27051696965129862 0 0.02229311542779398 0.26546085750054371 0 0.02229311542779398 0.26546085750054371 0 0.019268315692661311 0.25322699798440051 0 0.033554126652565637 0.25829889200784789 0 0.029662463108052602 0.27051696965129862 0 0.02229311542779398 0.26546085750054371 0 0.033554126652565637 0.25829889200784789 0 0.01238101184300504 0.2676186730606539 0 0.02229311542779398 0.26546085750054371 0 0.019268315692661311 0.25322699798440051 0 0.02374078695113872 0.24704121500273679 0 0.019268315692661311 0.25322699798440051 0 0.033554126652565637 0.25829889200784789 0 0.02374078695113872 0.24704121500273679 0 0.034268254741715139 0.24495546749595951 0 0.033554126652565637 0.25829889200784789 0 0.019268315692661311 0.25322699798440051 0 0.033554126652565637 0.25829889200784789 0 0.034268254741715139 0.24495546749595951 0 0.033554126652565637 0.25829889200784789 0 0.044642582184618529 0.2505978654143291 0 0.029662463108052602 0.27051696965129862 0 0.033554126652565637 0.25829889200784789 0 0.047839937612470157 0.26337078603129482 0 0.033554126652565637 0.25829889200784789 0 0.047839937612470157 0.26337078603129482 0 0.033554126652565637 0.25829889200784789 0 0.044642582184618529 0.2505978654143291 0 0.047839937612470157 0.26337078603129482 0 0.026641980800241119 0.28326287268491901 0 0.047839937612470157 0.26337078603129482 0 0.026641980800241119 0.28326287268491901 0 0.029662463108052602 0.27051696965129862 0 0.047839937612470157 0.26337078603129482 0 0.040856052972295637 0.28226978763780242 0 0.026641980800241119 0.28326287268491901 0 0.047839937612470157 0.26337078603129482 0 0.054627622985100398 0.277706821291138 0 0.047839937612470157 0.26337078603129482 0 0.069130450530432333 0.27092956064533852 0 0.047839937612470157 0.26337078603129482 0 0.069130450530432333 0.27092956064533852 0 0.040856052972295637 0.28226978763780242 0 0.054627622985100398 0.277706821291138 0 0.047839937612470157 0.26337078603129482 0 0.044642582184618529 0.2505978654143291 0 0.047839937612470157 0.26337078603129482 0 0.060428282689496772 0.25155792815465722 0 0.047839937612470157 0.26337078603129482 0 0.060428282689496772 0.25155792815465722 0 0.069130450530432333 0.27092956064533852 0 0.047839937612470157 0.26337078603129482 0 0.060428282689496772 0.25155792815465722 0 0.060428282689496772 0.25155792815465722 0 0.080715854223272432 0.25653893026780961 0 0.069130450530432333 0.27092956064533852 0 0.094055895061975411 0.24375788446511959 0 0.080715854223272432 0.25653893026780961 0 0.099475038796377147 0.26188050230015031 0 0.080715854223272432 0.25653893026780961 0 0.090420963448394703 0.27848833525938149 0 0.099475038796377147 0.26188050230015031 0 0.090420963448394703 0.27848833525938149 0 0.069130450530432333 0.27092956064533852 0 0.080715854223272432 0.25653893026780961 0 0.090420963448394703 0.27848833525938149 0 0.069130450530432333 0.27092956064533852 0 0.090420963448394703 0.27848833525938149 0 0.069130450530432333 0.27092956064533852 0 0.069526003894230526 0.28784878313603612 0 0.054627622985100398 0.277706821291138 0 0.069130450530432333 0.27092956064533852 0 0.069526003894230526 0.28784878313603612 0 0.069526003894230526 0.28784878313603612 0 0.063213037377246623 0.30085055034500352 0 0.083867724942765093 0.29726076907313792 0 0.075315823396388537 0.31279016312129881 0 0.063213037377246623 0.30085055034500352 0 0.083867724942765093 0.29726076907313792 0 0.075315823396388537 0.31279016312129881 0 0.05451392206336915 0.3109432396870207 0 0.063213037377246623 0.30085055034500352 0 0.075315823396388537 0.31279016312129881 0 0.083867724942765093 0.29726076907313792 0 0.094041696180293705 0.31192578196575038 0 0.083867724942765093 0.29726076907313792 0 0.094041696180293705 0.31192578196575038 0 0.096264616111749385 0.29908225453497789 0 0.090420963448394703 0.27848833525938149 0 0.083867724942765093 0.29726076907313792 0 0.097639378805724542 0.28929114072081052 0 0.090420963448394703 0.27848833525938149 0 0.069526003894230526 0.28784878313603612 0 0.083867724942765093 0.29726076907313792 0 0.083867724942765093 0.29726076907313792 0 0.097639378805724542 0.28929114072081052 0 0.096264616111749385 0.29908225453497789 0 0.090420963448394703 0.27848833525938149 0 0.1117114763663575 0.28604710987342352 0 0.090420963448394703 0.27848833525938149 0 0.097639378805724542 0.28929114072081052 0 0.1117114763663575 0.28604710987342352 0 0.097639378805724542 0.28929114072081052 0 0.096264616111749385 0.29908225453497789 0 0.1040257373334858 0.29742947839227191 0 0.097639378805724542 0.28929114072081052 0 0.1040257373334858 0.29742947839227191 0 0.1117114763663575 0.28604710987342352 0 0.1083177411010513 0.31377696452604092 0 0.1040257373334858 0.29742947839227191 0 0.1117114763663575 0.28604710987342352 0 0.1083177411010513 0.31377696452604092 0 0.10119238694151871 0.30508442524232099 0 0.1040257373334858 0.29742947839227191 0 0.1083177411010513 0.31377696452604092 0 0.094041696180293705 0.31192578196575038 0 0.10119238694151871 0.30508442524232099 0 0.094041696180293705 0.31192578196575038 0 0.10119238694151871 0.30508442524232099 0 0.096264616111749385 0.29908225453497789 0 0.10119238694151871 0.30508442524232099 0 0.096264616111749385 0.29908225453497789 0 0.1040257373334858 0.29742947839227191 0 0.1083177411010513 0.31377696452604092 0 0.1117114763663575 0.28604710987342352 0 0.1131510874378113 0.29330467177148062 0 0.1083177411010513 0.31377696452604092 0 0.1132888574098304 0.30057087268041138 0 0.1131510874378113 0.29330467177148062 0 0.1083177411010513 0.31377696452604092 0 0.1117114763663575 0.28604710987342352 0 0.1083177411010513 0.31377696452604092 0 0.1140297828512209 0.30651231357247238 0 0.1132888574098304 0.30057087268041138 0 0.1141950927470984 0.31285621807114039 0 0.1140297828512209 0.30651231357247238 0 0.11822276392407451 0.30983272177294913 0 0.1141950927470984 0.31285621807114039 0 0.1083177411010513 0.31377696452604092 0 0.1140297828512209 0.30651231357247238 0 0.1140297828512209 0.30651231357247238 0 0.118544263219596 0.30377697149904859 0 0.11822276392407451 0.30983272177294913 0 0.1140297828512209 0.30651231357247238 0 0.1132888574098304 0.30057087268041138 0 0.115110870615054 0.30063417602642928 0 0.1140297828512209 0.30651231357247238 0 0.115110870615054 0.30063417602642928 0 0.118544263219596 0.30377697149904859 0 0.1132888574098304 0.30057087268041138 0 0.1172335964119836 0.2972858709715917 0 0.1131510874378113 0.29330467177148062 0 0.115110870615054 0.30063417602642928 0 0.1172335964119836 0.2972858709715917 0 0.118544263219596 0.30377697149904859 0 0.1132888574098304 0.30057087268041138 0 0.115110870615054 0.30063417602642928 0 0.1172335964119836 0.2972858709715917 0 0.1242896187096309 0.30039114893219698 0 0.118544263219596 0.30377697149904859 0 0.1238376517678535 0.30899478236081279 0 0.1172335964119836 0.2972858709715917 0 0.1242896187096309 0.30039114893219698 0 0.1204438644467155 0.29301411167624192 0 0.1172335964119836 0.2972858709715917 0 0.1242896187096309 0.30039114893219698 0 0.118544263219596 0.30377697149904859 0 0.1233601924894574 0.31681781602104742 0 0.1238376517678535 0.30899478236081279 0 0.11822276392407451 0.30983272177294913 0 0.118544263219596 0.30377697149904859 0 0.1238376517678535 0.30899478236081279 0 0.11822276392407451 0.30983272177294913 0 0.1145622725273987 0.28834779777035169 0 0.1170734876885593 0.28598731113467818 0 0.1117114763663575 0.28604710987342352 0 0.1145622725273987 0.28834779777035169 0 0.11305196086452381 0.28764987008876852 0 0.113097382298847 0.28975797013509319 0 0.1145622725273987 0.28834779777035169 0 0.1170734876885593 0.28598731113467818 0 0.11641252938528079 0.28971892655775988 0 0.1170734876885593 0.28598731113467818 0 0.11672516508270429 0.28225886597589572 0 0.1117114763663575 0.28604710987342352 0 0.1145622725273987 0.28834779777035169 0 0.1117114763663575 0.28604710987342352 0 0.11305196086452381 0.28764987008876852 0 0.1117114763663575 0.28604710987342352 0 0.11305196086452381 0.28764987008876852 0 0.113097382298847 0.28975797013509319 0 0.1117114763663575 0.28604710987342352 0 0.113097382298847 0.28975797013509319 0 0.1131510874378113 0.29330467177148062 0 0.1172335964119836 0.2972858709715917 0 0.1131510874378113 0.29330467177148062 0 0.1165083658062593 0.2930822026306224 0 0.1145622725273987 0.28834779777035169 0 0.1147181534940616 0.29150968885013179 0 0.11641252938528079 0.28971892655775988 0 0.1145622725273987 0.28834779777035169 0 0.113097382298847 0.28975797013509319 0 0.1147181534940616 0.29150968885013179 0 0.113097382298847 0.28975797013509319 0 0.1131510874378113 0.29330467177148062 0 0.1147181534940616 0.29150968885013179 0 0.1131510874378113 0.29330467177148062 0 0.1165083658062593 0.2930822026306224 0 0.1147181534940616 0.29150968885013179 0 0.1165083658062593 0.2930822026306224 0 0.1147181534940616 0.29150968885013179 0 0.11641252938528079 0.28971892655775988 0 0.11641252938528079 0.28971892655775988 0 0.1204438644467155 0.29301411167624192 0 0.1198088245101457 0.28845728804745552 0 0.1165083658062593 0.2930822026306224 0 0.11641252938528079 0.28971892655775988 0 0.1204438644467155 0.29301411167624192 0 0.1172335964119836 0.2972858709715917 0 0.1165083658062593 0.2930822026306224 0 0.1204438644467155 0.29301411167624192 0 0.1242896187096309 0.30039114893219698 0 0.1204438644467155 0.29301411167624192 0 0.1266167327562128 0.29424624030948499 0 0.1204438644467155 0.29301411167624192 0 0.12332519805717761 0.28932348120001772 0 0.1198088245101457 0.28845728804745552 0 0.1204438644467155 0.29301411167624192 0 0.12332519805717761 0.28932348120001772 0 0.1266167327562128 0.29424624030948499 0 0.12332519805717761 0.28932348120001772 0 0.1217890429729956 0.28424260966858012 0 0.1281384923671352 0.28768975250992412 0 0.12332519805717761 0.28932348120001772 0 0.1198088245101457 0.28845728804745552 0 0.1217890429729956 0.28424260966858012 0 0.1170734876885593 0.28598731113467818 0 0.1198088245101457 0.28845728804745552 0 0.1217890429729956 0.28424260966858012 0 0.1170734876885593 0.28598731113467818 0 0.11641252938528079 0.28971892655775988 0 0.1198088245101457 0.28845728804745552 0 0.1170734876885593 0.28598731113467818 0 0.11672516508270429 0.28225886597589572 0 0.1217890429729956 0.28424260966858012 0 0.11672516508270429 0.28225886597589572 0 0.1238822746794301 0.27578472760391243 0 0.1130579965233917 0.27504483499857468 0 0.11672516508270429 0.28225886597589572 0 0.1217890429729956 0.28424260966858012 0 0.1238822746794301 0.27578472760391243 0 0.1117114763663575 0.28604710987342352 0 0.1130579965233917 0.27504483499857468 0 0.11672516508270429 0.28225886597589572 0 0.1117114763663575 0.28604710987342352 0 0.1130579965233917 0.27504483499857468 0 0.1130579965233917 0.27504483499857468 0 0.1243089821453304 0.26311043900835029 0 0.112984294955631 0.2619516187398222 0 0.1238822746794301 0.27578472760391243 0 0.1130579965233917 0.27504483499857468 0 0.1243089821453304 0.26311043900835029 0 0.1150951623574246 0.2477706986522136 0 0.1243089821453304 0.26311043900835029 0 0.112984294955631 0.2619516187398222 0 0.1150951623574246 0.2477706986522136 0 0.094055895061975411 0.24375788446511959 0 0.099475038796377147 0.26188050230015031 0 0.1150951623574246 0.2477706986522136 0 0.112984294955631 0.2619516187398222 0 0.099475038796377147 0.26188050230015031 0 0.090420963448394703 0.27848833525938149 0 0.1117114763663575 0.28604710987342352 0 0.1130579965233917 0.27504483499857468 0 0.090420963448394703 0.27848833525938149 0 0.1130579965233917 0.27504483499857468 0 0.099475038796377147 0.26188050230015031 0 0.1130579965233917 0.27504483499857468 0 0.112984294955631 0.2619516187398222 0 0.099475038796377147 0.26188050230015031 0 0.15575206123496549 0.27350039393858211 0 0.13587424710815121 0.27304177855255729 0 0.16085868917475779 0.28263724287771308 0 0.13587424710815121 0.27304177855255729 0 0.14587579828946501 0.28508475690421581 0 0.16085868917475779 0.28263724287771308 0 0.13587424710815121 0.27304177855255729 0 0.16085868917475779 0.28263724287771308 0 0.15575206123496549 0.27350039393858211 0 0.1511577167370351 0.26438870080741822 0 0.13587424710815121 0.27304177855255729 0 0.1511577167370351 0.26438870080741822 0 0.13686884391084761 0.2630811078019083 0 0.13587424710815121 0.27304177855255729 0 0.1541466536882182 0.25521897982278952 0 0.13613442965287439 0.251783512839304 0 0.1511577167370351 0.26438870080741822 0 0.1542874379043202 0.2568065888507477 0 0.1624328629423108 0.26529129939287532 0 0.1511577167370351 0.26438870080741822 0 0.15270834533089789 0.25658341889210529 0 0.13613442965287439 0.251783512839304 0 0.1541466536882182 0.25521897982278952 0 0.15270834533089789 0.25658341889210529 0 0.13613442965287439 0.251783512839304 0 0.1511577167370351 0.26438870080741822 0 0.1542874379043202 0.2568065888507477 0 0.15270834533089789 0.25658341889210529 0 0.1542874379043202 0.2568065888507477 0 0.15270834533089789 0.25658341889210529 0 0.1541466536882182 0.25521897982278952 0 0.1542874379043202 0.2568065888507477 0 0.1541466536882182 0.25521897982278952 0 0.1542874379043202 0.2568065888507477 0 0.15270834533089789 0.25658341889210529 0 0.1511577167370351 0.26438870080741822 0 0.13686884391084761 0.2630811078019083 0 0.13613442965287439 0.251783512839304 0 0.1511577167370351 0.26438870080741822 0 0.13613442965287439 0.251783512839304 0 0.1150951623574246 0.2477706986522136 0 0.1243089821453304 0.26311043900835029 0 0.13613442965287439 0.251783512839304 0 0.1243089821453304 0.26311043900835029 0 0.13686884391084761 0.2630811078019083 0 0.13613442965287439 0.251783512839304 0 0.1238822746794301 0.27578472760391243 0 0.1243089821453304 0.26311043900835029 0 0.13587424710815121 0.27304177855255729 0 0.1243089821453304 0.26311043900835029 0 0.13686884391084761 0.2630811078019083 0 0.13587424710815121 0.27304177855255729 0 0.13587424710815121 0.27304177855255729 0 0.13063899643824131 0.27980047453704271 0 0.1368756304852663 0.28452098728851721 0 0.13587424710815121 0.27304177855255729 0 0.1368756304852663 0.28452098728851721 0 0.14587579828946501 0.28508475690421581 0 0.1217890429729956 0.28424260966858012 0 0.1238822746794301 0.27578472760391243 0 0.13063899643824131 0.27980047453704271 0 0.1238822746794301 0.27578472760391243 0 0.13587424710815121 0.27304177855255729 0 0.13063899643824131 0.27980047453704271 0 0.1217890429729956 0.28424260966858012 0 0.13063899643824131 0.27980047453704271 0 0.1281384923671352 0.28768975250992412 0 0.13063899643824131 0.27980047453704271 0 0.1281384923671352 0.28768975250992412 0 0.1368756304852663 0.28452098728851721 0 0.1281384923671352 0.28768975250992412 0 0.1266167327562128 0.29424624030948499 0 0.13461357407298941 0.2906331223793871 0 0.12332519805717761 0.28932348120001772 0 0.1281384923671352 0.28768975250992412 0 0.1266167327562128 0.29424624030948499 0 0.1266167327562128 0.29424624030948499 0 0.13461357407298941 0.2906331223793871 0 0.13257176298055201 0.29738326112650831 0 0.13461357407298941 0.2906331223793871 0 0.1368756304852663 0.28452098728851721 0 0.14227005869942619 0.29296951891623818 0 0.13461357407298941 0.2906331223793871 0 0.13257176298055201 0.29738326112650831 0 0.14227005869942619 0.29296951891623818 0 0.1281384923671352 0.28768975250992412 0 0.13461357407298941 0.2906331223793871 0 0.1368756304852663 0.28452098728851721 0 0.1242896187096309 0.30039114893219698 0 0.1238376517678535 0.30899478236081279 0 0.13204257034418121 0.30818934022434258 0 0.1233601924894574 0.31681781602104742 0 0.1238376517678535 0.30899478236081279 0 0.13204257034418121 0.30818934022434258 0 0.1242896187096309 0.30039114893219698 0 0.13204257034418121 0.30818934022434258 0 0.13257176298055201 0.29738326112650831 0 0.1242896187096309 0.30039114893219698 0 0.1266167327562128 0.29424624030948499 0 0.13257176298055201 0.29738326112650831 0 0.13257176298055201 0.29738326112650831 0 0.13979090708015171 0.30110245679281961 0 0.14227005869942619 0.29296951891623818 0 0.13204257034418121 0.30818934022434258 0 0.13257176298055201 0.29738326112650831 0 0.13979090708015171 0.30110245679281961 0 0.13204257034418121 0.30818934022434258 0 0.13979090708015171 0.30110245679281961 0 0.1429445744663779 0.30865479055988099 0 0.13204257034418121 0.30818934022434258 0 0.1429445744663779 0.30865479055988099 0 0.13748334850577421 0.32049560161477958 0 0.13979090708015171 0.30110245679281961 0 0.14909386383465439 0.30111360786902241 0 0.14227005869942619 0.29296951891623818 0 0.13979090708015171 0.30110245679281961 0 0.1429445744663779 0.30865479055988099 0 0.14909386383465439 0.30111360786902241 0 0.14909386383465439 0.30111360786902241 0 0.15350036597972341 0.29225425688605339 0 0.15899408045665581 0.30067199482898749 0 0.1429445744663779 0.30865479055988099 0 0.14909386383465439 0.30111360786902241 0 0.15606119912379729 0.31463867731958262 0 0.14909386383465439 0.30111360786902241 0 0.15899408045665581 0.30067199482898749 0 0.15606119912379729 0.31463867731958262 0 0.1368756304852663 0.28452098728851721 0 0.14587579828946501 0.28508475690421581 0 0.14227005869942619 0.29296951891623818 0 0.14587579828946501 0.28508475690421581 0 0.14227005869942619 0.29296951891623818 0 0.15350036597972341 0.29225425688605339 0 0.14909386383465439 0.30111360786902241 0 0.14227005869942619 0.29296951891623818 0 0.15350036597972341 0.29225425688605339 0 0.14587579828946501 0.28508475690421581 0 0.15350036597972341 0.29225425688605339 0 0.16085868917475779 0.28263724287771308 0 0.16085868917475779 0.28263724287771308 0 0.1663234086074066 0.29384289152771281 0 0.1858431312413644 0.29223270720286892 0 0.16085868917475779 0.28263724287771308 0 0.1858431312413644 0.29223270720286892 0 0.16618100382119311 0.27699388877553538 0 0.15350036597972341 0.29225425688605339 0 0.16085868917475779 0.28263724287771308 0 0.1663234086074066 0.29384289152771281 0 0.15350036597972341 0.29225425688605339 0 0.1663234086074066 0.29384289152771281 0 0.15899408045665581 0.30067199482898749 0 0.17242077618453161 0.30141825584294102 0 0.17784695808442669 0.31372230451234889 0 0.15606119912379729 0.31463867731958262 0 0.15899408045665581 0.30067199482898749 0 0.17242077618453161 0.30141825584294102 0 0.15606119912379729 0.31463867731958262 0 0.1663234086074066 0.29384289152771281 0 0.15899408045665581 0.30067199482898749 0 0.17242077618453161 0.30141825584294102 0 0.17242077618453161 0.30141825584294102 0 0.1858431312413644 0.29223270720286892 0 0.17784695808442669 0.31372230451234889 0 0.1858431312413644 0.29223270720286892 0 0.19388851801207849 0.31053267531692558 0 0.17784695808442669 0.31372230451234889 0 0.1663234086074066 0.29384289152771281 0 0.17242077618453161 0.30141825584294102 0 0.1858431312413644 0.29223270720286892 0 0.16085868917475779 0.28263724287771308 0 0.1858431312413644 0.29223270720286892 0 0.1858431312413644 0.29223270720286892 0 0.18143957796089699 0.27543420426384618 0 0.16618100382119311 0.27699388877553538 0 0.1858431312413644 0.29223270720286892 0 0.18143957796089699 0.27543420426384618 0 0.1946338311277768 0.27386816514756918 0 0.18143957796089699 0.27543420426384618 0 0.1732036070805347 0.26760601253182748 0 0.18588058115074171 0.26127158386767207 0 0.18143957796089699 0.27543420426384618 0 0.18588058115074171 0.26127158386767207 0 0.1946338311277768 0.27386816514756918 0 0.18143957796089699 0.27543420426384618 0 0.1732036070805347 0.26760601253182748 0 0.16618100382119311 0.27699388877553538 0 0.1732036070805347 0.26760601253182748 0 0.16618100382119311 0.27699388877553538 0 0.1624328629423108 0.26529129939287532 0 0.1511577167370351 0.26438870080741822 0 0.16618100382119311 0.27699388877553538 0 0.1511577167370351 0.26438870080741822 0 0.16618100382119311 0.27699388877553538 0 0.1624328629423108 0.26529129939287532 0 0.15575206123496549 0.27350039393858211 0 0.1511577167370351 0.26438870080741822 0 0.16618100382119311 0.27699388877553538 0 0.15575206123496549 0.27350039393858211 0 0.16085868917475779 0.28263724287771308 0 0.16618100382119311 0.27699388877553538 0 0.1541466536882182 0.25521897982278952 0 0.1542874379043202 0.2568065888507477 0 0.17001361741948001 0.25824528184523038 0 0.16665392589959821 0.2409447006515508 0 0.1541466536882182 0.25521897982278952 0 0.17001361741948001 0.25824528184523038 0 0.1542874379043202 0.2568065888507477 0 0.17001361741948001 0.25824528184523038 0 0.1542874379043202 0.2568065888507477 0 0.1624328629423108 0.26529129939287532 0 0.17001361741948001 0.25824528184523038 0 0.1541466536882182 0.25521897982278952 0 0.17001361741948001 0.25824528184523038 0 0.1732036070805347 0.26760601253182748 0 0.1624328629423108 0.26529129939287532 0 0.17001361741948001 0.25824528184523038 0 0.1842853629231069 0.23921016234454071 0 0.17001361741948001 0.25824528184523038 0 0.18588058115074171 0.26127158386767207 0 0.17001361741948001 0.25824528184523038 0 0.18588058115074171 0.26127158386767207 0 0.1732036070805347 0.26760601253182748 0 0.17001361741948001 0.25824528184523038 0 0.18588058115074171 0.26127158386767207 0 0.18588058115074171 0.26127158386767207 0 0.1982272346661105 0.25638209447568738 0 0.20871497566788269 0.26562678222060648 0 0.18588058115074171 0.26127158386767207 0 0.20871497566788269 0.26562678222060648 0 0.1842853629231069 0.23921016234454071 0 0.18588058115074171 0.26127158386767207 0 0.1982272346661105 0.25638209447568738 0 0.18588058115074171 0.26127158386767207 0 0.1946338311277768 0.27386816514756918 0 0.20871497566788269 0.26562678222060648 0 0.20871497566788269 0.26562678222060648 0 0.21578773198276741 0.2637248393721161 0 0.23159012463578041 0.26773162117053911 0 0.21612466046198689 0.27914585506035428 0 0.20871497566788269 0.26562678222060648 0 0.20620521347854689 0.28440874105692399 0 0.1946338311277768 0.27386816514756918 0 0.20871497566788269 0.26562678222060648 0 0.20620521347854689 0.28440874105692399 0 0.20761882160674389 0.24979959594897019 0 0.1982272346661105 0.25638209447568738 0 0.2062093171783857 0.25762567957418758 0 0.20761882160674389 0.24979959594897019 0 0.2062093171783857 0.25762567957418758 0 0.2129208822997497 0.25600283184168698 0 0.20871497566788269 0.26562678222060648 0 0.2062093171783857 0.25762567957418758 0 0.21051046998940959 0.26018449013384892 0 0.1982272346661105 0.25638209447568738 0 0.20871497566788269 0.26562678222060648 0 0.2062093171783857 0.25762567957418758 0 0.20871497566788269 0.26562678222060648 0 0.21051046998940959 0.26018449013384892 0 0.2124392565783178 0.26218243878245778 0 0.2062093171783857 0.25762567957418758 0 0.21051046998940959 0.26018449013384892 0 0.2129208822997497 0.25600283184168698 0 0.2147234714478333 0.26031882310476101 0 0.2129208822997497 0.25600283184168698 0 0.22131403961285731 0.25802742161323677 0 0.21051046998940959 0.26018449013384892 0 0.2147234714478333 0.26031882310476101 0 0.2124392565783178 0.26218243878245778 0 0.21051046998940959 0.26018449013384892 0 0.2147234714478333 0.26031882310476101 0 0.2129208822997497 0.25600283184168698 0 0.20871497566788269 0.26562678222060648 0 0.2124392565783178 0.26218243878245778 0 0.21578773198276741 0.2637248393721161 0 0.2147234714478333 0.26031882310476101 0 0.2124392565783178 0.26218243878245778 0 0.21578773198276741 0.2637248393721161 0 0.2147234714478333 0.26031882310476101 0 0.21578773198276741 0.2637248393721161 0 0.21850085901761021 0.26125886502315832 0 0.2147234714478333 0.26031882310476101 0 0.21850085901761021 0.26125886502315832 0 0.22131403961285731 0.25802742161323677 0 0.21719832785989149 0.24983151519782201 0 0.20761882160674389 0.24979959594897019 0 0.2129208822997497 0.25600283184168698 0 0.21719832785989149 0.24983151519782201 0 0.2129208822997497 0.25600283184168698 0 0.22131403961285731 0.25802742161323677 0 0.21578773198276741 0.2637248393721161 0 0.22217819302698291 0.2629643760025191 0 0.23159012463578041 0.26773162117053911 0 0.21719832785989149 0.24983151519782201 0 0.23168909051870451 0.25056152240309171 0 0.22131403961285731 0.25802742161323677 0 0.23168909051870451 0.25056152240309171 0 0.22980367752055819 0.25843477259653491 0 0.22131403961285731 0.25802742161323677 0 0.2315493701850237 0.26998198057353973 0 0.23707068934315839 0.25785939835641469 0 0.22634875979939559 0.26296564972415393 0 0.22217819302698291 0.2629643760025191 0 0.23159012463578041 0.26773162117053911 0 0.23159012463578041 0.26773162117053911 0 0.2315493701850237 0.26998198057353973 0 0.23707068934315839 0.25785939835641469 0 0.22980367752055819 0.25843477259653491 0 0.23159012463578041 0.26773162117053911 0 0.23707068934315839 0.25785939835641469 0 0.22980367752055819 0.25843477259653491 0 0.22634875979939559 0.26296564972415393 0 0.23159012463578041 0.26773162117053911 0 0.22980367752055819 0.25843477259653491 0 0.22634875979939559 0.26296564972415393 0 0.22446328672565469 0.26093037640644101 0 0.22634875979939559 0.26296564972415393 0 0.22446328672565469 0.26093037640644101 0 0.22217819302698291 0.2629643760025191 0 0.22980367752055819 0.25843477259653491 0 0.22446328672565469 0.26093037640644101 0 0.22131403961285731 0.25802742161323677 0 0.22446328672565469 0.26093037640644101 0 0.22131403961285731 0.25802742161323677 0 0.22217819302698291 0.2629643760025191 0 0.21850085901761021 0.26125886502315832 0 0.22131403961285731 0.25802742161323677 0 0.22217819302698291 0.2629643760025191 0 0.21578773198276741 0.2637248393721161 0 0.21850085901761021 0.26125886502315832 0 0.22217819302698291 0.2629643760025191 0 0.2315493701850237 0.26998198057353973 0 0.2356875630590767 0.27077125706500499 0 0.2299708130088523 0.30026561130078511 0 0.20871497566788269 0.26562678222060648 0 0.2315493701850237 0.26998198057353973 0 0.20871497566788269 0.26562678222060648 0 0.23159012463578041 0.26773162117053911 0 0.2315493701850237 0.26998198057353973 0 0.21612466046198689 0.27914585506035428 0 0.20871497566788269 0.26562678222060648 0 0.2315493701850237 0.26998198057353973 0 0.20871497566788269 0.26562678222060648 0 0.23159012463578041 0.26773162117053911 0 0.2315493701850237 0.26998198057353973 0 0.2356875630590767 0.27077125706500499 0 0.2356875630590767 0.27077125706500499 0 0.24467718195537941 0.26530517955146138 0 0.25176850162096409 0.27383837045335419 0 0.2315493701850237 0.26998198057353973 0 0.2356875630590767 0.27077125706500499 0 0.23707068934315839 0.25785939835641469 0 0.24467718195537941 0.26530517955146138 0 0.25316703857241951 0.25821212120419579 0 0.25176850162096409 0.27383837045335419 0 0.2356875630590767 0.27077125706500499 0 0.25176850162096409 0.27383837045335419 0 0.2356875630590767 0.27077125706500499 0 0.243028985773378 0.28643343373118157 0 0.25176850162096409 0.27383837045335419 0 0.24467718195537941 0.26530517955146138 0 0.23707068934315839 0.25785939835641469 0 0.25316703857241951 0.25821212120419579 0 0.24475013637587639 0.24402629606784981 0 0.23707068934315839 0.25785939835641469 0 0.25316703857241951 0.25821212120419579 0 0.24475013637587639 0.24402629606784981 0 0.22980367752055819 0.25843477259653491 0 0.23707068934315839 0.25785939835641469 0 0.24475013637587639 0.24402629606784981 0 0.23168909051870451 0.25056152240309171 0 0.22980367752055819 0.25843477259653491 0 0.24475013637587639 0.24402629606784981 0 0.23707068934315839 0.25785939835641469 0 0.2356875630590767 0.27077125706500499 0 0.23707068934315839 0.25785939835641469 0 0.2356875630590767 0.27077125706500499 0 0.24467718195537941 0.26530517955146138 0 0.23707068934315839 0.25785939835641469 0 0.24422566779542171 0.30096586643300099 0 0.24497321510562861 0.31843393456244318 0 0.25819116620425092 0.2980237419574942 0 0.24422566779542171 0.30096586643300099 0 0.2299708130088523 0.30026561130078511 0 0.24497321510562861 0.31843393456244318 0 0.24422566779542171 0.30096586643300099 0 0.243028985773378 0.28643343373118157 0 0.25320049404724548 0.28723678748984638 0 0.2356875630590767 0.27077125706500499 0 0.243028985773378 0.28643343373118157 0 0.2299708130088523 0.30026561130078511 0 0.243028985773378 0.28643343373118157 0 0.25320049404724548 0.28723678748984638 0 0.25176850162096409 0.27383837045335419 0 0.24422566779542171 0.30096586643300099 0 0.243028985773378 0.28643343373118157 0 0.2299708130088523 0.30026561130078511 0 0.2315493701850237 0.26998198057353973 0 0.2299708130088523 0.30026561130078511 0 0.21802908251649469 0.29656591639034591 0 0.21612466046198689 0.27914585506035428 0 0.2315493701850237 0.26998198057353973 0 0.21802908251649469 0.29656591639034591 0 0.2315493701850237 0.26998198057353973 0 0.21802908251649469 0.29656591639034591 0 0.2356875630590767 0.27077125706500499 0 0.2299708130088523 0.30026561130078511 0 0.2299708130088523 0.30026561130078511 0 0.21802908251649469 0.29656591639034591 0 0.21932558186322451 0.31350349922514781 0 0.21802908251649469 0.29656591639034591 0 0.20450879484796899 0.32314985220715392 0 0.21802908251649469 0.29656591639034591 0 0.20450879484796899 0.32314985220715392 0 0.21932558186322451 0.31350349922514781 0 0.21082757330797111 0.30182817152802482 0 0.21802908251649469 0.29656591639034591 0 0.20450879484796899 0.32314985220715392 0 0.21082757330797111 0.30182817152802482 0 0.20620521347854689 0.28440874105692399 0 0.21802908251649469 0.29656591639034591 0 0.21612466046198689 0.27914585506035428 0 0.20620521347854689 0.28440874105692399 0 0.21802908251649469 0.29656591639034591 0 0.1858431312413644 0.29223270720286892 0 0.21082757330797111 0.30182817152802482 0 0.20620521347854689 0.28440874105692399 0 0.1858431312413644 0.29223270720286892 0 0.1946338311277768 0.27386816514756918 0 0.20620521347854689 0.28440874105692399 0 0.21082757330797111 0.30182817152802482 0 0.19388851801207849 0.31053267531692558 0 0.20450879484796899 0.32314985220715392 0 0.1858431312413644 0.29223270720286892 0 0.21082757330797111 0.30182817152802482 0 0.1858431312413644 0.29223270720286892 0 0.21082757330797111 0.30182817152802482 0 0.19388851801207849 0.31053267531692558 0 0.19388851801207849 0.31053267531692558 0 0.20450879484796899 0.32314985220715392 0 0.18678309457703629 0.33086486271952398 0 0.20450879484796899 0.32314985220715392 0 0.19098850717944321 0.34973378802396171 0 0.18678309457703629 0.33086486271952398 0 0.20450879484796899 0.32314985220715392 0 0.19098850717944321 0.34973378802396171 0 0.2091105910206765 0.34090208885632051 0 0.20450879484796899 0.32314985220715392 0 0.19098850717944321 0.34973378802396171 0 0.2091105910206765 0.34090208885632051 0 0.20450879484796899 0.32314985220715392 0 0.2142997576726221 0.32682885145629631 0 0.2091105910206765 0.34090208885632051 0 0.22425406295861849 0.32975996553656323 0 0.21463649612514471 0.34613949726572207 0 0.2091105910206765 0.34090208885632051 0 0.2142997576726221 0.32682885145629631 0 0.22425406295861849 0.32975996553656323 0 0.20450879484796899 0.32314985220715392 0 0.2142997576726221 0.32682885145629631 0 0.21932558186322451 0.31350349922514781 0 0.2299708130088523 0.30026561130078511 0 0.22425406295861849 0.32975996553656323 0 0.24497321510562861 0.31843393456244318 0 0.2299708130088523 0.30026561130078511 0 0.21932558186322451 0.31350349922514781 0 0.22425406295861849 0.32975996553656323 0 0.2299708130088523 0.30026561130078511 0 0.22425406295861849 0.32975996553656323 0 0.2142997576726221 0.32682885145629631 0 0.21932558186322451 0.31350349922514781 0 0.22425406295861849 0.32975996553656323 0 0.22425406295861849 0.32975996553656323 0 0.23175526400700619 0.33884412716739221 0 0.24497321510562861 0.31843393456244318 0 0.22425406295861849 0.32975996553656323 0 0.23175526400700619 0.33884412716739221 0 0.2185373129083843 0.35925431977234151 0 0.23175526400700619 0.33884412716739221 0 0.23988692299618811 0.34639590618922822 0 0.2507640342900897 0.34015807829993427 0 0.23175526400700619 0.33884412716739221 0 0.24497321510562861 0.31843393456244318 0 0.23175526400700619 0.33884412716739221 0 0.24497321510562861 0.31843393456244318 0 0.2507640342900897 0.34015807829993427 0 0.23799622961420949 0.3639280757654389 0 0.2431192079475922 0.37479551221345592 0 0.2315876013294417 0.37168668058241228 0 0.23799622961420949 0.3639280757654389 0 0.2431192079475922 0.37479551221345592 0 0.2480053966953317 0.36457005710024648 0 0.2431192079475922 0.37479551221345592 0 0.2480053966953317 0.36457005710024648 0 0.25719896797686698 0.37270397667906879 0 0.23799622961420949 0.3639280757654389 0 0.2480053966953317 0.36457005710024648 0 0.24443963386875181 0.35413698747053918 0 0.2480053966953317 0.36457005710024648 0 0.24443963386875181 0.35413698747053918 0 0.25688634056637372 0.35570242984262368 0 0.24443963386875181 0.35413698747053918 0 0.23988692299618811 0.34639590618922822 0 0.2507640342900897 0.34015807829993427 0 0.24443963386875181 0.35413698747053918 0 0.23988692299618811 0.34639590618922822 0 0.23309887905031829 0.35406737762576379 0 0.23175526400700619 0.33884412716739221 0 0.23988692299618811 0.34639590618922822 0 0.23309887905031829 0.35406737762576379 0 0.23799622961420949 0.3639280757654389 0 0.24443963386875181 0.35413698747053918 0 0.23309887905031829 0.35406737762576379 0 0.22425406295861849 0.32975996553656323 0 0.21463649612514471 0.34613949726572207 0 0.2185373129083843 0.35925431977234151 0 0.23175526400700619 0.33884412716739221 0 0.2185373129083843 0.35925431977234151 0 0.22425406295861849 0.32975996553656323 0 0.2185373129083843 0.35925431977234151 0 0.23175526400700619 0.33884412716739221 0 0.23309887905031829 0.35406737762576379 0 0.2185373129083843 0.35925431977234151 0 0.23309887905031829 0.35406737762576379 0 0.22837905529219121 0.36372673401014571 0 0.2185373129083843 0.35925431977234151 0 0.22837905529219121 0.36372673401014571 0 0.22316305757520771 0.37069754707322339 0 0.2185373129083843 0.35925431977234151 0 0.22316305757520771 0.37069754707322339 0 0.2185373129083843 0.35925431977234151 0 0.2150622298449556 0.37718327065717888 0 0.23799622961420949 0.3639280757654389 0 0.22837905529219121 0.36372673401014571 0 0.2315876013294417 0.37168668058241228 0 0.23799622961420949 0.3639280757654389 0 0.23309887905031829 0.35406737762576379 0 0.22837905529219121 0.36372673401014571 0 0.22837905529219121 0.36372673401014571 0 0.2315876013294417 0.37168668058241228 0 0.22316305757520771 0.37069754707322339 0 0.21571802669931639 0.36360765518009158 0 0.20963963137411459 0.37011767383547428 0 0.2150622298449556 0.37718327065717888 0 0.21571802669931639 0.36360765518009158 0 0.2185373129083843 0.35925431977234151 0 0.2150622298449556 0.37718327065717888 0 0.2185373129083843 0.35925431977234151 0 0.2150622298449556 0.37718327065717888 0 0.21571802669931639 0.36360765518009158 0 0.2104239240322491 0.36275816105571729 0 0.2185373129083843 0.35925431977234151 0 0.21571802669931639 0.36360765518009158 0 0.2185373129083843 0.35925431977234151 0 0.21571802669931639 0.36360765518009158 0 0.2104239240322491 0.36275816105571729 0 0.20963963137411459 0.37011767383547428 0 0.2104239240322491 0.36275816105571729 0 0.20963963137411459 0.37011767383547428 0 0.20158063156653089 0.36616954159301579 0 0.2104239240322491 0.36275816105571729 0 0.20664401761289941 0.35464161489766349 0 0.20158063156653089 0.36616954159301579 0 0.20963963137411459 0.37011767383547428 0 0.20158063156653089 0.36616954159301579 0 0.20320657760449279 0.38123157265968127 0 0.2104239240322491 0.36275816105571729 0 0.2185373129083843 0.35925431977234151 0 0.20664401761289941 0.35464161489766349 0 0.21463649612514471 0.34613949726572207 0 0.2185373129083843 0.35925431977234151 0 0.20664401761289941 0.35464161489766349 0 0.2091105910206765 0.34090208885632051 0 0.21463649612514471 0.34613949726572207 0 0.20664401761289941 0.35464161489766349 0 0.20664401761289941 0.35464161489766349 0 0.19098850717944321 0.34973378802396171 0 0.20158063156653089 0.36616954159301579 0 0.2091105910206765 0.34090208885632051 0 0.20664401761289941 0.35464161489766349 0 0.19098850717944321 0.34973378802396171 0 0.19098850717944321 0.34973378802396171 0 0.20158063156653089 0.36616954159301579 0 0.19205596345428749 0.37453976680078072 0 0.20158063156653089 0.36616954159301579 0 0.19205596345428749 0.37453976680078072 0 0.20320657760449279 0.38123157265968127 0 0.19098850717944321 0.34973378802396171 0 0.16211988089035539 0.3587290497443919 0 0.17746821951091751 0.37631772384076961 0 0.19098850717944321 0.34973378802396171 0 0.19205596345428749 0.37453976680078072 0 0.17746821951091751 0.37631772384076961 0 0.19098850717944321 0.34973378802396171 0 0.17746821951091751 0.37631772384076961 0 0.16211988089035539 0.3587290497443919 0 0.16373131589727069 0.37517211497552599 0 0.17746821951091751 0.37631772384076961 0 0.16211988089035539 0.3587290497443919 0 0.150215218568922 0.3800424072022382 0 0.16373131589727069 0.37517211497552599 0 0.16211988089035539 0.3587290497443919 0 0.1687473227353633 0.3365935237359956 0 0.14663239986225671 0.33711824693062981 0 0.19098850717944321 0.34973378802396171 0 0.16211988089035539 0.3587290497443919 0 0.1687473227353633 0.3365935237359956 0 0.19098850717944321 0.34973378802396171 0 0.18678309457703629 0.33086486271952398 0 0.1687473227353633 0.3365935237359956 0 0.19388851801207849 0.31053267531692558 0 0.18678309457703629 0.33086486271952398 0 0.17784695808442669 0.31372230451234889 0 0.18678309457703629 0.33086486271952398 0 0.17784695808442669 0.31372230451234889 0 0.1687473227353633 0.3365935237359956 0 0.17784695808442669 0.31372230451234889 0 0.1687473227353633 0.3365935237359956 0 0.15606119912379729 0.31463867731958262 0 0.1687473227353633 0.3365935237359956 0 0.14663239986225671 0.33711824693062981 0 0.15606119912379729 0.31463867731958262 0 0.14663239986225671 0.33711824693062981 0 0.15606119912379729 0.31463867731958262 0 0.13748334850577421 0.32049560161477958 0 0.1429445744663779 0.30865479055988099 0 0.15606119912379729 0.31463867731958262 0 0.13748334850577421 0.32049560161477958 0 0.1233601924894574 0.31681781602104742 0 0.13748334850577421 0.32049560161477958 0 0.12534780460516259 0.33864851202732921 0 0.1233601924894574 0.31681781602104742 0 0.13204257034418121 0.30818934022434258 0 0.13748334850577421 0.32049560161477958 0 0.14663239986225671 0.33711824693062981 0 0.13748334850577421 0.32049560161477958 0 0.12534780460516259 0.33864851202732921 0 0.1178686938659408 0.35774099961424488 0 0.12534780460516259 0.33864851202732921 0 0.13778151158704219 0.35934545961478359 0 0.12534780460516259 0.33864851202732921 0 0.13778151158704219 0.35934545961478359 0 0.14663239986225671 0.33711824693062981 0 0.12534780460516259 0.33864851202732921 0 0.13778151158704219 0.35934545961478359 0 0.1178686938659408 0.35774099961424488 0 0.13778151158704219 0.35934545961478359 0 0.12790373736122701 0.37106447955749072 0 0.13778151158704219 0.35934545961478359 0 0.12790373736122701 0.37106447955749072 0 0.13666114865997189 0.37750264638522141 0 0.13778151158704219 0.35934545961478359 0 0.150215218568922 0.3800424072022382 0 0.16211988089035539 0.3587290497443919 0 0.13778151158704219 0.35934545961478359 0 0.150215218568922 0.3800424072022382 0 0.13778151158704219 0.35934545961478359 0 0.150215218568922 0.3800424072022382 0 0.13666114865997189 0.37750264638522141 0 0.16211988089035539 0.3587290497443919 0 0.14663239986225671 0.33711824693062981 0 0.13778151158704219 0.35934545961478359 0 0.15367620528472459 0.40254004066074489 0 0.145458369295353 0.40678452105032908 0 0.16151404002091349 0.40768724007964913 0 0.14823719781622649 0.39558630202838058 0 0.150215218568922 0.3800424072022382 0 0.16264892555080179 0.4007393547896928 0 0.14823719781622649 0.39558630202838058 0 0.14207255922130729 0.38740084189443402 0 0.1380467114070357 0.39551173146231111 0 0.14823719781622649 0.39558630202838058 0 0.1380467114070357 0.39551173146231111 0 0.145458369295353 0.40678452105032908 0 0.14823719781622649 0.39558630202838058 0 0.15367620528472459 0.40254004066074489 0 0.16264892555080179 0.4007393547896928 0 0.14823719781622649 0.39558630202838058 0 0.15367620528472459 0.40254004066074489 0 0.145458369295353 0.40678452105032908 0 0.150215218568922 0.3800424072022382 0 0.14207255922130729 0.38740084189443402 0 0.13666114865997189 0.37750264638522141 0 0.14823719781622649 0.39558630202838058 0 0.150215218568922 0.3800424072022382 0 0.14207255922130729 0.38740084189443402 0 0.14207255922130729 0.38740084189443402 0 0.1340749631741856 0.38683853731973111 0 0.13666114865997189 0.37750264638522141 0 0.14207255922130729 0.38740084189443402 0 0.1340749631741856 0.38683853731973111 0 0.1380467114070357 0.39551173146231111 0 0.1340749631741856 0.38683853731973111 0 0.13666114865997189 0.37750264638522141 0 0.12805816438154441 0.38021913467605328 0 0.12790373736122701 0.37106447955749072 0 0.13666114865997189 0.37750264638522141 0 0.12805816438154441 0.38021913467605328 0 0.1193143140642889 0.37816761607626842 0 0.12790373736122701 0.37106447955749072 0 0.12805816438154441 0.38021913467605328 0 0.1226151833168425 0.38731235794836072 0 0.1340749631741856 0.38683853731973111 0 0.12805816438154441 0.38021913467605328 0 0.1226151833168425 0.38731235794836072 0 0.1340749631741856 0.38683853731973111 0 0.1289411381167351 0.39362953764471831 0 0.1179289527005889 0.39951806550406532 0 0.131885687944581 0.40265630670116281 0 0.13425923176485621 0.41434269730804241 0 0.12435094550417559 0.39731348797371169 0 0.1289411381167351 0.39362953764471831 0 0.131885687944581 0.40265630670116281 0 0.12435094550417559 0.39731348797371169 0 0.1230445022742277 0.39356612030829519 0 0.1289411381167351 0.39362953764471831 0 0.1340749631741856 0.38683853731973111 0 0.1289411381167351 0.39362953764471831 0 0.1380467114070357 0.39551173146231111 0 0.1289411381167351 0.39362953764471831 0 0.1380467114070357 0.39551173146231111 0 0.131885687944581 0.40265630670116281 0 0.1380467114070357 0.39551173146231111 0 0.131885687944581 0.40265630670116281 0 0.145458369295353 0.40678452105032908 0 0.1179289527005889 0.39951806550406532 0 0.13425923176485621 0.41434269730804241 0 0.11990135260899221 0.41492149193951011 0 0.12988080440721589 0.42138777444222769 0 0.13425923176485621 0.41434269730804241 0 0.131885687944581 0.40265630670116281 0 0.13425923176485621 0.41434269730804241 0 0.145458369295353 0.40678452105032908 0 0.12988080440721589 0.42138777444222769 0 0.13425923176485621 0.41434269730804241 0 0.1381513403988851 0.43082454782803858 0 0.124223395864849 0.42811106413728373 0 0.12580030766177491 0.42860949752354122 0 0.1294169927150825 0.43787471834413999 0 0.12580030766177491 0.42860949752354122 0 0.1381513403988851 0.43082454782803858 0 0.1294169927150825 0.43787471834413999 0 0.12988080440721589 0.42138777444222769 0 0.12580030766177491 0.42860949752354122 0 0.1381513403988851 0.43082454782803858 0 0.124223395864849 0.42811106413728373 0 0.12580030766177491 0.42860949752354122 0 0.124223395864849 0.42811106413728373 0 0.12580030766177491 0.42860949752354122 0 0.1259477935028786 0.42481333000798338 0 0.12233007750047351 0.42254641277357791 0 0.12988080440721589 0.42138777444222769 0 0.1259477935028786 0.42481333000798338 0 0.12988080440721589 0.42138777444222769 0 0.12580030766177491 0.42860949752354122 0 0.1259477935028786 0.42481333000798338 0 0.13425923176485621 0.41434269730804241 0 0.1381513403988851 0.43082454782803858 0 0.15058951082913011 0.42916732911201211 0 0.15058951082913011 0.42916732911201211 0 0.15704777901897249 0.43503014674233081 0 0.15058951082913011 0.42916732911201211 0 0.16151404002091349 0.40768724007964913 0 0.13425923176485621 0.41434269730804241 0 0.15058951082913011 0.42916732911201211 0 0.15058951082913011 0.42916732911201211 0 0.145458369295353 0.40678452105032908 0 0.16151404002091349 0.40768724007964913 0 0.13425923176485621 0.41434269730804241 0 0.15058951082913011 0.42916732911201211 0 0.145458369295353 0.40678452105032908 0 0.16151404002091349 0.40768724007964913 0 0.1686057233661345 0.41981526611537417 0 0.15704777901897249 0.43503014674233081 0 0.16151404002091349 0.40768724007964913 0 0.15704777901897249 0.43503014674233081 0 0.1686057233661345 0.41981526611537417 0 0.16843154897831461 0.41186993102424002 0 0.17598476497094481 0.41116519512271382 0 0.16151404002091349 0.40768724007964913 0 0.1686057233661345 0.41981526611537417 0 0.16843154897831461 0.41186993102424002 0 0.16843154897831461 0.41186993102424002 0 0.17598476497094481 0.41116519512271382 0 0.16583452453146311 0.4060420513413715 0 0.16151404002091349 0.40768724007964913 0 0.16843154897831461 0.41186993102424002 0 0.16583452453146311 0.4060420513413715 0 0.1686057233661345 0.41981526611537417 0 0.15704777901897249 0.43503014674233081 0 0.17453693239056989 0.4355663419607485 0 0.15058951082913011 0.42916732911201211 0 0.16151404002091349 0.40768724007964913 0 0.15704777901897249 0.43503014674233081 0 0.1686057233661345 0.41981526611537417 0 0.17453693239056989 0.4355663419607485 0 0.18240523721277629 0.42583846406863801 0 0.18240523721277629 0.42583846406863801 0 0.19173652569198171 0.42749197130674599 0 0.18637318858312549 0.43807065624671332 0 0.17453693239056989 0.4355663419607485 0 0.18240523721277629 0.42583846406863801 0 0.18637318858312549 0.43807065624671332 0 0.1686057233661345 0.41981526611537417 0 0.18240523721277629 0.42583846406863801 0 0.182228118016943 0.41656898129567749 0 0.1686057233661345 0.41981526611537417 0 0.17598476497094481 0.41116519512271382 0 0.182228118016943 0.41656898129567749 0 0.18240523721277629 0.42583846406863801 0 0.182228118016943 0.41656898129567749 0 0.19154843448549039 0.41722458346401992 0 0.182228118016943 0.41656898129567749 0 0.18542230815644159 0.40655335098696532 0 0.19154843448549039 0.41722458346401992 0 0.17598476497094481 0.41116519512271382 0 0.182228118016943 0.41656898129567749 0 0.18542230815644159 0.40655335098696532 0 0.18542230815644159 0.40655335098696532 0 0.17624186992809279 0.39908369033492319 0 0.18970974191213341 0.39154817015711368 0 0.17624186992809279 0.39908369033492319 0 0.1639479318423902 0.40290165965757652 0 0.17746821951091751 0.37631772384076961 0 0.17598476497094481 0.41116519512271382 0 0.17624186992809279 0.39908369033492319 0 0.16583452453146311 0.4060420513413715 0 0.17598476497094481 0.41116519512271382 0 0.18542230815644159 0.40655335098696532 0 0.17624186992809279 0.39908369033492319 0 0.17624186992809279 0.39908369033492319 0 0.16583452453146311 0.4060420513413715 0 0.1639479318423902 0.40290165965757652 0 0.1639479318423902 0.40290165965757652 0 0.16264892555080179 0.4007393547896928 0 0.16512194461888791 0.38559927911470471 0 0.16583452453146311 0.4060420513413715 0 0.1639479318423902 0.40290165965757652 0 0.16264892555080179 0.4007393547896928 0 0.16512194461888791 0.38559927911470471 0 0.15367620528472459 0.40254004066074489 0 0.16151404002091349 0.40768724007964913 0 0.16264892555080179 0.4007393547896928 0 0.16151404002091349 0.40768724007964913 0 0.1639479318423902 0.40290165965757652 0 0.16151404002091349 0.40768724007964913 0 0.1639479318423902 0.40290165965757652 0 0.16264892555080179 0.4007393547896928 0 0.16151404002091349 0.40768724007964913 0 0.16264892555080179 0.4007393547896928 0 0.16151404002091349 0.40768724007964913 0 0.16583452453146311 0.4060420513413715 0 0.1639479318423902 0.40290165965757652 0 0.1639479318423902 0.40290165965757652 0 0.16264892555080179 0.4007393547896928 0 0.1639479318423902 0.40290165965757652 0 0.17746821951091751 0.37631772384076961 0 0.150215218568922 0.3800424072022382 0 0.16264892555080179 0.4007393547896928 0 0.1639479318423902 0.40290165965757652 0 0.16512194461888791 0.38559927911470471 0 0.17746821951091751 0.37631772384076961 0 0.150215218568922 0.3800424072022382 0 0.16264892555080179 0.4007393547896928 0 0.16512194461888791 0.38559927911470471 0 0.150215218568922 0.3800424072022382 0 0.16373131589727069 0.37517211497552599 0 0.16512194461888791 0.38559927911470471 0 0.16373131589727069 0.37517211497552599 0 0.16512194461888791 0.38559927911470471 0 0.17746821951091751 0.37631772384076961 0 0.17624186992809279 0.39908369033492319 0 0.17746821951091751 0.37631772384076961 0 0.18970974191213341 0.39154817015711368 0 0.19205596345428749 0.37453976680078072 0 0.17746821951091751 0.37631772384076961 0 0.18970974191213341 0.39154817015711368 0 0.19205596345428749 0.37453976680078072 0 0.18970974191213341 0.39154817015711368 0 0.20320657760449279 0.38123157265968127 0 0.18970974191213341 0.39154817015711368 0 0.20292760942366081 0.39429707734059499 0 0.20320657760449279 0.38123157265968127 0 0.18542230815644159 0.40655335098696532 0 0.18970974191213341 0.39154817015711368 0 0.19777676128467189 0.4046579841219648 0 0.18970974191213341 0.39154817015711368 0 0.20292760942366081 0.39429707734059499 0 0.19777676128467189 0.4046579841219648 0 0.20292760942366081 0.39429707734059499 0 0.19777676128467189 0.4046579841219648 0 0.20841118865530789 0.40457990675311301 0 0.20292760942366081 0.39429707734059499 0 0.20841118865530789 0.40457990675311301 0 0.21280716590680709 0.39091648936893042 0 0.20841118865530789 0.40457990675311301 0 0.21280716590680709 0.39091648936893042 0 0.21902964597388219 0.40217045423770392 0 0.20963963137411459 0.37011767383547428 0 0.20320657760449279 0.38123157265968127 0 0.2150622298449556 0.37718327065717888 0 0.21280716590680709 0.39091648936893042 0 0.20320657760449279 0.38123157265968127 0 0.2150622298449556 0.37718327065717888 0 0.20292760942366081 0.39429707734059499 0 0.21280716590680709 0.39091648936893042 0 0.20320657760449279 0.38123157265968127 0 0.22316305757520771 0.37069754707322339 0 0.2150622298449556 0.37718327065717888 0 0.22851357724736859 0.38466936499528692 0 0.21280716590680709 0.39091648936893042 0 0.2150622298449556 0.37718327065717888 0 0.22851357724736859 0.38466936499528692 0 0.2315876013294417 0.37168668058241228 0 0.22316305757520771 0.37069754707322339 0 0.22851357724736859 0.38466936499528692 0 0.21280716590680709 0.39091648936893042 0 0.22851357724736859 0.38466936499528692 0 0.21902964597388219 0.40217045423770392 0 0.22851357724736859 0.38466936499528692 0 0.2338582237220333 0.40336218176532701 0 0.21902964597388219 0.40217045423770392 0 0.2338582237220333 0.40336218176532701 0 0.2480489964302264 0.38786429840317371 0 0.25482225986780788 0.40437505530568718 0 0.22851357724736859 0.38466936499528692 0 0.2338582237220333 0.40336218176532701 0 0.2480489964302264 0.38786429840317371 0 0.2431192079475922 0.37479551221345592 0 0.22851357724736859 0.38466936499528692 0 0.2480489964302264 0.38786429840317371 0 0.2431192079475922 0.37479551221345592 0 0.2480489964302264 0.38786429840317371 0 0.25719896797686698 0.37270397667906879 0 0.2431192079475922 0.37479551221345592 0 0.2315876013294417 0.37168668058241228 0 0.22851357724736859 0.38466936499528692 0 0.2364223342680335 0.42391760702866033 0 0.23035443757717081 0.43843268529757801 0 0.24395412678229941 0.44589451146650938 0 0.2364223342680335 0.42391760702866033 0 0.24395412678229941 0.44589451146650938 0 0.2547337253169436 0.42999907702526458 0 0.2364223342680335 0.42391760702866033 0 0.2547337253169436 0.42999907702526458 0 0.25482225986780788 0.40437505530568718 0 0.2338582237220333 0.40336218176532701 0 0.2364223342680335 0.42391760702866033 0 0.25482225986780788 0.40437505530568718 0 0.2338582237220333 0.40336218176532701 0 0.21902964597388219 0.40217045423770392 0 0.21797790399087899 0.41537195706076008 0 0.2338582237220333 0.40336218176532701 0 0.2364223342680335 0.42391760702866033 0 0.21797790399087899 0.41537195706076008 0 0.2364223342680335 0.42391760702866033 0 0.22068779017999449 0.42899775244021893 0 0.23035443757717081 0.43843268529757801 0 0.2364223342680335 0.42391760702866033 0 0.22068779017999449 0.42899775244021893 0 0.21797790399087899 0.41537195706076008 0 0.22068779017999449 0.42899775244021893 0 0.2119669871866223 0.44028664095298109 0 0.23035443757717081 0.43843268529757801 0 0.22068779017999449 0.42899775244021893 0 0.208304139353856 0.42595322895695592 0 0.2119669871866223 0.44028664095298109 0 0.22068779017999449 0.42899775244021893 0 0.208304139353856 0.42595322895695592 0 0.21797790399087899 0.41537195706076008 0 0.208304139353856 0.42595322895695592 0 0.1993098325124868 0.43391460211766453 0 0.2119669871866223 0.44028664095298109 0 0.20841118865530789 0.40457990675311301 0 0.21902964597388219 0.40217045423770392 0 0.21797790399087899 0.41537195706076008 0 0.208304139353856 0.42595322895695592 0 0.20381295404632249 0.41496498520442582 0 0.19899309972317139 0.42317600143938222 0 0.208304139353856 0.42595322895695592 0 0.21797790399087899 0.41537195706076008 0 0.20381295404632249 0.41496498520442582 0 0.19777676128467189 0.4046579841219648 0 0.20841118865530789 0.40457990675311301 0 0.20381295404632249 0.41496498520442582 0 0.20841118865530789 0.40457990675311301 0 0.21797790399087899 0.41537195706076008 0 0.20381295404632249 0.41496498520442582 0 0.19777676128467189 0.4046579841219648 0 0.20381295404632249 0.41496498520442582 0 0.19154843448549039 0.41722458346401992 0 0.20381295404632249 0.41496498520442582 0 0.19154843448549039 0.41722458346401992 0 0.19899309972317139 0.42317600143938222 0 0.18542230815644159 0.40655335098696532 0 0.19777676128467189 0.4046579841219648 0 0.19154843448549039 0.41722458346401992 0 0.208304139353856 0.42595322895695592 0 0.1993098325124868 0.43391460211766453 0 0.19899309972317139 0.42317600143938222 0 0.1993098325124868 0.43391460211766453 0 0.19899309972317139 0.42317600143938222 0 0.19173652569198171 0.42749197130674599 0 0.19154843448549039 0.41722458346401992 0 0.19899309972317139 0.42317600143938222 0 0.19173652569198171 0.42749197130674599 0 0.18240523721277629 0.42583846406863801 0 0.19154843448549039 0.41722458346401992 0 0.19173652569198171 0.42749197130674599 0 0.1993098325124868 0.43391460211766453 0 0.19173652569198171 0.42749197130674599 0 0.18637318858312549 0.43807065624671332 0 0.189802814872121 0.45121855362981239 0 0.19965376591226491 0.44536717940523768 0 0.18637318858312549 0.43807065624671332 0 0.1993098325124868 0.43391460211766453 0 0.19965376591226491 0.44536717940523768 0 0.18637318858312549 0.43807065624671332 0 0.189802814872121 0.45121855362981239 0 0.19965376591226491 0.44536717940523768 0 0.1968244441941786 0.45736542020179821 0 0.19965376591226491 0.44536717940523768 0 0.1968244441941786 0.45736542020179821 0 0.20702855389951391 0.45430361599611307 0 0.19556267044281961 0.46844925460829517 0 0.20122443059345821 0.47513372313235702 0 0.1860817590479493 0.46138720175894399 0 0.1968244441941786 0.45736542020179821 0 0.19556267044281961 0.46844925460829517 0 0.1860817590479493 0.46138720175894399 0 0.20122443059345821 0.47513372313235702 0 0.1860817590479493 0.46138720175894399 0 0.189802814872121 0.45121855362981239 0 0.1860817590479493 0.46138720175894399 0 0.189802814872121 0.45121855362981239 0 0.1968244441941786 0.45736542020179821 0 0.1860817590479493 0.46138720175894399 0 0.1968244441941786 0.45736542020179821 0 0.20429364640831549 0.46260299310384828 0 0.20702855389951391 0.45430361599611307 0 0.1968244441941786 0.45736542020179821 0 0.19556267044281961 0.46844925460829517 0 0.20429364640831549 0.46260299310384828 0 0.19556267044281961 0.46844925460829517 0 0.20429364640831549 0.46260299310384828 0 0.21250613289325401 0.46870832999535228 0 0.20429364640831549 0.46260299310384828 0 0.20702855389951391 0.45430361599611307 0 0.2166338486177877 0.4600424757167022 0 0.20702855389951391 0.45430361599611307 0 0.2166338486177877 0.4600424757167022 0 0.22216337942564721 0.44997915647245662 0 0.20429364640831549 0.46260299310384828 0 0.2166338486177877 0.4600424757167022 0 0.21250613289325401 0.46870832999535228 0 0.1993098325124868 0.43391460211766453 0 0.19965376591226491 0.44536717940523768 0 0.2119669871866223 0.44028664095298109 0 0.19965376591226491 0.44536717940523768 0 0.20702855389951391 0.45430361599611307 0 0.2119669871866223 0.44028664095298109 0 0.20702855389951391 0.45430361599611307 0 0.2119669871866223 0.44028664095298109 0 0.22216337942564721 0.44997915647245662 0 0.2119669871866223 0.44028664095298109 0 0.23035443757717081 0.43843268529757801 0 0.22216337942564721 0.44997915647245662 0 0.23035443757717081 0.43843268529757801 0 0.22216337942564721 0.44997915647245662 0 0.24395412678229941 0.44589451146650938 0 0.22216337942564721 0.44997915647245662 0 0.2284182722750813 0.46514277770273638 0 0.24395412678229941 0.44589451146650938 0 0.2166338486177877 0.4600424757167022 0 0.21250613289325401 0.46870832999535228 0 0.2284182722750813 0.46514277770273638 0 0.2166338486177877 0.4600424757167022 0 0.22216337942564721 0.44997915647245662 0 0.2284182722750813 0.46514277770273638 0 0.2284182722750813 0.46514277770273638 0 0.2494051499654453 0.46590989257367399 0 0.24395412678229941 0.44589451146650938 0 0.24461005076771139 0.49614428824589768 0 0.23951750044064621 0.47844659997185429 0 0.2200863606052654 0.4822967714270967 0 0.24461005076771139 0.49614428824589768 0 0.23951750044064621 0.47844659997185429 0 0.25506766858972779 0.48273926990986649 0 0.24461005076771139 0.49614428824589768 0 0.23393035790272901 0.5 0 0.2514384432983342 0.49999999999999772 0 0.24461005076771139 0.49614428824589768 0 0.2514384432983342 0.49999999999999772 0 0.2284182722750813 0.46514277770273638 0 0.2494051499654453 0.46590989257367399 0 0.23951750044064621 0.47844659997185429 0 0.2494051499654453 0.46590989257367399 0 0.23951750044064621 0.47844659997185429 0 0.25506766858972779 0.48273926990986649 0 0.21250613289325401 0.46870832999535228 0 0.2284182722750813 0.46514277770273638 0 0.2200863606052654 0.4822967714270967 0 0.2284182722750813 0.46514277770273638 0 0.23951750044064621 0.47844659997185429 0 0.2200863606052654 0.4822967714270967 0 0.24461005076771139 0.49614428824589768 0 0.21642227250712379 0.49999999999999972 0 0.24461005076771139 0.49614428824589768 0 0.2200863606052654 0.4822967714270967 0 0.21642227250712379 0.49999999999999972 0 0.24461005076771139 0.49614428824589768 0 0.2200863606052654 0.4822967714270967 0 0.24461005076771139 0.49614428824589768 0 0.23393035790272901 0.5 0 0.21642227250712379 0.49999999999999972 0 0.2200863606052654 0.4822967714270967 0 0.21642227250712379 0.49999999999999972 0 0.2055683865768777 0.48876077055447992 0 0.21642227250712379 0.49999999999999972 0 0.2055683865768777 0.48876077055447992 0 0.19418714461876899 0.5 0 0.2200863606052654 0.4822967714270967 0 0.2055683865768777 0.48876077055447992 0 0.20122443059345821 0.47513372313235702 0 0.19556267044281961 0.46844925460829517 0 0.21250613289325401 0.46870832999535228 0 0.2200863606052654 0.4822967714270967 0 0.19556267044281961 0.46844925460829517 0 0.2200863606052654 0.4822967714270967 0 0.20122443059345821 0.47513372313235702 0 0.19556267044281961 0.46844925460829517 0 0.2200863606052654 0.4822967714270967 0 0.2055683865768777 0.48876077055447992 0 0.20122443059345821 0.47513372313235702 0 0.19111097090065651 0.48640674111700383 0 0.20122443059345821 0.47513372313235702 0 0.18923453189205139 0.47404489113859022 0 0.19111097090065651 0.48640674111700383 0 0.20122443059345821 0.47513372313235702 0 0.18923453189205139 0.47404489113859022 0 0.1860817590479493 0.46138720175894399 0 0.2055683865768777 0.48876077055447992 0 0.19111097090065651 0.48640674111700383 0 0.19418714461876899 0.5 0 0.19111097090065651 0.48640674111700383 0 0.19418714461876899 0.5 0 0.1719520167304143 0.49999999999999889 0 0.1719520167304143 0.49999999999999889 0 0.17901688788918271 0.48069360087947183 0 0.19111097090065651 0.48640674111700383 0 0.1719520167304143 0.49999999999999889 0 0.17901688788918271 0.48069360087947183 0 0.1719520167304143 0.49999999999999889 0 0.15974497939685031 0.48343783960293352 0 0.17901688788918271 0.48069360087947183 0 0.1719520167304143 0.49999999999999889 0 0.15974497939685031 0.48343783960293352 0 0.14325841802827749 0.5 0 0.15974497939685031 0.48343783960293352 0 0.17901688788918271 0.48069360087947183 0 0.16844407912841919 0.46532481934186348 0 0.15974497939685031 0.48343783960293352 0 0.16844407912841919 0.46532481934186348 0 0.1518885718653275 0.46661534062016252 0 0.17901688788918271 0.48069360087947183 0 0.1860817590479493 0.46138720175894399 0 0.16844407912841919 0.46532481934186348 0 0.18923453189205139 0.47404489113859022 0 0.17901688788918271 0.48069360087947183 0 0.1860817590479493 0.46138720175894399 0 0.17901688788918271 0.48069360087947183 0 0.1860817590479493 0.46138720175894399 0 0.18923453189205139 0.47404489113859022 0 0.19111097090065651 0.48640674111700383 0 0.17901688788918271 0.48069360087947183 0 0.1860817590479493 0.46138720175894399 0 0.1715647690334613 0.44820867425063698 0 0.16844407912841919 0.46532481934186348 0 0.189802814872121 0.45121855362981239 0 0.1860817590479493 0.46138720175894399 0 0.18167189278544529 0.44689028556937122 0 0.1860817590479493 0.46138720175894399 0 0.1715647690334613 0.44820867425063698 0 0.17453693239056989 0.4355663419607485 0 0.18637318858312549 0.43807065624671332 0 0.18167189278544529 0.44689028556937122 0 0.189802814872121 0.45121855362981239 0 0.18637318858312549 0.43807065624671332 0 0.18167189278544529 0.44689028556937122 0 0.1860817590479493 0.46138720175894399 0 0.18167189278544529 0.44689028556937122 0 0.1715647690334613 0.44820867425063698 0 0.17453693239056989 0.4355663419607485 0 0.18167189278544529 0.44689028556937122 0 0.1715647690334613 0.44820867425063698 0 0.15704777901897249 0.43503014674233081 0 0.1715647690334613 0.44820867425063698 0 0.1544681754421483 0.45082274368124642 0 0.15704777901897249 0.43503014674233081 0 0.17453693239056989 0.4355663419607485 0 0.1715647690334613 0.44820867425063698 0 0.15704777901897249 0.43503014674233081 0 0.1715647690334613 0.44820867425063698 0 0.16844407912841919 0.46532481934186348 0 0.1518885718653275 0.46661534062016252 0 0.1544681754421483 0.45082274368124642 0 0.1715647690334613 0.44820867425063698 0 0.16844407912841919 0.46532481934186348 0 0.1544681754421483 0.45082274368124642 0 0.1518885718653275 0.46661534062016252 0 0.1544681754421483 0.45082274368124642 0 0.13858128032813641 0.45277821940801249 0 0.1518885718653275 0.46661534062016252 0 0.1544681754421483 0.45082274368124642 0 0.15058951082913011 0.42916732911201211 0 0.13858128032813641 0.45277821940801249 0 0.15704777901897249 0.43503014674233081 0 0.1544681754421483 0.45082274368124642 0 0.15058951082913011 0.42916732911201211 0 0.15704777901897249 0.43503014674233081 0 0.1544681754421483 0.45082274368124642 0 0.15058951082913011 0.42916732911201211 0 0.1544681754421483 0.45082274368124642 0 0.13858128032813641 0.45277821940801249 0 0.1381513403988851 0.43082454782803858 0 0.15058951082913011 0.42916732911201211 0 0.13858128032813641 0.45277821940801249 0 0.1381513403988851 0.43082454782803858 0 0.13858128032813641 0.45277821940801249 0 0.1294169927150825 0.43787471834413999 0 0.120328639321768 0.44905026282382171 0 0.13858128032813641 0.45277821940801249 0 0.1294169927150825 0.43787471834413999 0 0.13858128032813641 0.45277821940801249 0 0.1265730498271404 0.47638910970401183 0 0.1518885718653275 0.46661534062016252 0 0.13858128032813641 0.45277821940801249 0 0.1265730498271404 0.47638910970401183 0 0.120328639321768 0.44905026282382171 0 0.13858128032813641 0.45277821940801249 0 0.1265730498271404 0.47638910970401183 0 0.1145648193261407 0.5000000000000091 0 0.1265730498271404 0.47638910970401183 0 0.14325841802827749 0.5 0 0.1265730498271404 0.47638910970401183 0 0.14325841802827749 0.5 0 0.14385560475539791 0.48137349050780082 0 0.15974497939685031 0.48343783960293352 0 0.14325841802827749 0.5 0 0.14385560475539791 0.48137349050780082 0 0.15974497939685031 0.48343783960293352 0 0.1518885718653275 0.46661534062016252 0 0.14385560475539791 0.48137349050780082 0 0.1518885718653275 0.46661534062016252 0 0.1265730498271404 0.47638910970401183 0 0.14385560475539791 0.48137349050780082 0 0.34656345336447258 0.48016075395654439 0 0.36728039720249672 0.47822659752557539 0 0.3582265211915836 0.46184924774060587 0 0.34656345336447258 0.48016075395654439 0 0.36589615529968178 0.5 0 0.33728172729934491 0.5 0 0.34656345336447258 0.48016075395654439 0 0.36589615529968178 0.5 0 0.36728039720249672 0.47822659752557539 0 0.36589615529968178 0.5 0 0.36728039720249672 0.47822659752557539 0 0.3786582908516819 0.49276161010086977 0 0.36728039720249672 0.47822659752557539 0 0.3582265211915836 0.46184924774060587 0 0.37937049175763221 0.45303532224651638 0 0.36677750666411407 0.43784065001942007 0 0.3582265211915836 0.46184924774060587 0 0.37937049175763221 0.45303532224651638 0 0.36677750666411407 0.43784065001942007 0 0.3582265211915836 0.46184924774060587 0 0.33958498567741169 0.4539620925356524 0 0.36677750666411407 0.43784065001942007 0 0.33958498567741169 0.4539620925356524 0 0.34180912589475471 0.43046176572675893 0 0.34656345336447258 0.48016075395654439 0 0.3582265211915836 0.46184924774060587 0 0.33958498567741169 0.4539620925356524 0 0.33958498567741169 0.4539620925356524 0 0.32087594284715931 0.45106108337928108 0 0.34180912589475471 0.43046176572675893 0 0.32087594284715931 0.45106108337928108 0 0.30208449802080101 0.44118249942428389 0 0.31878851473657188 0.43113089011555922 0 0.32087594284715931 0.45106108337928108 0 0.31878851473657188 0.43113089011555922 0 0.34180912589475471 0.43046176572675893 0 0.32087594284715931 0.45106108337928108 0 0.32356711466179489 0.47696556657601191 0 0.30697782205049318 0.46499681055197611 0 0.33958498567741169 0.4539620925356524 0 0.32087594284715931 0.45106108337928108 0 0.32356711466179489 0.47696556657601191 0 0.34656345336447258 0.48016075395654439 0 0.33958498567741169 0.4539620925356524 0 0.32356711466179489 0.47696556657601191 0 0.34656345336447258 0.48016075395654439 0 0.32356711466179489 0.47696556657601191 0 0.33728172729934491 0.5 0 0.32356711466179489 0.47696556657601191 0 0.33728172729934491 0.5 0 0.30866729929900799 0.5 0 0.32356711466179489 0.47696556657601191 0 0.30866729929900799 0.5 0 0.29548679655087212 0.48256069710674337 0 0.32356711466179489 0.47696556657601191 0 0.29548679655087212 0.48256069710674337 0 0.30697782205049318 0.46499681055197611 0 0.29548679655087212 0.48256069710674337 0 0.28063093373948211 0.47872445311162021 0 0.28732056151707142 0.46597372499637929 0 0.29548679655087212 0.48256069710674337 0 0.28732056151707142 0.46597372499637929 0 0.30697782205049318 0.46499681055197611 0 0.29548679655087212 0.48256069710674337 0 0.28023940079665471 0.49127066882021458 0 0.28063093373948211 0.47872445311162021 0 0.30866729929900799 0.5 0 0.29548679655087212 0.48256069710674337 0 0.28005287129867112 0.5 0 0.29548679655087212 0.48256069710674337 0 0.28005287129867112 0.5 0 0.28023940079665471 0.49127066882021458 0 0.28023940079665471 0.49127066882021458 0 0.26242472578218301 0.4937074785330558 0 0.28023940079665471 0.49127066882021458 0 0.26927719868074601 0.48366205269775508 0 0.26242472578218301 0.4937074785330558 0 0.28005287129867112 0.5 0 0.28023940079665471 0.49127066882021458 0 0.26242472578218301 0.4937074785330558 0 0.28023940079665471 0.49127066882021458 0 0.28063093373948211 0.47872445311162021 0 0.26927719868074601 0.48366205269775508 0 0.28063093373948211 0.47872445311162021 0 0.26765960560236879 0.47209031943228369 0 0.28732056151707142 0.46597372499637929 0 0.28063093373948211 0.47872445311162021 0 0.26765960560236879 0.47209031943228369 0 0.26927719868074601 0.48366205269775508 0 0.2494051499654453 0.46590989257367399 0 0.26765960560236879 0.47209031943228369 0 0.25506766858972779 0.48273926990986649 0 0.26765960560236879 0.47209031943228369 0 0.26927719868074601 0.48366205269775508 0 0.25506766858972779 0.48273926990986649 0 0.28005287129867112 0.5 0 0.2514384432983342 0.49999999999999772 0 0.26242472578218301 0.4937074785330558 0 0.24461005076771139 0.49614428824589768 0 0.25506766858972779 0.48273926990986649 0 0.26242472578218301 0.4937074785330558 0 0.24461005076771139 0.49614428824589768 0 0.26242472578218301 0.4937074785330558 0 0.24461005076771139 0.49614428824589768 0 0.2514384432983342 0.49999999999999772 0 0.26242472578218301 0.4937074785330558 0 0.26927719868074601 0.48366205269775508 0 0.25506766858972779 0.48273926990986649 0 0.26242472578218301 0.4937074785330558 0 0.24395412678229941 0.44589451146650938 0 0.26817472192628788 0.43900905127003309 0 0.2547337253169436 0.42999907702526458 0 0.24395412678229941 0.44589451146650938 0 0.26631437832108601 0.45573118708573618 0 0.26817472192628788 0.43900905127003309 0 0.2494051499654453 0.46590989257367399 0 0.24395412678229941 0.44589451146650938 0 0.26631437832108601 0.45573118708573618 0 0.2494051499654453 0.46590989257367399 0 0.26765960560236879 0.47209031943228369 0 0.26631437832108601 0.45573118708573618 0 0.26631437832108601 0.45573118708573618 0 0.28310081385169 0.44525819565772601 0 0.28732056151707142 0.46597372499637929 0 0.26765960560236879 0.47209031943228369 0 0.26631437832108601 0.45573118708573618 0 0.28732056151707142 0.46597372499637929 0 0.26631437832108601 0.45573118708573618 0 0.26817472192628788 0.43900905127003309 0 0.28310081385169 0.44525819565772601 0 0.28310081385169 0.44525819565772601 0 0.28732056151707142 0.46597372499637929 0 0.30208449802080101 0.44118249942428389 0 0.28310081385169 0.44525819565772601 0 0.28732056151707142 0.46597372499637929 0 0.28732056151707142 0.46597372499637929 0 0.30697782205049318 0.46499681055197611 0 0.30208449802080101 0.44118249942428389 0 0.32087594284715931 0.45106108337928108 0 0.30697782205049318 0.46499681055197611 0 0.30208449802080101 0.44118249942428389 0 0.30208449802080101 0.44118249942428389 0 0.30268469103548418 0.41916392278884818 0 0.31878851473657188 0.43113089011555922 0 0.30268469103548418 0.41916392278884818 0 0.28840681439747651 0.41163642228717912 0 0.29597914556763638 0.39865282482696363 0 0.30268469103548418 0.41916392278884818 0 0.27888106618630792 0.42454266631907273 0 0.30268469103548418 0.41916392278884818 0 0.28840681439747651 0.41163642228717912 0 0.27888106618630792 0.42454266631907273 0 0.28310081385169 0.44525819565772601 0 0.30208449802080101 0.44118249942428389 0 0.27888106618630792 0.42454266631907273 0 0.30208449802080101 0.44118249942428389 0 0.30268469103548418 0.41916392278884818 0 0.27888106618630792 0.42454266631907273 0 0.27888106618630792 0.42454266631907273 0 0.26526626913996232 0.41635014503255102 0 0.2547337253169436 0.42999907702526458 0 0.26817472192628788 0.43900905127003309 0 0.27888106618630792 0.42454266631907273 0 0.2547337253169436 0.42999907702526458 0 0.26817472192628788 0.43900905127003309 0 0.28310081385169 0.44525819565772601 0 0.27888106618630792 0.42454266631907273 0 0.27888106618630792 0.42454266631907273 0 0.2547337253169436 0.42999907702526458 0 0.28310081385169 0.44525819565772601 0 0.27888106618630792 0.42454266631907273 0 0.28840681439747651 0.41163642228717912 0 0.27888106618630792 0.42454266631907273 0 0.2745915707052462 0.40348473192764739 0 0.27888106618630792 0.42454266631907273 0 0.26526626913996232 0.41635014503255102 0 0.2745915707052462 0.40348473192764739 0 0.27888106618630792 0.42454266631907273 0 0.2745915707052462 0.40348473192764739 0 0.26526626913996232 0.41635014503255102 0 0.2547337253169436 0.42999907702526458 0 0.25482225986780788 0.40437505530568718 0 0.26526626913996232 0.41635014503255102 0 0.25482225986780788 0.40437505530568718 0 0.2745915707052462 0.40348473192764739 0 0.2480489964302264 0.38786429840317371 0 0.27030207522418381 0.38242679753622222 0 0.25719896797686698 0.37270397667906879 0 0.2480489964302264 0.38786429840317371 0 0.25482225986780788 0.40437505530568718 0 0.27030207522418381 0.38242679753622222 0 0.2745915707052462 0.40348473192764739 0 0.27030207522418381 0.38242679753622222 0 0.28544633065564368 0.38635462859194802 0 0.2745915707052462 0.40348473192764739 0 0.27030207522418381 0.38242679753622222 0 0.25482225986780788 0.40437505530568718 0 0.2745915707052462 0.40348473192764739 0 0.27030207522418381 0.38242679753622222 0 0.28544633065564368 0.38635462859194802 0 0.30760111156362258 0.38115435368888378 0 0.28901667176231272 0.3700326372907542 0 0.27030207522418381 0.38242679753622222 0 0.28544633065564368 0.38635462859194802 0 0.28901667176231272 0.3700326372907542 0 0.28544633065564368 0.38635462859194802 0 0.29597914556763638 0.39865282482696363 0 0.30760111156362258 0.38115435368888378 0 0.28840681439747651 0.41163642228717912 0 0.2745915707052462 0.40348473192764739 0 0.29597914556763638 0.39865282482696363 0 0.2745915707052462 0.40348473192764739 0 0.28544633065564368 0.38635462859194802 0 0.29597914556763638 0.39865282482696363 0 0.29597914556763638 0.39865282482696363 0 0.30760111156362258 0.38115435368888378 0 0.31312727061779261 0.40070563784268948 0 0.30268469103548418 0.41916392278884818 0 0.29597914556763638 0.39865282482696363 0 0.31312727061779261 0.40070563784268948 0 0.30760111156362258 0.38115435368888378 0 0.33089148166762788 0.39102907239231299 0 0.32889127199759388 0.36758684703594652 0 0.33089148166762788 0.39102907239231299 0 0.34801428886376218 0.37566469619066761 0 0.34782291668309562 0.39166837869772198 0 0.33089148166762788 0.39102907239231299 0 0.34801428886376218 0.37566469619066761 0 0.32889127199759388 0.36758684703594652 0 0.33089148166762788 0.39102907239231299 0 0.35029194073383679 0.40840643572839902 0 0.34782291668309562 0.39166837869772198 0 0.33089148166762788 0.39102907239231299 0 0.32648831588466048 0.41378517925862363 0 0.35029194073383679 0.40840643572839902 0 0.30760111156362258 0.38115435368888378 0 0.33089148166762788 0.39102907239231299 0 0.31312727061779261 0.40070563784268948 0 0.33089148166762788 0.39102907239231299 0 0.31312727061779261 0.40070563784268948 0 0.32648831588466048 0.41378517925862363 0 0.30268469103548418 0.41916392278884818 0 0.32648831588466048 0.41378517925862363 0 0.31878851473657188 0.43113089011555922 0 0.30268469103548418 0.41916392278884818 0 0.31312727061779261 0.40070563784268948 0 0.32648831588466048 0.41378517925862363 0 0.30268469103548418 0.41916392278884818 0 0.32648831588466048 0.41378517925862363 0 0.32648831588466048 0.41378517925862363 0 0.31878851473657188 0.43113089011555922 0 0.34180912589475471 0.43046176572675893 0 0.32648831588466048 0.41378517925862363 0 0.35029194073383679 0.40840643572839902 0 0.32648831588466048 0.41378517925862363 0 0.34180912589475471 0.43046176572675893 0 0.35029194073383679 0.40840643572839902 0 0.34180912589475471 0.43046176572675893 0 0.35029194073383679 0.40840643572839902 0 0.36806019877893759 0.41622010242955909 0 0.36677750666411407 0.43784065001942007 0 0.34180912589475471 0.43046176572675893 0 0.36806019877893759 0.41622010242955909 0 0.36677750666411407 0.43784065001942007 0 0.36806019877893759 0.41622010242955909 0 0.38978288625498281 0.42714716400891761 0 0.35029194073383679 0.40840643572839902 0 0.36806019877893759 0.41622010242955909 0 0.36381553965215879 0.39277403419358142 0 0.36806019877893759 0.41622010242955909 0 0.36381553965215879 0.39277403419358142 0 0.38405309449856739 0.40320160775762431 0 0.36381553965215879 0.39277403419358142 0 0.36566511372232963 0.37501398143443299 0 0.38053019159213652 0.38786424179085921 0 0.36381553965215879 0.39277403419358142 0 0.34801428886376218 0.37566469619066761 0 0.34782291668309562 0.39166837869772198 0 0.36381553965215879 0.39277403419358142 0 0.36566511372232963 0.37501398143443299 0 0.34801428886376218 0.37566469619066761 0 0.35029194073383679 0.40840643572839902 0 0.36381553965215879 0.39277403419358142 0 0.34782291668309562 0.39166837869772198 0 0.36209078976676468 0.3607368692317609 0 0.34926569341587921 0.34019897052837028 0 0.34349760611825741 0.35797109894223339 0 0.36566511372232963 0.37501398143443299 0 0.34801428886376218 0.37566469619066761 0 0.36209078976676468 0.3607368692317609 0 0.34801428886376218 0.37566469619066761 0 0.36209078976676468 0.3607368692317609 0 0.34349760611825741 0.35797109894223339 0 0.36209078976676468 0.3607368692317609 0 0.37990267658891541 0.35510094898519878 0 0.38004161057094082 0.37186309855040189 0 0.36566511372232963 0.37501398143443299 0 0.36209078976676468 0.3607368692317609 0 0.38004161057094082 0.37186309855040189 0 0.36209078976676468 0.3607368692317609 0 0.37037413561878879 0.34130979719580068 0 0.34926569341587921 0.34019897052837028 0 0.36209078976676468 0.3607368692317609 0 0.37037413561878879 0.34130979719580068 0 0.37990267658891541 0.35510094898519878 0 0.35978169851247721 0.33130241049794451 0 0.37037413561878879 0.34130979719580068 0 0.34926569341587921 0.34019897052837028 0 0.37037413561878879 0.34130979719580068 0 0.36917840932377771 0.32123081829534689 0 0.38192357532137988 0.32852655095712502 0 0.35978169851247721 0.33130241049794451 0 0.37037413561878879 0.34130979719580068 0 0.36917840932377771 0.32123081829534689 0 0.35978169851247721 0.33130241049794451 0 0.36917840932377771 0.32123081829534689 0 0.3528029189051653 0.31943364087814491 0 0.36917840932377771 0.32123081829534689 0 0.36233697273915538 0.30922031160933328 0 0.37953383176485028 0.31060044581666207 0 0.36917840932377771 0.32123081829534689 0 0.3528029189051653 0.31943364087814491 0 0.36233697273915538 0.30922031160933328 0 0.3528029189051653 0.31943364087814491 0 0.34926569341587921 0.34019897052837028 0 0.33339987342489391 0.32145166558511967 0 0.35978169851247721 0.33130241049794451 0 0.3528029189051653 0.31943364087814491 0 0.34926569341587921 0.34019897052837028 0 0.34926569341587921 0.34019897052837028 0 0.33339987342489391 0.32145166558511967 0 0.32922598654728669 0.34566811172442202 0 0.3528029189051653 0.31943364087814491 0 0.33339987342489391 0.32145166558511967 0 0.34359033620370649 0.31199387468288847 0 0.33339987342489391 0.32145166558511967 0 0.31309597558614238 0.33180651699637848 0 0.3161307775832643 0.31015424574318778 0 0.33339987342489391 0.32145166558511967 0 0.31309597558614238 0.33180651699637848 0 0.32922598654728669 0.34566811172442202 0 0.31309597558614238 0.33180651699637848 0 0.32922598654728669 0.34566811172442202 0 0.30937215005019381 0.35658188916363709 0 0.32922598654728669 0.34566811172442202 0 0.32889127199759388 0.36758684703594652 0 0.30937215005019381 0.35658188916363709 0 0.32922598654728669 0.34566811172442202 0 0.34349760611825741 0.35797109894223339 0 0.32889127199759388 0.36758684703594652 0 0.34926569341587921 0.34019897052837028 0 0.32922598654728669 0.34566811172442202 0 0.34349760611825741 0.35797109894223339 0 0.34801428886376218 0.37566469619066761 0 0.34349760611825741 0.35797109894223339 0 0.32889127199759388 0.36758684703594652 0 0.30760111156362258 0.38115435368888378 0 0.32889127199759388 0.36758684703594652 0 0.30937215005019381 0.35658188916363709 0 0.30760111156362258 0.38115435368888378 0 0.30937215005019381 0.35658188916363709 0 0.28901667176231272 0.3700326372907542 0 0.31309597558614238 0.33180651699637848 0 0.30937215005019381 0.35658188916363709 0 0.28840188284420482 0.3432428682454382 0 0.30937215005019381 0.35658188916363709 0 0.28901667176231272 0.3700326372907542 0 0.28840188284420482 0.3432428682454382 0 0.28901667176231272 0.3700326372907542 0 0.27164990884919421 0.36134435813268462 0 0.28840188284420482 0.3432428682454382 0 0.27030207522418381 0.38242679753622222 0 0.28901667176231272 0.3700326372907542 0 0.27164990884919421 0.36134435813268462 0 0.27030207522418381 0.38242679753622222 0 0.27164990884919421 0.36134435813268462 0 0.25719896797686698 0.37270397667906879 0 0.27164990884919421 0.36134435813268462 0 0.26717107145231311 0.3442748563692451 0 0.28840188284420482 0.3432428682454382 0 0.26717107145231311 0.3442748563692451 0 0.25688634056637372 0.35570242984262368 0 0.2507640342900897 0.34015807829993427 0 0.27164990884919421 0.36134435813268462 0 0.26717107145231311 0.3442748563692451 0 0.25688634056637372 0.35570242984262368 0 0.24443963386875181 0.35413698747053918 0 0.25688634056637372 0.35570242984262368 0 0.2507640342900897 0.34015807829993427 0 0.2480053966953317 0.36457005710024648 0 0.25688634056637372 0.35570242984262368 0 0.25719896797686698 0.37270397667906879 0 0.27164990884919421 0.36134435813268462 0 0.25688634056637372 0.35570242984262368 0 0.25719896797686698 0.37270397667906879 0 0.24497321510562861 0.31843393456244318 0 0.2703494523085076 0.32638233632961938 0 0.25819116620425092 0.2980237419574942 0 0.26717107145231311 0.3442748563692451 0 0.2507640342900897 0.34015807829993427 0 0.2703494523085076 0.32638233632961938 0 0.24497321510562861 0.31843393456244318 0 0.2507640342900897 0.34015807829993427 0 0.2703494523085076 0.32638233632961938 0 0.26717107145231311 0.3442748563692451 0 0.2703494523085076 0.32638233632961938 0 0.28840188284420482 0.3432428682454382 0 0.2703494523085076 0.32638233632961938 0 0.27926063834722181 0.30137870522770321 0 0.2703494523085076 0.32638233632961938 0 0.29480786075326881 0.31799111881560771 0 0.27926063834722181 0.30137870522770321 0 0.2703494523085076 0.32638233632961938 0 0.29480786075326881 0.31799111881560771 0 0.28840188284420482 0.3432428682454382 0 0.31309597558614238 0.33180651699637848 0 0.29480786075326881 0.31799111881560771 0 0.28840188284420482 0.3432428682454382 0 0.31309597558614238 0.33180651699637848 0 0.29480786075326881 0.31799111881560771 0 0.3161307775832643 0.31015424574318778 0 0.29480786075326881 0.31799111881560771 0 0.30113387276943449 0.29498157057109492 0 0.3161307775832643 0.31015424574318778 0 0.30113387276943449 0.29498157057109492 0 0.28817182438593608 0.27637507412578671 0 0.3077940569120583 0.27690785547615199 0 0.30113387276943449 0.29498157057109492 0 0.3077940569120583 0.27690785547615199 0 0.32063807863485771 0.28708242403813228 0 0.30113387276943449 0.29498157057109492 0 0.27926063834722181 0.30137870522770321 0 0.28817182438593608 0.27637507412578671 0 0.27926063834722181 0.30137870522770321 0 0.28817182438593608 0.27637507412578671 0 0.29480786075326881 0.31799111881560771 0 0.30113387276943449 0.29498157057109492 0 0.27926063834722181 0.30137870522770321 0 0.2703494523085076 0.32638233632961938 0 0.27926063834722181 0.30137870522770321 0 0.25819116620425092 0.2980237419574942 0 0.27926063834722181 0.30137870522770321 0 0.26738708003262929 0.28129400048740227 0 0.28817182438593608 0.27637507412578671 0 0.27926063834722181 0.30137870522770321 0 0.26738708003262929 0.28129400048740227 0 0.25819116620425092 0.2980237419574942 0 0.26738708003262929 0.28129400048740227 0 0.25320049404724548 0.28723678748984638 0 0.25819116620425092 0.2980237419574942 0 0.24422566779542171 0.30096586643300099 0 0.25320049404724548 0.28723678748984638 0 0.25819116620425092 0.2980237419574942 0 0.24497321510562861 0.31843393456244318 0 0.25819116620425092 0.2980237419574942 0 0.25316703857241951 0.25821212120419579 0 0.26846833076372628 0.25456502804234488 0 0.26074318519242012 0.2411901656077742 0 0.25316703857241951 0.25821212120419579 0 0.26443858646867691 0.26718943795560213 0 0.26846833076372628 0.25456502804234488 0 0.25316703857241951 0.25821212120419579 0 0.25176850162096409 0.27383837045335419 0 0.26443858646867691 0.26718943795560213 0 0.26738708003262929 0.28129400048740227 0 0.25320049404724548 0.28723678748984638 0 0.25176850162096409 0.27383837045335419 0 0.26738708003262929 0.28129400048740227 0 0.25176850162096409 0.27383837045335419 0 0.26443858646867691 0.26718943795560213 0 0.26738708003262929 0.28129400048740227 0 0.26443858646867691 0.26718943795560213 0 0.27638645981878002 0.26592661028811287 0 0.26738708003262929 0.28129400048740227 0 0.27638645981878002 0.26592661028811287 0 0.28817182438593608 0.27637507412578671 0 0.26443858646867691 0.26718943795560213 0 0.27638645981878002 0.26592661028811287 0 0.26846833076372628 0.25456502804234488 0 0.27638645981878002 0.26592661028811287 0 0.26846833076372628 0.25456502804234488 0 0.28359109468705129 0.25280222816859599 0 0.26846833076372628 0.25456502804234488 0 0.28359109468705129 0.25280222816859599 0 0.27196241971927337 0.24268327521697461 0 0.27638645981878002 0.26592661028811287 0 0.28359109468705129 0.25280222816859599 0 0.28817182438593608 0.27637507412578671 0 0.28817182438593608 0.27637507412578671 0 0.29708301042465041 0.25137144302387032 0 0.28359109468705129 0.25280222816859599 0 0.28817182438593608 0.27637507412578671 0 0.29708301042465041 0.25137144302387032 0 0.28817182438593608 0.27637507412578671 0 0.3077940569120583 0.27690785547615199 0 0.30680489004776851 0.26132059233263738 0 0.3077940569120583 0.27690785547615199 0 0.30680489004776851 0.26132059233263738 0 0.32285769153052368 0.2664158619699224 0 0.28817182438593608 0.27637507412578671 0 0.29708301042465041 0.25137144302387032 0 0.30680489004776851 0.26132059233263738 0 0.29708301042465041 0.25137144302387032 0 0.30680489004776851 0.26132059233263738 0 0.30541171607944989 0.24631089723739291 0 0.30680489004776851 0.26132059233263738 0 0.31834043431787568 0.25087661923253218 0 0.30541171607944989 0.24631089723739291 0 0.31834043431787568 0.25087661923253218 0 0.33831054121436971 0.25082517840407931 0 0.32285769153052368 0.2664158619699224 0 0.30680489004776851 0.26132059233263738 0 0.31834043431787568 0.25087661923253218 0 0.32285769153052368 0.2664158619699224 0 0.33831054121436971 0.25082517840407931 0 0.33851545383218029 0.27340747745823252 0 0.32285769153052368 0.2664158619699224 0 0.33851545383218029 0.27340747745823252 0 0.32285769153052368 0.2664158619699224 0 0.32063807863485771 0.28708242403813228 0 0.3077940569120583 0.27690785547615199 0 0.32285769153052368 0.2664158619699224 0 0.32063807863485771 0.28708242403813228 0 0.32063807863485771 0.28708242403813228 0 0.3161307775832643 0.31015424574318778 0 0.33733734171120411 0.29995294708336839 0 0.30113387276943449 0.29498157057109492 0 0.32063807863485771 0.28708242403813228 0 0.3161307775832643 0.31015424574318778 0 0.33339987342489391 0.32145166558511967 0 0.33733734171120411 0.29995294708336839 0 0.34359033620370649 0.31199387468288847 0 0.33339987342489391 0.32145166558511967 0 0.3161307775832643 0.31015424574318778 0 0.33733734171120411 0.29995294708336839 0 0.33851545383218029 0.27340747745823252 0 0.32063807863485771 0.28708242403813228 0 0.33733734171120411 0.29995294708336839 0 0.33851545383218029 0.27340747745823252 0 0.35902464279851531 0.2920039616374473 0 0.33851545383218029 0.27340747745823252 0 0.33733734171120411 0.29995294708336839 0 0.35902464279851531 0.2920039616374473 0 0.33733734171120411 0.29995294708336839 0 0.35902464279851531 0.2920039616374473 0 0.35105461916638342 0.30546715981847322 0 0.35902464279851531 0.2920039616374473 0 0.35105461916638342 0.30546715981847322 0 0.36233697273915538 0.30922031160933328 0 0.3528029189051653 0.31943364087814491 0 0.34359033620370649 0.31199387468288847 0 0.35105461916638342 0.30546715981847322 0 0.33733734171120411 0.29995294708336839 0 0.34359033620370649 0.31199387468288847 0 0.35105461916638342 0.30546715981847322 0 0.3528029189051653 0.31943364087814491 0 0.35105461916638342 0.30546715981847322 0 0.36233697273915538 0.30922031160933328 0 0.35902464279851531 0.2920039616374473 0 0.37953383176485028 0.31060044581666207 0 0.35902464279851531 0.2920039616374473 0 0.37241473657646118 0.29592747910506351 0 0.37953383176485028 0.31060044581666207 0 0.35902464279851531 0.2920039616374473 0 0.36233697273915538 0.30922031160933328 0 0.37953383176485028 0.31060044581666207 0 0.35902464279851531 0.2920039616374473 0 0.36874313830542571 0.28391570773989622 0 0.35926176999174919 0.27554177917711331 0 0.35902464279851531 0.2920039616374473 0 0.37241473657646118 0.29592747910506351 0 0.36874313830542571 0.28391570773989622 0 0.37241473657646118 0.29592747910506351 0 0.36874313830542571 0.28391570773989622 0 0.38214379345195121 0.28349359093628879 0 0.36874313830542571 0.28391570773989622 0 0.37226263451462999 0.27020150826248363 0 0.38214379345195121 0.28349359093628879 0 0.37226263451462999 0.27020150826248363 0 0.35792260043989549 0.25790383945940071 0 0.35926176999174919 0.27554177917711331 0 0.36874313830542571 0.28391570773989622 0 0.37226263451462999 0.27020150826248363 0 0.35926176999174919 0.27554177917711331 0 0.37226263451462999 0.27020150826248363 0 0.35792260043989549 0.25790383945940071 0 0.37932408223304742 0.25170200418001692 0 0.33831054121436971 0.25082517840407931 0 0.33851545383218029 0.27340747745823252 0 0.35792260043989549 0.25790383945940071 0 0.33851545383218029 0.27340747745823252 0 0.35902464279851531 0.2920039616374473 0 0.35926176999174919 0.27554177917711331 0 0.33851545383218029 0.27340747745823252 0 0.35792260043989549 0.25790383945940071 0 0.35926176999174919 0.27554177917711331 0 0.4012010829936446 0.26104372590863473 0 0.38669018034881869 0.26936878886097609 0 0.39894176109404111 0.28368151253204721 0 0.4012010829936446 0.26104372590863473 0 0.39894176109404111 0.28368151253204721 0 0.41454248883565759 0.27557526047761283 0 0.4012010829936446 0.26104372590863473 0 0.37932408223304742 0.25170200418001692 0 0.39537431708585979 0.2421255215268075 0 0.4012010829936446 0.26104372590863473 0 0.37932408223304742 0.25170200418001692 0 0.38669018034881869 0.26936878886097609 0 0.37226263451462999 0.27020150826248363 0 0.37932408223304742 0.25170200418001692 0 0.38669018034881869 0.26936878886097609 0 0.38669018034881869 0.26936878886097609 0 0.38214379345195121 0.28349359093628879 0 0.39894176109404111 0.28368151253204721 0 0.37226263451462999 0.27020150826248363 0 0.38669018034881869 0.26936878886097609 0 0.38214379345195121 0.28349359093628879 0 0.37241473657646118 0.29592747910506351 0 0.38214379345195121 0.28349359093628879 0 0.39065936602581441 0.29646091772569261 0 0.38214379345195121 0.28349359093628879 0 0.39065936602581441 0.29646091772569261 0 0.39894176109404111 0.28368151253204721 0 0.37241473657646118 0.29592747910506351 0 0.37953383176485028 0.31060044581666207 0 0.39399555488773957 0.31543652557969548 0 0.37241473657646118 0.29592747910506351 0 0.39065936602581441 0.29646091772569261 0 0.39399555488773957 0.31543652557969548 0 0.37241473657646118 0.29592747910506351 0 0.39399555488773957 0.31543652557969548 0 0.40442158254453769 0.3032949679489228 0 0.39065936602581441 0.29646091772569261 0 0.39399555488773957 0.31543652557969548 0 0.40442158254453769 0.3032949679489228 0 0.4125656260012443 0.31639690582290031 0 0.39399555488773957 0.31543652557969548 0 0.40442158254453769 0.3032949679489228 0 0.39894176109404111 0.28368151253204721 0 0.41463489116646479 0.28990648141090308 0 0.40442158254453769 0.3032949679489228 0 0.39065936602581441 0.29646091772569261 0 0.39894176109404111 0.28368151253204721 0 0.39894176109404111 0.28368151253204721 0 0.41463489116646479 0.28990648141090308 0 0.41454248883565759 0.27557526047761283 0 0.41463489116646479 0.28990648141090308 0 0.43149076819511178 0.28237075482503332 0 0.41454248883565759 0.27557526047761283 0 0.40442158254453769 0.3032949679489228 0 0.41463489116646479 0.28990648141090308 0 0.42377785516297573 0.30460991127089942 0 0.40442158254453769 0.3032949679489228 0 0.42377785516297573 0.30460991127089942 0 0.4125656260012443 0.31639690582290031 0 0.42377785516297573 0.30460991127089942 0 0.44220386204714868 0.29784123303557092 0 0.43655099681122389 0.31344419554962788 0 0.42377785516297573 0.30460991127089942 0 0.43149076819511178 0.28237075482503332 0 0.44220386204714868 0.29784123303557092 0 0.41463489116646479 0.28990648141090308 0 0.42377785516297573 0.30460991127089942 0 0.43149076819511178 0.28237075482503332 0 0.43149076819511178 0.28237075482503332 0 0.41454248883565759 0.27557526047761283 0 0.42434710081215821 0.2601709591087687 0 0.43149076819511178 0.28237075482503332 0 0.42434710081215821 0.2601709591087687 0 0.44292798018656898 0.25926901654913509 0 0.4012010829936446 0.26104372590863473 0 0.42434710081215821 0.2601709591087687 0 0.41099170879738423 0.24533397063796919 0 0.4012010829936446 0.26104372590863473 0 0.41454248883565759 0.27557526047761283 0 0.42434710081215821 0.2601709591087687 0 0.42434710081215821 0.2601709591087687 0 0.44292798018656898 0.25926901654913509 0 0.42663922019175299 0.23901473258212541 0 0.44292798018656898 0.25926901654913509 0 0.45460329566910279 0.27821000447416661 0 0.46128537820210569 0.24921692059580469 0 0.43149076819511178 0.28237075482503332 0 0.44292798018656898 0.25926901654913509 0 0.45460329566910279 0.27821000447416661 0 0.45460329566910279 0.27821000447416661 0 0.4718047949689832 0.261670791010575 0 0.47286811932218747 0.28026563339749211 0 0.45460329566910279 0.27821000447416661 0 0.4718047949689832 0.261670791010575 0 0.46128537820210569 0.24921692059580469 0 0.4718047949689832 0.261670791010575 0 0.48722642195799171 0.26482822757790742 0 0.48304075969352822 0.23583316900750401 0 0.5 0.275679628658691 0 0.48722642195799171 0.26482822757790742 0 0.48304075969352822 0.23583316900750401 0 0.47286811932218747 0.28026563339749211 0 0.48722642195799171 0.26482822757790742 0 0.49141208422245508 0.29382328614831082 0 0.4718047949689832 0.261670791010575 0 0.47286811932218747 0.28026563339749211 0 0.48722642195799171 0.26482822757790742 0 0.48722642195799171 0.26482822757790742 0 0.49141208422245508 0.29382328614831082 0 0.5 0.275679628658691 0 0.48722642195799171 0.26482822757790742 0 0.49141208422245508 0.29382328614831082 0 0.48722642195799171 0.26482822757790742 0 0.48304075969352822 0.23583316900750401 0 0.47286811932218747 0.28026563339749211 0 0.49141208422245508 0.29382328614831082 0 0.47055777090965067 0.29691357167471688 0 0.49141208422245508 0.29382328614831082 0 0.47055777090965067 0.29691357167471688 0 0.47656307810658238 0.30638786314612643 0 0.49141208422245508 0.29382328614831082 0 0.47656307810658238 0.30638786314612643 0 0.47760818250458043 0.32400121885553029 0 0.47055777090965067 0.29691357167471688 0 0.47656307810658238 0.30638786314612643 0 0.46667427478964318 0.3108133759059476 0 0.46667427478964318 0.3108133759059476 0 0.45690473810866022 0.29427185952618051 0 0.45134457381646198 0.31400551384137831 0 0.47055777090965067 0.29691357167471688 0 0.46667427478964318 0.3108133759059476 0 0.45690473810866022 0.29427185952618051 0 0.47286811932218747 0.28026563339749211 0 0.47055777090965067 0.29691357167471688 0 0.45690473810866022 0.29427185952618051 0 0.45460329566910279 0.27821000447416661 0 0.47286811932218747 0.28026563339749211 0 0.45690473810866022 0.29427185952618051 0 0.43149076819511178 0.28237075482503332 0 0.45460329566910279 0.27821000447416661 0 0.44220386204714868 0.29784123303557092 0 0.45460329566910279 0.27821000447416661 0 0.45690473810866022 0.29427185952618051 0 0.44220386204714868 0.29784123303557092 0 0.44220386204714868 0.29784123303557092 0 0.45134457381646198 0.31400551384137831 0 0.43655099681122389 0.31344419554962788 0 0.45690473810866022 0.29427185952618051 0 0.44220386204714868 0.29784123303557092 0 0.45134457381646198 0.31400551384137831 0 0.5 0.275679628658691 0 0.49141208422245508 0.29382328614831082 0 0.5 0.38783981432934561 0 0.49141208422245508 0.29382328614831082 0 0.47760818250458043 0.32400121885553029 0 0.5 0.38783981432934561 0 0.4403719288175823 0.32706676733963441 0 0.45134457381646198 0.31400551384137831 0 0.43655099681122389 0.31344419554962788 0 0.4403719288175823 0.32706676733963441 0 0.45134457381646198 0.31400551384137831 0 0.45755371765112729 0.32709866735598381 0 0.47760818250458043 0.32400121885553029 0 0.47159956663214447 0.36247459007702698 0 0.5 0.38783981432934561 0 0.4403719288175823 0.32706676733963441 0 0.44659707938983279 0.34027521405049238 0 0.45755371765112729 0.32709866735598381 0 0.44659707938983279 0.34027521405049238 0 0.43715719151029642 0.35445461852895949 0 0.43304852679558359 0.33590742787645039 0 0.4403719288175823 0.32706676733963441 0 0.44659707938983279 0.34027521405049238 0 0.43304852679558359 0.33590742787645039 0 0.46171225922473569 0.34270760759379959 0 0.45755371765112729 0.32709866735598381 0 0.47760818250458043 0.32400121885553029 0 0.44659707938983279 0.34027521405049238 0 0.46171225922473569 0.34270760759379959 0 0.45755371765112729 0.32709866735598381 0 0.46667427478964318 0.3108133759059476 0 0.45134457381646198 0.31400551384137831 0 0.45755371765112729 0.32709866735598381 0 0.46667427478964318 0.3108133759059476 0 0.45755371765112729 0.32709866735598381 0 0.47760818250458043 0.32400121885553029 0 0.47656307810658238 0.30638786314612643 0 0.46667427478964318 0.3108133759059476 0 0.47760818250458043 0.32400121885553029 0 0.46171225922473569 0.34270760759379959 0 0.47760818250458043 0.32400121885553029 0 0.47159956663214447 0.36247459007702698 0 0.47159956663214447 0.36247459007702698 0 0.4587380098215747 0.37396366500359152 0 0.45560600290855979 0.35521605981540411 0 0.46171225922473569 0.34270760759379959 0 0.47159956663214447 0.36247459007702698 0 0.45560600290855979 0.35521605981540411 0 0.44659707938983279 0.34027521405049238 0 0.46171225922473569 0.34270760759379959 0 0.45560600290855979 0.35521605981540411 0 0.44659707938983279 0.34027521405049238 0 0.45560600290855979 0.35521605981540411 0 0.43715719151029642 0.35445461852895949 0 0.4587380098215747 0.37396366500359152 0 0.43715719151029642 0.35445461852895949 0 0.4587380098215747 0.37396366500359152 0 0.45560600290855979 0.35521605981540411 0 0.43715719151029642 0.35445461852895949 0 0.4587380098215747 0.37396366500359152 0 0.44005672006710272 0.37213670007226951 0 0.43715719151029642 0.35445461852895949 0 0.44005672006710272 0.37213670007226951 0 0.42480298614772388 0.36144952951734399 0 0.43715719151029642 0.35445461852895949 0 0.44005672006710272 0.37213670007226951 0 0.42480298614772388 0.36144952951734399 0 0.41602565623240029 0.37433309355996808 0 0.41602565623240029 0.37433309355996808 0 0.4102231532313001 0.35852982125043148 0 0.39671850922466723 0.36937207851678722 0 0.42480298614772388 0.36144952951734399 0 0.41602565623240029 0.37433309355996808 0 0.4102231532313001 0.35852982125043148 0 0.4102231532313001 0.35852982125043148 0 0.42055220969752027 0.3477934141750918 0 0.40324179203313498 0.3461556129708992 0 0.42480298614772388 0.36144952951734399 0 0.4102231532313001 0.35852982125043148 0 0.42055220969752027 0.3477934141750918 0 0.42055220969752027 0.3477934141750918 0 0.43715719151029642 0.35445461852895949 0 0.41557637319901802 0.33494557205432751 0 0.42480298614772388 0.36144952951734399 0 0.42055220969752027 0.3477934141750918 0 0.43715719151029642 0.35445461852895949 0 0.43715719151029642 0.35445461852895949 0 0.41557637319901802 0.33494557205432751 0 0.43304852679558359 0.33590742787645039 0 0.42554006106118841 0.32279496740883867 0 0.41557637319901802 0.33494557205432751 0 0.43715719151029642 0.35445461852895949 0 0.43304852679558359 0.33590742787645039 0 0.41557637319901802 0.33494557205432751 0 0.4403719288175823 0.32706676733963441 0 0.43304852679558359 0.33590742787645039 0 0.42554006106118841 0.32279496740883867 0 0.42377785516297573 0.30460991127089942 0 0.43655099681122389 0.31344419554962788 0 0.42554006106118841 0.32279496740883867 0 0.4403719288175823 0.32706676733963441 0 0.43655099681122389 0.31344419554962788 0 0.42554006106118841 0.32279496740883867 0 0.4125656260012443 0.31639690582290031 0 0.41557637319901802 0.33494557205432751 0 0.39399555488773957 0.31543652557969548 0 0.42377785516297573 0.30460991127089942 0 0.42554006106118841 0.32279496740883867 0 0.4125656260012443 0.31639690582290031 0 0.42554006106118841 0.32279496740883867 0 0.4125656260012443 0.31639690582290031 0 0.41557637319901802 0.33494557205432751 0 0.42055220969752027 0.3477934141750918 0 0.41557637319901802 0.33494557205432751 0 0.40004302073118542 0.32919692999587702 0 0.42055220969752027 0.3477934141750918 0 0.40004302073118542 0.32919692999587702 0 0.40324179203313498 0.3461556129708992 0 0.42055220969752027 0.3477934141750918 0 0.40004302073118542 0.32919692999587702 0 0.40004302073118542 0.32919692999587702 0 0.38879220084384791 0.34165447946750988 0 0.40324179203313498 0.3461556129708992 0 0.41557637319901802 0.33494557205432751 0 0.39399555488773957 0.31543652557969548 0 0.41557637319901802 0.33494557205432751 0 0.40004302073118542 0.32919692999587702 0 0.39399555488773957 0.31543652557969548 0 0.37953383176485028 0.31060044581666207 0 0.40004302073118542 0.32919692999587702 0 0.39399555488773957 0.31543652557969548 0 0.37953383176485028 0.31060044581666207 0 0.40004302073118542 0.32919692999587702 0 0.37953383176485028 0.31060044581666207 0 0.40004302073118542 0.32919692999587702 0 0.38192357532137988 0.32852655095712502 0 0.36917840932377771 0.32123081829534689 0 0.37953383176485028 0.31060044581666207 0 0.38192357532137988 0.32852655095712502 0 0.37037413561878879 0.34130979719580068 0 0.38192357532137988 0.32852655095712502 0 0.38879220084384791 0.34165447946750988 0 0.40004302073118542 0.32919692999587702 0 0.38192357532137988 0.32852655095712502 0 0.38879220084384791 0.34165447946750988 0 0.37037413561878879 0.34130979719580068 0 0.38879220084384791 0.34165447946750988 0 0.37990267658891541 0.35510094898519878 0 0.38879220084384791 0.34165447946750988 0 0.37990267658891541 0.35510094898519878 0 0.3965983756618211 0.35360341996558581 0 0.37990267658891541 0.35510094898519878 0 0.38004161057094082 0.37186309855040189 0 0.39671850922466723 0.36937207851678722 0 0.4102231532313001 0.35852982125043148 0 0.39671850922466723 0.36937207851678722 0 0.3965983756618211 0.35360341996558581 0 0.4102231532313001 0.35852982125043148 0 0.40324179203313498 0.3461556129708992 0 0.3965983756618211 0.35360341996558581 0 0.37990267658891541 0.35510094898519878 0 0.39671850922466723 0.36937207851678722 0 0.3965983756618211 0.35360341996558581 0 0.38879220084384791 0.34165447946750988 0 0.40324179203313498 0.3461556129708992 0 0.3965983756618211 0.35360341996558581 0 0.39841524650519761 0.38696624331098839 0 0.38405309449856739 0.40320160775762431 0 0.40310512197274018 0.40679267224784588 0 0.41602565623240029 0.37433309355996808 0 0.39671850922466723 0.36937207851678722 0 0.39841524650519761 0.38696624331098839 0 0.38004161057094082 0.37186309855040189 0 0.39671850922466723 0.36937207851678722 0 0.39841524650519761 0.38696624331098839 0 0.38004161057094082 0.37186309855040189 0 0.39841524650519761 0.38696624331098839 0 0.38053019159213652 0.38786424179085921 0 0.36566511372232963 0.37501398143443299 0 0.38004161057094082 0.37186309855040189 0 0.38053019159213652 0.38786424179085921 0 0.39841524650519761 0.38696624331098839 0 0.38053019159213652 0.38786424179085921 0 0.38405309449856739 0.40320160775762431 0 0.36381553965215879 0.39277403419358142 0 0.38053019159213652 0.38786424179085921 0 0.38405309449856739 0.40320160775762431 0 0.36806019877893759 0.41622010242955909 0 0.38405309449856739 0.40320160775762431 0 0.38978288625498281 0.42714716400891761 0 0.38978288625498281 0.42714716400891761 0 0.41549734838093438 0.42038666408370962 0 0.40321766253785019 0.44451164608942972 0 0.38978288625498281 0.42714716400891761 0 0.40310512197274018 0.40679267224784588 0 0.41549734838093438 0.42038666408370962 0 0.38405309449856739 0.40320160775762431 0 0.38978288625498281 0.42714716400891761 0 0.40310512197274018 0.40679267224784588 0 0.41549734838093438 0.42038666408370962 0 0.42777703422401858 0.39626168207798962 0 0.40310512197274018 0.40679267224784588 0 0.41549734838093438 0.42038666408370962 0 0.42777703422401858 0.39626168207798962 0 0.41549734838093438 0.42038666408370962 0 0.42777703422401858 0.39626168207798962 0 0.45517976197578047 0.42409312500161189 0 0.41549734838093438 0.42038666408370962 0 0.45517976197578047 0.42409312500161189 0 0.42691037994856168 0.44203821663399251 0 0.41549734838093438 0.42038666408370962 0 0.40321766253785019 0.44451164608942972 0 0.41549734838093438 0.42038666408370962 0 0.42691037994856168 0.44203821663399251 0 0.40321766253785019 0.44451164608942972 0 0.39841524650519761 0.38696624331098839 0 0.40310512197274018 0.40679267224784588 0 0.42777703422401858 0.39626168207798962 0 0.41602565623240029 0.37433309355996808 0 0.39841524650519761 0.38696624331098839 0 0.42777703422401858 0.39626168207798962 0 0.44005672006710272 0.37213670007226951 0 0.42777703422401858 0.39626168207798962 0 0.44005672006710272 0.37213670007226951 0 0.41602565623240029 0.37433309355996808 0 0.42777703422401858 0.39626168207798962 0 0.5 0.38783981432934561 0 0.45517976197578047 0.42409312500161189 0 0.5 0.5 0 0.4587380098215747 0.37396366500359152 0 0.4473952398533812 0.38448960457170589 0 0.45270994868708958 0.39823744379791259 0 0.44005672006710272 0.37213670007226951 0 0.42777703422401858 0.39626168207798962 0 0.4473952398533812 0.38448960457170589 0 0.45270994868708958 0.39823744379791259 0 0.4700133111119173 0.38983528399121009 0 0.45517976197578047 0.42409312500161189 0 0.4587380098215747 0.37396366500359152 0 0.44005672006710272 0.37213670007226951 0 0.4473952398533812 0.38448960457170589 0 0.42777703422401858 0.39626168207798962 0 0.45270994868708958 0.39823744379791259 0 0.45517976197578047 0.42409312500161189 0 0.42777703422401858 0.39626168207798962 0 0.4473952398533812 0.38448960457170589 0 0.45270994868708958 0.39823744379791259 0 0.4587380098215747 0.37396366500359152 0 0.45270994868708958 0.39823744379791259 0 0.4700133111119173 0.38983528399121009 0 0.47159956663214447 0.36247459007702698 0 0.4587380098215747 0.37396366500359152 0 0.4700133111119173 0.38983528399121009 0 0.4700133111119173 0.38983528399121009 0 0.5 0.38783981432934561 0 0.45517976197578047 0.42409312500161189 0 0.47159956663214447 0.36247459007702698 0 0.4700133111119173 0.38983528399121009 0 0.5 0.38783981432934561 0 0.45517976197578047 0.42409312500161189 0 0.44306510058563209 0.45774802567380263 0 0.42691037994856168 0.44203821663399251 0 0.45517976197578047 0.42409312500161189 0 0.44306510058563209 0.45774802567380263 0 0.5 0.5 0 0.44306510058563209 0.45774802567380263 0 0.44740226994316212 0.4788740128369019 0 0.5 0.5 0 0.44740226994316212 0.4788740128369019 0 0.45173943930069221 0.50000000000000111 0 0.44306510058563209 0.45774802567380263 0 0.5 0.5 0 0.44740226994316212 0.4788740128369019 0 0.44740226994316212 0.4788740128369019 0 0.45173943930069221 0.50000000000000111 0 0.44740226994316212 0.4788740128369019 0 0.45173943930069221 0.50000000000000111 0 0.4231250113003554 0.5 0 0.44740226994316212 0.4788740128369019 0 0.4231250113003554 0.5 0 0.41977440075897188 0.4677045252734785 0 0.4231250113003554 0.5 0 0.41977440075897188 0.4677045252734785 0 0.404217065655884 0.48300916903342112 0 0.4231250113003554 0.5 0 0.39451058330001859 0.5 0 0.404217065655884 0.48300916903342112 0 0.44306510058563209 0.45774802567380263 0 0.44740226994316212 0.4788740128369019 0 0.41977440075897188 0.4677045252734785 0 0.44306510058563209 0.45774802567380263 0 0.42691037994856168 0.44203821663399251 0 0.41977440075897188 0.4677045252734785 0 0.42691037994856168 0.44203821663399251 0 0.41977440075897188 0.4677045252734785 0 0.40321766253785019 0.44451164608942972 0 0.3909379766947661 0.46863662809514978 0 0.40321766253785019 0.44451164608942972 0 0.37937049175763221 0.45303532224651638 0 0.3909379766947661 0.46863662809514978 0 0.40321766253785019 0.44451164608942972 0 0.41977440075897188 0.4677045252734785 0 0.3909379766947661 0.46863662809514978 0 0.40321766253785019 0.44451164608942972 0 0.38978288625498281 0.42714716400891761 0 0.40321766253785019 0.44451164608942972 0 0.37937049175763221 0.45303532224651638 0 0.36677750666411407 0.43784065001942007 0 0.38978288625498281 0.42714716400891761 0 0.37937049175763221 0.45303532224651638 0 0.36728039720249672 0.47822659752557539 0 0.3909379766947661 0.46863662809514978 0 0.37937049175763221 0.45303532224651638 0 0.3909379766947661 0.46863662809514978 0 0.3786582908516819 0.49276161010086977 0 0.36728039720249672 0.47822659752557539 0 0.3909379766947661 0.46863662809514978 0 0.3786582908516819 0.49276161010086977 0 0.3909379766947661 0.46863662809514978 0 0.3786582908516819 0.49276161010086977 0 0.39208097912558759 0.48610185180736021 0 0.36589615529968178 0.5 0 0.3786582908516819 0.49276161010086977 0 0.39451058330001859 0.5 0 0.3786582908516819 0.49276161010086977 0 0.39208097912558759 0.48610185180736021 0 0.39451058330001859 0.5 0 0.39208097912558759 0.48610185180736021 0 0.39451058330001859 0.5 0 0.404217065655884 0.48300916903342112 0 0.3909379766947661 0.46863662809514978 0 0.39208097912558759 0.48610185180736021 0 0.404217065655884 0.48300916903342112 0 0.41977440075897188 0.4677045252734785 0 0.3909379766947661 0.46863662809514978 0 0.404217065655884 0.48300916903342112 0 0.33740456794293849 0.082766101442297957 0 0.33576305504761539 0.10219813553934121 0 0.35676792127503232 0.091991050602553304 0 0.33740456794293849 0.082766101442297957 0 0.3151776294074391 0.081387244083509169 0 0.33576305504761539 0.10219813553934121 0 0.33000496674944779 0.068318112464287734 0 0.34930926723515832 0.069935964521798399 0 0.33937446099219581 0.057848372679130303 0 0.33740456794293849 0.082766101442297957 0 0.33000496674944779 0.068318112464287734 0 0.34930926723515832 0.069935964521798399 0 0.33740456794293849 0.082766101442297957 0 0.33000496674944779 0.068318112464287734 0 0.3151776294074391 0.081387244083509169 0 0.33000496674944779 0.068318112464287734 0 0.31423270183489438 0.063145198423291832 0 0.3151776294074391 0.081387244083509169 0 0.3151776294074391 0.081387244083509169 0 0.33576305504761539 0.10219813553934121 0 0.3151776294074391 0.081387244083509169 0 0.31533760795593818 0.10706654449953271 0 0.33576305504761539 0.10219813553934121 0 0.31533760795593818 0.10706654449953271 0 0.33079353983028359 0.1194708419755063 0 0.33576305504761539 0.10219813553934121 0 0.31533760795593818 0.10706654449953271 0 0.33079353983028359 0.1194708419755063 0 0.31359414618122577 0.12855831015041869 0 0.33079353983028359 0.1194708419755063 0 0.33576305504761539 0.10219813553934121 0 0.35634848068779168 0.1230090269951732 0 0.33576305504761539 0.10219813553934121 0 0.35634848068779168 0.1230090269951732 0 0.35676792127503232 0.091991050602553304 0 0.33576305504761539 0.10219813553934121 0 0.35634848068779168 0.1230090269951732 0 0.35634848068779168 0.1230090269951732 0 0.37758031320674301 0.126596834954568 0 0.37612214466294652 0.1068424526101808 0 0.35634848068779168 0.1230090269951732 0 0.35676792127503232 0.091991050602553304 0 0.37612214466294652 0.1068424526101808 0 0.35676792127503232 0.091991050602553304 0 0.37683345760801268 0.08437602953539565 0 0.37612214466294652 0.1068424526101808 0 0.35676792127503232 0.091991050602553304 0 0.3652679258539353 0.073982820729959431 0 0.37683345760801268 0.08437602953539565 0 0.33740456794293849 0.082766101442297957 0 0.35676792127503232 0.091991050602553304 0 0.34930926723515832 0.069935964521798399 0 0.35676792127503232 0.091991050602553304 0 0.34930926723515832 0.069935964521798399 0 0.3652679258539353 0.073982820729959431 0 0.34930926723515832 0.069935964521798399 0 0.3652679258539353 0.073982820729959431 0 0.36235780812671692 0.06087905444986854 0 0.3652679258539353 0.073982820729959431 0 0.37683345760801268 0.08437602953539565 0 0.37741970544318498 0.062355586550455117 0 0.3652679258539353 0.073982820729959431 0 0.36235780812671692 0.06087905444986854 0 0.37741970544318498 0.062355586550455117 0 0.36235780812671692 0.06087905444986854 0 0.36426294423562161 0.045656711931391321 0 0.37741970544318498 0.062355586550455117 0 0.36606413081398609 0.02845817286261668 0 0.37578751188124843 0.03794001499879051 0 0.38240662640458778 0.032113384637714557 0 0.36426294423562161 0.045656711931391321 0 0.36606413081398609 0.02845817286261668 0 0.37578751188124843 0.03794001499879051 0 0.36426294423562161 0.045656711931391321 0 0.36606413081398609 0.02845817286261668 0 0.35359881400057203 0.029201642521884369 0 0.36426294423562161 0.045656711931391321 0 0.35085003675502741 0.040796001566623809 0 0.33810954240044488 0.045781633299343157 0 0.36426294423562161 0.045656711931391321 0 0.33810954240044488 0.045781633299343157 0 0.36426294423562161 0.045656711931391321 0 0.35085003675502741 0.040796001566623809 0 0.35359881400057203 0.029201642521884369 0 0.36426294423562161 0.045656711931391321 0 0.35105422918331503 0.055689931078570502 0 0.33810954240044488 0.045781633299343157 0 0.34930926723515832 0.069935964521798399 0 0.35105422918331503 0.055689931078570502 0 0.33937446099219581 0.057848372679130303 0 0.34930926723515832 0.069935964521798399 0 0.36235780812671692 0.06087905444986854 0 0.35105422918331503 0.055689931078570502 0 0.36235780812671692 0.06087905444986854 0 0.36426294423562161 0.045656711931391321 0 0.35105422918331503 0.055689931078570502 0 0.37462175331238712 0.01092581316495669 0 0.35432575154972962 0.00082039722178780833 0 0.36683688022018629 -0.01026175830780119 0 0.37462175331238712 0.01092581316495669 0 0.36683688022018629 -0.01026175830780119 0 0.37462175331238712 0.01092581316495669 0 0.35249665683549558 0.015821825336792061 0 0.35432575154972962 0.00082039722178780833 0 0.37462175331238712 0.01092581316495669 0 0.36606413081398609 0.02845817286261668 0 0.38240662640458778 0.032113384637714557 0 0.37462175331238712 0.01092581316495669 0 0.36606413081398609 0.02845817286261668 0 0.35249665683549558 0.015821825336792061 0 0.35085003675502741 0.040796001566623809 0 0.35359881400057203 0.029201642521884369 0 0.3289656984380544 0.02129473617560371 0 0.35359881400057203 0.029201642521884369 0 0.35249665683549558 0.015821825336792061 0 0.3289656984380544 0.02129473617560371 0 0.36606413081398609 0.02845817286261668 0 0.35359881400057203 0.029201642521884369 0 0.35249665683549558 0.015821825336792061 0 0.35249665683549558 0.015821825336792061 0 0.35432575154972962 0.00082039722178780833 0 0.33798245883551381 0.0043188676087121307 0 0.35249665683549558 0.015821825336792061 0 0.33798245883551381 0.0043188676087121307 0 0.3289656984380544 0.02129473617560371 0 0.35085003675502741 0.040796001566623809 0 0.3289656984380544 0.02129473617560371 0 0.3289656984380544 0.02129473617560371 0 0.33740309417114261 0.03393164014850969 0 0.32444605079555983 0.033302571090724389 0 0.3289656984380544 0.02129473617560371 0 0.31541776160383922 0.03072991165069185 0 0.30470060646564212 0.019649011058066889 0 0.3289656984380544 0.02129473617560371 0 0.31541776160383922 0.03072991165069185 0 0.32444605079555983 0.033302571090724389 0 0.33798245883551381 0.0043188676087121307 0 0.3289656984380544 0.02129473617560371 0 0.30708136012108112 0.0017934707845836909 0 0.3289656984380544 0.02129473617560371 0 0.30708136012108112 0.0017934707845836909 0 0.30470060646564212 0.019649011058066889 0 0.3289656984380544 0.02129473617560371 0 0.30708136012108112 0.0017934707845836909 0 0.3283533511719825 0.052851228170038969 0 0.33937446099219581 0.057848372679130303 0 0.33810954240044488 0.045781633299343157 0 0.33000496674944779 0.068318112464287734 0 0.3283533511719825 0.052851228170038969 0 0.33937446099219581 0.057848372679130303 0 0.35105422918331503 0.055689931078570502 0 0.33937446099219581 0.057848372679130303 0 0.33810954240044488 0.045781633299343157 0 0.35085003675502741 0.040796001566623809 0 0.3289656984380544 0.02129473617560371 0 0.33740309417114261 0.03393164014850969 0 0.3283533511719825 0.052851228170038969 0 0.33810954240044488 0.045781633299343157 0 0.33740309417114261 0.03393164014850969 0 0.35085003675502741 0.040796001566623809 0 0.33810954240044488 0.045781633299343157 0 0.33740309417114261 0.03393164014850969 0 0.33740309417114261 0.03393164014850969 0 0.31599764896920329 0.047253996388092329 0 0.31541776160383922 0.03072991165069185 0 0.32444605079555983 0.033302571090724389 0 0.31599764896920329 0.047253996388092329 0 0.3283533511719825 0.052851228170038969 0 0.33740309417114261 0.03393164014850969 0 0.31599764896920329 0.047253996388092329 0 0.33740309417114261 0.03393164014850969 0 0.32444605079555983 0.033302571090724389 0 0.31599764896920329 0.047253996388092329 0 0.33000496674944779 0.068318112464287734 0 0.31423270183489438 0.063145198423291832 0 0.3283533511719825 0.052851228170038969 0 0.31423270183489438 0.063145198423291832 0 0.3283533511719825 0.052851228170038969 0 0.31599764896920329 0.047253996388092329 0 0.31599764896920329 0.047253996388092329 0 0.29459220376726442 0.060576352627675398 0 0.31599764896920329 0.047253996388092329 0 0.29780357117002981 0.048110608347821791 0 0.29459220376726442 0.060576352627675398 0 0.31423270183489438 0.063145198423291832 0 0.31599764896920329 0.047253996388092329 0 0.29459220376726442 0.060576352627675398 0 0.31541776160383922 0.03072991165069185 0 0.31599764896920329 0.047253996388092329 0 0.3004579165339662 0.033687359707363113 0 0.31599764896920329 0.047253996388092329 0 0.29780357117002981 0.048110608347821791 0 0.3004579165339662 0.033687359707363113 0 0.29780357117002981 0.048110608347821791 0 0.3004579165339662 0.033687359707363113 0 0.29025979829449677 0.038986397140746039 0 0.29780357117002981 0.048110608347821791 0 0.29025979829449677 0.038986397140746039 0 0.28071031787374667 0.046542422721055299 0 0.3004579165339662 0.033687359707363113 0 0.29025979829449677 0.038986397140746039 0 0.28716440171339491 0.027493966907709892 0 0.29025979829449677 0.038986397140746039 0 0.28210018888251082 0.037189793749937028 0 0.28716440171339491 0.027493966907709892 0 0.29025979829449677 0.038986397140746039 0 0.28210018888251082 0.037189793749937028 0 0.28071031787374667 0.046542422721055299 0 0.28170251983413808 0.056643748730868838 0 0.2917924387863462 0.0577459226847572 0 0.28071031787374667 0.046542422721055299 0 0.29780357117002981 0.048110608347821791 0 0.2917924387863462 0.0577459226847572 0 0.28071031787374667 0.046542422721055299 0 0.2917924387863462 0.0577459226847572 0 0.28071031787374667 0.046542422721055299 0 0.28170251983413808 0.056643748730868838 0 0.2917924387863462 0.0577459226847572 0 0.28712868336174779 0.065221510750089196 0 0.29780357117002981 0.048110608347821791 0 0.2917924387863462 0.0577459226847572 0 0.29459220376726442 0.060576352627675398 0 0.2917924387863462 0.0577459226847572 0 0.29459220376726442 0.060576352627675398 0 0.28712868336174779 0.065221510750089196 0 0.2917924387863462 0.0577459226847572 0 0.28712868336174779 0.065221510750089196 0 0.2917924387863462 0.0577459226847572 0 0.29459220376726442 0.060576352627675398 0 0.29780357117002981 0.048110608347821791 0 0.2917924387863462 0.0577459226847572 0 0.30708136012108112 0.0017934707845836909 0 0.30470060646564212 0.019649011058066889 0 0.28245364379283588 0.017546483483580171 0 0.3004579165339662 0.033687359707363113 0 0.30470060646564212 0.019649011058066889 0 0.28716440171339491 0.027493966907709892 0 0.31541776160383922 0.03072991165069185 0 0.3004579165339662 0.033687359707363113 0 0.30470060646564212 0.019649011058066889 0 0.30470060646564212 0.019649011058066889 0 0.28716440171339491 0.027493966907709892 0 0.28245364379283588 0.017546483483580171 0 0.30470060646564212 0.019649011058066889 0 0.28716440171339491 0.027493966907709892 0 0.30708136012108112 0.0017934707845836909 0 0.28245364379283588 0.017546483483580171 0 0.30708136012108112 0.0017934707845836909 0 0.28245364379283588 0.017546483483580171 0 0.27956122687258528 0.001718918818363136 0 0.28245364379283588 0.017546483483580171 0 0.27956122687258528 0.001718918818363136 0 0.27326425695717388 0.014198627548892199 0 0.27956122687258528 0.001718918818363136 0 0.27326425695717388 0.014198627548892199 0 0.2650069475916339 0.0079474328089130467 0 0.27326425695717388 0.014198627548892199 0 0.26576030841736897 0.019798847752857871 0 0.2650069475916339 0.0079474328089130467 0 0.28716440171339491 0.027493966907709892 0 0.27353915811144508 0.02398145488074677 0 0.26962819696114759 0.035338922757352953 0 0.27326425695717388 0.014198627548892199 0 0.26576030841736897 0.019798847752857871 0 0.27353915811144508 0.02398145488074677 0 0.28245364379283588 0.017546483483580171 0 0.27326425695717388 0.014198627548892199 0 0.27353915811144508 0.02398145488074677 0 0.28716440171339491 0.027493966907709892 0 0.28245364379283588 0.017546483483580171 0 0.27353915811144508 0.02398145488074677 0 0.27353915811144508 0.02398145488074677 0 0.26250689147624379 0.028139619810665029 0 0.26962819696114759 0.035338922757352953 0 0.26576030841736897 0.019798847752857871 0 0.27353915811144508 0.02398145488074677 0 0.26250689147624379 0.028139619810665029 0 0.26250689147624379 0.028139619810665029 0 0.25151848521602149 0.028993860932569639 0 0.25638239147864228 0.01784272990727042 0 0.24548223201585831 0.022814848730180179 0 0.25151848521602149 0.028993860932569639 0 0.25638239147864228 0.01784272990727042 0 0.26576030841736897 0.019798847752857871 0 0.26250689147624379 0.028139619810665029 0 0.25638239147864228 0.01784272990727042 0 0.2499188484388136 0.0061028047584332926 0 0.24548223201585831 0.022814848730180179 0 0.25638239147864228 0.01784272990727042 0 0.2499188484388136 0.0061028047584332926 0 0.2650069475916339 0.0079474328089130467 0 0.26202194919476351 -0.010369716697998139 0 0.26576030841736897 0.019798847752857871 0 0.25638239147864228 0.01784272990727042 0 0.2650069475916339 0.0079474328089130467 0 0.2499188484388136 0.0061028047584332926 0 0.25638239147864228 0.01784272990727042 0 0.2650069475916339 0.0079474328089130467 0 0.28170251983413808 0.056643748730868838 0 0.27077692549860177 0.060397917966010677 0 0.28712868336174779 0.065221510750089196 0 0.265981964446316 0.048607486538239889 0 0.27077692549860177 0.060397917966010677 0 0.28071031787374667 0.046542422721055299 0 0.28170251983413808 0.056643748730868838 0 0.27077692549860177 0.060397917966010677 0 0.28071031787374667 0.046542422721055299 0 0.28210018888251082 0.037189793749937028 0 0.28071031787374667 0.046542422721055299 0 0.26962819696114759 0.035338922757352953 0 0.28071031787374667 0.046542422721055299 0 0.26962819696114759 0.035338922757352953 0 0.28716440171339491 0.027493966907709892 0 0.26962819696114759 0.035338922757352953 0 0.28210018888251082 0.037189793749937028 0 0.28716440171339491 0.027493966907709892 0 0.26962819696114759 0.035338922757352953 0 0.26250689147624379 0.028139619810665029 0 0.26962819696114759 0.035338922757352953 0 0.265981964446316 0.048607486538239889 0 0.28071031787374667 0.046542422721055299 0 0.26962819696114759 0.035338922757352953 0 0.26250689147624379 0.028139619810665029 0 0.26962819696114759 0.035338922757352953 0 0.25230085111465561 0.043090443971759568 0 0.265981964446316 0.048607486538239889 0 0.26962819696114759 0.035338922757352953 0 0.25230085111465561 0.043090443971759568 0 0.26962819696114759 0.035338922757352953 0 0.25230085111465561 0.043090443971759568 0 0.26250689147624379 0.028139619810665029 0 0.25151848521602149 0.028993860932569639 0 0.25230085111465561 0.043090443971759568 0 0.24478266942361149 0.05520512950251652 0 0.25230085111465561 0.043090443971759568 0 0.25766548021322327 0.056995273499940491 0 0.265981964446316 0.048607486538239889 0 0.25230085111465561 0.043090443971759568 0 0.25766548021322327 0.056995273499940491 0 0.265981964446316 0.048607486538239889 0 0.27077692549860177 0.060397917966010677 0 0.25766548021322327 0.056995273499940491 0 0.27077692549860177 0.060397917966010677 0 0.25766548021322327 0.056995273499940491 0 0.26124434285173909 0.065367107964715482 0 0.2486509667506161 0.066876191259200718 0 0.24478266942361149 0.05520512950251652 0 0.25766548021322327 0.056995273499940491 0 0.2473946545461817 0.077826493197345595 0 0.2486509667506161 0.066876191259200718 0 0.26788399894451509 0.077199049133709979 0 0.2486509667506161 0.066876191259200718 0 0.25766548021322327 0.056995273499940491 0 0.26124434285173909 0.065367107964715482 0 0.2486509667506161 0.066876191259200718 0 0.26788399894451509 0.077199049133709979 0 0.2486509667506161 0.066876191259200718 0 0.26124434285173909 0.065367107964715482 0 0.26788399894451509 0.077199049133709979 0 0.24993669292447851 0.088369123013699799 0 0.2642691221717105 0.089822778895706293 0 0.26788399894451509 0.077199049133709979 0 0.24993669292447851 0.088369123013699799 0 0.26788399894451509 0.077199049133709979 0 0.24993669292447851 0.088369123013699799 0 0.2473946545461817 0.077826493197345595 0 0.26788399894451509 0.077199049133709979 0 0.24993669292447851 0.088369123013699799 0 0.2642691221717105 0.089822778895706293 0 0.25789594516252989 0.09597772064985427 0 0.2642691221717105 0.089822778895706293 0 0.2767032472299028 0.08193256414539242 0 0.26302400546702293 0.10385918060688409 0 0.2767032472299028 0.08193256414539242 0 0.26302400546702293 0.10385918060688409 0 0.2642691221717105 0.089822778895706293 0 0.2767032472299028 0.08193256414539242 0 0.26788399894451509 0.077199049133709979 0 0.2767032472299028 0.08193256414539242 0 0.26788399894451509 0.077199049133709979 0 0.2767032472299028 0.08193256414539242 0 0.27728530236780219 0.091830423021838095 0 0.2697414754374487 0.095483397556482719 0 0.2767032472299028 0.08193256414539242 0 0.27728530236780219 0.091830423021838095 0 0.28576886002635049 0.095153773374756556 0 0.27077692549860177 0.060397917966010677 0 0.26788399894451509 0.077199049133709979 0 0.28712868336174779 0.065221510750089196 0 0.26788399894451509 0.077199049133709979 0 0.28712868336174779 0.065221510750089196 0 0.27077692549860177 0.060397917966010677 0 0.26124434285173909 0.065367107964715482 0 0.26788399894451509 0.077199049133709979 0 0.2767032472299028 0.08193256414539242 0 0.26788399894451509 0.077199049133709979 0 0.28712868336174779 0.065221510750089196 0 0.2767032472299028 0.08193256414539242 0 0.28712868336174779 0.065221510750089196 0 0.2767032472299028 0.08193256414539242 0 0.28712868336174779 0.065221510750089196 0 0.28917801362492002 0.077304656194008226 0 0.29459220376726442 0.060576352627675398 0 0.29255426866643341 0.069897687586889787 0 0.29931817391180332 0.076488230775784746 0 0.29459220376726442 0.060576352627675398 0 0.28712868336174779 0.065221510750089196 0 0.29255426866643341 0.069897687586889787 0 0.29459220376726442 0.060576352627675398 0 0.28712868336174779 0.065221510750089196 0 0.29255426866643341 0.069897687586889787 0 0.28917801362492002 0.077304656194008226 0 0.29931817391180332 0.076488230775784746 0 0.28712868336174779 0.065221510750089196 0 0.29255426866643341 0.069897687586889787 0 0.28917801362492002 0.077304656194008226 0 0.2767032472299028 0.08193256414539242 0 0.30267165645755889 0.095870470294652343 0 0.2767032472299028 0.08193256414539242 0 0.30267165645755889 0.095870470294652343 0 0.28576886002635049 0.095153773374756556 0 0.2767032472299028 0.08193256414539242 0 0.28917801362492002 0.077304656194008226 0 0.30267165645755889 0.095870470294652343 0 0.3151776294074391 0.081387244083509169 0 0.29931817391180332 0.076488230775784746 0 0.30267165645755889 0.095870470294652343 0 0.28917801362492002 0.077304656194008226 0 0.29931817391180332 0.076488230775784746 0 0.30267165645755889 0.095870470294652343 0 0.3151776294074391 0.081387244083509169 0 0.29459220376726442 0.060576352627675398 0 0.31423270183489438 0.063145198423291832 0 0.3151776294074391 0.081387244083509169 0 0.29459220376726442 0.060576352627675398 0 0.3151776294074391 0.081387244083509169 0 0.29459220376726442 0.060576352627675398 0 0.29931817391180332 0.076488230775784746 0 0.31533760795593818 0.10706654449953271 0 0.29570411397388707 0.11527583261370471 0 0.31359414618122577 0.12855831015041869 0 0.3151776294074391 0.081387244083509169 0 0.31533760795593818 0.10706654449953271 0 0.30267165645755889 0.095870470294652343 0 0.31533760795593818 0.10706654449953271 0 0.30267165645755889 0.095870470294652343 0 0.29570411397388707 0.11527583261370471 0 0.30267165645755889 0.095870470294652343 0 0.28632440067012582 0.10825720220884349 0 0.29570411397388707 0.11527583261370471 0 0.30267165645755889 0.095870470294652343 0 0.28576886002635049 0.095153773374756556 0 0.28632440067012582 0.10825720220884349 0 0.28576886002635049 0.095153773374756556 0 0.28632440067012582 0.10825720220884349 0 0.27259858788347707 0.1042932285305298 0 0.29570411397388707 0.11527583261370471 0 0.28137922179700081 0.13163000480381759 0 0.28632440067012582 0.10825720220884349 0 0.29570411397388707 0.11527583261370471 0 0.28137922179700081 0.13163000480381759 0 0.28632440067012582 0.10825720220884349 0 0.27259858788347707 0.1042932285305298 0 0.28137922179700081 0.13163000480381759 0 0.27259858788347707 0.1042932285305298 0 0.25666287658781711 0.1238627938813526 0 0.28137922179700081 0.13163000480381759 0 0.27259858788347707 0.1042932285305298 0 0.28137922179700081 0.13163000480381759 0 0.2767032472299028 0.08193256414539242 0 0.2697414754374487 0.095483397556482719 0 0.26302400546702293 0.10385918060688409 0 0.27728530236780219 0.091830423021838095 0 0.28576886002635049 0.095153773374756556 0 0.27259858788347707 0.1042932285305298 0 0.27259858788347707 0.1042932285305298 0 0.2697414754374487 0.095483397556482719 0 0.27259858788347707 0.1042932285305298 0 0.2697414754374487 0.095483397556482719 0 0.26302400546702293 0.10385918060688409 0 0.27728530236780219 0.091830423021838095 0 0.27259858788347707 0.1042932285305298 0 0.2697414754374487 0.095483397556482719 0 0.2642691221717105 0.089822778895706293 0 0.25789594516252989 0.09597772064985427 0 0.26302400546702293 0.10385918060688409 0 0.24864471614478409 0.1145654031192265 0 0.26302400546702293 0.10385918060688409 0 0.25148743955955338 0.1017856843162549 0 0.25789594516252989 0.09597772064985427 0 0.26302400546702293 0.10385918060688409 0 0.25148743955955338 0.1017856843162549 0 0.24993669292447851 0.088369123013699799 0 0.25789594516252989 0.09597772064985427 0 0.25148743955955338 0.1017856843162549 0 0.27259858788347707 0.1042932285305298 0 0.25666287658781711 0.1238627938813526 0 0.24934476370414299 0.125785797068376 0 0.24864471614478409 0.1145654031192265 0 0.26302400546702293 0.10385918060688409 0 0.24934476370414299 0.125785797068376 0 0.26302400546702293 0.10385918060688409 0 0.25666287658781711 0.1238627938813526 0 0.24934476370414299 0.125785797068376 0 0.26302400546702293 0.10385918060688409 0 0.27259858788347707 0.1042932285305298 0 0.26302400546702293 0.10385918060688409 0 0.25666287658781711 0.1238627938813526 0 0.2407271652921551 0.1434323592321739 0 0.25666287658781711 0.1238627938813526 0 0.25400373886860178 0.1451154723550033 0 0.25666287658781711 0.1238627938813526 0 0.26777058637357881 0.1471664545193789 0 0.25400373886860178 0.1451154723550033 0 0.25666287658781711 0.1238627938813526 0 0.26777058637357881 0.1471664545193789 0 0.28137922179700081 0.13163000480381759 0 0.26777058637357881 0.1471664545193789 0 0.28137922179700081 0.13163000480381759 0 0.26777058637357881 0.1471664545193789 0 0.29026750147833552 0.1592368235829453 0 0.28137922179700081 0.13163000480381759 0 0.26777058637357881 0.1471664545193789 0 0.25400373886860178 0.1451154723550033 0 0.25416195095015809 0.16270290423494169 0 0.24589205093272951 0.15536772630865411 0 0.25400373886860178 0.1451154723550033 0 0.25416195095015809 0.16270290423494169 0 0.26777058637357881 0.1471664545193789 0 0.25416195095015809 0.16270290423494169 0 0.26777058637357881 0.1471664545193789 0 0.25416195095015809 0.16270290423494169 0 0.27431016539431702 0.1643736721814201 0 0.24589205093272951 0.15536772630865411 0 0.25416195095015809 0.16270290423494169 0 0.24589205093272951 0.15536772630865411 0 0.25416195095015809 0.16270290423494169 0 0.25075127220542359 0.16659674348955811 0 0.25416195095015809 0.16270290423494169 0 0.25075127220542359 0.16659674348955811 0 0.2613487759100695 0.176308731613743 0 0.25416195095015809 0.16270290423494169 0 0.25075127220542359 0.16659674348955811 0 0.25075127220542359 0.16659674348955811 0 0.2613487759100695 0.176308731613743 0 0.25944476556714591 0.1866862559530971 0 0.25416195095015809 0.16270290423494169 0 0.2613487759100695 0.176308731613743 0 0.27571064441288429 0.18181601325620911 0 0.2497662064238724 0.17897863289391569 0 0.25075127220542359 0.16659674348955811 0 0.25944476556714591 0.1866862559530971 0 0.25416195095015809 0.16270290423494169 0 0.27571064441288429 0.18181601325620911 0 0.25075127220542359 0.16659674348955811 0 0.25944476556714591 0.1866862559530971 0 0.24430591087038289 0.1889697386129813 0 0.2497662064238724 0.17897863289391569 0 0.25944476556714591 0.1866862559530971 0 0.2613487759100695 0.176308731613743 0 0.25944476556714591 0.1866862559530971 0 0.26667524641473589 0.18374174113490899 0 0.27571064441288429 0.18181601325620911 0 0.27431016539431702 0.1643736721814201 0 0.28364014375662833 0.17094616531362539 0 0.2613487759100695 0.176308731613743 0 0.26667524641473589 0.18374174113490899 0 0.27571064441288429 0.18181601325620911 0 0.26667524641473589 0.18374174113490899 0 0.27571064441288429 0.18181601325620911 0 0.27115166875758828 0.19211492705647329 0 0.26777058637357881 0.1471664545193789 0 0.27431016539431702 0.1643736721814201 0 0.29026750147833552 0.1592368235829453 0 0.25416195095015809 0.16270290423494169 0 0.27571064441288429 0.18181601325620911 0 0.27431016539431702 0.1643736721814201 0 0.27431016539431702 0.1643736721814201 0 0.29026750147833552 0.1592368235829453 0 0.28364014375662833 0.17094616531362539 0 0.28364014375662833 0.17094616531362539 0 0.28785775446786088 0.18235007998569031 0 0.29915578115966929 0.1868436423620734 0 0.29026750147833552 0.1592368235829453 0 0.28364014375662833 0.17094616531362539 0 0.29915578115966929 0.1868436423620734 0 0.29026750147833552 0.1592368235829453 0 0.29915578115966929 0.1868436423620734 0 0.27571064441288429 0.18181601325620911 0 0.28364014375662833 0.17094616531362539 0 0.28785775446786088 0.18235007998569031 0 0.29026750147833552 0.1592368235829453 0 0.29915578115966929 0.1868436423620734 0 0.30633674912009418 0.17549298415906711 0 0.29915578115966929 0.1868436423620734 0 0.31122373547798787 0.17596544882134951 0 0.30963389815949538 0.19520795498127549 0 0.31122373547798787 0.17596544882134951 0 0.30963389815949538 0.19520795498127549 0 0.29915578115966929 0.1868436423620734 0 0.30633674912009418 0.17549298415906711 0 0.31122373547798787 0.17596544882134951 0 0.30633674912009418 0.17549298415906711 0 0.31122373547798787 0.17596544882134951 0 0.31122373547798787 0.17596544882134951 0 0.30416537470572591 0.16156906996192091 0 0.31329978176751311 0.15083813985095459 0 0.31122373547798787 0.17596544882134951 0 0.31329978176751311 0.15083813985095459 0 0.29026750147833552 0.1592368235829453 0 0.30633674912009418 0.17549298415906711 0 0.30416537470572591 0.16156906996192091 0 0.30633674912009418 0.17549298415906711 0 0.31122373547798787 0.17596544882134951 0 0.30416537470572591 0.16156906996192091 0 0.29026750147833552 0.1592368235829453 0 0.30416537470572591 0.16156906996192091 0 0.29797930870863992 0.14160361020613291 0 0.30416537470572591 0.16156906996192091 0 0.29797930870863992 0.14160361020613291 0 0.31329978176751311 0.15083813985095459 0 0.29797930870863992 0.14160361020613291 0 0.31359414618122577 0.12855831015041869 0 0.31329978176751311 0.15083813985095459 0 0.29570411397388707 0.11527583261370471 0 0.29797930870863992 0.14160361020613291 0 0.31359414618122577 0.12855831015041869 0 0.29570411397388707 0.11527583261370471 0 0.29797930870863992 0.14160361020613291 0 0.28137922179700081 0.13163000480381759 0 0.29026750147833552 0.1592368235829453 0 0.29797930870863992 0.14160361020613291 0 0.28137922179700081 0.13163000480381759 0 0.29026750147833552 0.1592368235829453 0 0.28137922179700081 0.13163000480381759 0 0.28359109468705129 0.25280222816859599 0 0.27196241971927337 0.24268327521697461 0 0.28238838241763092 0.23897250624127231 0 0.27196241971927337 0.24268327521697461 0 0.27182139454122067 0.2298280705110653 0 0.28238838241763092 0.23897250624127231 0 0.27196241971927337 0.24268327521697461 0 0.26074318519242012 0.2411901656077742 0 0.27182139454122067 0.2298280705110653 0 0.26846833076372628 0.25456502804234488 0 0.27196241971927337 0.24268327521697461 0 0.26074318519242012 0.2411901656077742 0 0.24475013637587639 0.24402629606784981 0 0.25316703857241951 0.25821212120419579 0 0.26074318519242012 0.2411901656077742 0 0.24475013637587639 0.24402629606784981 0 0.26074318519242012 0.2411901656077742 0 0.25795090256673242 0.21807061156216151 0 0.26074318519242012 0.2411901656077742 0 0.27182139454122067 0.2298280705110653 0 0.25795090256673242 0.21807061156216151 0 0.24475013637587639 0.24402629606784981 0 0.25795090256673242 0.21807061156216151 0 0.27182139454122067 0.2298280705110653 0 0.27398180484788592 0.21330674767303229 0 0.25795090256673242 0.21807061156216151 0 0.27182139454122067 0.2298280705110653 0 0.27398180484788592 0.21330674767303229 0 0.2858611722483318 0.22211529545830269 0 0.27182139454122067 0.2298280705110653 0 0.2858611722483318 0.22211529545830269 0 0.28238838241763092 0.23897250624127231 0 0.27398180484788592 0.21330674767303229 0 0.28312388612555628 0.2044048337771589 0 0.2858611722483318 0.22211529545830269 0 0.27398180484788592 0.21330674767303229 0 0.27115166875758828 0.19211492705647329 0 0.28312388612555628 0.2044048337771589 0 0.27398180484788592 0.21330674767303229 0 0.25795090256673242 0.21807061156216151 0 0.27115166875758828 0.19211492705647329 0 0.25795090256673242 0.21807061156216151 0 0.27115166875758828 0.19211492705647329 0 0.25795090256673242 0.21807061156216151 0 0.25204036357460868 0.20192182011028581 0 0.27115166875758828 0.19211492705647329 0 0.25944476556714591 0.1866862559530971 0 0.25204036357460868 0.20192182011028581 0 0.27115166875758828 0.19211492705647329 0 0.24430591087038289 0.1889697386129813 0 0.25944476556714591 0.1866862559530971 0 0.25204036357460868 0.20192182011028581 0 0.25944476556714591 0.1866862559530971 0 0.26667524641473589 0.18374174113490899 0 0.27115166875758828 0.19211492705647329 0 0.27571064441288429 0.18181601325620911 0 0.27115166875758828 0.19211492705647329 0 0.28312388612555628 0.2044048337771589 0 0.28785775446786088 0.18235007998569031 0 0.29915578115966929 0.1868436423620734 0 0.29725933787560987 0.20092912227747681 0 0.27571064441288429 0.18181601325620911 0 0.29725933787560987 0.20092912227747681 0 0.27571064441288429 0.18181601325620911 0 0.28785775446786088 0.18235007998569031 0 0.29725933787560987 0.20092912227747681 0 0.27571064441288429 0.18181601325620911 0 0.29725933787560987 0.20092912227747681 0 0.28312388612555628 0.2044048337771589 0 0.29915578115966929 0.1868436423620734 0 0.30963389815949538 0.19520795498127549 0 0.30804406084100239 0.21445046114120139 0 0.29915578115966929 0.1868436423620734 0 0.29725933787560987 0.20092912227747681 0 0.30109977890096079 0.2063388722884418 0 0.29915578115966929 0.1868436423620734 0 0.30109977890096079 0.2063388722884418 0 0.30804406084100239 0.21445046114120139 0 0.29915578115966929 0.1868436423620734 0 0.30804406084100239 0.21445046114120139 0 0.30963389815949538 0.19520795498127549 0 0.30804406084100239 0.21445046114120139 0 0.29725933787560987 0.20092912227747681 0 0.30109977890096079 0.2063388722884418 0 0.29591246713974001 0.2130650547072713 0 0.30963389815949538 0.19520795498127549 0 0.30804406084100239 0.21445046114120139 0 0.3185186029345447 0.20340324093816059 0 0.30804406084100239 0.21445046114120139 0 0.30174880522619429 0.21383957063555259 0 0.30104934449820497 0.22189203071534261 0 0.30174880522619429 0.21383957063555259 0 0.29591246713974001 0.2130650547072713 0 0.30104934449820497 0.22189203071534261 0 0.30109977890096079 0.2063388722884418 0 0.30804406084100239 0.21445046114120139 0 0.30174880522619429 0.21383957063555259 0 0.30109977890096079 0.2063388722884418 0 0.30174880522619429 0.21383957063555259 0 0.29591246713974001 0.2130650547072713 0 0.29591246713974001 0.2130650547072713 0 0.28312388612555628 0.2044048337771589 0 0.2858611722483318 0.22211529545830269 0 0.29725933787560987 0.20092912227747681 0 0.29591246713974001 0.2130650547072713 0 0.28312388612555628 0.2044048337771589 0 0.2858611722483318 0.22211529545830269 0 0.29536411041804911 0.23731071937149451 0 0.28238838241763092 0.23897250624127231 0 0.2858611722483318 0.22211529545830269 0 0.30104934449820497 0.22189203071534261 0 0.29536411041804911 0.23731071937149451 0 0.29591246713974001 0.2130650547072713 0 0.2858611722483318 0.22211529545830269 0 0.30104934449820497 0.22189203071534261 0 0.30804406084100239 0.21445046114120139 0 0.30104934449820497 0.22189203071534261 0 0.30672788846022592 0.23038067918929711 0 0.30804406084100239 0.21445046114120139 0 0.30672788846022592 0.23038067918929711 0 0.31699144033080789 0.22329996578880279 0 0.30804406084100239 0.21445046114120139 0 0.30672788846022592 0.23038067918929711 0 0.30104934449820497 0.22189203071534261 0 0.30672788846022592 0.23038067918929711 0 0.29536411041804911 0.23731071937149451 0 0.30672788846022592 0.23038067918929711 0 0.30541171607944989 0.24631089723739291 0 0.30672788846022592 0.23038067918929711 0 0.30541171607944989 0.24631089723739291 0 0.29536411041804911 0.23731071937149451 0 0.30672788846022592 0.23038067918929711 0 0.30541171607944989 0.24631089723739291 0 0.31556074987260851 0.23595994635799331 0 0.29708301042465041 0.25137144302387032 0 0.30541171607944989 0.24631089723739291 0 0.29536411041804911 0.23731071937149451 0 0.28359109468705129 0.25280222816859599 0 0.29708301042465041 0.25137144302387032 0 0.28960664948684539 0.2451142242013083 0 0.29708301042465041 0.25137144302387032 0 0.28960664948684539 0.2451142242013083 0 0.29536411041804911 0.23731071937149451 0 0.28960664948684539 0.2451142242013083 0 0.29536411041804911 0.23731071937149451 0 0.28238838241763092 0.23897250624127231 0 0.28359109468705129 0.25280222816859599 0 0.28960664948684539 0.2451142242013083 0 0.28238838241763092 0.23897250624127231 0 0.33831054121436971 0.25082517840407931 0 0.33033227017468281 0.22893157034194181 0 0.35855801579494229 0.22910298684342351 0 0.31834043431787568 0.25087661923253218 0 0.33831054121436971 0.25082517840407931 0 0.33033227017468281 0.22893157034194181 0 0.31834043431787568 0.25087661923253218 0 0.31556074987260851 0.23595994635799331 0 0.33033227017468281 0.22893157034194181 0 0.31834043431787568 0.25087661923253218 0 0.33033227017468281 0.22893157034194181 0 0.31834043431787568 0.25087661923253218 0 0.30541171607944989 0.24631089723739291 0 0.31556074987260851 0.23595994635799331 0 0.31699144033080789 0.22329996578880279 0 0.33033227017468281 0.22893157034194181 0 0.32580517529071801 0.21192119149524999 0 0.31556074987260851 0.23595994635799331 0 0.31699144033080789 0.22329996578880279 0 0.33033227017468281 0.22893157034194181 0 0.30672788846022592 0.23038067918929711 0 0.31556074987260851 0.23595994635799331 0 0.31699144033080789 0.22329996578880279 0 0.33033227017468281 0.22893157034194181 0 0.34232410603148983 0.2069865214513513 0 0.35855801579494229 0.22910298684342351 0 0.33033227017468281 0.22893157034194181 0 0.34232410603148983 0.2069865214513513 0 0.33033227017468281 0.22893157034194181 0 0.34232410603148983 0.2069865214513513 0 0.32580517529071801 0.21192119149524999 0 0.34232410603148983 0.2069865214513513 0 0.32580517529071801 0.21192119149524999 0 0.33102730360710358 0.1970585228974247 0 0.31699144033080789 0.22329996578880279 0 0.32580517529071801 0.21192119149524999 0 0.31537469087206949 0.213657188028894 0 0.30804406084100239 0.21445046114120139 0 0.31699144033080789 0.22329996578880279 0 0.31537469087206949 0.213657188028894 0 0.32580517529071801 0.21192119149524999 0 0.31537469087206949 0.213657188028894 0 0.3185186029345447 0.20340324093816059 0 0.30804406084100239 0.21445046114120139 0 0.31537469087206949 0.213657188028894 0 0.3185186029345447 0.20340324093816059 0 0.32580517529071801 0.21192119149524999 0 0.3185186029345447 0.20340324093816059 0 0.33102730360710358 0.1970585228974247 0 0.3185186029345447 0.20340324093816059 0 0.32122648883687949 0.1881241270849178 0 0.33102730360710358 0.1970585228974247 0 0.30963389815949538 0.19520795498127549 0 0.3185186029345447 0.20340324093816059 0 0.32122648883687949 0.1881241270849178 0 0.34232410603148983 0.2069865214513513 0 0.34077715849972651 0.19103066824096121 0 0.33102730360710358 0.1970585228974247 0 0.32122648883687949 0.1881241270849178 0 0.33102730360710358 0.1970585228974247 0 0.33404404021793671 0.1781716730222267 0 0.34077715849972651 0.19103066824096121 0 0.33102730360710358 0.1970585228974247 0 0.33404404021793671 0.1781716730222267 0 0.34232410603148983 0.2069865214513513 0 0.35433987251256183 0.18505454941101371 0 0.34232410603148983 0.2069865214513513 0 0.34077715849972651 0.19103066824096121 0 0.35433987251256183 0.18505454941101371 0 0.34232410603148983 0.2069865214513513 0 0.35877059906989578 0.2036504254163381 0 0.35433987251256183 0.18505454941101371 0 0.3698092902156554 0.1916610530526057 0 0.35877059906989578 0.2036504254163381 0 0.35433987251256183 0.18505454941101371 0 0.3698092902156554 0.1916610530526057 0 0.37277248216493708 0.21145736651231661 0 0.35877059906989578 0.2036504254163381 0 0.37277248216493708 0.21145736651231661 0 0.35877059906989578 0.2036504254163381 0 0.35855801579494229 0.22910298684342351 0 0.34232410603148983 0.2069865214513513 0 0.35877059906989578 0.2036504254163381 0 0.35855801579494229 0.22910298684342351 0 0.37277248216493708 0.21145736651231661 0 0.35855801579494229 0.22910298684342351 0 0.38451483898266942 0.22761486377723009 0 0.37932408223304742 0.25170200418001692 0 0.35855801579494229 0.22910298684342351 0 0.38451483898266942 0.22761486377723009 0 0.35792260043989549 0.25790383945940071 0 0.37932408223304742 0.25170200418001692 0 0.35855801579494229 0.22910298684342351 0 0.33831054121436971 0.25082517840407931 0 0.35792260043989549 0.25790383945940071 0 0.35855801579494229 0.22910298684342351 0 0.33410484582506011 0.15320916617181471 0 0.33292440927884692 0.13652219269306559 0 0.34870848059452281 0.14380904850378021 0 0.33079353983028359 0.1194708419755063 0 0.35634848068779168 0.1230090269951732 0 0.33292440927884692 0.13652219269306559 0 0.33079353983028359 0.1194708419755063 0 0.33292440927884692 0.13652219269306559 0 0.31359414618122577 0.12855831015041869 0 0.33292440927884692 0.13652219269306559 0 0.31359414618122577 0.12855831015041869 0 0.31329978176751311 0.15083813985095459 0 0.33410484582506011 0.15320916617181471 0 0.31329978176751311 0.15083813985095459 0 0.32386250244182668 0.16436026072782581 0 0.33410484582506011 0.15320916617181471 0 0.33292440927884692 0.13652219269306559 0 0.31329978176751311 0.15083813985095459 0 0.31122373547798787 0.17596544882134951 0 0.31329978176751311 0.15083813985095459 0 0.32386250244182668 0.16436026072782581 0 0.31122373547798787 0.17596544882134951 0 0.32386250244182668 0.16436026072782581 0 0.33404404021793671 0.1781716730222267 0 0.31122373547798787 0.17596544882134951 0 0.32122648883687949 0.1881241270849178 0 0.33404404021793671 0.1781716730222267 0 0.31122373547798787 0.17596544882134951 0 0.30963389815949538 0.19520795498127549 0 0.32122648883687949 0.1881241270849178 0 0.31122373547798787 0.17596544882134951 0 0.33404404021793671 0.1781716730222267 0 0.34077715849972651 0.19103066824096121 0 0.33404404021793671 0.1781716730222267 0 0.35433987251256183 0.18505454941101371 0 0.33410484582506011 0.15320916617181471 0 0.32386250244182668 0.16436026072782581 0 0.33695784401418932 0.16450472207479311 0 0.32386250244182668 0.16436026072782581 0 0.33404404021793671 0.1781716730222267 0 0.33695784401418932 0.16450472207479311 0 0.33404404021793671 0.1781716730222267 0 0.33695784401418932 0.16450472207479311 0 0.34617018493459101 0.1705311962711803 0 0.33410484582506011 0.15320916617181471 0 0.33695784401418932 0.16450472207479311 0 0.34887605685346218 0.15922063318046889 0 0.35473432613646311 0.16647268376916011 0 0.35686434495788549 0.1803778972231031 0 0.36064042127539281 0.16126336443100839 0 0.34887605685346218 0.15922063318046889 0 0.34617018493459101 0.1705311962711803 0 0.35473432613646311 0.16647268376916011 0 0.33695784401418932 0.16450472207479311 0 0.34887605685346218 0.15922063318046889 0 0.34617018493459101 0.1705311962711803 0 0.35473432613646311 0.16647268376916011 0 0.3557514938630747 0.15982899630809719 0 0.36064042127539281 0.16126336443100839 0 0.3557514938630747 0.15982899630809719 0 0.36064042127539281 0.16126336443100839 0 0.35875517118698103 0.15235930385175159 0 0.34887605685346218 0.15922063318046889 0 0.3557514938630747 0.15982899630809719 0 0.35875517118698103 0.15235930385175159 0 0.34887605685346218 0.15922063318046889 0 0.35473432613646311 0.16647268376916011 0 0.3557514938630747 0.15982899630809719 0 0.33404404021793671 0.1781716730222267 0 0.35686434495788549 0.1803778972231031 0 0.33404404021793671 0.1781716730222267 0 0.35686434495788549 0.1803778972231031 0 0.35433987251256183 0.18505454941101371 0 0.33404404021793671 0.1781716730222267 0 0.34617018493459101 0.1705311962711803 0 0.35686434495788549 0.1803778972231031 0 0.34617018493459101 0.1705311962711803 0 0.35473432613646311 0.16647268376916011 0 0.35686434495788549 0.1803778972231031 0 0.35686434495788549 0.1803778972231031 0 0.35433987251256183 0.18505454941101371 0 0.35686434495788549 0.1803778972231031 0 0.38471090847238798 0.18307005068192281 0 0.35686434495788549 0.1803778972231031 0 0.37334238893230592 0.17255385751758509 0 0.38471090847238798 0.18307005068192281 0 0.3698092902156554 0.1916610530526057 0 0.35686434495788549 0.1803778972231031 0 0.38471090847238798 0.18307005068192281 0 0.3698092902156554 0.1916610530526057 0 0.35686434495788549 0.1803778972231031 0 0.35433987251256183 0.18505454941101371 0 0.35686434495788549 0.1803778972231031 0 0.37334238893230592 0.17255385751758509 0 0.37005694430524388 0.16011239302522279 0 0.35686434495788549 0.1803778972231031 0 0.36064042127539281 0.16126336443100839 0 0.37110826420376147 0.1543115377451301 0 0.35686434495788549 0.1803778972231031 0 0.37110826420376147 0.1543115377451301 0 0.35686434495788549 0.1803778972231031 0 0.37005694430524388 0.16011239302522279 0 0.37110826420376147 0.1543115377451301 0 0.35686434495788549 0.1803778972231031 0 0.37005694430524388 0.16011239302522279 0 0.36064042127539281 0.16126336443100839 0 0.37110826420376147 0.1543115377451301 0 0.36416914532409461 0.1542536419242429 0 0.36617272463024292 0.1490803616690817 0 0.35916048288201752 0.1408141371080191 0 0.37693390632796803 0.14381991845100531 0 0.37005694430524388 0.16011239302522279 0 0.37110826420376147 0.1543115377451301 0 0.38285132622008428 0.13980838991390121 0 0.37110826420376147 0.1543115377451301 0 0.36617272463024292 0.1490803616690817 0 0.37693390632796803 0.14381991845100531 0 0.36617272463024292 0.1490803616690817 0 0.35875517118698103 0.15235930385175159 0 0.35916048288201752 0.1408141371080191 0 0.36064042127539281 0.16126336443100839 0 0.36416914532409461 0.1542536419242429 0 0.35875517118698103 0.15235930385175159 0 0.37110826420376147 0.1543115377451301 0 0.36416914532409461 0.1542536419242429 0 0.36617272463024292 0.1490803616690817 0 0.36416914532409461 0.1542536419242429 0 0.36617272463024292 0.1490803616690817 0 0.35875517118698103 0.15235930385175159 0 0.34887605685346218 0.15922063318046889 0 0.35875517118698103 0.15235930385175159 0 0.34870848059452281 0.14380904850378021 0 0.35875517118698103 0.15235930385175159 0 0.35916048288201752 0.1408141371080191 0 0.34870848059452281 0.14380904850378021 0 0.33410484582506011 0.15320916617181471 0 0.34887605685346218 0.15922063318046889 0 0.34870848059452281 0.14380904850378021 0 0.35634848068779168 0.1230090269951732 0 0.35916048288201752 0.1408141371080191 0 0.34870848059452281 0.14380904850378021 0 0.35634848068779168 0.1230090269951732 0 0.33292440927884692 0.13652219269306559 0 0.34870848059452281 0.14380904850378021 0 0.35634848068779168 0.1230090269951732 0 0.35916048288201752 0.1408141371080191 0 0.37693390632796803 0.14381991845100531 0 0.35634848068779168 0.1230090269951732 0 0.37758031320674301 0.126596834954568 0 0.37693390632796803 0.14381991845100531 0 0.35634848068779168 0.1230090269951732 0 0.37693390632796803 0.14381991845100531 0 0.37758031320674301 0.126596834954568 0 0.38285132622008428 0.13980838991390121 0 0.39564570813492472 0.11950438680257949 0 0.37758031320674301 0.126596834954568 0 0.38285132622008428 0.13980838991390121 0 0.37693390632796803 0.14381991845100531 0 0.38285132622008428 0.13980838991390121 0 0.39564570813492472 0.11950438680257949 0 0.38285132622008428 0.13980838991390121 0 0.40128534729444398 0.1363594591486729 0 0.39564570813492472 0.11950438680257949 0 0.40128534729444398 0.1363594591486729 0 0.41103874221638609 0.1257925865992402 0 0.39564570813492472 0.11950438680257949 0 0.40128534729444398 0.1363594591486729 0 0.3961252710986396 0.14794866806831489 0 0.41903130892992912 0.14745638294450861 0 0.3961252710986396 0.14794866806831489 0 0.38539122565755363 0.15547822090270519 0 0.39822151814149742 0.1636371802374767 0 0.38285132622008428 0.13980838991390121 0 0.40128534729444398 0.1363594591486729 0 0.3961252710986396 0.14794866806831489 0 0.3961252710986396 0.14794866806831489 0 0.39822151814149742 0.1636371802374767 0 0.41903130892992912 0.14745638294450861 0 0.38285132622008428 0.13980838991390121 0 0.3961252710986396 0.14794866806831489 0 0.38539122565755363 0.15547822090270519 0 0.37005694430524388 0.16011239302522279 0 0.38285132622008428 0.13980838991390121 0 0.38539122565755363 0.15547822090270519 0 0.37005694430524388 0.16011239302522279 0 0.38285132622008428 0.13980838991390121 0 0.37110826420376147 0.1543115377451301 0 0.38285132622008428 0.13980838991390121 0 0.37693390632796803 0.14381991845100531 0 0.38539122565755363 0.15547822090270519 0 0.38234459710179769 0.16697034047298251 0 0.39822151814149742 0.1636371802374767 0 0.37005694430524388 0.16011239302522279 0 0.38539122565755363 0.15547822090270519 0 0.38234459710179769 0.16697034047298251 0 0.38234459710179769 0.16697034047298251 0 0.38471090847238798 0.18307005068192281 0 0.39822151814149742 0.1636371802374767 0 0.37334238893230592 0.17255385751758509 0 0.37005694430524388 0.16011239302522279 0 0.38234459710179769 0.16697034047298251 0 0.37334238893230592 0.17255385751758509 0 0.38234459710179769 0.16697034047298251 0 0.38471090847238798 0.18307005068192281 0 0.38471090847238798 0.18307005068192281 0 0.4121592545543728 0.185723705227303 0 0.38471090847238798 0.18307005068192281 0 0.39822151814149742 0.1636371802374767 0 0.4121592545543728 0.185723705227303 0 0.39822151814149742 0.1636371802374767 0 0.42385721200794468 0.16919008166479799 0 0.41903130892992912 0.14745638294450861 0 0.39822151814149742 0.1636371802374767 0 0.4121592545543728 0.185723705227303 0 0.42385721200794468 0.16919008166479799 0 0.4121592545543728 0.185723705227303 0 0.43960760063635762 0.18837735977268319 0 0.4121592545543728 0.185723705227303 0 0.42385721200794468 0.16919008166479799 0 0.43960760063635762 0.18837735977268319 0 0.42385721200794468 0.16919008166479799 0 0.43960760063635762 0.18837735977268319 0 0.4426715721909591 0.16104033914227439 0 0.42385721200794468 0.16919008166479799 0 0.41903130892992912 0.14745638294450861 0 0.4426715721909591 0.16104033914227439 0 0.41903130892992912 0.14745638294450861 0 0.44613855339644432 0.1353428833413001 0 0.4426715721909591 0.16104033914227439 0 0.41903130892992912 0.14745638294450861 0 0.44613855339644432 0.1353428833413001 0 0.4285487141994474 0.1169868539990475 0 0.41103874221638609 0.1257925865992402 0 0.41903130892992912 0.14745638294450861 0 0.4285487141994474 0.1169868539990475 0 0.40128534729444398 0.1363594591486729 0 0.41103874221638609 0.1257925865992402 0 0.41903130892992912 0.14745638294450861 0 0.39537431708585979 0.2421255215268075 0 0.40803805242216962 0.22602585539197181 0 0.41099170879738423 0.24533397063796919 0 0.4012010829936446 0.26104372590863473 0 0.39537431708585979 0.2421255215268075 0 0.41099170879738423 0.24533397063796919 0 0.37932408223304742 0.25170200418001692 0 0.39537431708585979 0.2421255215268075 0 0.38451483898266942 0.22761486377723009 0 0.39537431708585979 0.2421255215268075 0 0.38451483898266942 0.22761486377723009 0 0.40803805242216962 0.22602585539197181 0 0.38451483898266942 0.22761486377723009 0 0.39445640818545191 0.20520638236518821 0 0.40803805242216962 0.22602585539197181 0 0.37277248216493708 0.21145736651231661 0 0.38451483898266942 0.22761486377723009 0 0.39445640818545191 0.20520638236518821 0 0.3698092902156554 0.1916610530526057 0 0.38471090847238798 0.18307005068192281 0 0.39445640818545191 0.20520638236518821 0 0.3698092902156554 0.1916610530526057 0 0.37277248216493708 0.21145736651231661 0 0.39445640818545191 0.20520638236518821 0 0.38471090847238798 0.18307005068192281 0 0.4121592545543728 0.185723705227303 0 0.39445640818545191 0.20520638236518821 0 0.39445640818545191 0.20520638236518821 0 0.42659849507148517 0.21209856070838651 0 0.40803805242216962 0.22602585539197181 0 0.4121592545543728 0.185723705227303 0 0.39445640818545191 0.20520638236518821 0 0.42659849507148517 0.21209856070838651 0 0.4121592545543728 0.185723705227303 0 0.42659849507148517 0.21209856070838651 0 0.43960760063635762 0.18837735977268319 0 0.42659849507148517 0.21209856070838651 0 0.40803805242216962 0.22602585539197181 0 0.42663922019175299 0.23901473258212541 0 0.42659849507148517 0.21209856070838651 0 0.42663922019175299 0.23901473258212541 0 0.44693198386075228 0.23119003309652089 0 0.40803805242216962 0.22602585539197181 0 0.42663922019175299 0.23901473258212541 0 0.41099170879738423 0.24533397063796919 0 0.42434710081215821 0.2601709591087687 0 0.42663922019175299 0.23901473258212541 0 0.41099170879738423 0.24533397063796919 0 0.47885509742906479 0.2068381104371006 0 0.48304075969352822 0.23583316900750401 0 0.5 0.17045075712757021 0 0.5 0.275679628658691 0 0.48304075969352822 0.23583316900750401 0 0.5 0.17045075712757021 0 0.46128537820210569 0.24921692059580469 0 0.44693198386075228 0.23119003309652089 0 0.46593515226386373 0.22431858206221969 0 0.44292798018656898 0.25926901654913509 0 0.46128537820210569 0.24921692059580469 0 0.44693198386075228 0.23119003309652089 0 0.44292798018656898 0.25926901654913509 0 0.42663922019175299 0.23901473258212541 0 0.44693198386075228 0.23119003309652089 0 0.44693198386075228 0.23119003309652089 0 0.46593515226386373 0.22431858206221969 0 0.45541807121959849 0.20253604498610339 0 0.46593515226386373 0.22431858206221969 0 0.45541807121959849 0.20253604498610339 0 0.47885509742906479 0.2068381104371006 0 0.42659849507148517 0.21209856070838651 0 0.44693198386075228 0.23119003309652089 0 0.45541807121959849 0.20253604498610339 0 0.43960760063635762 0.18837735977268319 0 0.45541807121959849 0.20253604498610339 0 0.45532873411106473 0.1770866169591159 0 0.42659849507148517 0.21209856070838651 0 0.43960760063635762 0.18837735977268319 0 0.45541807121959849 0.20253604498610339 0 0.45541807121959849 0.20253604498610339 0 0.47885509742906479 0.2068381104371006 0 0.47466943516460142 0.17784305186669719 0 0.47885509742906479 0.2068381104371006 0 0.47466943516460142 0.17784305186669719 0 0.46593515226386373 0.22431858206221969 0 0.47885509742906479 0.2068381104371006 0 0.48304075969352822 0.23583316900750401 0 0.47885509742906479 0.2068381104371006 0 0.48304075969352822 0.23583316900750401 0 0.4718047949689832 0.261670791010575 0 0.46128537820210569 0.24921692059580469 0 0.48304075969352822 0.23583316900750401 0 0.46128537820210569 0.24921692059580469 0 0.46593515226386373 0.22431858206221969 0 0.48304075969352822 0.23583316900750401 0 0.5 0.17045075712757021 0 0.47048377290013788 0.14884799329629389 0 0.5 0.091458502241477224 0 0.44613855339644432 0.1353428833413001 0 0.47048377290013788 0.14884799329629389 0 0.4662981106356745 0.11985293472589049 0 0.47048377290013788 0.14884799329629389 0 0.4662981106356745 0.11985293472589049 0 0.44613855339644432 0.1353428833413001 0 0.4426715721909591 0.16104033914227439 0 0.47048377290013788 0.14884799329629389 0 0.43960760063635762 0.18837735977268319 0 0.4426715721909591 0.16104033914227439 0 0.45532873411106473 0.1770866169591159 0 0.45541807121959849 0.20253604498610339 0 0.45532873411106473 0.1770866169591159 0 0.47466943516460142 0.17784305186669719 0 0.45532873411106473 0.1770866169591159 0 0.47466943516460142 0.17784305186669719 0 0.47048377290013788 0.14884799329629389 0 0.4426715721909591 0.16104033914227439 0 0.45532873411106473 0.1770866169591159 0 0.47048377290013788 0.14884799329629389 0 0.47466943516460142 0.17784305186669719 0 0.5 0.17045075712757021 0 0.47048377290013788 0.14884799329629389 0 0.47466943516460142 0.17784305186669719 0 0.47048377290013788 0.14884799329629389 0 0.47885509742906479 0.2068381104371006 0 0.47466943516460142 0.17784305186669719 0 0.5 0.17045075712757021 0 0.47048377290013788 0.14884799329629389 0 0.5 0.091458502241477224 0 0.4662981106356745 0.11985293472589049 0 0.5 0.091458502241477224 0 0.46211244837121113 0.090857876155487155 0 0.4662981106356745 0.11985293472589049 0 0.5 0.091458502241477224 0 0.47874628595329283 0.0639932456873573 0 0.46211244837121113 0.090857876155487155 0 0.5 0.091458502241477224 0 0.47874628595329283 0.0639932456873573 0 0.5 0.033321024525486347 0 0.46211244837121113 0.090857876155487155 0 0.45792678610674759 0.06186281758508376 0 0.47874628595329283 0.0639932456873573 0 0.46211244837121113 0.090857876155487155 0 0.45792678610674759 0.06186281758508376 0 0.46211244837121113 0.090857876155487155 0 0.44081442615167948 0.089499957299348537 0 0.45792678610674759 0.06186281758508376 0 0.44081442615167948 0.089499957299348537 0 0.43541154116369729 0.069345861272804551 0 0.45792678610674759 0.06186281758508376 0 0.44613855339644432 0.1353428833413001 0 0.4662981106356745 0.11985293472589049 0 0.44829726946141818 0.1095102622430132 0 0.46211244837121113 0.090857876155487155 0 0.4662981106356745 0.11985293472589049 0 0.46211244837121113 0.090857876155487155 0 0.4662981106356745 0.11985293472589049 0 0.44829726946141818 0.1095102622430132 0 0.44081442615167948 0.089499957299348537 0 0.44829726946141818 0.1095102622430132 0 0.4285487141994474 0.1169868539990475 0 0.46211244837121113 0.090857876155487155 0 0.44081442615167948 0.089499957299348537 0 0.44829726946141818 0.1095102622430132 0 0.44613855339644432 0.1353428833413001 0 0.44829726946141818 0.1095102622430132 0 0.4285487141994474 0.1169868539990475 0 0.41103874221638609 0.1257925865992402 0 0.4285487141994474 0.1169868539990475 0 0.40987784743585592 0.10843622316148251 0 0.4285487141994474 0.1169868539990475 0 0.40987784743585592 0.10843622316148251 0 0.41853828198972898 0.087155198472253198 0 0.40987784743585592 0.10843622316148251 0 0.41853828198972898 0.087155198472253198 0 0.39561779063879249 0.092742089934292282 0 0.44081442615167948 0.089499957299348537 0 0.4285487141994474 0.1169868539990475 0 0.41853828198972898 0.087155198472253198 0 0.44081442615167948 0.089499957299348537 0 0.43541154116369729 0.069345861272804551 0 0.41853828198972898 0.087155198472253198 0 0.43541154116369729 0.069345861272804551 0 0.41944991204207871 0.062837855638942522 0 0.41853828198972898 0.087155198472253198 0 0.41944991204207871 0.062837855638942522 0 0.41853828198972898 0.087155198472253198 0 0.4037811072322024 0.069724618645847905 0 0.41853828198972898 0.087155198472253198 0 0.39561779063879249 0.092742089934292282 0 0.4037811072322024 0.069724618645847905 0 0.39561779063879249 0.092742089934292282 0 0.4037811072322024 0.069724618645847905 0 0.38772120232054691 0.072936093372396663 0 0.4037811072322024 0.069724618645847905 0 0.38772120232054691 0.072936093372396663 0 0.393890515403228 0.059180448651056039 0 0.38772120232054691 0.072936093372396663 0 0.37683345760801268 0.08437602953539565 0 0.37741970544318498 0.062355586550455117 0 0.38772120232054691 0.072936093372396663 0 0.37741970544318498 0.062355586550455117 0 0.393890515403228 0.059180448651056039 0 0.39561779063879249 0.092742089934292282 0 0.38772120232054691 0.072936093372396663 0 0.37683345760801268 0.08437602953539565 0 0.39561779063879249 0.092742089934292282 0 0.37683345760801268 0.08437602953539565 0 0.37612214466294652 0.1068424526101808 0 0.39561779063879249 0.092742089934292282 0 0.37612214466294652 0.1068424526101808 0 0.39564570813492472 0.11950438680257949 0 0.37758031320674301 0.126596834954568 0 0.37612214466294652 0.1068424526101808 0 0.39564570813492472 0.11950438680257949 0 0.41103874221638609 0.1257925865992402 0 0.40987784743585592 0.10843622316148251 0 0.39564570813492472 0.11950438680257949 0 0.40987784743585592 0.10843622316148251 0 0.39561779063879249 0.092742089934292282 0 0.39564570813492472 0.11950438680257949 0 0.39004148404964262 0.017284166705154369 0 0.40043465183894078 0.031403709605516257 0 0.40673090271444312 0.018486225439920571 0 0.39004148404964262 0.017284166705154369 0 0.38240662640458778 0.032113384637714557 0 0.40043465183894078 0.031403709605516257 0 0.39004148404964262 0.017284166705154369 0 0.40637048087386812 0.002611195799175237 0 0.3858027830593872 -0.0037387854715756311 0 0.39004148404964262 0.017284166705154369 0 0.40673090271444312 0.018486225439920571 0 0.40637048087386812 0.002611195799175237 0 0.37462175331238712 0.01092581316495669 0 0.39004148404964262 0.017284166705154369 0 0.3858027830593872 -0.0037387854715756311 0 0.37462175331238712 0.01092581316495669 0 0.39004148404964262 0.017284166705154369 0 0.38240662640458778 0.032113384637714557 0 0.37462175331238712 0.01092581316495669 0 0.38240662640458778 0.032113384637714557 0 0.36426294423562161 0.045656711931391321 0 0.37578751188124843 0.03794001499879051 0 0.39041634607079839 0.045531790563439478 0 0.36426294423562161 0.045656711931391321 0 0.39041634607079839 0.045531790563439478 0 0.37578751188124843 0.03794001499879051 0 0.38240662640458778 0.032113384637714557 0 0.39041634607079839 0.045531790563439478 0 0.36426294423562161 0.045656711931391321 0 0.39041634607079839 0.045531790563439478 0 0.37741970544318498 0.062355586550455117 0 0.39041634607079839 0.045531790563439478 0 0.37741970544318498 0.062355586550455117 0 0.393890515403228 0.059180448651056039 0 0.39041634607079839 0.045531790563439478 0 0.393890515403228 0.059180448651056039 0 0.41656974790597512 0.045406869195487642 0 0.4037811072322024 0.069724618645847905 0 0.393890515403228 0.059180448651056039 0 0.41656974790597512 0.045406869195487642 0 0.39041634607079839 0.045531790563439478 0 0.40043465183894078 0.031403709605516257 0 0.41656974790597512 0.045406869195487642 0 0.39041634607079839 0.045531790563439478 0 0.41656974790597512 0.045406869195487642 0 0.38240662640458778 0.032113384637714557 0 0.39041634607079839 0.045531790563439478 0 0.40043465183894078 0.031403709605516257 0 0.40043465183894078 0.031403709605516257 0 0.41656974790597512 0.045406869195487642 0 0.41498701070178012 0.026360970605963419 0 0.41656974790597512 0.045406869195487642 0 0.42948579922609031 0.022100077835940871 0 0.41498701070178012 0.026360970605963419 0 0.41944991204207871 0.062837855638942522 0 0.4037811072322024 0.069724618645847905 0 0.41656974790597512 0.045406869195487642 0 0.43541154116369729 0.069345861272804551 0 0.41944991204207871 0.062837855638942522 0 0.44272314974115179 0.045281947827535793 0 0.41944991204207871 0.062837855638942522 0 0.41656974790597512 0.045406869195487642 0 0.44272314974115179 0.045281947827535793 0 0.41656974790597512 0.045406869195487642 0 0.44272314974115179 0.045281947827535793 0 0.41656974790597512 0.045406869195487642 0 0.43961020654380778 0.031189961033941959 0 0.44272314974115179 0.045281947827535793 0 0.41656974790597512 0.045406869195487642 0 0.42948579922609031 0.022100077835940871 0 0.43961020654380778 0.031189961033941959 0 0.42948579922609031 0.022100077835940871 0 0.41498701070178012 0.026360970605963419 0 0.41837594234276188 0.01438142118252125 0 0.41498701070178012 0.026360970605963419 0 0.40673090271444312 0.018486225439920571 0 0.41837594234276188 0.01438142118252125 0 0.40043465183894078 0.031403709605516257 0 0.41498701070178012 0.026360970605963419 0 0.40673090271444312 0.018486225439920571 0 0.40637048087386812 0.002611195799175237 0 0.41837594234276188 0.01438142118252125 0 0.42762949923624949 0.002295536690745181 0 0.40673090271444312 0.018486225439920571 0 0.40637048087386812 0.002611195799175237 0 0.41837594234276188 0.01438142118252125 0 0.42948579922609031 0.022100077835940871 0 0.42762949923624949 0.002295536690745181 0 0.44955546157782078 0.0038727004442770251 0 0.42948579922609031 0.022100077835940871 0 0.41837594234276188 0.01438142118252125 0 0.42762949923624949 0.002295536690745181 0 0.5 0.033321024525486347 0 0.4754534637303901 0.01099579741464125 0 0.49999999999999961 -0.040975558153004132 0 0.45374112384228421 0.032867759014680378 0 0.47369219528850542 0.042466007929251981 0 0.4754534637303901 0.01099579741464125 0 0.44955546157782078 0.0038727004442770251 0 0.45374112384228421 0.032867759014680378 0 0.42948579922609031 0.022100077835940871 0 0.44955546157782078 0.0038727004442770251 0 0.43961020654380778 0.031189961033941959 0 0.44955546157782078 0.0038727004442770251 0 0.43961020654380778 0.031189961033941959 0 0.45374112384228421 0.032867759014680378 0 0.44955546157782078 0.0038727004442770251 0 0.45374112384228421 0.032867759014680378 0 0.4754534637303901 0.01099579741464125 0 0.43541154116369729 0.069345861272804551 0 0.44272314974115179 0.045281947827535793 0 0.45792678610674759 0.06186281758508376 0 0.44272314974115179 0.045281947827535793 0 0.45374112384228421 0.032867759014680378 0 0.45792678610674759 0.06186281758508376 0 0.43961020654380778 0.031189961033941959 0 0.44272314974115179 0.045281947827535793 0 0.45374112384228421 0.032867759014680378 0 0.45374112384228421 0.032867759014680378 0 0.45792678610674759 0.06186281758508376 0 0.47369219528850542 0.042466007929251981 0 0.45374112384228421 0.032867759014680378 0 0.45792678610674759 0.06186281758508376 0 0.47874628595329283 0.0639932456873573 0 0.45792678610674759 0.06186281758508376 0 0.47369219528850542 0.042466007929251981 0 0.47874628595329283 0.0639932456873573 0 0.47369219528850542 0.042466007929251981 0 0.5 0.033321024525486347 0 0.47369219528850542 0.042466007929251981 0 0.5 0.033321024525486347 0 0.4754534637303901 0.01099579741464125 0 0.4754534637303901 0.01099579741464125 0 0.46883033912900701 -0.016353274712318878 0 0.49999999999999961 -0.040975558153004132 0 0.46883033912900701 -0.016353274712318878 0 0.49999999999999961 -0.040975558153004132 0 0.47217566742207251 -0.034244342632357733 0 0.49898153553078228 -0.043366327138599538 0 0.48383187681793621 -0.04941135601544823 0 0.48259622795417778 -0.043029765018443543 0 0.49898153553078228 -0.043366327138599538 0 0.47217566742207251 -0.034244342632357733 0 0.49999999999999961 -0.040975558153004132 0 0.49898153553078228 -0.043366327138599538 0 0.47217566742207251 -0.034244342632357733 0 0.49898153553078228 -0.043366327138599538 0 0.48259622795417778 -0.043029765018443543 0 0.47217566742207251 -0.034244342632357733 0 0.49999999999999961 -0.040975558153004132 0 0.49898153553078228 -0.043366327138599538 0 0.49898153553078228 -0.043366327138599538 0 0.48727835880898479 -0.070838657087364726 0 0.49999999999999961 -0.040975558153004132 0 0.49898153553078228 -0.043366327138599538 0 0.5 -0.065846961845740293 0 0.49898153553078228 -0.043366327138599538 0 0.48344143184469529 -0.058541189427611558 0 0.48727835880898479 -0.070838657087364726 0 0.49898153553078228 -0.043366327138599538 0 0.5 -0.065846961845740293 0 0.48727835880898479 -0.070838657087364726 0 0.49898153553078228 -0.043366327138599538 0 0.48344143184469529 -0.058541189427611558 0 0.48383187681793621 -0.04941135601544823 0 0.48344143184469529 -0.058541189427611558 0 0.47397261581989097 -0.054868484567623499 0 0.47409761631732811 -0.066551536287250093 0 0.48383187681793621 -0.04941135601544823 0 0.47397261581989097 -0.054868484567623499 0 0.47539583204592051 -0.045097034287368692 0 0.48344143184469529 -0.058541189427611558 0 0.48383187681793621 -0.04941135601544823 0 0.47397261581989097 -0.054868484567623499 0 0.47397261581989097 -0.054868484567623499 0 0.47539583204592051 -0.045097034287368692 0 0.46637727443561278 -0.047450538365802833 0 0.47397261581989097 -0.054868484567623499 0 0.46184403037696581 -0.059057344804726762 0 0.47409761631732811 -0.066551536287250093 0 0.48259622795417778 -0.043029765018443543 0 0.47539583204592051 -0.045097034287368692 0 0.47217566742207251 -0.034244342632357733 0 0.48383187681793621 -0.04941135601544823 0 0.48259622795417778 -0.043029765018443543 0 0.47539583204592051 -0.045097034287368692 0 0.47539583204592051 -0.045097034287368692 0 0.46901208052716109 -0.040947783956866768 0 0.47217566742207251 -0.034244342632357733 0 0.47539583204592051 -0.045097034287368692 0 0.46901208052716109 -0.040947783956866768 0 0.46637727443561278 -0.047450538365802833 0 0.46901208052716109 -0.040947783956866768 0 0.47217566742207251 -0.034244342632357733 0 0.46257323662593602 -0.037275496270905449 0 0.46257323662593602 -0.037275496270905449 0 0.45605468175664798 -0.048620384676765521 0 0.44301987851254099 -0.041400807496968027 0 0.47217566742207251 -0.034244342632357733 0 0.46257323662593602 -0.037275496270905449 0 0.44536979931335902 -0.025122358126126589 0 0.46901208052716109 -0.040947783956866768 0 0.46257323662593602 -0.037275496270905449 0 0.46637727443561278 -0.047450538365802833 0 0.46257323662593602 -0.037275496270905449 0 0.46637727443561278 -0.047450538365802833 0 0.45605468175664798 -0.048620384676765521 0 0.46184403037696581 -0.059057344804726762 0 0.46637727443561278 -0.047450538365802833 0 0.45605468175664798 -0.048620384676765521 0 0.47397261581989097 -0.054868484567623499 0 0.46184403037696581 -0.059057344804726762 0 0.46637727443561278 -0.047450538365802833 0 0.46184403037696581 -0.059057344804726762 0 0.45605468175664798 -0.048620384676765521 0 0.45037641267659417 -0.057038399584607241 0 0.46184403037696581 -0.059057344804726762 0 0.45037641267659417 -0.057038399584607241 0 0.45234825793015182 -0.067440254316234016 0 0.44301987851254099 -0.041400807496968027 0 0.43901893515296542 -0.069116275138168273 0 0.45605468175664798 -0.048620384676765521 0 0.45037641267659417 -0.057038399584607241 0 0.44301987851254099 -0.041400807496968027 0 0.45037641267659417 -0.057038399584607241 0 0.44301987851254099 -0.041400807496968027 0 0.43901893515296542 -0.069116275138168273 0 0.44301987851254099 -0.041400807496968027 0 0.44536979931335902 -0.025122358126126589 0 0.42945382326097842 -0.032376146323728303 0 0.44301987851254099 -0.041400807496968027 0 0.44536979931335902 -0.025122358126126589 0 0.46257323662593602 -0.037275496270905449 0 0.44301987851254099 -0.041400807496968027 0 0.44536979931335902 -0.025122358126126589 0 0.46257323662593602 -0.037275496270905449 0 0.44301987851254099 -0.041400807496968027 0 0.44955546157782078 0.0038727004442770251 0 0.44536979931335902 -0.025122358126126589 0 0.44955546157782078 0.0038727004442770251 0 0.44536979931335902 -0.025122358126126589 0 0.42919576027871942 -0.019618364266303499 0 0.44955546157782078 0.0038727004442770251 0 0.4754534637303901 0.01099579741464125 0 0.46883033912900701 -0.016353274712318878 0 0.44955546157782078 0.0038727004442770251 0 0.46883033912900701 -0.016353274712318878 0 0.44536979931335902 -0.025122358126126589 0 0.47217566742207251 -0.034244342632357733 0 0.44536979931335902 -0.025122358126126589 0 0.46883033912900701 -0.016353274712318878 0 0.47217566742207251 -0.034244342632357733 0 0.44536979931335902 -0.025122358126126589 0 0.48083379085476641 -0.11678008149450859 0 0.46387200536538958 -0.12578331698489509 0 0.48800605081673759 -0.13057183592619051 0 0.47557518208718719 -0.098310987036129893 0 0.46387200536538958 -0.12578331698489509 0 0.48083379085476641 -0.11678008149450859 0 0.47557518208718719 -0.098310987036129893 0 0.46387200536538958 -0.12578331698489509 0 0.48083379085476641 -0.11678008149450859 0 0.5 -0.1155897692312126 0 0.4891022432354884 -0.1053498008250819 0 0.48083379085476641 -0.11678008149450859 0 0.5 -0.1155897692312126 0 0.48800605081673759 -0.13057183592619051 0 0.4891022432354884 -0.1053498008250819 0 0.47557518208718719 -0.098310987036129893 0 0.5 -0.090718365538476453 0 0.5 -0.1155897692312126 0 0.4891022432354884 -0.1053498008250819 0 0.5 -0.090718365538476453 0 0.48083379085476641 -0.11678008149450859 0 0.4891022432354884 -0.1053498008250819 0 0.47557518208718719 -0.098310987036129893 0 0.47557518208718719 -0.098310987036129893 0 0.47486178398705381 -0.081271936143999968 0 0.46395625200510782 -0.09532066060834285 0 0.47557518208718719 -0.098310987036129893 0 0.47486178398705381 -0.081271936143999968 0 0.48727835880898479 -0.070838657087364726 0 0.47557518208718719 -0.098310987036129893 0 0.48727835880898479 -0.070838657087364726 0 0.47557518208718719 -0.098310987036129893 0 0.5 -0.090718365538476453 0 0.48727835880898479 -0.070838657087364726 0 0.5 -0.090718365538476453 0 0.5 -0.065846961845740293 0 0.48727835880898479 -0.070838657087364726 0 0.48344143184469529 -0.058541189427611558 0 0.48727835880898479 -0.070838657087364726 0 0.47409761631732811 -0.066551536287250093 0 0.47486178398705381 -0.081271936143999968 0 0.48727835880898479 -0.070838657087364726 0 0.47409761631732811 -0.066551536287250093 0 0.47486178398705381 -0.081271936143999968 0 0.47409761631732811 -0.066551536287250093 0 0.46390497554358218 -0.070250581792635616 0 0.47486178398705381 -0.081271936143999968 0 0.46390497554358218 -0.070250581792635616 0 0.4548234616869381 -0.077785560230625897 0 0.46184403037696581 -0.059057344804726762 0 0.47409761631732811 -0.066551536287250093 0 0.46390497554358218 -0.070250581792635616 0 0.46390497554358218 -0.070250581792635616 0 0.4548234616869381 -0.077785560230625897 0 0.45234825793015182 -0.067440254316234016 0 0.46184403037696581 -0.059057344804726762 0 0.46390497554358218 -0.070250581792635616 0 0.45234825793015182 -0.067440254316234016 0 0.45037641267659417 -0.057038399584607241 0 0.45234825793015182 -0.067440254316234016 0 0.43901893515296542 -0.069116275138168273 0 0.45234825793015182 -0.067440254316234016 0 0.43901893515296542 -0.069116275138168273 0 0.44774226956384761 -0.0741625774289731 0 0.43901893515296542 -0.069116275138168273 0 0.44774226956384761 -0.0741625774289731 0 0.44477842348533531 -0.082308220030864229 0 0.4548234616869381 -0.077785560230625897 0 0.44774226956384761 -0.0741625774289731 0 0.44477842348533531 -0.082308220030864229 0 0.4548234616869381 -0.077785560230625897 0 0.45234825793015182 -0.067440254316234016 0 0.44774226956384761 -0.0741625774289731 0 0.4548234616869381 -0.077785560230625897 0 0.44477842348533531 -0.082308220030864229 0 0.44858456745482261 -0.093862083042917765 0 0.43901893515296542 -0.069116275138168273 0 0.44477842348533531 -0.082308220030864229 0 0.43501799179339079 -0.096831742779368762 0 0.44477842348533531 -0.082308220030864229 0 0.44858456745482261 -0.093862083042917765 0 0.43501799179339079 -0.096831742779368762 0 0.47486178398705381 -0.081271936143999968 0 0.4548234616869381 -0.077785560230625897 0 0.44858456745482261 -0.093862083042917765 0 0.47486178398705381 -0.081271936143999968 0 0.46395625200510782 -0.09532066060834285 0 0.44858456745482261 -0.093862083042917765 0 0.47486178398705381 -0.081271936143999968 0 0.44858456745482261 -0.093862083042917765 0 0.47557518208718719 -0.098310987036129893 0 0.46395625200510782 -0.09532066060834285 0 0.45680347449136782 -0.1078376362103238 0 0.46395625200510782 -0.09532066060834285 0 0.45680347449136782 -0.1078376362103238 0 0.44858456745482261 -0.093862083042917765 0 0.45680347449136782 -0.1078376362103238 0 0.44858456745482261 -0.093862083042917765 0 0.44079529981699012 -0.11213294224530281 0 0.44079529981699012 -0.11213294224530281 0 0.44962783577518978 -0.12258555348488399 0 0.4353726150392957 -0.131375969134992 0 0.45680347449136782 -0.1078376362103238 0 0.44079529981699012 -0.11213294224530281 0 0.44962783577518978 -0.12258555348488399 0 0.47557518208718719 -0.098310987036129893 0 0.45680347449136782 -0.1078376362103238 0 0.46387200536538958 -0.12578331698489509 0 0.45680347449136782 -0.1078376362103238 0 0.44962783577518978 -0.12258555348488399 0 0.46387200536538958 -0.12578331698489509 0 0.41948695370241768 -0.12434390904917079 0 0.4223073509225912 -0.1064522299418356 0 0.39603013439035978 -0.1190423768407534 0 0.4223073509225912 -0.1064522299418356 0 0.39603013439035978 -0.1190423768407534 0 0.41948695370241768 -0.12434390904917079 0 0.42949055487032373 -0.1185762625928253 0 0.4223073509225912 -0.1064522299418356 0 0.44079529981699012 -0.11213294224530281 0 0.42949055487032373 -0.1185762625928253 0 0.4223073509225912 -0.1064522299418356 0 0.44079529981699012 -0.11213294224530281 0 0.42949055487032373 -0.1185762625928253 0 0.4353726150392957 -0.131375969134992 0 0.41948695370241768 -0.12434390904917079 0 0.42949055487032373 -0.1185762625928253 0 0.4353726150392957 -0.131375969134992 0 0.44858456745482261 -0.093862083042917765 0 0.44079529981699012 -0.11213294224530281 0 0.4223073509225912 -0.1064522299418356 0 0.44858456745482261 -0.093862083042917765 0 0.4223073509225912 -0.1064522299418356 0 0.44858456745482261 -0.093862083042917765 0 0.4223073509225912 -0.1064522299418356 0 0.43501799179339079 -0.096831742779368762 0 0.4223073509225912 -0.1064522299418356 0 0.43501799179339079 -0.096831742779368762 0 0.41985201995254379 -0.090001304972931698 0 0.4223073509225912 -0.1064522299418356 0 0.40714853378255478 -0.1016596121183969 0 0.41985201995254379 -0.090001304972931698 0 0.4223073509225912 -0.1064522299418356 0 0.40714853378255478 -0.1016596121183969 0 0.39603013439035978 -0.1190423768407534 0 0.41226915535691422 -0.079041878437797336 0 0.41985201995254379 -0.090001304972931698 0 0.43006243683332768 -0.076870845360809403 0 0.41226915535691422 -0.079041878437797336 0 0.41985201995254379 -0.090001304972931698 0 0.40103236221837379 -0.089328505725457696 0 0.40714853378255478 -0.1016596121183969 0 0.41985201995254379 -0.090001304972931698 0 0.40103236221837379 -0.089328505725457696 0 0.43901893515296542 -0.069116275138168273 0 0.43501799179339079 -0.096831742779368762 0 0.43074028829216998 -0.084418400883630243 0 0.43501799179339079 -0.096831742779368762 0 0.41985201995254379 -0.090001304972931698 0 0.43074028829216998 -0.084418400883630243 0 0.43901893515296542 -0.069116275138168273 0 0.43501799179339079 -0.096831742779368762 0 0.41985201995254379 -0.090001304972931698 0 0.43074028829216998 -0.084418400883630243 0 0.43006243683332768 -0.076870845360809403 0 0.43006243683332768 -0.076870845360809403 0 0.42559425367452769 -0.062660465864126824 0 0.41081988097659311 -0.06456242736816678 0 0.43901893515296542 -0.069116275138168273 0 0.43074028829216998 -0.084418400883630243 0 0.43006243683332768 -0.076870845360809403 0 0.43901893515296542 -0.069116275138168273 0 0.43006243683332768 -0.076870845360809403 0 0.42559425367452769 -0.062660465864126824 0 0.41226915535691422 -0.079041878437797336 0 0.43006243683332768 -0.076870845360809403 0 0.41081988097659311 -0.06456242736816678 0 0.43006243683332768 -0.076870845360809403 0 0.41081988097659311 -0.06456242736816678 0 0.41226915535691422 -0.079041878437797336 0 0.41081988097659311 -0.06456242736816678 0 0.39957907680373239 -0.074446308761621144 0 0.41081988097659311 -0.06456242736816678 0 0.39957907680373239 -0.074446308761621144 0 0.39454082169636068 -0.06302395268715362 0 0.39957907680373239 -0.074446308761621144 0 0.3902140463536376 -0.072430362104079049 0 0.38530824924808271 -0.081414113641567698 0 0.39957907680373239 -0.074446308761621144 0 0.39454082169636068 -0.06302395268715362 0 0.3902140463536376 -0.072430362104079049 0 0.39454082169636068 -0.06302395268715362 0 0.38142803766637462 -0.070837073325973748 0 0.37059434791894069 -0.064116393228243584 0 0.39454082169636068 -0.06302395268715362 0 0.37059434791894069 -0.064116393228243584 0 0.39454082169636068 -0.06302395268715362 0 0.38142803766637462 -0.070837073325973748 0 0.3902140463536376 -0.072430362104079049 0 0.38142803766637462 -0.070837073325973748 0 0.38530824924808271 -0.081414113641567698 0 0.37137938466941361 -0.07639417755674513 0 0.38142803766637462 -0.070837073325973748 0 0.3902140463536376 -0.072430362104079049 0 0.38530824924808271 -0.081414113641567698 0 0.38530824924808271 -0.081414113641567698 0 0.40103236221837379 -0.089328505725457696 0 0.38503198072916017 -0.095518319682475539 0 0.38530824924808271 -0.081414113641567698 0 0.38503198072916017 -0.095518319682475539 0 0.36943287423380999 -0.091831761860255892 0 0.38530824924808271 -0.081414113641567698 0 0.37137938466941361 -0.07639417755674513 0 0.36943287423380999 -0.091831761860255892 0 0.39957907680373239 -0.074446308761621144 0 0.38530824924808271 -0.081414113641567698 0 0.40103236221837379 -0.089328505725457696 0 0.41226915535691422 -0.079041878437797336 0 0.39957907680373239 -0.074446308761621144 0 0.40103236221837379 -0.089328505725457696 0 0.40714853378255478 -0.1016596121183969 0 0.39367607516355407 -0.1027167814206215 0 0.39603013439035978 -0.1190423768407534 0 0.40103236221837379 -0.089328505725457696 0 0.39367607516355407 -0.1027167814206215 0 0.38503198072916017 -0.095518319682475539 0 0.40714853378255478 -0.1016596121183969 0 0.40103236221837379 -0.089328505725457696 0 0.39367607516355407 -0.1027167814206215 0 0.38503198072916017 -0.095518319682475539 0 0.37913736469732179 -0.1080350927360238 0 0.36943287423380999 -0.091831761860255892 0 0.39367607516355407 -0.1027167814206215 0 0.38503198072916017 -0.095518319682475539 0 0.37913736469732179 -0.1080350927360238 0 0.37913736469732179 -0.1080350927360238 0 0.39603013439035978 -0.1190423768407534 0 0.36975291785812858 -0.13163252373967119 0 0.39367607516355407 -0.1027167814206215 0 0.37913736469732179 -0.1080350927360238 0 0.39603013439035978 -0.1190423768407534 0 0.41302172124407682 -0.01411437040648931 0 0.42919576027871942 -0.019618364266303499 0 0.41238507638407251 -0.028911793292995511 0 0.41302172124407682 -0.01411437040648931 0 0.42919576027871942 -0.019618364266303499 0 0.41238507638407251 -0.028911793292995511 0 0.41302172124407682 -0.01411437040648931 0 0.39930054550590721 -0.016607462510411741 0 0.40637048087386812 0.002611195799175237 0 0.42762949923624949 0.002295536690745181 0 0.41302172124407682 -0.01411437040648931 0 0.42762949923624949 0.002295536690745181 0 0.41302172124407682 -0.01411437040648931 0 0.42919576027871942 -0.019618364266303499 0 0.42762949923624949 0.002295536690745181 0 0.44955546157782078 0.0038727004442770251 0 0.42919576027871942 -0.019618364266303499 0 0.44536979931335902 -0.025122358126126589 0 0.42919576027871942 -0.019618364266303499 0 0.42945382326097842 -0.032376146323728303 0 0.41238507638407251 -0.028911793292995511 0 0.42919576027871942 -0.019618364266303499 0 0.42945382326097842 -0.032376146323728303 0 0.44536979931335902 -0.025122358126126589 0 0.42919576027871942 -0.019618364266303499 0 0.44301987851254099 -0.041400807496968027 0 0.42945382326097842 -0.032376146323728303 0 0.41729860181619999 -0.0468274084362479 0 0.44301987851254099 -0.041400807496968027 0 0.41729860181619999 -0.0468274084362479 0 0.44301987851254099 -0.041400807496968027 0 0.43901893515296542 -0.069116275138168273 0 0.42559425367452769 -0.062660465864126824 0 0.44301987851254099 -0.041400807496968027 0 0.42559425367452769 -0.062660465864126824 0 0.41729860181619999 -0.0468274084362479 0 0.41081988097659311 -0.06456242736816678 0 0.41729860181619999 -0.0468274084362479 0 0.39157732511985838 -0.05225400937552438 0 0.42559425367452769 -0.062660465864126824 0 0.41081988097659311 -0.06456242736816678 0 0.41729860181619999 -0.0468274084362479 0 0.41238507638407251 -0.028911793292995511 0 0.42945382326097842 -0.032376146323728303 0 0.41729860181619999 -0.0468274084362479 0 0.41238507638407251 -0.028911793292995511 0 0.41729860181619999 -0.0468274084362479 0 0.40163774048988632 -0.040023938460184982 0 0.41238507638407251 -0.028911793292995511 0 0.40163774048988632 -0.040023938460184982 0 0.39660954412444721 -0.030612726932077571 0 0.41729860181619999 -0.0468274084362479 0 0.40163774048988632 -0.040023938460184982 0 0.39157732511985838 -0.05225400937552438 0 0.40163774048988632 -0.040023938460184982 0 0.39157732511985838 -0.05225400937552438 0 0.38837136848822568 -0.03937931764736459 0 0.40163774048988632 -0.040023938460184982 0 0.38837136848822568 -0.03937931764736459 0 0.39660954412444721 -0.030612726932077571 0 0.41081988097659311 -0.06456242736816678 0 0.39454082169636068 -0.06302395268715362 0 0.39157732511985838 -0.05225400937552438 0 0.41081988097659311 -0.06456242736816678 0 0.39157732511985838 -0.05225400937552438 0 0.41729860181619999 -0.0468274084362479 0 0.39157732511985838 -0.05225400937552438 0 0.39157732511985838 -0.05225400937552438 0 0.37531466612392239 -0.041851669578041699 0 0.39157732511985838 -0.05225400937552438 0 0.37507483498067928 -0.055735657255873157 0 0.37531466612392239 -0.041851669578041699 0 0.39454082169636068 -0.06302395268715362 0 0.39157732511985838 -0.05225400937552438 0 0.37507483498067928 -0.055735657255873157 0 0.39454082169636068 -0.06302395268715362 0 0.37507483498067928 -0.055735657255873157 0 0.37059434791894069 -0.064116393228243584 0 0.39157732511985838 -0.05225400937552438 0 0.37507483498067928 -0.055735657255873157 0 0.39157732511985838 -0.05225400937552438 0 0.38837136848822568 -0.03937931764736459 0 0.37531466612392239 -0.041851669578041699 0 0.38837136848822568 -0.03937931764736459 0 0.37531466612392239 -0.041851669578041699 0 0.38161366734959201 -0.024878294758507689 0 0.38837136848822568 -0.03937931764736459 0 0.38161366734959201 -0.024878294758507689 0 0.39660954412444721 -0.030612726932077571 0 0.41238507638407251 -0.028911793292995511 0 0.39660954412444721 -0.030612726932077571 0 0.39930054550590721 -0.016607462510411741 0 0.38161366734959201 -0.024878294758507689 0 0.39660954412444721 -0.030612726932077571 0 0.39930054550590721 -0.016607462510411741 0 0.40637048087386812 0.002611195799175237 0 0.41302172124407682 -0.01411437040648931 0 0.39930054550590721 -0.016607462510411741 0 0.40637048087386812 0.002611195799175237 0 0.39930054550590721 -0.016607462510411741 0 0.3858027830593872 -0.0037387854715756311 0 0.37462175331238712 0.01092581316495669 0 0.3858027830593872 -0.0037387854715756311 0 0.36683688022018629 -0.01026175830780119 0 0.38161366734959201 -0.024878294758507689 0 0.3858027830593872 -0.0037387854715756311 0 0.36683688022018629 -0.01026175830780119 0 0.38161366734959201 -0.024878294758507689 0 0.39930054550590721 -0.016607462510411741 0 0.3858027830593872 -0.0037387854715756311 0 0.38161366734959201 -0.024878294758507689 0 0.36683688022018629 -0.01026175830780119 0 0.35905200712798618 -0.03144932978055931 0 0.36683688022018629 -0.01026175830780119 0 0.35905200712798618 -0.03144932978055931 0 0.34172845812568481 -0.020368396258844641 0 0.3404768300867092 -0.037028843544855368 0 0.35905200712798618 -0.03144932978055931 0 0.34172845812568481 -0.020368396258844641 0 0.35905200712798618 -0.03144932978055931 0 0.36683688022018629 -0.01026175830780119 0 0.34172845812568481 -0.020368396258844641 0 0.35905200712798618 -0.03144932978055931 0 0.35432575154972962 0.00082039722178780833 0 0.33798245883551381 0.0043188676087121307 0 0.34172845812568481 -0.020368396258844641 0 0.35432575154972962 0.00082039722178780833 0 0.36683688022018629 -0.01026175830780119 0 0.34172845812568481 -0.020368396258844641 0 0.34172845812568481 -0.020368396258844641 0 0.32440490912338321 -0.0092874627371301449 0 0.33798245883551381 0.0043188676087121307 0 0.34172845812568481 -0.020368396258844641 0 0.32440490912338321 -0.0092874627371301449 0 0.34172845812568481 -0.020368396258844641 0 0.32610803175860881 -0.025706845642830489 0 0.3404768300867092 -0.037028843544855368 0 0.34172845812568481 -0.020368396258844641 0 0.32610803175860881 -0.025706845642830489 0 0.32440490912338321 -0.0092874627371301449 0 0.32610803175860881 -0.025706845642830489 0 0.32440490912338321 -0.0092874627371301449 0 0.30694127855221409 -0.018698372766467072 0 0.30708136012108112 0.0017934707845836909 0 0.32440490912338321 -0.0092874627371301449 0 0.30694127855221409 -0.018698372766467072 0 0.33798245883551381 0.0043188676087121307 0 0.30708136012108112 0.0017934707845836909 0 0.32440490912338321 -0.0092874627371301449 0 0.30708136012108112 0.0017934707845836909 0 0.32440490912338321 -0.0092874627371301449 0 0.32550444856477911 -0.044334853646969173 0 0.33761809430844242 -0.051984554164981288 0 0.31888050602966961 -0.066475583894078732 0 0.32550444856477911 -0.044334853646969173 0 0.31888050602966961 -0.066475583894078732 0 0.30342257757116459 -0.041289507187694023 0 0.32610803175860881 -0.025706845642830489 0 0.32550444856477911 -0.044334853646969173 0 0.30342257757116459 -0.041289507187694023 0 0.32550444856477911 -0.044334853646969173 0 0.3404768300867092 -0.037028843544855368 0 0.33761809430844242 -0.051984554164981288 0 0.32610803175860881 -0.025706845642830489 0 0.32550444856477911 -0.044334853646969173 0 0.3404768300867092 -0.037028843544855368 0 0.3404768300867092 -0.037028843544855368 0 0.33761809430844242 -0.051984554164981288 0 0.35284994063475439 -0.048329081774947318 0 0.33761809430844242 -0.051984554164981288 0 0.34664787414152048 -0.06520883376933459 0 0.31888050602966961 -0.066475583894078732 0 0.33761809430844242 -0.051984554164981288 0 0.35284994063475439 -0.048329081774947318 0 0.34664787414152048 -0.06520883376933459 0 0.35284994063475439 -0.048329081774947318 0 0.34664787414152048 -0.06520883376933459 0 0.35284994063475439 -0.048329081774947318 0 0.35857234484150002 -0.059217305136221678 0 0.34664787414152048 -0.06520883376933459 0 0.35284994063475439 -0.048329081774947318 0 0.35857234484150002 -0.059217305136221678 0 0.36479286821521251 -0.048477119647853152 0 0.35284994063475439 -0.048329081774947318 0 0.35905200712798618 -0.03144932978055931 0 0.3404768300867092 -0.037028843544855368 0 0.35284994063475439 -0.048329081774947318 0 0.35905200712798618 -0.03144932978055931 0 0.35284994063475439 -0.048329081774947318 0 0.35905200712798618 -0.03144932978055931 0 0.36479286821521251 -0.048477119647853152 0 0.37531466612392239 -0.041851669578041699 0 0.35905200712798618 -0.03144932978055931 0 0.36479286821521251 -0.048477119647853152 0 0.37531466612392239 -0.041851669578041699 0 0.38161366734959201 -0.024878294758507689 0 0.35905200712798618 -0.03144932978055931 0 0.37531466612392239 -0.041851669578041699 0 0.35905200712798618 -0.03144932978055931 0 0.37507483498067928 -0.055735657255873157 0 0.35857234484150002 -0.059217305136221678 0 0.37059434791894069 -0.064116393228243584 0 0.37507483498067928 -0.055735657255873157 0 0.35857234484150002 -0.059217305136221678 0 0.36479286821521251 -0.048477119647853152 0 0.37507483498067928 -0.055735657255873157 0 0.35857234484150002 -0.059217305136221678 0 0.37507483498067928 -0.055735657255873157 0 0.37531466612392239 -0.041851669578041699 0 0.36479286821521251 -0.048477119647853152 0 0.37059434791894069 -0.064116393228243584 0 0.36385617452278962 -0.072760436840764914 0 0.35576317270759789 -0.071878716265565995 0 0.36385617452278962 -0.072760436840764914 0 0.35872798479113899 -0.080387130354410391 0 0.35576317270759789 -0.071878716265565995 0 0.36385617452278962 -0.072760436840764914 0 0.37137938466941361 -0.07639417755674513 0 0.35872798479113899 -0.080387130354410391 0 0.37059434791894069 -0.064116393228243584 0 0.36385617452278962 -0.072760436840764914 0 0.37137938466941361 -0.07639417755674513 0 0.38142803766637462 -0.070837073325973748 0 0.37059434791894069 -0.064116393228243584 0 0.37137938466941361 -0.07639417755674513 0 0.37137938466941361 -0.07639417755674513 0 0.36943287423380999 -0.091831761860255892 0 0.35872798479113899 -0.080387130354410391 0 0.35872798479113899 -0.080387130354410391 0 0.34966612508742922 -0.094214553971650072 0 0.34106986615546497 -0.080390127218887275 0 0.36943287423380999 -0.091831761860255892 0 0.35872798479113899 -0.080387130354410391 0 0.34966612508742922 -0.094214553971650072 0 0.35857234484150002 -0.059217305136221678 0 0.37059434791894069 -0.064116393228243584 0 0.34664787414152048 -0.06520883376933459 0 0.37059434791894069 -0.064116393228243584 0 0.34664787414152048 -0.06520883376933459 0 0.35872798479113899 -0.080387130354410391 0 0.35576317270759789 -0.071878716265565995 0 0.34106986615546497 -0.080390127218887275 0 0.37059434791894069 -0.064116393228243584 0 0.34664787414152048 -0.06520883376933459 0 0.35576317270759789 -0.071878716265565995 0 0.34664787414152048 -0.06520883376933459 0 0.34106986615546497 -0.080390127218887275 0 0.34664787414152048 -0.06520883376933459 0 0.35576317270759789 -0.071878716265565995 0 0.34106986615546497 -0.080390127218887275 0 0.37913736469732179 -0.1080350927360238 0 0.35805547954356698 -0.1067119311819808 0 0.36975291785812858 -0.13163252373967119 0 0.37913736469732179 -0.1080350927360238 0 0.36943287423380999 -0.091831761860255892 0 0.35805547954356698 -0.1067119311819808 0 0.35805547954356698 -0.1067119311819808 0 0.34966612508742922 -0.094214553971650072 0 0.337580632413502 -0.1089147084979864 0 0.36943287423380999 -0.091831761860255892 0 0.35805547954356698 -0.1067119311819808 0 0.34966612508742922 -0.094214553971650072 0 0.35805547954356698 -0.1067119311819808 0 0.34763782300698559 -0.1207078994522857 0 0.337580632413502 -0.1089147084979864 0 0.35805547954356698 -0.1067119311819808 0 0.34763782300698559 -0.1207078994522857 0 0.36975291785812858 -0.13163252373967119 0 0.3217771338976137 -0.1041390471203871 0 0.32646017672213951 -0.1236171928770371 0 0.29506387445875742 -0.1134376211602168 0 0.34763782300698559 -0.1207078994522857 0 0.337580632413502 -0.1089147084979864 0 0.32646017672213951 -0.1236171928770371 0 0.337580632413502 -0.1089147084979864 0 0.3217771338976137 -0.1041390471203871 0 0.32646017672213951 -0.1236171928770371 0 0.337580632413502 -0.1089147084979864 0 0.33549185816940708 -0.095571420668438975 0 0.3217771338976137 -0.1041390471203871 0 0.34966612508742922 -0.094214553971650072 0 0.337580632413502 -0.1089147084979864 0 0.33549185816940708 -0.095571420668438975 0 0.33549185816940708 -0.095571420668438975 0 0.3217771338976137 -0.1041390471203871 0 0.32446372040606047 -0.084114879520651553 0 0.3217771338976137 -0.1041390471203871 0 0.32446372040606047 -0.084114879520651553 0 0.31003818869708311 -0.093017219462561446 0 0.34664787414152048 -0.06520883376933459 0 0.34106986615546497 -0.080390127218887275 0 0.31888050602966961 -0.066475583894078732 0 0.34106986615546497 -0.080390127218887275 0 0.32446372040606047 -0.084114879520651553 0 0.31888050602966961 -0.066475583894078732 0 0.34664787414152048 -0.06520883376933459 0 0.31888050602966961 -0.066475583894078732 0 0.33549185816940708 -0.095571420668438975 0 0.34106986615546497 -0.080390127218887275 0 0.32446372040606047 -0.084114879520651553 0 0.34966612508742922 -0.094214553971650072 0 0.33549185816940708 -0.095571420668438975 0 0.34106986615546497 -0.080390127218887275 0 0.33549185816940708 -0.095571420668438975 0 0.34106986615546497 -0.080390127218887275 0 0.32446372040606047 -0.084114879520651553 0 0.31888050602966961 -0.066475583894078732 0 0.31003818869708311 -0.093017219462561446 0 0.31003818869708311 -0.093017219462561446 0 0.29111313791781862 -0.067742334018823944 0 0.27381848004893822 -0.092462685076842688 0 0.31888050602966961 -0.066475583894078732 0 0.31003818869708311 -0.093017219462561446 0 0.29111313791781862 -0.067742334018823944 0 0.31888050602966961 -0.066475583894078732 0 0.29111313791781862 -0.067742334018823944 0 0.31003818869708311 -0.093017219462561446 0 0.29506387445875742 -0.1134376211602168 0 0.27381848004893822 -0.092462685076842688 0 0.3217771338976137 -0.1041390471203871 0 0.31003818869708311 -0.093017219462561446 0 0.29506387445875742 -0.1134376211602168 0 0.31003818869708311 -0.093017219462561446 0 0.29506387445875742 -0.1134376211602168 0 0.29506387445875742 -0.1134376211602168 0 0.28008956022043169 -0.13385802285787221 0 0.29506387445875742 -0.1134376211602168 0 0.27419538107281621 -0.11625269286826689 0 0.28008956022043169 -0.13385802285787221 0 0.29506387445875742 -0.1134376211602168 0 0.27419538107281621 -0.11625269286826689 0 0.27381848004893822 -0.092462685076842688 0 0.27419538107281621 -0.11625269286826689 0 0.25438795154033272 -0.11315316595979349 0 0.27381848004893822 -0.092462685076842688 0 0.25438795154033272 -0.11315316595979349 0 0.27381848004893822 -0.092462685076842688 0 0.24712177919751571 -0.095008000451243552 0 0.27419538107281621 -0.11625269286826689 0 0.25438795154033272 -0.11315316595979349 0 0.2591848636261127 -0.13377228979616429 0 0.29111313791781862 -0.067742334018823944 0 0.26888002152317819 -0.064592026222417595 0 0.27381848004893822 -0.092462685076842688 0 0.27381848004893822 -0.092462685076842688 0 0.25001670439357238 -0.075528839703814757 0 0.24712177919751571 -0.095008000451243552 0 0.26888002152317819 -0.064592026222417595 0 0.27381848004893822 -0.092462685076842688 0 0.25001670439357238 -0.075528839703814757 0 0.26888002152317819 -0.064592026222417595 0 0.25001670439357238 -0.075528839703814757 0 0.2494154930488493 -0.056303945721135243 0 0.26888002152317819 -0.064592026222417595 0 0.26397613631447059 -0.036617853195912521 0 0.2494154930488493 -0.056303945721135243 0 0.29111313791781862 -0.067742334018823944 0 0.26888002152317819 -0.064592026222417595 0 0.28258412430888152 -0.045530782366102501 0 0.26888002152317819 -0.064592026222417595 0 0.26397613631447059 -0.036617853195912521 0 0.28258412430888152 -0.045530782366102501 0 0.26397613631447059 -0.036617853195912521 0 0.28552874821777602 -0.017412191205664441 0 0.28258412430888152 -0.045530782366102501 0 0.26397613631447059 -0.036617853195912521 0 0.26202194919476351 -0.010369716697998139 0 0.24501485571850801 -0.022870795216477929 0 0.26202194919476351 -0.010369716697998139 0 0.24501485571850801 -0.022870795216477929 0 0.2445691430989767 -0.0075558103417399432 0 0.2499188484388136 0.0061028047584332926 0 0.26202194919476351 -0.010369716697998139 0 0.2445691430989767 -0.0075558103417399432 0 0.27956122687258528 0.001718918818363136 0 0.2650069475916339 0.0079474328089130467 0 0.26202194919476351 -0.010369716697998139 0 0.27956122687258528 0.001718918818363136 0 0.26202194919476351 -0.010369716697998139 0 0.28552874821777602 -0.017412191205664441 0 0.26397613631447059 -0.036617853195912521 0 0.26202194919476351 -0.010369716697998139 0 0.28552874821777602 -0.017412191205664441 0 0.26397613631447059 -0.036617853195912521 0 0.28552874821777602 -0.017412191205664441 0 0.30708136012108112 0.0017934707845836909 0 0.28552874821777602 -0.017412191205664441 0 0.30708136012108112 0.0017934707845836909 0 0.27956122687258528 0.001718918818363136 0 0.28552874821777602 -0.017412191205664441 0 0.30708136012108112 0.0017934707845836909 0 0.28552874821777602 -0.017412191205664441 0 0.30694127855221409 -0.018698372766467072 0 0.28552874821777602 -0.017412191205664441 0 0.30694127855221409 -0.018698372766467072 0 0.30342257757116459 -0.041289507187694023 0 0.32610803175860881 -0.025706845642830489 0 0.30694127855221409 -0.018698372766467072 0 0.30342257757116459 -0.041289507187694023 0 0.31888050602966961 -0.066475583894078732 0 0.29111313791781862 -0.067742334018823944 0 0.30342257757116459 -0.041289507187694023 0 0.29111313791781862 -0.067742334018823944 0 0.30342257757116459 -0.041289507187694023 0 0.28258412430888152 -0.045530782366102501 0 0.28552874821777602 -0.017412191205664441 0 0.30342257757116459 -0.041289507187694023 0 0.28258412430888152 -0.045530782366102501 0 0.28867091364617498 -0.2099606654842982 0 0.29884746532417189 -0.2212997749429286 0 0.27944013922048949 -0.223957304896821 0 0.28867091364617498 -0.2099606654842982 0 0.30234749087593049 -0.20714650872650089 0 0.29884746532417189 -0.2212997749429286 0 0.28867091364617498 -0.2099606654842982 0 0.29340148055611942 -0.1908748977422691 0 0.27445824310048039 -0.2033648260880711 0 0.28867091364617498 -0.2099606654842982 0 0.29340148055611942 -0.1908748977422691 0 0.30234749087593049 -0.20714650872650089 0 0.29340148055611942 -0.1908748977422691 0 0.31503175496228902 -0.1989629334868121 0 0.29340148055611942 -0.1908748977422691 0 0.30234749087593049 -0.20714650872650089 0 0.31503175496228902 -0.1989629334868121 0 0.29340148055611942 -0.1908748977422691 0 0.30772423249985592 -0.18553831051488881 0 0.31503175496228902 -0.1989629334868121 0 0.30234749087593049 -0.20714650872650089 0 0.29884746532417189 -0.2212997749429286 0 0.31614762556420228 -0.21441186100879089 0 0.30234749087593049 -0.20714650872650089 0 0.31614762556420228 -0.21441186100879089 0 0.31503175496228902 -0.1989629334868121 0 0.29884746532417189 -0.2212997749429286 0 0.31094627094768212 -0.2356434043300856 0 0.29081508848844612 -0.23739885027380339 0 0.29884746532417189 -0.2212997749429286 0 0.31094627094768212 -0.2356434043300856 0 0.31614762556420228 -0.21441186100879089 0 0.30606261329748502 -0.24720332580829299 0 0.31036115772424411 -0.23702840373079731 0 0.29129901267051078 -0.25762639207889387 0 0.31036115772424411 -0.23702840373079731 0 0.31094627094768212 -0.2356434043300856 0 0.29129901267051078 -0.25762639207889387 0 0.31094627094768212 -0.2356434043300856 0 0.29081508848844612 -0.23739885027380339 0 0.29129901267051078 -0.25762639207889387 0 0.31094627094768212 -0.2356434043300856 0 0.29129901267051078 -0.25762639207889387 0 0.30606261329748502 -0.24720332580829299 0 0.31036115772424411 -0.23702840373079731 0 0.31686679269906531 -0.24441094090220611 0 0.31036115772424411 -0.23702840373079731 0 0.31094627094768212 -0.2356434043300856 0 0.29081508848844612 -0.23739885027380339 0 0.2834140221086216 -0.24794017853539199 0 0.29129901267051078 -0.25762639207889387 0 0.29081508848844612 -0.23739885027380339 0 0.2834140221086216 -0.24794017853539199 0 0.27844231374015233 -0.23922515265782321 0 0.29884746532417189 -0.2212997749429286 0 0.29081508848844612 -0.23739885027380339 0 0.27944013922048949 -0.223957304896821 0 0.29081508848844612 -0.23739885027380339 0 0.27944013922048949 -0.223957304896821 0 0.27844231374015233 -0.23922515265782321 0 0.27944013922048949 -0.223957304896821 0 0.26623485830128701 -0.23681642226343411 0 0.25961374711184909 -0.21923287335733271 0 0.27944013922048949 -0.223957304896821 0 0.27844231374015233 -0.23922515265782321 0 0.26623485830128701 -0.23681642226343411 0 0.2834140221086216 -0.24794017853539199 0 0.27383634853502509 -0.24987368716360839 0 0.27844231374015233 -0.23922515265782321 0 0.27383634853502509 -0.24987368716360839 0 0.27844231374015233 -0.23922515265782321 0 0.26623485830128701 -0.23681642226343411 0 0.26623485830128701 -0.23681642226343411 0 0.25073707062284067 -0.23306200735045551 0 0.25533953057736541 -0.25554750815456378 0 0.27383634853502509 -0.24987368716360839 0 0.26623485830128701 -0.23681642226343411 0 0.25533953057736541 -0.25554750815456378 0 0.25073707062284067 -0.23306200735045551 0 0.25961374711184909 -0.21923287335733271 0 0.23968282932820409 -0.2224370297676265 0 0.26623485830128701 -0.23681642226343411 0 0.25073707062284067 -0.23306200735045551 0 0.25961374711184909 -0.21923287335733271 0 0.25961374711184909 -0.21923287335733271 0 0.25969976677139711 -0.20452278164066859 0 0.27445824310048039 -0.2033648260880711 0 0.25961374711184909 -0.21923287335733271 0 0.25969976677139711 -0.20452278164066859 0 0.24775799106273511 -0.21030447081815221 0 0.25969976677139711 -0.20452278164066859 0 0.24621610158899651 -0.19762518132003859 0 0.24775799106273511 -0.21030447081815221 0 0.27944013922048949 -0.223957304896821 0 0.25961374711184909 -0.21923287335733271 0 0.27445824310048039 -0.2033648260880711 0 0.28867091364617498 -0.2099606654842982 0 0.27944013922048949 -0.223957304896821 0 0.27445824310048039 -0.2033648260880711 0 0.29340148055611942 -0.1908748977422691 0 0.27445824310048039 -0.2033648260880711 0 0.27177120614994982 -0.18278686199772609 0 0.27445824310048039 -0.2033648260880711 0 0.25888432277192042 -0.1917178516309801 0 0.27177120614994982 -0.18278686199772609 0 0.25969976677139711 -0.20452278164066859 0 0.27445824310048039 -0.2033648260880711 0 0.25888432277192042 -0.1917178516309801 0 0.25969976677139711 -0.20452278164066859 0 0.25888432277192042 -0.1917178516309801 0 0.24621610158899651 -0.19762518132003859 0 0.25888432277192042 -0.1917178516309801 0 0.25020546794830067 -0.18728268196615061 0 0.24621610158899651 -0.19762518132003859 0 0.25888432277192042 -0.1917178516309801 0 0.25014093174378021 -0.17469882625318309 0 0.27177120614994982 -0.18278686199772609 0 0.25014093174378021 -0.17469882625318309 0 0.27177120614994982 -0.18278686199772609 0 0.25014093174378021 -0.17469882625318309 0 0.26644766122766589 -0.16988807477276291 0 0.27177120614994982 -0.18278686199772609 0 0.25888432277192042 -0.1917178516309801 0 0.25020546794830067 -0.18728268196615061 0 0.25014093174378021 -0.17469882625318309 0 0.25014093174378021 -0.17469882625318309 0 0.2651152459821059 -0.1542784245555277 0 0.25014093174378021 -0.17469882625318309 0 0.26644766122766589 -0.16988807477276291 0 0.2651152459821059 -0.1542784245555277 0 0.25014093174378021 -0.17469882625318309 0 0.2651152459821059 -0.1542784245555277 0 0.24727202298876569 -0.15548751238632391 0 0.28001302983102377 -0.1654654710899158 0 0.2651152459821059 -0.1542784245555277 0 0.28469167226497799 -0.15049035021319609 0 0.26644766122766589 -0.16988807477276291 0 0.28001302983102377 -0.1654654710899158 0 0.2651152459821059 -0.1542784245555277 0 0.26644766122766589 -0.16988807477276291 0 0.28001302983102377 -0.1654654710899158 0 0.27177120614994982 -0.18278686199772609 0 0.25438795154033272 -0.11315316595979349 0 0.2591848636261127 -0.13377228979616429 0 0.2383777443131552 -0.1325642663653131 0 0.2591848636261127 -0.13377228979616429 0 0.2651152459821059 -0.1542784245555277 0 0.24727202298876569 -0.15548751238632391 0 0.2591848636261127 -0.13377228979616429 0 0.2651152459821059 -0.1542784245555277 0 0.28008956022043169 -0.13385802285787221 0 0.2651152459821059 -0.1542784245555277 0 0.28008956022043169 -0.13385802285787221 0 0.28469167226497799 -0.15049035021319609 0 0.2651152459821059 -0.1542784245555277 0 0.28008956022043169 -0.13385802285787221 0 0.27419538107281621 -0.11625269286826689 0 0.2591848636261127 -0.13377228979616429 0 0.28008956022043169 -0.13385802285787221 0 0.32646017672213951 -0.1236171928770371 0 0.29506387445875742 -0.1134376211602168 0 0.30431866796340779 -0.1384375194870324 0 0.29506387445875742 -0.1134376211602168 0 0.28008956022043169 -0.13385802285787221 0 0.30431866796340779 -0.1384375194870324 0 0.28469167226497799 -0.15049035021319609 0 0.30431866796340779 -0.1384375194870324 0 0.29850509733249869 -0.15922967372770649 0 0.28008956022043169 -0.13385802285787221 0 0.28469167226497799 -0.15049035021319609 0 0.30431866796340779 -0.1384375194870324 0 0.30431866796340779 -0.1384375194870324 0 0.29850509733249869 -0.15922967372770649 0 0.3148019347161809 -0.15652162208305781 0 0.28001302983102377 -0.1654654710899158 0 0.27177120614994982 -0.18278686199772609 0 0.29374369354304308 -0.17573518182323239 0 0.29340148055611942 -0.1908748977422691 0 0.27177120614994982 -0.18278686199772609 0 0.29374369354304308 -0.17573518182323239 0 0.29340148055611942 -0.1908748977422691 0 0.27177120614994982 -0.18278686199772609 0 0.28001302983102377 -0.1654654710899158 0 0.28469167226497799 -0.15049035021319609 0 0.29850509733249869 -0.15922967372770649 0 0.28001302983102377 -0.1654654710899158 0 0.29374369354304308 -0.17573518182323239 0 0.29850509733249869 -0.15922967372770649 0 0.31104711488881098 -0.1705158758668886 0 0.29850509733249869 -0.15922967372770649 0 0.3148019347161809 -0.15652162208305781 0 0.29374369354304308 -0.17573518182323239 0 0.31104711488881098 -0.1705158758668886 0 0.29850509733249869 -0.15922967372770649 0 0.29374369354304308 -0.17573518182323239 0 0.31104711488881098 -0.1705158758668886 0 0.30772423249985592 -0.18553831051488881 0 0.29340148055611942 -0.1908748977422691 0 0.29374369354304308 -0.17573518182323239 0 0.30772423249985592 -0.18553831051488881 0 0.31104711488881098 -0.1705158758668886 0 0.30772423249985592 -0.18553831051488881 0 0.32171133532765039 -0.19170121088419159 0 0.31104711488881098 -0.1705158758668886 0 0.32727504509109873 -0.16899056075959229 0 0.32171133532765039 -0.19170121088419159 0 0.32727504509109873 -0.16899056075959229 0 0.32171133532765039 -0.19170121088419159 0 0.32727504509109873 -0.16899056075959229 0 0.33317706416483861 -0.18392401896171909 0 0.32171133532765039 -0.19170121088419159 0 0.31104711488881098 -0.1705158758668886 0 0.3148019347161809 -0.15652162208305781 0 0.32727504509109873 -0.16899056075959229 0 0.3148019347161809 -0.15652162208305781 0 0.32727504509109873 -0.16899056075959229 0 0.33283875485454689 -0.14627991063499279 0 0.34368493516678439 -0.17056227002423729 0 0.33283875485454689 -0.14627991063499279 0 0.35460049233467289 -0.15425097791492179 0 0.32727504509109873 -0.16899056075959229 0 0.34368493516678439 -0.17056227002423729 0 0.33283875485454689 -0.14627991063499279 0 0.32727504509109873 -0.16899056075959229 0 0.33283875485454689 -0.14627991063499279 0 0.34368493516678439 -0.17056227002423729 0 0.33317706416483861 -0.18392401896171909 0 0.34282240121528862 -0.1920863064560849 0 0.32727504509109873 -0.16899056075959229 0 0.34368493516678439 -0.17056227002423729 0 0.33317706416483861 -0.18392401896171909 0 0.32646017672213951 -0.1236171928770371 0 0.30431866796340779 -0.1384375194870324 0 0.33283875485454689 -0.14627991063499279 0 0.30431866796340779 -0.1384375194870324 0 0.3148019347161809 -0.15652162208305781 0 0.33283875485454689 -0.14627991063499279 0 0.32646017672213951 -0.1236171928770371 0 0.33283875485454689 -0.14627991063499279 0 0.34821424003322909 -0.13638651860219531 0 0.34763782300698559 -0.1207078994522857 0 0.32646017672213951 -0.1236171928770371 0 0.34821424003322909 -0.13638651860219531 0 0.35460049233467289 -0.15425097791492179 0 0.36975291785812858 -0.13163252373967119 0 0.37432583588982249 -0.16347144091768989 0 0.34763782300698559 -0.1207078994522857 0 0.34821424003322909 -0.13638651860219531 0 0.36975291785812858 -0.13163252373967119 0 0.34821424003322909 -0.13638651860219531 0 0.35460049233467289 -0.15425097791492179 0 0.36975291785812858 -0.13163252373967119 0 0.33283875485454689 -0.14627991063499279 0 0.34821424003322909 -0.13638651860219531 0 0.35460049233467289 -0.15425097791492179 0 0.34368493516678439 -0.17056227002423729 0 0.35878627020552639 -0.17717320357074451 0 0.34282240121528862 -0.1920863064560849 0 0.34368493516678439 -0.17056227002423729 0 0.35460049233467289 -0.15425097791492179 0 0.35878627020552639 -0.17717320357074451 0 0.35460049233467289 -0.15425097791492179 0 0.35878627020552639 -0.17717320357074451 0 0.37432583588982249 -0.16347144091768989 0 0.35878627020552639 -0.17717320357074451 0 0.35966784830183413 -0.1938656714847454 0 0.37535936275139442 -0.18201029026888441 0 0.35878627020552639 -0.17717320357074451 0 0.37432583588982249 -0.16347144091768989 0 0.37535936275139442 -0.18201029026888441 0 0.35966784830183413 -0.1938656714847454 0 0.37589121265275333 -0.19997137728667061 0 0.37535936275139442 -0.18201029026888441 0 0.35966784830183413 -0.1938656714847454 0 0.36271971994795149 -0.20567386470075999 0 0.37589121265275333 -0.19997137728667061 0 0.36964346737784298 -0.2161361175159022 0 0.36271971994795149 -0.20567386470075999 0 0.37589121265275333 -0.19997137728667061 0 0.36964346737784298 -0.2161361175159022 0 0.36271971994795149 -0.20567386470075999 0 0.35673475732159732 -0.21890275616472199 0 0.35048731758572282 -0.2086539967151573 0 0.34896605792108948 -0.2261293116959204 0 0.35673475732159732 -0.21890275616472199 0 0.36271971994795149 -0.20567386470075999 0 0.35048731758572282 -0.2086539967151573 0 0.35673475732159732 -0.21890275616472199 0 0.35966784830183413 -0.1938656714847454 0 0.35048731758572282 -0.2086539967151573 0 0.34282240121528862 -0.1920863064560849 0 0.35878627020552639 -0.17717320357074451 0 0.35966784830183413 -0.1938656714847454 0 0.34282240121528862 -0.1920863064560849 0 0.35966784830183413 -0.1938656714847454 0 0.36271971994795149 -0.20567386470075999 0 0.35048731758572282 -0.2086539967151573 0 0.34282240121528862 -0.1920863064560849 0 0.33039160402337081 -0.1962797466844893 0 0.3364261005926667 -0.21171864456431369 0 0.33317706416483861 -0.18392401896171909 0 0.33039160402337081 -0.1962797466844893 0 0.32171133532765039 -0.19170121088419159 0 0.33317706416483861 -0.18392401896171909 0 0.34282240121528862 -0.1920863064560849 0 0.33039160402337081 -0.1962797466844893 0 0.35048731758572282 -0.2086539967151573 0 0.3327497870133389 -0.22751866027502551 0 0.35048731758572282 -0.2086539967151573 0 0.3364261005926667 -0.21171864456431369 0 0.3327497870133389 -0.22751866027502551 0 0.35048731758572282 -0.2086539967151573 0 0.34282240121528862 -0.1920863064560849 0 0.3364261005926667 -0.21171864456431369 0 0.3364261005926667 -0.21171864456431369 0 0.32619146258064241 -0.2065512469797223 0 0.32634816068253469 -0.21765828030185991 0 0.33039160402337081 -0.1962797466844893 0 0.3364261005926667 -0.21171864456431369 0 0.32619146258064241 -0.2065512469797223 0 0.32619146258064241 -0.2065512469797223 0 0.31614762556420228 -0.21441186100879089 0 0.32171133532765039 -0.19170121088419159 0 0.32619146258064241 -0.2065512469797223 0 0.32634816068253469 -0.21765828030185991 0 0.31614762556420228 -0.21441186100879089 0 0.31614762556420228 -0.21441186100879089 0 0.32171133532765039 -0.19170121088419159 0 0.31614762556420228 -0.21441186100879089 0 0.31503175496228902 -0.1989629334868121 0 0.32171133532765039 -0.19170121088419159 0 0.30772423249985592 -0.18553831051488881 0 0.31503175496228902 -0.1989629334868121 0 0.32171133532765039 -0.19170121088419159 0 0.33039160402337081 -0.1962797466844893 0 0.32619146258064241 -0.2065512469797223 0 0.32171133532765039 -0.19170121088419159 0 0.31036115772424411 -0.23702840373079731 0 0.31686679269906531 -0.24441094090220611 0 0.32022582766182572 -0.22809098868144961 0 0.31686679269906531 -0.24441094090220611 0 0.3327497870133389 -0.22751866027502551 0 0.31686679269906531 -0.24441094090220611 0 0.3327497870133389 -0.22751866027502551 0 0.32691246860915729 -0.25260621619334139 0 0.31686679269906531 -0.24441094090220611 0 0.32022582766182572 -0.22809098868144961 0 0.3327497870133389 -0.22751866027502551 0 0.31094627094768212 -0.2356434043300856 0 0.31614762556420228 -0.21441186100879089 0 0.32022582766182572 -0.22809098868144961 0 0.31094627094768212 -0.2356434043300856 0 0.31614762556420228 -0.21441186100879089 0 0.31036115772424411 -0.23702840373079731 0 0.31094627094768212 -0.2356434043300856 0 0.32022582766182572 -0.22809098868144961 0 0.32634816068253469 -0.21765828030185991 0 0.32022582766182572 -0.22809098868144961 0 0.3327497870133389 -0.22751866027502551 0 0.32634816068253469 -0.21765828030185991 0 0.31614762556420228 -0.21441186100879089 0 0.32022582766182572 -0.22809098868144961 0 0.3364261005926667 -0.21171864456431369 0 0.32634816068253469 -0.21765828030185991 0 0.3327497870133389 -0.22751866027502551 0 0.3364261005926667 -0.21171864456431369 0 0.3327497870133389 -0.22751866027502551 0 0.3327497870133389 -0.22751866027502551 0 0.34312747306158031 -0.2427163340022235 0 0.34896605792108948 -0.2261293116959204 0 0.3327497870133389 -0.22751866027502551 0 0.32691246860915729 -0.25260621619334139 0 0.3327497870133389 -0.22751866027502551 0 0.34312747306158031 -0.2427163340022235 0 0.32691246860915729 -0.25260621619334139 0 0.34312747306158031 -0.2427163340022235 0 0.36173095462321031 -0.23285481132247621 0 0.36318246928703901 -0.25209935589961419 0 0.34312747306158031 -0.2427163340022235 0 0.34896605792108948 -0.2261293116959204 0 0.36173095462321031 -0.23285481132247621 0 0.35048731758572282 -0.2086539967151573 0 0.3327497870133389 -0.22751866027502551 0 0.34896605792108948 -0.2261293116959204 0 0.34896605792108948 -0.2261293116959204 0 0.35673475732159732 -0.21890275616472199 0 0.36173095462321031 -0.23285481132247621 0 0.36964346737784298 -0.2161361175159022 0 0.36173095462321031 -0.23285481132247621 0 0.37896890779862741 -0.22743101757947659 0 0.36964346737784298 -0.2161361175159022 0 0.35673475732159732 -0.21890275616472199 0 0.36173095462321031 -0.23285481132247621 0 0.36173095462321031 -0.23285481132247621 0 0.37875199378109348 -0.24405941084795971 0 0.37896890779862741 -0.22743101757947659 0 0.36173095462321031 -0.23285481132247621 0 0.37875199378109348 -0.24405941084795971 0 0.36318246928703901 -0.25209935589961419 0 0.37875199378109348 -0.24405941084795971 0 0.39067828925905551 -0.23463233300475389 0 0.37896890779862741 -0.22743101757947659 0 0.37875199378109348 -0.24405941084795971 0 0.39772619018718591 -0.24635970341188149 0 0.39067828925905551 -0.23463233300475389 0 0.37875199378109348 -0.24405941084795971 0 0.39772619018718591 -0.24635970341188149 0 0.3901597669034792 -0.25571781272626481 0 0.39772619018718591 -0.24635970341188149 0 0.40324638315364109 -0.2336579415029538 0 0.41598433085418629 -0.2446668760272632 0 0.39772619018718591 -0.24635970341188149 0 0.39067828925905551 -0.23463233300475389 0 0.40324638315364109 -0.2336579415029538 0 0.40324638315364109 -0.2336579415029538 0 0.39469797137472939 -0.22165359168149781 0 0.41505086571252819 -0.22082600795361579 0 0.39067828925905551 -0.23463233300475389 0 0.40324638315364109 -0.2336579415029538 0 0.39469797137472939 -0.22165359168149781 0 0.39469797137472939 -0.22165359168149781 0 0.37896890779862741 -0.22743101757947659 0 0.38339887020590252 -0.21380052982317649 0 0.39067828925905551 -0.23463233300475389 0 0.39469797137472939 -0.22165359168149781 0 0.37896890779862741 -0.22743101757947659 0 0.36964346737784298 -0.2161361175159022 0 0.37896890779862741 -0.22743101757947659 0 0.38339887020590252 -0.21380052982317649 0 0.36964346737784298 -0.2161361175159022 0 0.38339887020590252 -0.21380052982317649 0 0.37589121265275333 -0.19997137728667061 0 0.38339887020590252 -0.21380052982317649 0 0.37589121265275333 -0.19997137728667061 0 0.39779279182555899 -0.20381054505233509 0 0.37589121265275333 -0.19997137728667061 0 0.38897913592061112 -0.1894595993959402 0 0.37535936275139442 -0.18201029026888441 0 0.37589121265275333 -0.19997137728667061 0 0.38897913592061112 -0.1894595993959402 0 0.39779279182555899 -0.20381054505233509 0 0.38897913592061112 -0.1894595993959402 0 0.39779279182555899 -0.20381054505233509 0 0.40597132090477972 -0.18532264382627239 0 0.39469797137472939 -0.22165359168149781 0 0.39779279182555899 -0.20381054505233509 0 0.41505086571252819 -0.22082600795361579 0 0.39469797137472939 -0.22165359168149781 0 0.38339887020590252 -0.21380052982317649 0 0.39779279182555899 -0.20381054505233509 0 0.39779279182555899 -0.20381054505233509 0 0.42087804306649351 -0.19696157340689069 0 0.41505086571252819 -0.22082600795361579 0 0.39779279182555899 -0.20381054505233509 0 0.42087804306649351 -0.19696157340689069 0 0.40597132090477972 -0.18532264382627239 0 0.42087804306649351 -0.19696157340689069 0 0.44379780490841209 -0.18637645353426091 0 0.43766567810794799 -0.21203297597817711 0 0.42087804306649351 -0.19696157340689069 0 0.41505086571252819 -0.22082600795361579 0 0.43766567810794799 -0.21203297597817711 0 0.43384103976775629 -0.2331683111504565 0 0.41505086571252819 -0.22082600795361579 0 0.43766567810794799 -0.21203297597817711 0 0.43384103976775629 -0.2331683111504565 0 0.4314340693450982 -0.24804011514935859 0 0.41598433085418629 -0.2446668760272632 0 0.40324638315364109 -0.2336579415029538 0 0.41598433085418629 -0.2446668760272632 0 0.41505086571252819 -0.22082600795361579 0 0.43384103976775629 -0.2331683111504565 0 0.41598433085418629 -0.2446668760272632 0 0.41505086571252819 -0.22082600795361579 0 0.36975291785812858 -0.13163252373967119 0 0.37432583588982249 -0.16347144091768989 0 0.39309049367144172 -0.14963284406994329 0 0.39603013439035978 -0.1190423768407534 0 0.39309049367144172 -0.14963284406994329 0 0.41451482434108328 -0.14147677207567719 0 0.39603013439035978 -0.1190423768407534 0 0.36975291785812858 -0.13163252373967119 0 0.39603013439035978 -0.1190423768407534 0 0.36975291785812858 -0.13163252373967119 0 0.39309049367144172 -0.14963284406994329 0 0.39129210001508652 -0.17536102808835971 0 0.41262714953417018 -0.16681292275750839 0 0.39309049367144172 -0.14963284406994329 0 0.39129210001508652 -0.17536102808835971 0 0.41262714953417018 -0.16681292275750839 0 0.37432583588982249 -0.16347144091768989 0 0.39309049367144172 -0.14963284406994329 0 0.39129210001508652 -0.17536102808835971 0 0.38897913592061112 -0.1894595993959402 0 0.37535936275139442 -0.18201029026888441 0 0.39129210001508652 -0.17536102808835971 0 0.37432583588982249 -0.16347144091768989 0 0.37535936275139442 -0.18201029026888441 0 0.39129210001508652 -0.17536102808835971 0 0.40597132090477972 -0.18532264382627239 0 0.39129210001508652 -0.17536102808835971 0 0.41262714953417018 -0.16681292275750839 0 0.38897913592061112 -0.1894595993959402 0 0.40597132090477972 -0.18532264382627239 0 0.39129210001508652 -0.17536102808835971 0 0.40597132090477972 -0.18532264382627239 0 0.42456938328665478 -0.17902244502569631 0 0.41262714953417018 -0.16681292275750839 0 0.42087804306649351 -0.19696157340689069 0 0.40597132090477972 -0.18532264382627239 0 0.42456938328665478 -0.17902244502569631 0 0.42456938328665478 -0.17902244502569631 0 0.43396219905325378 -0.15826481742665721 0 0.44379780490841209 -0.18637645353426091 0 0.42087804306649351 -0.19696157340689069 0 0.42456938328665478 -0.17902244502569631 0 0.44379780490841209 -0.18637645353426091 0 0.42456938328665478 -0.17902244502569631 0 0.43396219905325378 -0.15826481742665721 0 0.41262714953417018 -0.16681292275750839 0 0.43396219905325378 -0.15826481742665721 0 0.41262714953417018 -0.16681292275750839 0 0.39309049367144172 -0.14963284406994329 0 0.41262714953417018 -0.16681292275750839 0 0.41451482434108328 -0.14147677207567719 0 0.43396219905325378 -0.15826481742665721 0 0.41262714953417018 -0.16681292275750839 0 0.41451482434108328 -0.14147677207567719 0 0.43396219905325378 -0.15826481742665721 0 0.41451482434108328 -0.14147677207567719 0 0.4353726150392957 -0.131375969134992 0 0.41948695370241768 -0.12434390904917079 0 0.41451482434108328 -0.14147677207567719 0 0.4353726150392957 -0.131375969134992 0 0.41948695370241768 -0.12434390904917079 0 0.39603013439035978 -0.1190423768407534 0 0.41451482434108328 -0.14147677207567719 0 0.44962783577518978 -0.12258555348488399 0 0.46387200536538958 -0.12578331698489509 0 0.45529724857233761 -0.14971671209580581 0 0.46387200536538958 -0.12578331698489509 0 0.45529724857233761 -0.14971671209580581 0 0.47663229809142138 -0.14116860676495449 0 0.44962783577518978 -0.12258555348488399 0 0.4353726150392957 -0.131375969134992 0 0.45529724857233761 -0.14971671209580581 0 0.43396219905325378 -0.15826481742665721 0 0.4353726150392957 -0.131375969134992 0 0.45529724857233761 -0.14971671209580581 0 0.43396219905325378 -0.15826481742665721 0 0.45529724857233761 -0.14971671209580581 0 0.45529724857233761 -0.14971671209580581 0 0.46954664301563831 -0.16108745805076971 0 0.47663229809142138 -0.14116860676495449 0 0.45529724857233761 -0.14971671209580581 0 0.47663229809142138 -0.14116860676495449 0 0.45644746675733072 -0.1694079124992961 0 0.47290413443806822 -0.1832756482878786 0 0.46954664301563831 -0.16108745805076971 0 0.45529724857233761 -0.14971671209580581 0 0.45644746675733072 -0.1694079124992961 0 0.46954664301563831 -0.16108745805076971 0 0.43396219905325378 -0.15826481742665721 0 0.45644746675733072 -0.1694079124992961 0 0.44379780490841209 -0.18637645353426091 0 0.43396219905325378 -0.15826481742665721 0 0.45529724857233761 -0.14971671209580581 0 0.45644746675733072 -0.1694079124992961 0 0.45644746675733072 -0.1694079124992961 0 0.44379780490841209 -0.18637645353426091 0 0.47290413443806822 -0.1832756482878786 0 0.5 -0.17479064180267709 0 0.48645206721903328 -0.1618684106059135 0 0.49999999999999911 -0.1404611729239488 0 0.47290413443806822 -0.1832756482878786 0 0.48645206721903328 -0.1618684106059135 0 0.47290413443806822 -0.1832756482878786 0 0.5 -0.17479064180267709 0 0.48645206721903328 -0.1618684106059135 0 0.47290413443806822 -0.1832756482878786 0 0.48645206721903328 -0.1618684106059135 0 0.46954664301563831 -0.16108745805076971 0 0.48645206721903328 -0.1618684106059135 0 0.46954664301563831 -0.16108745805076971 0 0.47663229809142138 -0.14116860676495449 0 0.48645206721903328 -0.1618684106059135 0 0.49999999999999911 -0.1404611729239488 0 0.48645206721903328 -0.1618684106059135 0 0.47663229809142138 -0.14116860676495449 0 0.49999999999999911 -0.1404611729239488 0 0.5 -0.1155897692312126 0 0.49999999999999911 -0.1404611729239488 0 0.48800605081673759 -0.13057183592619051 0 0.47663229809142138 -0.14116860676495449 0 0.49999999999999911 -0.1404611729239488 0 0.48800605081673759 -0.13057183592619051 0 0.46387200536538958 -0.12578331698489509 0 0.47663229809142138 -0.14116860676495449 0 0.48800605081673759 -0.13057183592619051 0 0.46729867011743648 -0.21951178325502349 0 0.45330111620120928 -0.226650368218063 0 0.47464320625843481 -0.23463469838366149 0 0.45330111620120928 -0.226650368218063 0 0.45006236910442859 -0.24650894024686951 0 0.47464320625843481 -0.23463469838366149 0 0.45006236910442859 -0.24650894024686951 0 0.47464320625843481 -0.23463469838366149 0 0.46739225616387048 -0.25719021631879729 0 0.43384103976775629 -0.2331683111504565 0 0.4314340693450982 -0.24804011514935859 0 0.45006236910442859 -0.24650894024686951 0 0.43384103976775629 -0.2331683111504565 0 0.45330111620120928 -0.226650368218063 0 0.45006236910442859 -0.24650894024686951 0 0.43384103976775629 -0.2331683111504565 0 0.45330111620120928 -0.226650368218063 0 0.43766567810794799 -0.21203297597817711 0 0.45330111620120928 -0.226650368218063 0 0.43766567810794799 -0.21203297597817711 0 0.459356201657103 -0.20468288596984369 0 0.44379780490841209 -0.18637645353426091 0 0.43766567810794799 -0.21203297597817711 0 0.459356201657103 -0.20468288596984369 0 0.47290413443806822 -0.1832756482878786 0 0.459356201657103 -0.20468288596984369 0 0.44379780490841209 -0.18637645353426091 0 0.47290413443806822 -0.1832756482878786 0 0.459356201657103 -0.20468288596984369 0 0.46729867011743648 -0.21951178325502349 0 0.45330111620120928 -0.226650368218063 0 0.459356201657103 -0.20468288596984369 0 0.5 -0.17479064180267709 0 0.48189415635299898 -0.21207918044852561 0 0.5 -0.22253152374470411 0 0.47290413443806822 -0.1832756482878786 0 0.5 -0.17479064180267709 0 0.48189415635299898 -0.21207918044852561 0 0.46729867011743648 -0.21951178325502349 0 0.459356201657103 -0.20468288596984369 0 0.48189415635299898 -0.21207918044852561 0 0.47290413443806822 -0.1832756482878786 0 0.459356201657103 -0.20468288596984369 0 0.48189415635299898 -0.21207918044852561 0 0.5 -0.22253152374470411 0 0.47464320625843481 -0.23463469838366149 0 0.4789995622716352 -0.26398739225913981 0 0.48189415635299898 -0.21207918044852561 0 0.5 -0.22253152374470411 0 0.47464320625843481 -0.23463469838366149 0 0.46729867011743648 -0.21951178325502349 0 0.48189415635299898 -0.21207918044852561 0 0.47464320625843481 -0.23463469838366149 0 0.48189415635299898 -0.21207918044852561 0 0.47464320625843481 -0.23463469838366149 0 0.47464320625843481 -0.23463469838366149 0 0.46739225616387048 -0.25719021631879729 0 0.5 -0.22253152374470411 0 0.4789995622716352 -0.26398739225913981 0 0.5 -0.28893694899614142 0 0.4789995622716352 -0.26398739225913981 0 0.46739225616387048 -0.25719021631879729 0 0.46014130606930609 -0.27974573425393312 0 0.47464320625843481 -0.23463469838366149 0 0.4789995622716352 -0.26398739225913981 0 0.46739225616387048 -0.25719021631879729 0 0.45006236910442859 -0.24650894024686951 0 0.46739225616387048 -0.25719021631879729 0 0.45166011373725179 -0.26486249736520429 0 0.46739225616387048 -0.25719021631879729 0 0.46014130606930609 -0.27974573425393312 0 0.46739225616387048 -0.25719021631879729 0 0.46014130606930609 -0.27974573425393312 0 0.45166011373725179 -0.26486249736520429 0 0.44100658922641328 -0.27917580336677228 0 0.45166011373725179 -0.26486249736520429 0 0.43702088738462241 -0.26140409715000879 0 0.46014130606930609 -0.27974573425393312 0 0.44100658922641328 -0.27917580336677228 0 0.45166011373725179 -0.26486249736520429 0 0.4314340693450982 -0.24804011514935859 0 0.45006236910442859 -0.24650894024686951 0 0.43702088738462241 -0.26140409715000879 0 0.45006236910442859 -0.24650894024686951 0 0.45166011373725179 -0.26486249736520429 0 0.43702088738462241 -0.26140409715000879 0 0.45289035597474192 -0.30230125218906878 0 0.43768602170030502 -0.31512493442088108 0 0.43221711886690473 -0.29572708836194372 0 0.44100658922641328 -0.27917580336677228 0 0.45289035597474192 -0.30230125218906878 0 0.43221711886690473 -0.29572708836194372 0 0.46014130606930609 -0.27974573425393312 0 0.44100658922641328 -0.27917580336677228 0 0.45289035597474192 -0.30230125218906878 0 0.46014130606930609 -0.27974573425393312 0 0.45289035597474192 -0.30230125218906878 0 0.47182060513819968 -0.30088523185760169 0 0.46014130606930609 -0.27974573425393312 0 0.45289035597474192 -0.30230125218906878 0 0.45289035597474192 -0.30230125218906878 0 0.47182060513819968 -0.30088523185760169 0 0.45622746646057072 -0.32412237280344702 0 0.4789995622716352 -0.26398739225913981 0 0.46014130606930609 -0.27974573425393312 0 0.47182060513819968 -0.30088523185760169 0 0.5 -0.28893694899614142 0 0.47182060513819968 -0.30088523185760169 0 0.47931133316815427 -0.33576211859167993 0 0.4789995622716352 -0.26398739225913981 0 0.5 -0.28893694899614142 0 0.47182060513819968 -0.30088523185760169 0 0.5 -0.28893694899614142 0 0.47931133316815427 -0.33576211859167993 0 0.5 -0.38130570807066239 0 0.47182060513819968 -0.30088523185760169 0 0.47931133316815427 -0.33576211859167993 0 0.45622746646057072 -0.32412237280344702 0 0.47931133316815427 -0.33576211859167993 0 0.46323150534744162 -0.3737908208655526 0 0.5 -0.38130570807066239 0 0.47931133316815427 -0.33576211859167993 0 0.46323150534744162 -0.3737908208655526 0 0.45378602301920618 -0.34296689361677779 0 0.43984726109492023 -0.36169357872381652 0 0.45378602301920618 -0.34296689361677779 0 0.43674175330653731 -0.33811339200700241 0 0.43984726109492023 -0.36169357872381652 0 0.43294542103103739 -0.37369490513319281 0 0.44448847064216762 -0.37792722851700511 0 0.46323150534744162 -0.3737908208655526 0 0.43984726109492023 -0.36169357872381652 0 0.44448847064216762 -0.37792722851700511 0 0.46323150534744162 -0.3737908208655526 0 0.43984726109492023 -0.36169357872381652 0 0.45378602301920618 -0.34296689361677779 0 0.47931133316815427 -0.33576211859167993 0 0.45622746646057072 -0.32412237280344702 0 0.45378602301920618 -0.34296689361677779 0 0.45622746646057072 -0.32412237280344702 0 0.45378602301920618 -0.34296689361677779 0 0.43674175330653731 -0.33811339200700241 0 0.45622746646057072 -0.32412237280344702 0 0.43768602170030502 -0.31512493442088108 0 0.43674175330653731 -0.33811339200700241 0 0.45289035597474192 -0.30230125218906878 0 0.45622746646057072 -0.32412237280344702 0 0.43768602170030502 -0.31512493442088108 0 0.43768602170030502 -0.31512493442088108 0 0.43674175330653731 -0.33811339200700241 0 0.42168506159851699 -0.32373892393773179 0 0.43768602170030502 -0.31512493442088108 0 0.42168506159851699 -0.32373892393773179 0 0.42386739007249452 -0.30810187332738148 0 0.43674175330653731 -0.33811339200700241 0 0.4232587303595583 -0.33865214607093042 0 0.42168506159851699 -0.32373892393773179 0 0.4232587303595583 -0.33865214607093042 0 0.41340933194968188 -0.33322885350767628 0 0.42168506159851699 -0.32373892393773179 0 0.4232587303595583 -0.33865214607093042 0 0.41340933194968188 -0.33322885350767628 0 0.41558818324726049 -0.34611022705734928 0 0.41340933194968188 -0.33322885350767628 0 0.41558818324726049 -0.34611022705734928 0 0.40549844226560627 -0.33748604014650219 0 0.41340933194968188 -0.33322885350767628 0 0.40297658694815458 -0.32432151873439269 0 0.40549844226560627 -0.33748604014650219 0 0.42168506159851699 -0.32373892393773179 0 0.42386739007249452 -0.30810187332738148 0 0.41097927592400901 -0.31077959475207628 0 0.41340933194968188 -0.33322885350767628 0 0.42168506159851699 -0.32373892393773179 0 0.40297658694815458 -0.32432151873439269 0 0.42168506159851699 -0.32373892393773179 0 0.40297658694815458 -0.32432151873439269 0 0.41097927592400901 -0.31077959475207628 0 0.43294542103103739 -0.37369490513319281 0 0.42713397473703679 -0.36717069071587732 0 0.41719736483049791 -0.37546987957571992 0 0.42713397473703679 -0.36717069071587732 0 0.42310176938758642 -0.35710735637153279 0 0.41719736483049791 -0.37546987957571992 0 0.43294542103103739 -0.37369490513319281 0 0.41719736483049791 -0.37546987957571992 0 0.43984726109492023 -0.36169357872381652 0 0.42713397473703679 -0.36717069071587732 0 0.42310176938758642 -0.35710735637153279 0 0.43984726109492023 -0.36169357872381652 0 0.43294542103103739 -0.37369490513319281 0 0.42713397473703679 -0.36717069071587732 0 0.43984726109492023 -0.36169357872381652 0 0.43674175330653731 -0.33811339200700241 0 0.42310176938758642 -0.35710735637153279 0 0.43674175330653731 -0.33811339200700241 0 0.4232587303595583 -0.33865214607093042 0 0.42310176938758642 -0.35710735637153279 0 0.4232587303595583 -0.33865214607093042 0 0.42310176938758642 -0.35710735637153279 0 0.41558818324726049 -0.34611022705734928 0 0.42310176938758642 -0.35710735637153279 0 0.41558818324726049 -0.34611022705734928 0 0.40423849133781009 -0.353079827002938 0 0.41558818324726049 -0.34611022705734928 0 0.40423849133781009 -0.353079827002938 0 0.40549844226560627 -0.33748604014650219 0 0.40423849133781009 -0.353079827002938 0 0.41719736483049791 -0.37546987957571992 0 0.39849015784767849 -0.36590124129164731 0 0.40423849133781009 -0.353079827002938 0 0.41719736483049791 -0.37546987957571992 0 0.42310176938758642 -0.35710735637153279 0 0.40423849133781009 -0.353079827002938 0 0.41719736483049791 -0.37546987957571992 0 0.39849015784767849 -0.36590124129164731 0 0.41719736483049791 -0.37546987957571992 0 0.39589677235997361 -0.37787068426960541 0 0.39849015784767849 -0.36590124129164731 0 0.38556081211293258 -0.36809336916793711 0 0.39589677235997361 -0.37787068426960541 0 0.39849015784767849 -0.36590124129164731 0 0.38996643839202799 -0.35476889484085011 0 0.38556081211293258 -0.36809336916793711 0 0.40423849133781009 -0.353079827002938 0 0.38996643839202799 -0.35476889484085011 0 0.39127961784512488 -0.33068977443015468 0 0.39849015784767849 -0.36590124129164731 0 0.40423849133781009 -0.353079827002938 0 0.38996643839202799 -0.35476889484085011 0 0.38996643839202799 -0.35476889484085011 0 0.37862463652023748 -0.34366243305961008 0 0.37466685988076098 -0.35847831532443131 0 0.38556081211293258 -0.36809336916793711 0 0.37459617988944949 -0.38027148896349178 0 0.37466685988076098 -0.35847831532443131 0 0.38996643839202799 -0.35476889484085011 0 0.38556081211293258 -0.36809336916793711 0 0.37466685988076098 -0.35847831532443131 0 0.39454998026696481 -0.32043175075331948 0 0.39127961784512488 -0.33068977443015468 0 0.38682392448903352 -0.31415391404870979 0 0.39454998026696481 -0.32043175075331948 0 0.40297658694815458 -0.32432151873439269 0 0.39127961784512488 -0.33068977443015468 0 0.39454998026696481 -0.32043175075331948 0 0.39711979178554629 -0.31256179580002069 0 0.38682392448903352 -0.31415391404870979 0 0.39454998026696481 -0.32043175075331948 0 0.39711979178554629 -0.31256179580002069 0 0.40297658694815458 -0.32432151873439269 0 0.39711979178554629 -0.31256179580002069 0 0.40297658694815458 -0.32432151873439269 0 0.41097927592400901 -0.31077959475207628 0 0.40423849133781009 -0.353079827002938 0 0.39127961784512488 -0.33068977443015468 0 0.40423849133781009 -0.353079827002938 0 0.40549844226560627 -0.33748604014650219 0 0.39127961784512488 -0.33068977443015468 0 0.40297658694815458 -0.32432151873439269 0 0.40549844226560627 -0.33748604014650219 0 0.39127961784512488 -0.33068977443015468 0 0.38996643839202799 -0.35476889484085011 0 0.37862463652023748 -0.34366243305961008 0 0.38162021812887209 -0.32853461643340848 0 0.38996643839202799 -0.35476889484085011 0 0.38162021812887209 -0.32853461643340848 0 0.38996643839202799 -0.35476889484085011 0 0.39127961784512488 -0.33068977443015468 0 0.38162021812887209 -0.32853461643340848 0 0.37862463652023748 -0.34366243305961008 0 0.38162021812887209 -0.32853461643340848 0 0.37441369834839328 -0.33417283983575041 0 0.38162021812887209 -0.32853461643340848 0 0.37021123254416299 -0.327716095720335 0 0.37441369834839328 -0.33417283983575041 0 0.38162021812887209 -0.32853461643340848 0 0.3732739978657163 -0.3023003380259669 0 0.3714019134337983 -0.3175252765927124 0 0.39127961784512488 -0.33068977443015468 0 0.37832074435243962 -0.30829972185737148 0 0.39127961784512488 -0.33068977443015468 0 0.38682392448903352 -0.31415391404870979 0 0.37832074435243962 -0.30829972185737148 0 0.38162021812887209 -0.32853461643340848 0 0.37832074435243962 -0.30829972185737148 0 0.3732739978657163 -0.3023003380259669 0 0.39127961784512488 -0.33068977443015468 0 0.38162021812887209 -0.32853461643340848 0 0.37832074435243962 -0.30829972185737148 0 0.38162021812887209 -0.32853461643340848 0 0.3732739978657163 -0.3023003380259669 0 0.37832074435243962 -0.30829972185737148 0 0.37993003186342028 -0.3022203049808232 0 0.38741674792518421 -0.30343076058006302 0 0.37993003186342028 -0.3022203049808232 0 0.3815685610721834 -0.29565040371030488 0 0.3732739978657163 -0.3023003380259669 0 0.37832074435243962 -0.30829972185737148 0 0.37993003186342028 -0.3022203049808232 0 0.3732739978657163 -0.3023003380259669 0 0.38741674792518421 -0.30343076058006302 0 0.38954673057164307 -0.29373392023567341 0 0.3815685610721834 -0.29565040371030488 0 0.37993003186342028 -0.3022203049808232 0 0.38741674792518421 -0.30343076058006302 0 0.3815685610721834 -0.29565040371030488 0 0.39711979178554629 -0.31256179580002069 0 0.38682392448903352 -0.31415391404870979 0 0.38741674792518421 -0.30343076058006302 0 0.38682392448903352 -0.31415391404870979 0 0.37832074435243962 -0.30829972185737148 0 0.38741674792518421 -0.30343076058006302 0 0.38741674792518421 -0.30343076058006302 0 0.4010532516646626 -0.29806560763431539 0 0.38954673057164307 -0.29373392023567341 0 0.39711979178554629 -0.31256179580002069 0 0.38741674792518421 -0.30343076058006302 0 0.4010532516646626 -0.29806560763431539 0 0.39711979178554629 -0.31256179580002069 0 0.4010532516646626 -0.29806560763431539 0 0.41097927592400901 -0.31077959475207628 0 0.39450952743276058 -0.28697490421712551 0 0.388849274550369 -0.27535733462858147 0 0.4076913236122357 -0.28227854542166009 0 0.4010532516646626 -0.29806560763431539 0 0.39450952743276058 -0.28697490421712551 0 0.4076913236122357 -0.28227854542166009 0 0.4010532516646626 -0.29806560763431539 0 0.39450952743276058 -0.28697490421712551 0 0.38954673057164307 -0.29373392023567341 0 0.39450952743276058 -0.28697490421712551 0 0.3854070567648924 -0.28543911316539727 0 0.38954673057164307 -0.29373392023567341 0 0.39450952743276058 -0.28697490421712551 0 0.3854070567648924 -0.28543911316539727 0 0.388849274550369 -0.27535733462858147 0 0.3854070567648924 -0.28543911316539727 0 0.38954673057164307 -0.29373392023567341 0 0.3815685610721834 -0.29565040371030488 0 0.3815685610721834 -0.29565040371030488 0 0.37757738812526298 -0.28788440918866143 0 0.3732739978657163 -0.3023003380259669 0 0.3854070567648924 -0.28543911316539727 0 0.3815685610721834 -0.29565040371030488 0 0.37757738812526298 -0.28788440918866143 0 0.3854070567648924 -0.28543911316539727 0 0.37757738812526298 -0.28788440918866143 0 0.37861748381316479 -0.27939182984513639 0 0.37757738812526298 -0.28788440918866143 0 0.37861748381316479 -0.27939182984513639 0 0.37288077457904129 -0.2828157521027585 0 0.37861748381316479 -0.27939182984513639 0 0.388849274550369 -0.27535733462858147 0 0.3700072254885024 -0.26843612383550253 0 0.38882017616004311 -0.26627371138337991 0 0.3700072254885024 -0.26843612383550253 0 0.38882017616004311 -0.26627371138337991 0 0.388849274550369 -0.27535733462858147 0 0.3700072254885024 -0.26843612383550253 0 0.388849274550369 -0.27535733462858147 0 0.3700072254885024 -0.26843612383550253 0 0.3854070567648924 -0.28543911316539727 0 0.37861748381316479 -0.27939182984513639 0 0.388849274550369 -0.27535733462858147 0 0.38882017616004311 -0.26627371138337991 0 0.37786734755748991 -0.2577849390568453 0 0.3700072254885024 -0.26843612383550253 0 0.37875199378109348 -0.24405941084795971 0 0.37786734755748991 -0.2577849390568453 0 0.3901597669034792 -0.25571781272626481 0 0.38882017616004311 -0.26627371138337991 0 0.37786734755748991 -0.2577849390568453 0 0.3901597669034792 -0.25571781272626481 0 0.39772619018718591 -0.24635970341188149 0 0.3901597669034792 -0.25571781272626481 0 0.40763312683158381 -0.26411129893125762 0 0.38882017616004311 -0.26627371138337991 0 0.3901597669034792 -0.25571781272626481 0 0.40763312683158381 -0.26411129893125762 0 0.38882017616004311 -0.26627371138337991 0 0.40763312683158381 -0.26411129893125762 0 0.388849274550369 -0.27535733462858147 0 0.4076913236122357 -0.28227854542166009 0 0.38882017616004311 -0.26627371138337991 0 0.39870768083890717 -0.27110143447195051 0 0.40763312683158381 -0.26411129893125762 0 0.39870768083890717 -0.27110143447195051 0 0.40763312683158381 -0.26411129893125762 0 0.4076913236122357 -0.28227854542166009 0 0.388849274550369 -0.27535733462858147 0 0.39870768083890717 -0.27110143447195051 0 0.4076913236122357 -0.28227854542166009 0 0.38882017616004311 -0.26627371138337991 0 0.388849274550369 -0.27535733462858147 0 0.39870768083890717 -0.27110143447195051 0 0.40763312683158381 -0.26411129893125762 0 0.42313370596477878 -0.27698049871810509 0 0.4076913236122357 -0.28227854542166009 0 0.40763312683158381 -0.26411129893125762 0 0.42195937714006798 -0.2590876394121075 0 0.42313370596477878 -0.27698049871810509 0 0.41598433085418629 -0.2446668760272632 0 0.40763312683158381 -0.26411129893125762 0 0.42195937714006798 -0.2590876394121075 0 0.39772619018718591 -0.24635970341188149 0 0.41598433085418629 -0.2446668760272632 0 0.40763312683158381 -0.26411129893125762 0 0.4314340693450982 -0.24804011514935859 0 0.41598433085418629 -0.2446668760272632 0 0.42195937714006798 -0.2590876394121075 0 0.4314340693450982 -0.24804011514935859 0 0.42195937714006798 -0.2590876394121075 0 0.43702088738462241 -0.26140409715000879 0 0.42195937714006798 -0.2590876394121075 0 0.43702088738462241 -0.26140409715000879 0 0.42313370596477878 -0.27698049871810509 0 0.44100658922641328 -0.27917580336677228 0 0.43702088738462241 -0.26140409715000879 0 0.42313370596477878 -0.27698049871810509 0 0.42313370596477878 -0.27698049871810509 0 0.43221711886690473 -0.29572708836194372 0 0.41676947227273681 -0.29513882516427459 0 0.44100658922641328 -0.27917580336677228 0 0.42313370596477878 -0.27698049871810509 0 0.43221711886690473 -0.29572708836194372 0 0.43768602170030502 -0.31512493442088108 0 0.43221711886690473 -0.29572708836194372 0 0.42386739007249452 -0.30810187332738148 0 0.43221711886690473 -0.29572708836194372 0 0.42386739007249452 -0.30810187332738148 0 0.41676947227273681 -0.29513882516427459 0 0.42386739007249452 -0.30810187332738148 0 0.41097927592400901 -0.31077959475207628 0 0.41676947227273681 -0.29513882516427459 0 0.4010532516646626 -0.29806560763431539 0 0.41097927592400901 -0.31077959475207628 0 0.41676947227273681 -0.29513882516427459 0 0.4010532516646626 -0.29806560763431539 0 0.4076913236122357 -0.28227854542166009 0 0.41676947227273681 -0.29513882516427459 0 0.42313370596477878 -0.27698049871810509 0 0.4076913236122357 -0.28227854542166009 0 0.41676947227273681 -0.29513882516427459 0 0.5 -0.5 0 0.47046418804336121 -0.45289480816554251 0 0.48342176978122392 -0.40453100967419292 0 0.45270235857387447 -0.50000000000000011 0 0.43326444190905922 -0.49195397445758532 0 0.42899803222304672 -0.5 0 0.45270235857387447 -0.50000000000000011 0 0.43516812783683978 -0.4828519795468027 0 0.45270235857387447 -0.50000000000000011 0 0.43516812783683978 -0.4828519795468027 0 0.43326444190905922 -0.49195397445758532 0 0.45270235857387447 -0.50000000000000011 0 0.46124690375288258 -0.48200018010331758 0 0.43516812783683978 -0.4828519795468027 0 0.46124690375288258 -0.48200018010331758 0 0.44734734247241881 -0.46315332477077581 0 0.43516812783683978 -0.4828519795468027 0 0.44734734247241881 -0.46315332477077581 0 0.43516812783683978 -0.4828519795468027 0 0.44734734247241881 -0.46315332477077581 0 0.43202828587591202 -0.47978129598085217 0 0.43516812783683978 -0.4828519795468027 0 0.45270235857387447 -0.50000000000000011 0 0.46124690375288258 -0.48200018010331758 0 0.5 -0.5 0 0.46124690375288258 -0.48200018010331758 0 0.5 -0.5 0 0.47046418804336121 -0.45289480816554251 0 0.47046418804336121 -0.45289480816554251 0 0.45937215157535388 -0.44361255307191472 0 0.4713969606782889 -0.42407178137305368 0 0.47046418804336121 -0.45289480816554251 0 0.45937215157535388 -0.44361255307191472 0 0.44734734247241881 -0.46315332477077581 0 0.46124690375288258 -0.48200018010331758 0 0.47046418804336121 -0.45289480816554251 0 0.44734734247241881 -0.46315332477077581 0 0.45937215157535388 -0.44361255307191472 0 0.44734734247241881 -0.46315332477077581 0 0.45937215157535388 -0.44361255307191472 0 0.44734734247241881 -0.46315332477077581 0 0.44066142770576461 -0.44200072284919828 0 0.45937215157535388 -0.44361255307191472 0 0.44066142770576461 -0.44200072284919828 0 0.44851862202879339 -0.43516698851166341 0 0.44734734247241881 -0.46315332477077581 0 0.44066142770576461 -0.44200072284919828 0 0.43301375493955879 -0.45149463816589752 0 0.5 -0.5 0 0.5 -0.38130570807066239 0 0.48342176978122392 -0.40453100967419292 0 0.45208568200716892 -0.42266640783776882 0 0.44851862202879339 -0.43516698851166341 0 0.44062087507346442 -0.42917409402229378 0 0.44066142770576461 -0.44200072284919828 0 0.44851862202879339 -0.43516698851166341 0 0.44062087507346442 -0.42917409402229378 0 0.45208568200716892 -0.42266640783776882 0 0.44062087507346442 -0.42917409402229378 0 0.43999926316462862 -0.42121972773222838 0 0.44062087507346442 -0.42917409402229378 0 0.43999926316462862 -0.42121972773222838 0 0.43194487632071538 -0.42229244294605017 0 0.43999926316462862 -0.42121972773222838 0 0.43971729138690752 -0.41421583047867738 0 0.45012560061469981 -0.41353329231403668 0 0.43999926316462862 -0.42121972773222838 0 0.43971729138690752 -0.41421583047867738 0 0.43450988588677458 -0.41631174859805831 0 0.44449391785593151 -0.4099459974895503 0 0.44024628834514362 -0.40514961575758629 0 0.43611688930799147 -0.40983172261157153 0 0.43971729138690752 -0.41421583047867738 0 0.44449391785593151 -0.4099459974895503 0 0.43611688930799147 -0.40983172261157153 0 0.43971729138690752 -0.41421583047867738 0 0.44449391785593151 -0.4099459974895503 0 0.45012560061469981 -0.41353329231403668 0 0.44449391785593151 -0.4099459974895503 0 0.45012560061469981 -0.41353329231403668 0 0.44676845429387341 -0.40338798260100328 0 0.45208568200716892 -0.42266640783776882 0 0.43999926316462862 -0.42121972773222838 0 0.45012560061469981 -0.41353329231403668 0 0.45208568200716892 -0.42266640783776882 0 0.46323291613371559 -0.41349907737077041 0 0.4713969606782889 -0.42407178137305368 0 0.45208568200716892 -0.42266640783776882 0 0.45012560061469981 -0.41353329231403668 0 0.46323291613371559 -0.41349907737077041 0 0.45012560061469981 -0.41353329231403668 0 0.46323291613371559 -0.41349907737077041 0 0.4591544276193027 -0.3999095034160014 0 0.45937215157535388 -0.44361255307191472 0 0.4713969606782889 -0.42407178137305368 0 0.45937215157535388 -0.44361255307191472 0 0.44851862202879339 -0.43516698851166341 0 0.4713969606782889 -0.42407178137305368 0 0.45208568200716892 -0.42266640783776882 0 0.44851862202879339 -0.43516698851166341 0 0.4713969606782889 -0.42407178137305368 0 0.47046418804336121 -0.45289480816554251 0 0.4713969606782889 -0.42407178137305368 0 0.48342176978122392 -0.40453100967419292 0 0.4713969606782889 -0.42407178137305368 0 0.48342176978122392 -0.40453100967419292 0 0.46323291613371559 -0.41349907737077041 0 0.4713969606782889 -0.42407178137305368 0 0.48342176978122392 -0.40453100967419292 0 0.46323150534744162 -0.3737908208655526 0 0.5 -0.38130570807066239 0 0.48342176978122392 -0.40453100967419292 0 0.46323150534744162 -0.3737908208655526 0 0.4591544276193027 -0.3999095034160014 0 0.4488916432650073 -0.39056593977368659 0 0.46323291613371559 -0.41349907737077041 0 0.48342176978122392 -0.40453100967419292 0 0.4591544276193027 -0.3999095034160014 0 0.46323150534744162 -0.3737908208655526 0 0.48342176978122392 -0.40453100967419292 0 0.4591544276193027 -0.3999095034160014 0 0.44676845429387341 -0.40338798260100328 0 0.4418311206489649 -0.39785359322603558 0 0.4488916432650073 -0.39056593977368659 0 0.4591544276193027 -0.3999095034160014 0 0.44676845429387341 -0.40338798260100328 0 0.4488916432650073 -0.39056593977368659 0 0.45012560061469981 -0.41353329231403668 0 0.4591544276193027 -0.3999095034160014 0 0.44676845429387341 -0.40338798260100328 0 0.44449391785593151 -0.4099459974895503 0 0.44676845429387341 -0.40338798260100328 0 0.44024628834514362 -0.40514961575758629 0 0.44676845429387341 -0.40338798260100328 0 0.44024628834514362 -0.40514961575758629 0 0.4418311206489649 -0.39785359322603558 0 0.43840890067159821 -0.39936248143454539 0 0.44024628834514362 -0.40514961575758629 0 0.4418311206489649 -0.39785359322603558 0 0.43840890067159821 -0.39936248143454539 0 0.44024628834514362 -0.40514961575758629 0 0.43403167121985292 -0.40455581866578277 0 0.4418311206489649 -0.39785359322603558 0 0.43752652247243129 -0.3898908980887768 0 0.4488916432650073 -0.39056593977368659 0 0.43840890067159821 -0.39936248143454539 0 0.4418311206489649 -0.39785359322603558 0 0.43752652247243129 -0.3898908980887768 0 0.43752652247243129 -0.3898908980887768 0 0.44448847064216762 -0.37792722851700511 0 0.4488916432650073 -0.39056593977368659 0 0.43294542103103739 -0.37369490513319281 0 0.43752652247243129 -0.3898908980887768 0 0.44448847064216762 -0.37792722851700511 0 0.46323150534744162 -0.3737908208655526 0 0.44448847064216762 -0.37792722851700511 0 0.4488916432650073 -0.39056593977368659 0 0.43294542103103739 -0.37369490513319281 0 0.43752652247243129 -0.3898908980887768 0 0.42185575051064078 -0.38351853444851269 0 0.43294542103103739 -0.37369490513319281 0 0.42185575051064078 -0.38351853444851269 0 0.41719736483049791 -0.37546987957571992 0 0.43403167121985292 -0.40455581866578277 0 0.42185575051064078 -0.38351853444851269 0 0.43403167121985292 -0.40455581866578277 0 0.42642655385626732 -0.39803207497288579 0 0.42185575051064078 -0.38351853444851269 0 0.43752652247243129 -0.3898908980887768 0 0.43403167121985292 -0.40455581866578277 0 0.42185575051064078 -0.38351853444851269 0 0.43840890067159821 -0.39936248143454539 0 0.43752652247243129 -0.3898908980887768 0 0.43403167121985292 -0.40455581866578277 0 0.43403167121985292 -0.40455581866578277 0 0.42898917732320202 -0.40336429264450868 0 0.42642655385626732 -0.39803207497288579 0 0.43403167121985292 -0.40455581866578277 0 0.42898917732320202 -0.40336429264450868 0 0.43134710810924137 -0.40676048764232592 0 0.42699910867188362 -0.40427291864320231 0 0.42221877789024981 -0.40477890725574461 0 0.43134710810924137 -0.40676048764232592 0 0.42898917732320202 -0.40336429264450868 0 0.42699910867188362 -0.40427291864320231 0 0.43134710810924137 -0.40676048764232592 0 0.42898917732320202 -0.40336429264450868 0 0.42699910867188362 -0.40427291864320231 0 0.42544137136484128 -0.4021879870302299 0 0.42898917732320202 -0.40336429264450868 0 0.42544137136484128 -0.4021879870302299 0 0.42642655385626732 -0.39803207497288579 0 0.42189337174052499 -0.39940737088098088 0 0.42544137136484128 -0.4021879870302299 0 0.42221877789024981 -0.40477890725574461 0 0.42189337174052499 -0.39940737088098088 0 0.42544137136484128 -0.4021879870302299 0 0.42642655385626732 -0.39803207497288579 0 0.42699910867188362 -0.40427291864320231 0 0.42544137136484128 -0.4021879870302299 0 0.42221877789024981 -0.40477890725574461 0 0.42642655385626732 -0.39803207497288579 0 0.41962701177221839 -0.39341529186683649 0 0.42185575051064078 -0.38351853444851269 0 0.42189337174052499 -0.39940737088098088 0 0.42642655385626732 -0.39803207497288579 0 0.41962701177221839 -0.39341529186683649 0 0.41962701177221839 -0.39341529186683649 0 0.41634854786065317 -0.3981126236117184 0 0.41076671997213948 -0.39215930043421932 0 0.42221877789024981 -0.40477890725574461 0 0.40797773849418112 -0.40054778765350008 0 0.40383206229733448 -0.41008553663639269 0 0.42189337174052499 -0.39940737088098088 0 0.41962701177221839 -0.39341529186683649 0 0.41634854786065317 -0.3981126236117184 0 0.42221877789024981 -0.40477890725574461 0 0.41634854786065317 -0.3981126236117184 0 0.40797773849418112 -0.40054778765350008 0 0.42189337174052499 -0.39940737088098088 0 0.42221877789024981 -0.40477890725574461 0 0.41634854786065317 -0.3981126236117184 0 0.41634854786065317 -0.3981126236117184 0 0.40797773849418112 -0.40054778765350008 0 0.41076671997213948 -0.39215930043421932 0 0.41719736483049791 -0.37546987957571992 0 0.39589677235997361 -0.37787068426960541 0 0.42185575051064078 -0.38351853444851269 0 0.41719736483049791 -0.37546987957571992 0 0.39927762172976872 -0.38345035306666497 0 0.42185575051064078 -0.38351853444851269 0 0.39927762172976872 -0.38345035306666497 0 0.41076671997213948 -0.39215930043421932 0 0.42185575051064078 -0.38351853444851269 0 0.39927762172976872 -0.38345035306666497 0 0.41962701177221839 -0.39341529186683649 0 0.41076671997213948 -0.39215930043421932 0 0.42185575051064078 -0.38351853444851269 0 0.42185575051064078 -0.38351853444851269 0 0.41719736483049791 -0.37546987957571992 0 0.41719736483049791 -0.37546987957571992 0 0.39927762172976872 -0.38345035306666497 0 0.39589677235997361 -0.37787068426960541 0 0.41076671997213948 -0.39215930043421932 0 0.39927762172976872 -0.38345035306666497 0 0.39979600806962617 -0.39538676724649829 0 0.38556081211293258 -0.36809336916793711 0 0.39589677235997361 -0.37787068426960541 0 0.37459617988944949 -0.38027148896349178 0 0.39589677235997361 -0.37787068426960541 0 0.37459617988944949 -0.38027148896349178 0 0.39927762172976872 -0.38345035306666497 0 0.37669949294889638 -0.3833821716848167 0 0.38342940831645972 -0.39944962608875112 0 0.39927762172976872 -0.38345035306666497 0 0.37669949294889638 -0.3833821716848167 0 0.39927762172976872 -0.38345035306666497 0 0.39589677235997361 -0.37787068426960541 0 0.37669949294889638 -0.3833821716848167 0 0.39589677235997361 -0.37787068426960541 0 0.37669949294889638 -0.3833821716848167 0 0.37459617988944949 -0.38027148896349178 0 0.38342940831645972 -0.39944962608875112 0 0.39809326904408432 -0.40427787956618821 0 0.37631701648542742 -0.41341058563045963 0 0.38342940831645972 -0.39944962608875112 0 0.37631701648542742 -0.41341058563045963 0 0.36874657728577082 -0.39467898720909728 0 0.37669949294889638 -0.3833821716848167 0 0.38342940831645972 -0.39944962608875112 0 0.36874657728577082 -0.39467898720909728 0 0.38342940831645972 -0.39944962608875112 0 0.36874657728577082 -0.39467898720909728 0 0.38342940831645972 -0.39944962608875112 0 0.39809326904408432 -0.40427787956618821 0 0.39979600806962617 -0.39538676724649829 0 0.38342940831645972 -0.39944962608875112 0 0.39809326904408432 -0.40427787956618821 0 0.39927762172976872 -0.38345035306666497 0 0.38342940831645972 -0.39944962608875112 0 0.39979600806962617 -0.39538676724649829 0 0.40797773849418112 -0.40054778765350008 0 0.41076671997213948 -0.39215930043421932 0 0.39979600806962617 -0.39538676724649829 0 0.40797773849418112 -0.40054778765350008 0 0.39809326904408432 -0.40427787956618821 0 0.40383206229733448 -0.41008553663639269 0 0.40797773849418112 -0.40054778765350008 0 0.39809326904408432 -0.40427787956618821 0 0.39979600806962617 -0.39538676724649829 0 0.39809326904408432 -0.40427787956618821 0 0.40383206229733448 -0.41008553663639269 0 0.37631701648542742 -0.41341058563045963 0 0.40383206229733448 -0.41008553663639269 0 0.40183122803147692 -0.41906483821856538 0 0.39112416633558472 -0.42043380787180651 0 0.40383206229733448 -0.41008553663639269 0 0.40183122803147692 -0.41906483821856538 0 0.40843322889073669 -0.41870190614237313 0 0.40183122803147692 -0.41906483821856538 0 0.40393545460225172 -0.42703810222368982 0 0.40843322889073669 -0.41870190614237313 0 0.40383206229733448 -0.41008553663639269 0 0.39112416633558472 -0.42043380787180651 0 0.37631701648542742 -0.41341058563045963 0 0.40383206229733448 -0.41008553663639269 0 0.37631701648542742 -0.41341058563045963 0 0.39112416633558472 -0.42043380787180651 0 0.37631701648542742 -0.41341058563045963 0 0.37859074415782801 -0.42773751974228541 0 0.39112416633558472 -0.42043380787180651 0 0.37859074415782801 -0.42773751974228541 0 0.39068014047998678 -0.43934388794255619 0 0.39112416633558472 -0.42043380787180651 0 0.40393545460225172 -0.42703810222368982 0 0.39068014047998678 -0.43934388794255619 0 0.40393545460225172 -0.42703810222368982 0 0.40821022361013848 -0.44141854100165567 0 0.39068014047998678 -0.43934388794255619 0 0.40183122803147692 -0.41906483821856538 0 0.39112416633558472 -0.42043380787180651 0 0.40393545460225172 -0.42703810222368982 0 0.40393545460225172 -0.42703810222368982 0 0.41326051913957002 -0.43076585694469299 0 0.40821022361013848 -0.44141854100165567 0 0.41326051913957002 -0.43076585694469299 0 0.41774352146551141 -0.43940369160298348 0 0.40821022361013848 -0.44141854100165567 0 0.41326051913957002 -0.43076585694469299 0 0.42069858713032121 -0.43231869724793709 0 0.41774352146551141 -0.43940369160298348 0 0.41326051913957002 -0.43076585694469299 0 0.42069858713032121 -0.43231869724793709 0 0.41536565933210001 -0.42219645979899312 0 0.42069858713032121 -0.43231869724793709 0 0.41536565933210001 -0.42219645979899312 0 0.42339264841185381 -0.42268197786565642 0 0.40393545460225172 -0.42703810222368982 0 0.41326051913957002 -0.43076585694469299 0 0.41536565933210001 -0.42219645979899312 0 0.40393545460225172 -0.42703810222368982 0 0.41536565933210001 -0.42219645979899312 0 0.40843322889073669 -0.41870190614237313 0 0.42221877789024981 -0.40477890725574461 0 0.40383206229733448 -0.41008553663639269 0 0.43134710810924137 -0.40676048764232592 0 0.40383206229733448 -0.41008553663639269 0 0.41842982541553692 -0.41552933776418399 0 0.43134710810924137 -0.40676048764232592 0 0.40383206229733448 -0.41008553663639269 0 0.43134710810924137 -0.40676048764232592 0 0.40383206229733448 -0.41008553663639269 0 0.40843322889073669 -0.41870190614237313 0 0.41842982541553692 -0.41552933776418399 0 0.41536565933210001 -0.42219645979899312 0 0.40843322889073669 -0.41870190614237313 0 0.41842982541553692 -0.41552933776418399 0 0.41536565933210001 -0.42219645979899312 0 0.41842982541553692 -0.41552933776418399 0 0.42339264841185381 -0.42268197786565642 0 0.41842982541553692 -0.41552933776418399 0 0.42729203461445192 -0.41469403321443937 0 0.42339264841185381 -0.42268197786565642 0 0.42729203461445192 -0.41469403321443937 0 0.43194487632071538 -0.42229244294605017 0 0.42339264841185381 -0.42268197786565642 0 0.41842982541553692 -0.41552933776418399 0 0.42729203461445192 -0.41469403321443937 0 0.43134710810924137 -0.40676048764232592 0 0.42729203461445192 -0.41469403321443937 0 0.43134710810924137 -0.40676048764232592 0 0.43230285556307319 -0.41205412516255491 0 0.43134710810924137 -0.40676048764232592 0 0.43230285556307319 -0.41205412516255491 0 0.43611688930799147 -0.40983172261157153 0 0.43230285556307319 -0.41205412516255491 0 0.43611688930799147 -0.40983172261157153 0 0.43450988588677458 -0.41631174859805831 0 0.43971729138690752 -0.41421583047867738 0 0.43611688930799147 -0.40983172261157153 0 0.43450988588677458 -0.41631174859805831 0 0.44024628834514362 -0.40514961575758629 0 0.43403167121985292 -0.40455581866578277 0 0.43611688930799147 -0.40983172261157153 0 0.43403167121985292 -0.40455581866578277 0 0.43134710810924137 -0.40676048764232592 0 0.43611688930799147 -0.40983172261157153 0 0.43999926316462862 -0.42121972773222838 0 0.43450988588677458 -0.41631174859805831 0 0.43194487632071538 -0.42229244294605017 0 0.42729203461445192 -0.41469403321443937 0 0.43230285556307319 -0.41205412516255491 0 0.43450988588677458 -0.41631174859805831 0 0.42729203461445192 -0.41469403321443937 0 0.43450988588677458 -0.41631174859805831 0 0.43194487632071538 -0.42229244294605017 0 0.44062087507346442 -0.42917409402229378 0 0.43194487632071538 -0.42229244294605017 0 0.43051537921371602 -0.43169827425685398 0 0.44066142770576461 -0.44200072284919828 0 0.44062087507346442 -0.42917409402229378 0 0.43051537921371602 -0.43169827425685398 0 0.42069858713032121 -0.43231869724793709 0 0.43051537921371602 -0.43169827425685398 0 0.42714139399767809 -0.4411935698836747 0 0.42069858713032121 -0.43231869724793709 0 0.43051537921371602 -0.43169827425685398 0 0.42339264841185381 -0.42268197786565642 0 0.43194487632071538 -0.42229244294605017 0 0.43051537921371602 -0.43169827425685398 0 0.42339264841185381 -0.42268197786565642 0 0.42714139399767809 -0.4411935698836747 0 0.43301375493955879 -0.45149463816589752 0 0.42062137433558322 -0.44923091918419711 0 0.44066142770576461 -0.44200072284919828 0 0.42714139399767809 -0.4411935698836747 0 0.43301375493955879 -0.45149463816589752 0 0.44066142770576461 -0.44200072284919828 0 0.43051537921371602 -0.43169827425685398 0 0.42714139399767809 -0.4411935698836747 0 0.44734734247241881 -0.46315332477077581 0 0.43301375493955879 -0.45149463816589752 0 0.42929723618634941 -0.4618946541416416 0 0.44734734247241881 -0.46315332477077581 0 0.42929723618634941 -0.4618946541416416 0 0.43202828587591202 -0.47978129598085217 0 0.42929723618634941 -0.4618946541416416 0 0.4113542131779494 -0.45956259196170418 0 0.43202828587591202 -0.47978129598085217 0 0.43301375493955879 -0.45149463816589752 0 0.42929723618634941 -0.4618946541416416 0 0.42062137433558322 -0.44923091918419711 0 0.42929723618634941 -0.4618946541416416 0 0.4113542131779494 -0.45956259196170418 0 0.42062137433558322 -0.44923091918419711 0 0.4113542131779494 -0.45956259196170418 0 0.42062137433558322 -0.44923091918419711 0 0.40821022361013848 -0.44141854100165567 0 0.42069858713032121 -0.43231869724793709 0 0.42714139399767809 -0.4411935698836747 0 0.41774352146551141 -0.43940369160298348 0 0.42062137433558322 -0.44923091918419711 0 0.41774352146551141 -0.43940369160298348 0 0.40821022361013848 -0.44141854100165567 0 0.42714139399767809 -0.4411935698836747 0 0.42062137433558322 -0.44923091918419711 0 0.41774352146551141 -0.43940369160298348 0 0.4113542131779494 -0.45956259196170418 0 0.39068014047998678 -0.43934388794255619 0 0.4113542131779494 -0.45956259196170418 0 0.40821022361013848 -0.44141854100165567 0 0.39068014047998678 -0.43934388794255619 0 0.37859074415782801 -0.42773751974228541 0 0.39068014047998678 -0.43934388794255619 0 0.36682490258267619 -0.44725129657287588 0 0.39068014047998678 -0.43934388794255619 0 0.37928236339219978 -0.46004280497478689 0 0.36682490258267619 -0.44725129657287588 0 0.39068014047998678 -0.43934388794255619 0 0.37928236339219978 -0.46004280497478689 0 0.39406784776255438 -0.46096986753501512 0 0.37928236339219978 -0.46004280497478689 0 0.38635447601383899 -0.47030668383140339 0 0.37385705076513032 -0.47381235663574123 0 0.37928236339219978 -0.46004280497478689 0 0.39406784776255438 -0.46096986753501512 0 0.38635447601383899 -0.47030668383140339 0 0.39406784776255438 -0.46096986753501512 0 0.40374839437601961 -0.47113892667431623 0 0.38635447601383899 -0.47030668383140339 0 0.4113542131779494 -0.45956259196170418 0 0.39068014047998678 -0.43934388794255619 0 0.39406784776255438 -0.46096986753501512 0 0.4113542131779494 -0.45956259196170418 0 0.39406784776255438 -0.46096986753501512 0 0.40374839437601961 -0.47113892667431623 0 0.40374839437601961 -0.47113892667431623 0 0.38081672377329118 -0.48556946333715761 0 0.39707393483304237 -0.4859682050174467 0 0.40374839437601961 -0.47113892667431623 0 0.38081672377329118 -0.48556946333715761 0 0.40374839437601961 -0.47113892667431623 0 0.39707393483304237 -0.4859682050174467 0 0.40814876276840112 -0.48419816130499199 0 0.40374839437601961 -0.47113892667431623 0 0.38635447601383899 -0.47030668383140339 0 0.38081672377329118 -0.48556946333715761 0 0.38635447601383899 -0.47030668383140339 0 0.38081672377329118 -0.48556946333715761 0 0.37385705076513032 -0.47381235663574123 0 0.38158937952139088 -0.5 0 0.38081672377329118 -0.48556946333715761 0 0.39707393483304237 -0.4859682050174467 0 0.38158937952139088 -0.5 0 0.4052937058722188 -0.5 0 0.39707393483304237 -0.4859682050174467 0 0.4052937058722188 -0.5 0 0.39707393483304237 -0.4859682050174467 0 0.40814876276840112 -0.48419816130499199 0 0.4052937058722188 -0.5 0 0.41932909096340382 -0.48803460184948888 0 0.40814876276840112 -0.48419816130499199 0 0.4052937058722188 -0.5 0 0.41932909096340382 -0.48803460184948888 0 0.42899803222304672 -0.5 0 0.4113542131779494 -0.45956259196170418 0 0.40374839437601961 -0.47113892667431623 0 0.41529868779732071 -0.47584907298370838 0 0.4113542131779494 -0.45956259196170418 0 0.41529868779732071 -0.47584907298370838 0 0.43202828587591202 -0.47978129598085217 0 0.4113542131779494 -0.45956259196170418 0 0.43202828587591202 -0.47978129598085217 0 0.40374839437601961 -0.47113892667431623 0 0.40814876276840112 -0.48419816130499199 0 0.41529868779732071 -0.47584907298370838 0 0.41932909096340382 -0.48803460184948888 0 0.40814876276840112 -0.48419816130499199 0 0.41529868779732071 -0.47584907298370838 0 0.41932909096340382 -0.48803460184948888 0 0.41529868779732071 -0.47584907298370838 0 0.43202828587591202 -0.47978129598085217 0 0.43202828587591202 -0.47978129598085217 0 0.43516812783683978 -0.4828519795468027 0 0.43202828587591202 -0.47978129598085217 0 0.43516812783683978 -0.4828519795468027 0 0.43326444190905922 -0.49195397445758532 0 0.41932909096340382 -0.48803460184948888 0 0.43326444190905922 -0.49195397445758532 0 0.42899803222304672 -0.5 0 0.41932909096340382 -0.48803460184948888 0 0.43202828587591202 -0.47978129598085217 0 0.43326444190905922 -0.49195397445758532 0 0.31440100044832192 -0.49999999999999939 0 0.32455710041539387 -0.48232779181897328 0 0.31440100044832192 -0.49999999999999939 0 0.32455710041539387 -0.48232779181897328 0 0.33614302680944252 -0.5 0 0.31440100044832192 -0.49999999999999939 0 0.32455710041539387 -0.48232779181897328 0 0.30467470621366138 -0.48467793958226463 0 0.32455710041539387 -0.48232779181897328 0 0.3156106232862495 -0.46813841817910962 0 0.30467470621366138 -0.48467793958226463 0 0.32455710041539387 -0.48232779181897328 0 0.3347132003824661 -0.4646555836379474 0 0.3156106232862495 -0.46813841817910962 0 0.32455710041539387 -0.48232779181897328 0 0.34681062894167092 -0.48005658738027418 0 0.3347132003824661 -0.4646555836379474 0 0.32455710041539387 -0.48232779181897328 0 0.3347132003824661 -0.4646555836379474 0 0.32455710041539387 -0.48232779181897328 0 0.33614302680944252 -0.5 0 0.34681062894167092 -0.48005658738027418 0 0.35788505317056313 -0.49999999999999928 0 0.36417211070312477 -0.48148803035606258 0 0.34681062894167092 -0.48005658738027418 0 0.33614302680944252 -0.5 0 0.35788505317056313 -0.49999999999999928 0 0.34681062894167092 -0.48005658738027418 0 0.38081672377329118 -0.48556946333715761 0 0.35788505317056313 -0.49999999999999928 0 0.38158937952139088 -0.5 0 0.38081672377329118 -0.48556946333715761 0 0.35788505317056313 -0.49999999999999928 0 0.38081672377329118 -0.48556946333715761 0 0.35788505317056313 -0.49999999999999928 0 0.36417211070312477 -0.48148803035606258 0 0.38081672377329118 -0.48556946333715761 0 0.37385705076513032 -0.47381235663574123 0 0.36417211070312477 -0.48148803035606258 0 0.37385705076513032 -0.47381235663574123 0 0.36417211070312477 -0.48148803035606258 0 0.36171793213628373 -0.46810555090876649 0 0.36417211070312477 -0.48148803035606258 0 0.34681062894167092 -0.48005658738027418 0 0.36171793213628373 -0.46810555090876649 0 0.34681062894167092 -0.48005658738027418 0 0.34918387527588862 -0.46099785756905931 0 0.36171793213628373 -0.46810555090876649 0 0.34918387527588862 -0.46099785756905931 0 0.36171793213628373 -0.46810555090876649 0 0.36682490258267619 -0.44725129657287588 0 0.37928236339219978 -0.46004280497478689 0 0.36171793213628373 -0.46810555090876649 0 0.36682490258267619 -0.44725129657287588 0 0.37928236339219978 -0.46004280497478689 0 0.37385705076513032 -0.47381235663574123 0 0.36171793213628373 -0.46810555090876649 0 0.34918387527588862 -0.46099785756905931 0 0.36682490258267619 -0.44725129657287588 0 0.34486930034953828 -0.44698337545692152 0 0.36682490258267619 -0.44725129657287588 0 0.34486930034953828 -0.44698337545692152 0 0.36308078684979811 -0.43042368240541379 0 0.34486930034953828 -0.44698337545692152 0 0.3347132003824661 -0.4646555836379474 0 0.3279116934473455 -0.43804744762184172 0 0.34681062894167092 -0.48005658738027418 0 0.34918387527588862 -0.46099785756905931 0 0.3347132003824661 -0.4646555836379474 0 0.34918387527588862 -0.46099785756905931 0 0.34486930034953828 -0.44698337545692152 0 0.3347132003824661 -0.4646555836379474 0 0.34486930034953828 -0.44698337545692152 0 0.3347132003824661 -0.4646555836379474 0 0.3347132003824661 -0.4646555836379474 0 0.3156106232862495 -0.46813841817910962 0 0.31841303561550938 -0.45330478476116998 0 0.3156106232862495 -0.46813841817910962 0 0.31841303561550938 -0.45330478476116998 0 0.30531082348660371 -0.4532480765745493 0 0.3347132003824661 -0.4646555836379474 0 0.31841303561550938 -0.45330478476116998 0 0.3279116934473455 -0.43804744762184172 0 0.31841303561550938 -0.45330478476116998 0 0.31522934456137208 -0.43986351514708599 0 0.30531082348660371 -0.4532480765745493 0 0.31841303561550938 -0.45330478476116998 0 0.31522934456137208 -0.43986351514708599 0 0.3279116934473455 -0.43804744762184172 0 0.31522934456137208 -0.43986351514708599 0 0.3279116934473455 -0.43804744762184172 0 0.32128692486161309 -0.42006068361859328 0 0.31522934456137208 -0.43986351514708599 0 0.32128692486161309 -0.42006068361859328 0 0.30322424539578863 -0.43465658315927602 0 0.32128692486161309 -0.42006068361859328 0 0.3292530990641781 -0.40529911929781948 0 0.31355714337916057 -0.40138803377356791 0 0.32128692486161309 -0.42006068361859328 0 0.31355714337916057 -0.40138803377356791 0 0.30378548309494607 -0.41102395664837871 0 0.32128692486161309 -0.42006068361859328 0 0.3488019706735202 -0.41673563462452651 0 0.3292530990641781 -0.40529911929781948 0 0.32128692486161309 -0.42006068361859328 0 0.3488019706735202 -0.41673563462452651 0 0.34486930034953828 -0.44698337545692152 0 0.3279116934473455 -0.43804744762184172 0 0.3488019706735202 -0.41673563462452651 0 0.3279116934473455 -0.43804744762184172 0 0.32128692486161309 -0.42006068361859328 0 0.3488019706735202 -0.41673563462452651 0 0.34486930034953828 -0.44698337545692152 0 0.36308078684979811 -0.43042368240541379 0 0.3488019706735202 -0.41673563462452651 0 0.37859074415782801 -0.42773751974228541 0 0.36682490258267619 -0.44725129657287588 0 0.36308078684979811 -0.43042368240541379 0 0.37631701648542742 -0.41341058563045963 0 0.37859074415782801 -0.42773751974228541 0 0.36308078684979811 -0.43042368240541379 0 0.37631701648542742 -0.41341058563045963 0 0.36308078684979811 -0.43042368240541379 0 0.3488019706735202 -0.41673563462452651 0 0.37631701648542742 -0.41341058563045963 0 0.3488019706735202 -0.41673563462452651 0 0.37631701648542742 -0.41341058563045963 0 0.3488019706735202 -0.41673563462452651 0 0.35685095919774518 -0.40217291045162301 0 0.35685095919774518 -0.40217291045162301 0 0.36874657728577082 -0.39467898720909728 0 0.35150359229819023 -0.38893766507974908 0 0.3488019706735202 -0.41673563462452651 0 0.35685095919774518 -0.40217291045162301 0 0.34007646758429322 -0.3945879734133983 0 0.35685095919774518 -0.40217291045162301 0 0.35150359229819023 -0.38893766507974908 0 0.34007646758429322 -0.3945879734133983 0 0.37631701648542742 -0.41341058563045963 0 0.35685095919774518 -0.40217291045162301 0 0.36874657728577082 -0.39467898720909728 0 0.36874657728577082 -0.39467898720909728 0 0.35150359229819023 -0.38893766507974908 0 0.37459617988944949 -0.38027148896349178 0 0.35329558741892542 -0.38267229365737848 0 0.35923224224065509 -0.36638038564724618 0 0.37669949294889638 -0.3833821716848167 0 0.36874657728577082 -0.39467898720909728 0 0.35329558741892542 -0.38267229365737848 0 0.37669949294889638 -0.3833821716848167 0 0.37459617988944949 -0.38027148896349178 0 0.35329558741892542 -0.38267229365737848 0 0.37669949294889638 -0.3833821716848167 0 0.35329558741892542 -0.38267229365737848 0 0.37459617988944949 -0.38027148896349178 0 0.35329558741892542 -0.38267229365737848 0 0.36874657728577082 -0.39467898720909728 0 0.35329558741892542 -0.38267229365737848 0 0.35329558741892542 -0.38267229365737848 0 0.33730469440180583 -0.37024605082572321 0 0.35329558741892542 -0.38267229365737848 0 0.34777238499741547 -0.38329481767013512 0 0.33730469440180583 -0.37024605082572321 0 0.36874657728577082 -0.39467898720909728 0 0.35329558741892542 -0.38267229365737848 0 0.35150359229819023 -0.38893766507974908 0 0.35329558741892542 -0.38267229365737848 0 0.35150359229819023 -0.38893766507974908 0 0.34777238499741547 -0.38329481767013512 0 0.35150359229819023 -0.38893766507974908 0 0.34777238499741547 -0.38329481767013512 0 0.34457563600632191 -0.3832851641348155 0 0.35329558741892542 -0.38267229365737848 0 0.34777238499741547 -0.38329481767013512 0 0.34777238499741547 -0.38329481767013512 0 0.34457563600632191 -0.3832851641348155 0 0.35150359229819023 -0.38893766507974908 0 0.34457563600632191 -0.3832851641348155 0 0.33424163700754489 -0.38325395754818459 0 0.34457563600632191 -0.3832851641348155 0 0.33424163700754489 -0.38325395754818459 0 0.33730469440180583 -0.37024605082572321 0 0.35150359229819023 -0.38893766507974908 0 0.33424163700754489 -0.38325395754818459 0 0.34007646758429322 -0.3945879734133983 0 0.35150359229819023 -0.38893766507974908 0 0.33424163700754489 -0.38325395754818459 0 0.34777238499741547 -0.38329481767013512 0 0.34457563600632191 -0.3832851641348155 0 0.33730469440180583 -0.37024605082572321 0 0.33424163700754489 -0.38325395754818459 0 0.33730469440180583 -0.37024605082572321 0 0.32614452781213771 -0.37375782795655188 0 0.33424163700754489 -0.38325395754818459 0 0.34007646758429322 -0.3945879734133983 0 0.32622760206013313 -0.39280073002255739 0 0.33424163700754489 -0.38325395754818459 0 0.32512340245021981 -0.38322642232424459 0 0.33424163700754489 -0.38325395754818459 0 0.32622760206013313 -0.39280073002255739 0 0.32512340245021981 -0.38322642232424459 0 0.34457563600632191 -0.3832851641348155 0 0.33424163700754489 -0.38325395754818459 0 0.3488019706735202 -0.41673563462452651 0 0.34007646758429322 -0.3945879734133983 0 0.3292530990641781 -0.40529911929781948 0 0.34007646758429322 -0.3945879734133983 0 0.3292530990641781 -0.40529911929781948 0 0.32622760206013313 -0.39280073002255739 0 0.3292530990641781 -0.40529911929781948 0 0.32622760206013313 -0.39280073002255739 0 0.31355714337916057 -0.40138803377356791 0 0.32622760206013313 -0.39280073002255739 0 0.31355714337916057 -0.40138803377356791 0 0.3151138628754025 -0.38904887377813008 0 0.33424163700754489 -0.38325395754818459 0 0.32512340245021981 -0.38322642232424459 0 0.31098475841390411 -0.37559634902135552 0 0.33424163700754489 -0.38325395754818459 0 0.31344150320039338 -0.37437970314284857 0 0.32614452781213771 -0.37375782795655188 0 0.33424163700754489 -0.38325395754818459 0 0.31098475841390411 -0.37559634902135552 0 0.31344150320039338 -0.37437970314284857 0 0.33424163700754489 -0.38325395754818459 0 0.31098475841390411 -0.37559634902135552 0 0.3151138628754025 -0.38904887377813008 0 0.32512340245021981 -0.38322642232424459 0 0.31098475841390411 -0.37559634902135552 0 0.32622760206013313 -0.39280073002255739 0 0.3151138628754025 -0.38904887377813008 0 0.32512340245021981 -0.38322642232424459 0 0.31098475841390411 -0.37559634902135552 0 0.30531530923614808 -0.39070047913276762 0 0.29664278891379409 -0.38269887679629311 0 0.29664278891379409 -0.38269887679629311 0 0.29919836858202892 -0.3717155376341551 0 0.31098475841390411 -0.37559634902135552 0 0.29664278891379409 -0.38269887679629311 0 0.31098475841390411 -0.37559634902135552 0 0.29664278891379409 -0.38269887679629311 0 0.29919836858202892 -0.3717155376341551 0 0.3151138628754025 -0.38904887377813008 0 0.31098475841390411 -0.37559634902135552 0 0.30531530923614808 -0.39070047913276762 0 0.31355714337916057 -0.40138803377356791 0 0.30531530923614808 -0.39070047913276762 0 0.30199072363422952 -0.39885070449523308 0 0.30531530923614808 -0.39070047913276762 0 0.30199072363422952 -0.39885070449523308 0 0.29664278891379409 -0.38269887679629311 0 0.31355714337916057 -0.40138803377356791 0 0.3151138628754025 -0.38904887377813008 0 0.30531530923614808 -0.39070047913276762 0 0.31355714337916057 -0.40138803377356791 0 0.30199072363422952 -0.39885070449523308 0 0.30378548309494607 -0.41102395664837871 0 0.30199072363422952 -0.39885070449523308 0 0.29065289354709861 -0.40844217612515821 0 0.30378548309494607 -0.41102395664837871 0 0.29664278891379409 -0.38269887679629311 0 0.29065289354709861 -0.40844217612515821 0 0.28258471121342421 -0.4005376497431844 0 0.29664278891379409 -0.38269887679629311 0 0.27941160347506788 -0.39123222175792688 0 0.28258471121342421 -0.4005376497431844 0 0.29664278891379409 -0.38269887679629311 0 0.29065289354709861 -0.40844217612515821 0 0.30199072363422952 -0.39885070449523308 0 0.29664278891379409 -0.38269887679629311 0 0.29065289354709861 -0.40844217612515821 0 0.29664278891379409 -0.38269887679629311 0 0.28650388776827668 -0.37778676406628259 0 0.27941160347506788 -0.39123222175792688 0 0.29664278891379409 -0.38269887679629311 0 0.27941160347506788 -0.39123222175792688 0 0.29664278891379409 -0.38269887679629311 0 0.28650388776827668 -0.37778676406628259 0 0.29919836858202892 -0.3717155376341551 0 0.26307232836327332 -0.37994035610195293 0 0.26218401484468501 -0.39977282967117322 0 0.27941160347506788 -0.39123222175792688 0 0.27548904463973672 -0.37675625550611652 0 0.26307232836327332 -0.37994035610195293 0 0.27941160347506788 -0.39123222175792688 0 0.28650388776827668 -0.37778676406628259 0 0.27548904463973672 -0.37675625550611652 0 0.27941160347506788 -0.39123222175792688 0 0.26307232836327332 -0.37994035610195293 0 0.26218401484468501 -0.39977282967117322 0 0.26307232836327332 -0.37994035610195293 0 0.25402880698198999 -0.37241306581236733 0 0.24570885414814159 -0.38484476732218648 0 0.26307232836327332 -0.37994035610195293 0 0.26218401484468501 -0.39977282967117322 0 0.24570885414814159 -0.38484476732218648 0 0.26218401484468501 -0.39977282967117322 0 0.2391831732868446 -0.41115441882798959 0 0.26218401484468501 -0.39977282967117322 0 0.2392178009123675 -0.39979414692290599 0 0.26218401484468501 -0.39977282967117322 0 0.27187046257484648 -0.39977698271376783 0 0.26218401484468501 -0.39977282967117322 0 0.27941160347506788 -0.39123222175792688 0 0.26218401484468501 -0.39977282967117322 0 0.27187046257484648 -0.39977698271376783 0 0.27546336795041221 -0.41197532341327259 0 0.26218401484468501 -0.39977282967117322 0 0.27187046257484648 -0.39977698271376783 0 0.27941160347506788 -0.39123222175792688 0 0.28258471121342421 -0.4005376497431844 0 0.27187046257484648 -0.39977698271376783 0 0.27941160347506788 -0.39123222175792688 0 0.28258471121342421 -0.4005376497431844 0 0.27187046257484648 -0.39977698271376783 0 0.27546336795041221 -0.41197532341327259 0 0.26218401484468501 -0.39977282967117322 0 0.27546336795041221 -0.41197532341327259 0 0.2609568847460122 -0.42816213239486989 0 0.26218401484468501 -0.39977282967117322 0 0.25434375155769168 -0.41347202738741951 0 0.2391831732868446 -0.41115441882798959 0 0.26218401484468501 -0.39977282967117322 0 0.2609568847460122 -0.42816213239486989 0 0.26218401484468501 -0.39977282967117322 0 0.25434375155769168 -0.41347202738741951 0 0.2609568847460122 -0.42816213239486989 0 0.2609568847460122 -0.42816213239486989 0 0.2481190389119364 -0.4411247897113002 0 0.24464877441380811 -0.42667006326667872 0 0.25434375155769168 -0.41347202738741951 0 0.2609568847460122 -0.42816213239486989 0 0.24464877441380811 -0.42667006326667872 0 0.2609568847460122 -0.42816213239486989 0 0.28466299818040358 -0.43418547545402331 0 0.2698624217872379 -0.44277437774241518 0 0.27546336795041221 -0.41197532341327259 0 0.2609568847460122 -0.42816213239486989 0 0.28466299818040358 -0.43418547545402331 0 0.28466299818040358 -0.43418547545402331 0 0.29377187904970598 -0.42338573261266021 0 0.29065289354709861 -0.40844217612515821 0 0.28466299818040358 -0.43418547545402331 0 0.29377187904970598 -0.42338573261266021 0 0.30322424539578863 -0.43465658315927602 0 0.28466299818040358 -0.43418547545402331 0 0.29065289354709861 -0.40844217612515821 0 0.27546336795041221 -0.41197532341327259 0 0.28466299818040358 -0.43418547545402331 0 0.29065289354709861 -0.40844217612515821 0 0.28258471121342421 -0.4005376497431844 0 0.27546336795041221 -0.41197532341327259 0 0.29065289354709861 -0.40844217612515821 0 0.29377187904970598 -0.42338573261266021 0 0.29065289354709861 -0.40844217612515821 0 0.30378548309494607 -0.41102395664837871 0 0.32128692486161309 -0.42006068361859328 0 0.29377187904970598 -0.42338573261266021 0 0.32128692486161309 -0.42006068361859328 0 0.29377187904970598 -0.42338573261266021 0 0.30378548309494607 -0.41102395664837871 0 0.32128692486161309 -0.42006068361859328 0 0.29377187904970598 -0.42338573261266021 0 0.30322424539578863 -0.43465658315927602 0 0.31522934456137208 -0.43986351514708599 0 0.30322424539578863 -0.43465658315927602 0 0.30531082348660371 -0.4532480765745493 0 0.30322424539578863 -0.43465658315927602 0 0.30531082348660371 -0.4532480765745493 0 0.29094867410474651 -0.44729267897108099 0 0.30322424539578863 -0.43465658315927602 0 0.29094867410474651 -0.44729267897108099 0 0.30531082348660371 -0.4532480765745493 0 0.29253091298529438 -0.46061665085105741 0 0.30150077153765831 -0.46989620454724268 0 0.3156106232862495 -0.46813841817910962 0 0.30531082348660371 -0.4532480765745493 0 0.30150077153765831 -0.46989620454724268 0 0.29253091298529438 -0.46061665085105741 0 0.27867310281370639 -0.45992877478288802 0 0.29021177818860078 -0.47560657182225591 0 0.30531082348660371 -0.4532480765745493 0 0.29253091298529438 -0.46061665085105741 0 0.29094867410474651 -0.44729267897108099 0 0.29253091298529438 -0.46061665085105741 0 0.29021177818860078 -0.47560657182225591 0 0.30150077153765831 -0.46989620454724268 0 0.29094867410474651 -0.44729267897108099 0 0.27867310281370639 -0.45992877478288802 0 0.29253091298529438 -0.46061665085105741 0 0.29094867410474651 -0.44729267897108099 0 0.27867310281370639 -0.45992877478288802 0 0.28466299818040358 -0.43418547545402331 0 0.30322424539578863 -0.43465658315927602 0 0.29094867410474651 -0.44729267897108099 0 0.28466299818040358 -0.43418547545402331 0 0.29094867410474651 -0.44729267897108099 0 0.27867310281370639 -0.45992877478288802 0 0.28466299818040358 -0.43418547545402331 0 0.27867310281370639 -0.45992877478288802 0 0.2698624217872379 -0.44277437774241518 0 0.25971150806076571 -0.45655063465810941 0 0.27867310281370639 -0.45992877478288802 0 0.28466299818040358 -0.43418547545402331 0 0.2698624217872379 -0.44277437774241518 0 0.27867310281370639 -0.45992877478288802 0 0.2609568847460122 -0.42816213239486989 0 0.25971150806076571 -0.45655063465810941 0 0.2481190389119364 -0.4411247897113002 0 0.2609568847460122 -0.42816213239486989 0 0.2698624217872379 -0.44277437774241518 0 0.25971150806076571 -0.45655063465810941 0 0.2609568847460122 -0.42816213239486989 0 0.25971150806076571 -0.45655063465810941 0 0.25971150806076571 -0.45655063465810941 0 0.27867310281370639 -0.45992877478288802 0 0.25920913272365043 -0.47996438739144193 0 0.27867310281370639 -0.45992877478288802 0 0.25920913272365043 -0.47996438739144193 0 0.27867310281370639 -0.45992877478288802 0 0.27401125968319978 -0.47996438739144748 0 0.29021177818860078 -0.47560657182225591 0 0.27867310281370639 -0.45992877478288802 0 0.27401125968319978 -0.47996438739144748 0 0.25920913272365043 -0.47996438739144193 0 0.27867310281370639 -0.45992877478288802 0 0.27401125968319978 -0.47996438739144748 0 0.25971150806076571 -0.45655063465810941 0 0.25920913272365043 -0.47996438739144193 0 0.24665595617308389 -0.47091633612383099 0 0.25920913272365043 -0.47996438739144193 0 0.25084968360024801 -0.48709878459801509 0 0.24665595617308389 -0.47091633612383099 0 0.25920913272365043 -0.47996438739144193 0 0.26934941655268951 -0.50000000000000622 0 0.23974516263359719 -0.49999999999999839 0 0.27401125968319978 -0.47996438739144748 0 0.25920913272365043 -0.47996438739144193 0 0.26934941655268951 -0.50000000000000622 0 0.27401125968319978 -0.47996438739144748 0 0.26934941655268951 -0.50000000000000622 0 0.29187520850050558 -0.5 0 0.27401125968319978 -0.47996438739144748 0 0.26934941655268951 -0.50000000000000622 0 0.27401125968319978 -0.47996438739144748 0 0.29187520850050558 -0.5 0 0.29021177818860078 -0.47560657182225591 0 0.29187520850050558 -0.5 0 0.29021177818860078 -0.47560657182225591 0 0.30467470621366138 -0.48467793958226463 0 0.3156106232862495 -0.46813841817910962 0 0.30150077153765831 -0.46989620454724268 0 0.30467470621366138 -0.48467793958226463 0 0.29021177818860078 -0.47560657182225591 0 0.30150077153765831 -0.46989620454724268 0 0.30467470621366138 -0.48467793958226463 0 0.31440100044832192 -0.49999999999999939 0 0.29187520850050558 -0.5 0 0.30467470621366138 -0.48467793958226463 0 0.33667911034891079 -0.28752220643888521 0 0.33403865460376492 -0.30861205530614089 0 0.31640347617976361 -0.29777163581968719 0 0.33667911034891079 -0.28752220643888521 0 0.33403865460376492 -0.30861205530614089 0 0.34988762780533678 -0.29529573970667777 0 0.31640347617976361 -0.29777163581968719 0 0.31086319227366771 -0.32158260049104798 0 0.33403865460376492 -0.30861205530614089 0 0.31640347617976361 -0.29777163581968719 0 0.31086319227366771 -0.32158260049104798 0 0.31640347617976361 -0.29777163581968719 0 0.32194376008586062 -0.27396067114832678 0 0.30352228207819432 -0.27607808665245592 0 0.31640347617976361 -0.29777163581968719 0 0.32194376008586062 -0.27396067114832678 0 0.33667911034891079 -0.28752220643888521 0 0.31640347617976361 -0.29777163581968719 0 0.32194376008586062 -0.27396067114832678 0 0.32194376008586062 -0.27396067114832678 0 0.30352228207819432 -0.27607808665245592 0 0.32194376008586062 -0.27396067114832678 0 0.31704808032734871 -0.25862982220689812 0 0.31087448021904918 -0.26749295038426729 0 0.32194376008586062 -0.27396067114832678 0 0.32691246860915729 -0.25260621619334139 0 0.32194376008586062 -0.27396067114832678 0 0.32691246860915729 -0.25260621619334139 0 0.33542932335520542 -0.26347173381869587 0 0.32194376008586062 -0.27396067114832678 0 0.31704808032734871 -0.25862982220689812 0 0.32691246860915729 -0.25260621619334139 0 0.31686679269906531 -0.24441094090220611 0 0.31704808032734871 -0.25862982220689812 0 0.32691246860915729 -0.25260621619334139 0 0.32691246860915729 -0.25260621619334139 0 0.34845984704882982 -0.26052117001442221 0 0.34312747306158031 -0.2427163340022235 0 0.32691246860915729 -0.25260621619334139 0 0.34845984704882982 -0.26052117001442221 0 0.32691246860915729 -0.25260621619334139 0 0.33542932335520542 -0.26347173381869587 0 0.34845984704882982 -0.26052117001442221 0 0.33542932335520542 -0.26347173381869587 0 0.34597549278718159 -0.2711983974919161 0 0.34845984704882982 -0.26052117001442221 0 0.32194376008586062 -0.27396067114832678 0 0.33542932335520542 -0.26347173381869587 0 0.34597549278718159 -0.2711983974919161 0 0.32194376008586062 -0.27396067114832678 0 0.34597549278718159 -0.2711983974919161 0 0.33667911034891079 -0.28752220643888521 0 0.32194376008586062 -0.27396067114832678 0 0.34597549278718159 -0.2711983974919161 0 0.34597549278718159 -0.2711983974919161 0 0.34845984704882982 -0.26052117001442221 0 0.3700072254885024 -0.26843612383550253 0 0.33667911034891079 -0.28752220643888521 0 0.34597549278718159 -0.2711983974919161 0 0.35484926869689332 -0.28367986633620063 0 0.34597549278718159 -0.2711983974919161 0 0.3700072254885024 -0.26843612383550253 0 0.34597549278718159 -0.2711983974919161 0 0.36492777760256029 -0.27606605961852509 0 0.35484926869689332 -0.28367986633620063 0 0.34845984704882982 -0.26052117001442221 0 0.3700072254885024 -0.26843612383550253 0 0.34312747306158031 -0.2427163340022235 0 0.34845984704882982 -0.26052117001442221 0 0.36318246928703901 -0.25209935589961419 0 0.34845984704882982 -0.26052117001442221 0 0.36318246928703901 -0.25209935589961419 0 0.3700072254885024 -0.26843612383550253 0 0.37786734755748991 -0.2577849390568453 0 0.36318246928703901 -0.25209935589961419 0 0.3700072254885024 -0.26843612383550253 0 0.37875199378109348 -0.24405941084795971 0 0.37786734755748991 -0.2577849390568453 0 0.36318246928703901 -0.25209935589961419 0 0.34597549278718159 -0.2711983974919161 0 0.36492777760256029 -0.27606605961852509 0 0.3700072254885024 -0.26843612383550253 0 0.36492777760256029 -0.27606605961852509 0 0.3700072254885024 -0.26843612383550253 0 0.37288077457904129 -0.2828157521027585 0 0.37861748381316479 -0.27939182984513639 0 0.3700072254885024 -0.26843612383550253 0 0.37288077457904129 -0.2828157521027585 0 0.37757738812526298 -0.28788440918866143 0 0.37288077457904129 -0.2828157521027585 0 0.3732739978657163 -0.3023003380259669 0 0.36492777760256029 -0.27606605961852509 0 0.36378944390012108 -0.2890786406716494 0 0.3732739978657163 -0.3023003380259669 0 0.36492777760256029 -0.27606605961852509 0 0.37288077457904129 -0.2828157521027585 0 0.3732739978657163 -0.3023003380259669 0 0.36492777760256029 -0.27606605961852509 0 0.3732739978657163 -0.3023003380259669 0 0.36210673143531458 -0.29426829870590521 0 0.36378944390012108 -0.2890786406716494 0 0.3732739978657163 -0.3023003380259669 0 0.36492777760256029 -0.27606605961852509 0 0.36378944390012108 -0.2890786406716494 0 0.35484926869689332 -0.28367986633620063 0 0.36210673143531458 -0.29426829870590521 0 0.36378944390012108 -0.2890786406716494 0 0.35484926869689332 -0.28367986633620063 0 0.33667911034891079 -0.28752220643888521 0 0.35484926869689332 -0.28367986633620063 0 0.34988762780533678 -0.29529573970667777 0 0.36210673143531458 -0.29426829870590521 0 0.35484926869689332 -0.28367986633620063 0 0.34988762780533678 -0.29529573970667777 0 0.33403865460376492 -0.30861205530614089 0 0.34988762780533678 -0.29529573970667777 0 0.34854143016053168 -0.30920562723548078 0 0.34988762780533678 -0.29529573970667777 0 0.34854143016053168 -0.30920562723548078 0 0.35898898872390561 -0.30593270487770868 0 0.36210673143531458 -0.29426829870590521 0 0.34988762780533678 -0.29529573970667777 0 0.35898898872390561 -0.30593270487770868 0 0.34854143016053168 -0.30920562723548078 0 0.35898898872390561 -0.30593270487770868 0 0.3551505156020876 -0.31704118446903728 0 0.35898898872390561 -0.30593270487770868 0 0.3673199283116137 -0.30956562391334502 0 0.36458419031862638 -0.31950970887050689 0 0.35898898872390561 -0.30593270487770868 0 0.36542241158413752 -0.30301674138073148 0 0.3673199283116137 -0.30956562391334502 0 0.36210673143531458 -0.29426829870590521 0 0.35898898872390561 -0.30593270487770868 0 0.36542241158413752 -0.30301674138073148 0 0.36210673143531458 -0.29426829870590521 0 0.36542241158413752 -0.30301674138073148 0 0.3732739978657163 -0.3023003380259669 0 0.36542241158413752 -0.30301674138073148 0 0.3732739978657163 -0.3023003380259669 0 0.3673199283116137 -0.30956562391334502 0 0.3732739978657163 -0.3023003380259669 0 0.3673199283116137 -0.30956562391334502 0 0.3714019134337983 -0.3175252765927124 0 0.3673199283116137 -0.30956562391334502 0 0.3714019134337983 -0.3175252765927124 0 0.36458419031862638 -0.31950970887050689 0 0.35898898872390561 -0.30593270487770868 0 0.36458419031862638 -0.31950970887050689 0 0.3551505156020876 -0.31704118446903728 0 0.36458419031862638 -0.31950970887050689 0 0.3551505156020876 -0.31704118446903728 0 0.35935163494608818 -0.32773833189173102 0 0.36458419031862638 -0.31950970887050689 0 0.37021123254416299 -0.327716095720335 0 0.35935163494608818 -0.32773833189173102 0 0.38162021812887209 -0.32853461643340848 0 0.3714019134337983 -0.3175252765927124 0 0.37021123254416299 -0.327716095720335 0 0.3714019134337983 -0.3175252765927124 0 0.36458419031862638 -0.31950970887050689 0 0.37021123254416299 -0.327716095720335 0 0.37021123254416299 -0.327716095720335 0 0.37441369834839328 -0.33417283983575041 0 0.36719870620030071 -0.33677821412964792 0 0.37862463652023748 -0.34366243305961008 0 0.36719870620030071 -0.33677821412964792 0 0.36301430912911342 -0.3493831277735141 0 0.37862463652023748 -0.34366243305961008 0 0.37441369834839328 -0.33417283983575041 0 0.36719870620030071 -0.33677821412964792 0 0.36719870620030071 -0.33677821412964792 0 0.35386133646431789 -0.34036810547131952 0 0.36301430912911342 -0.3493831277735141 0 0.37021123254416299 -0.327716095720335 0 0.36719870620030071 -0.33677821412964792 0 0.35935163494608818 -0.32773833189173102 0 0.36719870620030071 -0.33677821412964792 0 0.35386133646431789 -0.34036810547131952 0 0.35935163494608818 -0.32773833189173102 0 0.35386133646431789 -0.34036810547131952 0 0.34510382854703359 -0.32501668268953993 0 0.35935163494608818 -0.32773833189173102 0 0.35386133646431789 -0.34036810547131952 0 0.34510382854703359 -0.32501668268953993 0 0.33912974613400049 -0.34640098474930758 0 0.34854143016053168 -0.30920562723548078 0 0.34510382854703359 -0.32501668268953993 0 0.3551505156020876 -0.31704118446903728 0 0.34510382854703359 -0.32501668268953993 0 0.3551505156020876 -0.31704118446903728 0 0.35935163494608818 -0.32773833189173102 0 0.37459617988944949 -0.38027148896349178 0 0.37466685988076098 -0.35847831532443131 0 0.35923224224065509 -0.36638038564724618 0 0.37466685988076098 -0.35847831532443131 0 0.36301430912911342 -0.3493831277735141 0 0.35923224224065509 -0.36638038564724618 0 0.37862463652023748 -0.34366243305961008 0 0.37466685988076098 -0.35847831532443131 0 0.36301430912911342 -0.3493831277735141 0 0.36301430912911342 -0.3493831277735141 0 0.34995605627538418 -0.35615330937810691 0 0.35923224224065509 -0.36638038564724618 0 0.35386133646431789 -0.34036810547131952 0 0.34995605627538418 -0.35615330937810691 0 0.33912974613400049 -0.34640098474930758 0 0.35386133646431789 -0.34036810547131952 0 0.36301430912911342 -0.3493831277735141 0 0.34995605627538418 -0.35615330937810691 0 0.34995605627538418 -0.35615330937810691 0 0.35923224224065509 -0.36638038564724618 0 0.33730469440180583 -0.37024605082572321 0 0.35329558741892542 -0.38267229365737848 0 0.35923224224065509 -0.36638038564724618 0 0.33730469440180583 -0.37024605082572321 0 0.33730469440180583 -0.37024605082572321 0 0.32131380138468618 -0.35781980799406771 0 0.33912974613400049 -0.34640098474930758 0 0.32131380138468618 -0.35781980799406771 0 0.32705849854649738 -0.3324238604424441 0 0.33730469440180583 -0.37024605082572321 0 0.33912974613400049 -0.34640098474930758 0 0.32131380138468618 -0.35781980799406771 0 0.34995605627538418 -0.35615330937810691 0 0.33730469440180583 -0.37024605082572321 0 0.33912974613400049 -0.34640098474930758 0 0.32131380138468618 -0.35781980799406771 0 0.31164193609789748 -0.36534276054404841 0 0.30532290836756981 -0.34539356516240821 0 0.32131380138468618 -0.35781980799406771 0 0.32705849854649738 -0.3324238604424441 0 0.30532290836756981 -0.34539356516240821 0 0.32131380138468618 -0.35781980799406771 0 0.30532290836756981 -0.34539356516240821 0 0.33730469440180583 -0.37024605082572321 0 0.3195902766388064 -0.36715160030945099 0 0.32614452781213771 -0.37375782795655188 0 0.33730469440180583 -0.37024605082572321 0 0.32131380138468618 -0.35781980799406771 0 0.3195902766388064 -0.36715160030945099 0 0.32131380138468618 -0.35781980799406771 0 0.3195902766388064 -0.36715160030945099 0 0.31164193609789748 -0.36534276054404841 0 0.3195902766388064 -0.36715160030945099 0 0.31344150320039338 -0.37437970314284857 0 0.31164193609789748 -0.36534276054404841 0 0.3195902766388064 -0.36715160030945099 0 0.31344150320039338 -0.37437970314284857 0 0.32614452781213771 -0.37375782795655188 0 0.33403865460376492 -0.30861205530614089 0 0.34510382854703359 -0.32501668268953993 0 0.32705849854649738 -0.3324238604424441 0 0.33403865460376492 -0.30861205530614089 0 0.34854143016053168 -0.30920562723548078 0 0.34510382854703359 -0.32501668268953993 0 0.34510382854703359 -0.32501668268953993 0 0.33912974613400049 -0.34640098474930758 0 0.32705849854649738 -0.3324238604424441 0 0.32705849854649738 -0.3324238604424441 0 0.31086319227366771 -0.32158260049104798 0 0.30532290836756981 -0.34539356516240821 0 0.33403865460376492 -0.30861205530614089 0 0.32705849854649738 -0.3324238604424441 0 0.31086319227366771 -0.32158260049104798 0 0.31086319227366771 -0.32158260049104798 0 0.30532290836756981 -0.34539356516240821 0 0.31086319227366771 -0.32158260049104798 0 0.28562682288242042 -0.3300880821722218 0 0.30532290836756981 -0.34539356516240821 0 0.28562682288242042 -0.3300880821722218 0 0.30532290836756981 -0.34539356516240821 0 0.28020595703374868 -0.3476155300258712 0 0.28562682288242042 -0.3300880821722218 0 0.30532290836756981 -0.34539356516240821 0 0.31086319227366771 -0.32158260049104798 0 0.28562682288242042 -0.3300880821722218 0 0.2903945843242185 -0.30741715597802122 0 0.28562682288242042 -0.3300880821722218 0 0.27634336995805697 -0.31357329043791199 0 0.2903945843242185 -0.30741715597802122 0 0.29919836858202892 -0.3717155376341551 0 0.31164193609789748 -0.36534276054404841 0 0.30532290836756981 -0.34539356516240821 0 0.31098475841390411 -0.37559634902135552 0 0.29919836858202892 -0.3717155376341551 0 0.31098475841390411 -0.37559634902135552 0 0.29919836858202892 -0.3717155376341551 0 0.31164193609789748 -0.36534276054404841 0 0.31098475841390411 -0.37559634902135552 0 0.31344150320039338 -0.37437970314284857 0 0.31164193609789748 -0.36534276054404841 0 0.31098475841390411 -0.37559634902135552 0 0.31344150320039338 -0.37437970314284857 0 0.29919836858202892 -0.3717155376341551 0 0.30532290836756981 -0.34539356516240821 0 0.29919836858202892 -0.3717155376341551 0 0.30532290836756981 -0.34539356516240821 0 0.29285430607385909 -0.35648783500327952 0 0.30532290836756981 -0.34539356516240821 0 0.29285430607385909 -0.35648783500327952 0 0.28020595703374868 -0.3476155300258712 0 0.29285430607385909 -0.35648783500327952 0 0.2815703819386588 -0.36591130985321257 0 0.28020595703374868 -0.3476155300258712 0 0.28650388776827668 -0.37778676406628259 0 0.29919836858202892 -0.3717155376341551 0 0.2815703819386588 -0.36591130985321257 0 0.29919836858202892 -0.3717155376341551 0 0.29285430607385909 -0.35648783500327952 0 0.2815703819386588 -0.36591130985321257 0 0.29919836858202892 -0.3717155376341551 0 0.2815703819386588 -0.36591130985321257 0 0.2815703819386588 -0.36591130985321257 0 0.26394239529528712 -0.36010708207227521 0 0.27548904463973672 -0.37675625550611652 0 0.26307232836327332 -0.37994035610195293 0 0.26394239529528712 -0.36010708207227521 0 0.27548904463973672 -0.37675625550611652 0 0.2815703819386588 -0.36591130985321257 0 0.26394239529528712 -0.36010708207227521 0 0.28650388776827668 -0.37778676406628259 0 0.27548904463973672 -0.37675625550611652 0 0.2815703819386588 -0.36591130985321257 0 0.28020595703374868 -0.3476155300258712 0 0.26394239529528712 -0.36010708207227521 0 0.26493656634628149 -0.33744484062715308 0 0.2815703819386588 -0.36591130985321257 0 0.28020595703374868 -0.3476155300258712 0 0.26394239529528712 -0.36010708207227521 0 0.25129296546829749 -0.3635520474296855 0 0.25225680473079831 -0.33782676866217132 0 0.26394239529528712 -0.36010708207227521 0 0.26493656634628149 -0.33744484062715308 0 0.25823894601456798 -0.35009247224192508 0 0.25129296546829749 -0.3635520474296855 0 0.25225680473079831 -0.33782676866217132 0 0.25823894601456798 -0.35009247224192508 0 0.26394239529528712 -0.36010708207227521 0 0.26493656634628149 -0.33744484062715308 0 0.25823894601456798 -0.35009247224192508 0 0.25749445592224618 -0.3579840200575401 0 0.25129296546829749 -0.3635520474296855 0 0.25823894601456798 -0.35009247224192508 0 0.25749445592224618 -0.3579840200575401 0 0.26394239529528712 -0.36010708207227521 0 0.25749445592224618 -0.3579840200575401 0 0.26394239529528712 -0.36010708207227521 0 0.26307232836327332 -0.37994035610195293 0 0.26394239529528712 -0.36010708207227521 0 0.26307232836327332 -0.37994035610195293 0 0.26394239529528712 -0.36010708207227521 0 0.25402880698198999 -0.37241306581236733 0 0.26394239529528712 -0.36010708207227521 0 0.25129296546829749 -0.3635520474296855 0 0.25402880698198999 -0.37241306581236733 0 0.25749445592224618 -0.3579840200575401 0 0.26394239529528712 -0.36010708207227521 0 0.25129296546829749 -0.3635520474296855 0 0.28562682288242042 -0.3300880821722218 0 0.26593073739727457 -0.31478259918203078 0 0.27634336995805697 -0.31357329043791199 0 0.28562682288242042 -0.3300880821722218 0 0.26593073739727457 -0.31478259918203078 0 0.26493656634628149 -0.33744484062715308 0 0.28562682288242042 -0.3300880821722218 0 0.26593073739727457 -0.31478259918203078 0 0.26593073739727457 -0.31478259918203078 0 0.27634336995805697 -0.31357329043791199 0 0.2660865264424439 -0.31123137029381409 0 0.26593073739727457 -0.31478259918203078 0 0.2660865264424439 -0.31123137029381409 0 0.28562682288242042 -0.3300880821722218 0 0.28020595703374868 -0.3476155300258712 0 0.26493656634628149 -0.33744484062715308 0 0.26493656634628149 -0.33744484062715308 0 0.25225680473079831 -0.33782676866217132 0 0.25824012256707918 -0.32579814659263467 0 0.25823894601456798 -0.35009247224192508 0 0.26493656634628149 -0.33744484062715308 0 0.25225680473079831 -0.33782676866217132 0 0.26593073739727457 -0.31478259918203078 0 0.26493656634628149 -0.33744484062715308 0 0.26593073739727457 -0.31478259918203078 0 0.26493656634628149 -0.33744484062715308 0 0.25824012256707918 -0.32579814659263467 0 0.25225680473079831 -0.33782676866217132 0 0.25322064399330563 -0.31210148989465719 0 0.25225680473079831 -0.33782676866217132 0 0.25824012256707918 -0.32579814659263467 0 0.25322064399330563 -0.31210148989465719 0 0.26593073739727457 -0.31478259918203078 0 0.25824012256707918 -0.32579814659263467 0 0.25938223479644651 -0.31574074030600979 0 0.26593073739727457 -0.31478259918203078 0 0.26013743522812233 -0.31028072555471342 0 0.26593073739727457 -0.31478259918203078 0 0.25938223479644651 -0.31574074030600979 0 0.26013743522812233 -0.31028072555471342 0 0.25824012256707918 -0.32579814659263467 0 0.25938223479644651 -0.31574074030600979 0 0.25322064399330563 -0.31210148989465719 0 0.25938223479644651 -0.31574074030600979 0 0.25322064399330563 -0.31210148989465719 0 0.26013743522812233 -0.31028072555471342 0 0.25322064399330563 -0.31210148989465719 0 0.25364662918165087 -0.30073176451868278 0 0.25322064399330563 -0.31210148989465719 0 0.26916072403191621 -0.29514849602561621 0 0.25322064399330563 -0.31210148989465719 0 0.25364662918165087 -0.30073176451868278 0 0.26916072403191621 -0.29514849602561621 0 0.25322064399330563 -0.31210148989465719 0 0.26013743522812233 -0.31028072555471342 0 0.26916072403191621 -0.29514849602561621 0 0.26013743522812233 -0.31028072555471342 0 0.26916072403191621 -0.29514849602561621 0 0.2660865264424439 -0.31123137029381409 0 0.26593073739727457 -0.31478259918203078 0 0.26013743522812233 -0.31028072555471342 0 0.2660865264424439 -0.31123137029381409 0 0.25364662918165087 -0.30073176451868278 0 0.25435859493745849 -0.2817290964871968 0 0.27201847840872168 -0.27969922076020259 0 0.25364662918165087 -0.30073176451868278 0 0.26916072403191621 -0.29514849602561621 0 0.27201847840872168 -0.27969922076020259 0 0.25364662918165087 -0.30073176451868278 0 0.25435859493745849 -0.2817290964871968 0 0.25364662918165087 -0.30073176451868278 0 0.25435859493745849 -0.2817290964871968 0 0.24438159396828091 -0.29093277816711488 0 0.25364662918165087 -0.30073176451868278 0 0.27201847840872168 -0.27969922076020259 0 0.26916072403191621 -0.29514849602561621 0 0.28510080407052668 -0.27819550215657529 0 0.27201847840872168 -0.27969922076020259 0 0.26916072403191621 -0.29514849602561621 0 0.28510080407052668 -0.27819550215657529 0 0.26916072403191621 -0.29514849602561621 0 0.28344190488622278 -0.29516295480019361 0 0.28510080407052668 -0.27819550215657529 0 0.26916072403191621 -0.29514849602561621 0 0.2660865264424439 -0.31123137029381409 0 0.27693311181262181 -0.30431760313324202 0 0.27634336995805697 -0.31357329043791199 0 0.2660865264424439 -0.31123137029381409 0 0.27693311181262181 -0.30431760313324202 0 0.26916072403191621 -0.29514849602561621 0 0.27693311181262181 -0.30431760313324202 0 0.28344190488622278 -0.29516295480019361 0 0.27634336995805697 -0.31357329043791199 0 0.27693311181262181 -0.30431760313324202 0 0.2903945843242185 -0.30741715597802122 0 0.2903945843242185 -0.30741715597802122 0 0.28344190488622278 -0.29516295480019361 0 0.29562030019183461 -0.29073601670751648 0 0.27693311181262181 -0.30431760313324202 0 0.2903945843242185 -0.30741715597802122 0 0.28344190488622278 -0.29516295480019361 0 0.29562030019183461 -0.29073601670751648 0 0.30352228207819432 -0.27607808665245592 0 0.28510080407052668 -0.27819550215657529 0 0.28344190488622278 -0.29516295480019361 0 0.29562030019183461 -0.29073601670751648 0 0.28510080407052668 -0.27819550215657529 0 0.31640347617976361 -0.29777163581968719 0 0.29562030019183461 -0.29073601670751648 0 0.30352228207819432 -0.27607808665245592 0 0.31640347617976361 -0.29777163581968719 0 0.2903945843242185 -0.30741715597802122 0 0.29562030019183461 -0.29073601670751648 0 0.31640347617976361 -0.29777163581968719 0 0.31086319227366771 -0.32158260049104798 0 0.2903945843242185 -0.30741715597802122 0 0.31686679269906531 -0.24441094090220611 0 0.30098379838479422 -0.2613032215293889 0 0.30606261329748502 -0.24720332580829299 0 0.31686679269906531 -0.24441094090220611 0 0.30098379838479422 -0.2613032215293889 0 0.31686679269906531 -0.24441094090220611 0 0.31704808032734871 -0.25862982220689812 0 0.30098379838479422 -0.2613032215293889 0 0.31704808032734871 -0.25862982220689812 0 0.30098379838479422 -0.2613032215293889 0 0.31087448021904918 -0.26749295038426729 0 0.30606261329748502 -0.24720332580829299 0 0.30098379838479422 -0.2613032215293889 0 0.29129901267051078 -0.25762639207889387 0 0.30098379838479422 -0.2613032215293889 0 0.31087448021904918 -0.26749295038426729 0 0.30352228207819432 -0.27607808665245592 0 0.32194376008586062 -0.27396067114832678 0 0.31087448021904918 -0.26749295038426729 0 0.30352228207819432 -0.27607808665245592 0 0.30098379838479422 -0.2613032215293889 0 0.28510080407052668 -0.27819550215657529 0 0.30098379838479422 -0.2613032215293889 0 0.28510080407052668 -0.27819550215657529 0 0.29129901267051078 -0.25762639207889387 0 0.30098379838479422 -0.2613032215293889 0 0.30352228207819432 -0.27607808665245592 0 0.28510080407052668 -0.27819550215657529 0 0.28510080407052668 -0.27819550215657529 0 0.29129901267051078 -0.25762639207889387 0 0.27201847840872168 -0.27969922076020259 0 0.30352228207819432 -0.27607808665245592 0 0.28510080407052668 -0.27819550215657529 0 0.29129901267051078 -0.25762639207889387 0 0.27201847840872168 -0.27969922076020259 0 0.29129901267051078 -0.25762639207889387 0 0.28116267127569661 -0.25462357555073328 0 0.27610130178862879 -0.26305404442503921 0 0.2834140221086216 -0.24794017853539199 0 0.29129901267051078 -0.25762639207889387 0 0.28116267127569661 -0.25462357555073328 0 0.27383634853502509 -0.24987368716360839 0 0.28116267127569661 -0.25462357555073328 0 0.27610130178862879 -0.26305404442503921 0 0.27383634853502509 -0.24987368716360839 0 0.27610130178862879 -0.26305404442503921 0 0.25533953057736541 -0.25554750815456378 0 0.2834140221086216 -0.24794017853539199 0 0.27383634853502509 -0.24987368716360839 0 0.28116267127569661 -0.25462357555073328 0 0.29129901267051078 -0.25762639207889387 0 0.27610130178862879 -0.26305404442503921 0 0.27201847840872168 -0.27969922076020259 0 0.27610130178862879 -0.26305404442503921 0 0.27201847840872168 -0.27969922076020259 0 0.25533953057736541 -0.25554750815456378 0 0.28510080407052668 -0.27819550215657529 0 0.27201847840872168 -0.27969922076020259 0 0.25435859493745849 -0.2817290964871968 0 0.27201847840872168 -0.27969922076020259 0 0.25435859493745849 -0.2817290964871968 0 0.25533953057736541 -0.25554750815456378 0 0.25435859493745849 -0.2817290964871968 0 0.27201847840872168 -0.27969922076020259 0 0.25533953057736541 -0.25554750815456378 0 0.25533953057736541 -0.25554750815456378 0 0.24004238257804561 -0.27076668575372892 0 0.23069743310230159 -0.25534591065307788 0 0.25533953057736541 -0.25554750815456378 0 0.23069743310230159 -0.25534591065307788 0 0.23604318655817569 -0.2401043149900679 0 0.25435859493745849 -0.2817290964871968 0 0.24004238257804561 -0.27076668575372892 0 0.22858676294942651 -0.28469138195628341 0 0.25435859493745849 -0.2817290964871968 0 0.25533953057736541 -0.25554750815456378 0 0.24004238257804561 -0.27076668575372892 0 0.20962269333963229 -0.26811810519665202 0 0.22858676294942651 -0.28469138195628341 0 0.24004238257804561 -0.27076668575372892 0 0.20962269333963229 -0.26811810519665202 0 0.22858676294942651 -0.28469138195628341 0 0.23069743310230159 -0.25534591065307788 0 0.20962269333963229 -0.26811810519665202 0 0.21661203401501419 -0.24505240772256959 0 0.24004238257804561 -0.27076668575372892 0 0.23069743310230159 -0.25534591065307788 0 0.20962269333963229 -0.26811810519665202 0 0.20436488751121931 -0.25083568665356137 0 0.20962269333963229 -0.26811810519665202 0 0.21661203401501419 -0.24505240772256959 0 0.20962269333963229 -0.26811810519665202 0 0.2022542193281649 -0.28177785787828818 0 0.2171888844334027 -0.28600148555784599 0 0.20962269333963229 -0.26811810519665202 0 0.2171888844334027 -0.28600148555784599 0 0.22858676294942651 -0.28469138195628341 0 0.19296020436881839 -0.26951407465926969 0 0.2022542193281649 -0.28177785787828818 0 0.18233890281043949 -0.28724027461104629 0 0.20962269333963229 -0.26811810519665202 0 0.19296020436881839 -0.26951407465926969 0 0.2022542193281649 -0.28177785787828818 0 0.20436488751121931 -0.25083568665356137 0 0.20962269333963229 -0.26811810519665202 0 0.19065862372983861 -0.25154482843701981 0 0.20962269333963229 -0.26811810519665202 0 0.19296020436881839 -0.26951407465926969 0 0.19065862372983861 -0.25154482843701981 0 0.20962269333963229 -0.26811810519665202 0 0.19065862372983861 -0.25154482843701981 0 0.20085981413639031 -0.30642236341200801 0 0.19675440527732779 -0.29498048442855951 0 0.2097156371272719 -0.29920361103681198 0 0.20085981413639031 -0.30642236341200801 0 0.19818805412576029 -0.31480294964197891 0 0.18956638418787539 -0.31310091008127172 0 0.20085981413639031 -0.30642236341200801 0 0.18956638418787539 -0.31310091008127172 0 0.18583507079533801 -0.30181631243952428 0 0.20085981413639031 -0.30642236341200801 0 0.19675440527732779 -0.29498048442855951 0 0.18583507079533801 -0.30181631243952428 0 0.19675440527732779 -0.29498048442855951 0 0.18233890281043949 -0.28724027461104629 0 0.18583507079533801 -0.30181631243952428 0 0.2022542193281649 -0.28177785787828818 0 0.19675440527732779 -0.29498048442855951 0 0.18233890281043949 -0.28724027461104629 0 0.2022542193281649 -0.28177785787828818 0 0.19675440527732779 -0.29498048442855951 0 0.20859946756430681 -0.29055129765808091 0 0.19675440527732779 -0.29498048442855951 0 0.20859946756430681 -0.29055129765808091 0 0.2097156371272719 -0.29920361103681198 0 0.2022542193281649 -0.28177785787828818 0 0.20859946756430681 -0.29055129765808091 0 0.2171888844334027 -0.28600148555784599 0 0.20859946756430681 -0.29055129765808091 0 0.2097156371272719 -0.29920361103681198 0 0.21916631770531131 -0.29636168914601002 0 0.20859946756430681 -0.29055129765808091 0 0.2171888844334027 -0.28600148555784599 0 0.21916631770531131 -0.29636168914601002 0 0.21634779156481801 -0.30241677508729881 0 0.2097156371272719 -0.29920361103681198 0 0.21332938443465849 -0.30867984084673689 0 0.21634779156481801 -0.30241677508729881 0 0.2097156371272719 -0.29920361103681198 0 0.21916631770531131 -0.29636168914601002 0 0.20085981413639031 -0.30642236341200801 0 0.2097156371272719 -0.29920361103681198 0 0.21332938443465849 -0.30867984084673689 0 0.20085981413639031 -0.30642236341200801 0 0.21332938443465849 -0.30867984084673689 0 0.20602366740948211 -0.31738816263822928 0 0.21634779156481801 -0.30241677508729881 0 0.21332938443465849 -0.30867984084673689 0 0.22317982699203051 -0.30542195931963623 0 0.21332938443465849 -0.30867984084673689 0 0.22317982699203051 -0.30542195931963623 0 0.216969205764935 -0.31596123572932933 0 0.22317982699203051 -0.30542195931963623 0 0.23119608438667591 -0.31055015421991422 0 0.22487364785837111 -0.31475734899209912 0 0.22317982699203051 -0.30542195931963623 0 0.22487364785837111 -0.31475734899209912 0 0.216969205764935 -0.31596123572932933 0 0.21634779156481801 -0.30241677508729881 0 0.22317982699203051 -0.30542195931963623 0 0.21916631770531131 -0.29636168914601002 0 0.22317982699203051 -0.30542195931963623 0 0.229024053151617 -0.2971654635196449 0 0.21916631770531131 -0.29636168914601002 0 0.229024053151617 -0.2971654635196449 0 0.23624579804227441 -0.29423304542741818 0 0.23615380008050621 -0.3028220969691775 0 0.22317982699203051 -0.30542195931963623 0 0.2298884411527074 -0.30398991850709323 0 0.229024053151617 -0.2971654635196449 0 0.2298884411527074 -0.30398991850709323 0 0.229024053151617 -0.2971654635196449 0 0.23615380008050621 -0.3028220969691775 0 0.2298884411527074 -0.30398991850709323 0 0.23119608438667591 -0.31055015421991422 0 0.23615380008050621 -0.3028220969691775 0 0.22317982699203051 -0.30542195931963623 0 0.2298884411527074 -0.30398991850709323 0 0.23119608438667591 -0.31055015421991422 0 0.2171888844334027 -0.28600148555784599 0 0.22858676294942651 -0.28469138195628341 0 0.2171888844334027 -0.28600148555784599 0 0.225917739965625 -0.29090953992656848 0 0.22858676294942651 -0.28469138195628341 0 0.229024053151617 -0.2971654635196449 0 0.21916631770531131 -0.29636168914601002 0 0.225917739965625 -0.29090953992656848 0 0.2171888844334027 -0.28600148555784599 0 0.21916631770531131 -0.29636168914601002 0 0.225917739965625 -0.29090953992656848 0 0.229024053151617 -0.2971654635196449 0 0.225917739965625 -0.29090953992656848 0 0.23072111618721911 -0.29242936275899589 0 0.229024053151617 -0.2971654635196449 0 0.23072111618721911 -0.29242936275899589 0 0.23624579804227441 -0.29423304542741818 0 0.23072111618721911 -0.29242936275899589 0 0.23169687358935981 -0.28740940216235189 0 0.23624579804227441 -0.29423304542741818 0 0.225917739965625 -0.29090953992656848 0 0.23072111618721911 -0.29242936275899589 0 0.23169687358935981 -0.28740940216235189 0 0.225917739965625 -0.29090953992656848 0 0.23169687358935981 -0.28740940216235189 0 0.22858676294942651 -0.28469138195628341 0 0.23169687358935981 -0.28740940216235189 0 0.22858676294942651 -0.28469138195628341 0 0.25435859493745849 -0.2817290964871968 0 0.22858676294942651 -0.28469138195628341 0 0.25435859493745849 -0.2817290964871968 0 0.23169687358935981 -0.28740940216235189 0 0.24438159396828091 -0.29093277816711488 0 0.25435859493745849 -0.2817290964871968 0 0.23169687358935981 -0.28740940216235189 0 0.22858676294942651 -0.28469138195628341 0 0.23169687358935981 -0.28740940216235189 0 0.23624579804227441 -0.29423304542741818 0 0.24438159396828091 -0.29093277816711488 0 0.23624579804227441 -0.29423304542741818 0 0.24438159396828091 -0.29093277816711488 0 0.24380633879974739 -0.29975186860582997 0 0.25364662918165087 -0.30073176451868278 0 0.24380633879974739 -0.29975186860582997 0 0.23919091907995491 -0.31728101612182402 0 0.25322064399330563 -0.31210148989465719 0 0.25364662918165087 -0.30073176451868278 0 0.23919091907995491 -0.31728101612182402 0 0.23615380008050621 -0.3028220969691775 0 0.24380633879974739 -0.29975186860582997 0 0.23919091907995491 -0.31728101612182402 0 0.25364662918165087 -0.30073176451868278 0 0.23919091907995491 -0.31728101612182402 0 0.23119608438667591 -0.31055015421991422 0 0.23615380008050621 -0.3028220969691775 0 0.23919091907995491 -0.31728101612182402 0 0.23624579804227441 -0.29423304542741818 0 0.23615380008050621 -0.3028220969691775 0 0.24380633879974739 -0.29975186860582997 0 0.25364662918165087 -0.30073176451868278 0 0.24438159396828091 -0.29093277816711488 0 0.24380633879974739 -0.29975186860582997 0 0.25225680473079831 -0.33782676866217132 0 0.25322064399330563 -0.31210148989465719 0 0.2375750541609768 -0.32874128015058801 0 0.25322064399330563 -0.31210148989465719 0 0.23919091907995491 -0.31728101612182402 0 0.2375750541609768 -0.32874128015058801 0 0.25322064399330563 -0.31210148989465719 0 0.2375750541609768 -0.32874128015058801 0 0.23919091907995491 -0.31728101612182402 0 0.2375750541609768 -0.32874128015058801 0 0.23014627293185119 -0.32124267282220298 0 0.25225680473079831 -0.33782676866217132 0 0.2382135112341778 -0.3403556240990413 0 0.2375750541609768 -0.32874128015058801 0 0.25225680473079831 -0.33782676866217132 0 0.2382135112341778 -0.3403556240990413 0 0.23628866222119951 -0.3512217841884529 0 0.2382135112341778 -0.3403556240990413 0 0.2375750541609768 -0.32874128015058801 0 0.22192946432864441 -0.34538107040651528 0 0.2375750541609768 -0.32874128015058801 0 0.22192946432864441 -0.34538107040651528 0 0.2375750541609768 -0.32874128015058801 0 0.22622794107072949 -0.33161953565970981 0 0.22192946432864441 -0.34538107040651528 0 0.22622794107072949 -0.33161953565970981 0 0.22192946432864441 -0.34538107040651528 0 0.2174487877784248 -0.33685856896343391 0 0.22622794107072949 -0.33161953565970981 0 0.22181399103439939 -0.32450670178908342 0 0.2174487877784248 -0.33685856896343391 0 0.22622794107072949 -0.33161953565970981 0 0.22181399103439939 -0.32450670178908342 0 0.23014627293185119 -0.32124267282220298 0 0.22181399103439939 -0.32450670178908342 0 0.22487364785837111 -0.31475734899209912 0 0.23014627293185119 -0.32124267282220298 0 0.22181399103439939 -0.32450670178908342 0 0.22487364785837111 -0.31475734899209912 0 0.216969205764935 -0.31596123572932933 0 0.23119608438667591 -0.31055015421991422 0 0.22487364785837111 -0.31475734899209912 0 0.23014627293185119 -0.32124267282220298 0 0.23119608438667591 -0.31055015421991422 0 0.23919091907995491 -0.31728101612182402 0 0.23014627293185119 -0.32124267282220298 0 0.2375750541609768 -0.32874128015058801 0 0.22622794107072949 -0.33161953565970981 0 0.23014627293185119 -0.32124267282220298 0 0.24406793522328629 -0.37190139653370591 0 0.23482061245345559 -0.36442920316194333 0 0.2277456322071473 -0.37771550310597402 0 0.25129296546829749 -0.3635520474296855 0 0.25402880698198999 -0.37241306581236733 0 0.24406793522328629 -0.37190139653370591 0 0.25129296546829749 -0.3635520474296855 0 0.24406793522328629 -0.37190139653370591 0 0.24374539601940751 -0.35778623999519182 0 0.24406793522328629 -0.37190139653370591 0 0.23482061245345559 -0.36442920316194333 0 0.24374539601940751 -0.35778623999519182 0 0.25225680473079831 -0.33782676866217132 0 0.24374539601940751 -0.35778623999519182 0 0.23628866222119951 -0.3512217841884529 0 0.25129296546829749 -0.3635520474296855 0 0.25225680473079831 -0.33782676866217132 0 0.24374539601940751 -0.35778623999519182 0 0.23482061245345559 -0.36442920316194333 0 0.24374539601940751 -0.35778623999519182 0 0.23628866222119951 -0.3512217841884529 0 0.2382135112341778 -0.3403556240990413 0 0.23628866222119951 -0.3512217841884529 0 0.22192946432864441 -0.34538107040651528 0 0.23628866222119951 -0.3512217841884529 0 0.22192946432864441 -0.34538107040651528 0 0.2225345211558353 -0.36219855853866978 0 0.23482061245345559 -0.36442920316194333 0 0.23628866222119951 -0.3512217841884529 0 0.2225345211558353 -0.36219855853866978 0 0.2225345211558353 -0.36219855853866978 0 0.21321715427451449 -0.37370724017685653 0 0.2277456322071473 -0.37771550310597402 0 0.23482061245345559 -0.36442920316194333 0 0.2225345211558353 -0.36219855853866978 0 0.2277456322071473 -0.37771550310597402 0 0.21321715427451449 -0.37370724017685653 0 0.20628387449631161 -0.36202086066244232 0 0.19661109165272339 -0.38278220816568509 0 0.2225345211558353 -0.36219855853866978 0 0.21321715427451449 -0.37370724017685653 0 0.20628387449631161 -0.36202086066244232 0 0.22192946432864441 -0.34538107040651528 0 0.2225345211558353 -0.36219855853866978 0 0.20628387449631161 -0.36202086066244232 0 0.22192946432864441 -0.34538107040651528 0 0.20628387449631161 -0.36202086066244232 0 0.22192946432864441 -0.34538107040651528 0 0.20628387449631161 -0.36202086066244232 0 0.21194925747335611 -0.34986086631258878 0 0.20628387449631161 -0.36202086066244232 0 0.21194925747335611 -0.34986086631258878 0 0.20628387449631161 -0.36202086066244232 0 0.21194925747335611 -0.34986086631258878 0 0.19852947663323359 -0.35598844202887242 0 0.22192946432864441 -0.34538107040651528 0 0.21194925747335611 -0.34986086631258878 0 0.2174487877784248 -0.33685856896343391 0 0.21194925747335611 -0.34986086631258878 0 0.1989511040905069 -0.34700284761330319 0 0.19852947663323359 -0.35598844202887242 0 0.21194925747335611 -0.34986086631258878 0 0.1989511040905069 -0.34700284761330319 0 0.20678657531671299 -0.3408824108002082 0 0.1989511040905069 -0.34700284761330319 0 0.18667644498031361 -0.3431207502066046 0 0.1858565937576491 -0.35436414818114331 0 0.19852947663323359 -0.35598844202887242 0 0.190054340827118 -0.36429064519483251 0 0.1858565937576491 -0.35436414818114331 0 0.1989511040905069 -0.34700284761330319 0 0.19852947663323359 -0.35598844202887242 0 0.1858565937576491 -0.35436414818114331 0 0.20628387449631161 -0.36202086066244232 0 0.190054340827118 -0.36429064519483251 0 0.18670064360689559 -0.38284850973322859 0 0.20628387449631161 -0.36202086066244232 0 0.19852947663323359 -0.35598844202887242 0 0.190054340827118 -0.36429064519483251 0 0.20628387449631161 -0.36202086066244232 0 0.18670064360689559 -0.38284850973322859 0 0.20628387449631161 -0.36202086066244232 0 0.19661109165272339 -0.38278220816568509 0 0.20602366740948211 -0.31738816263822928 0 0.2127573242080241 -0.3253302308444096 0 0.20238291434459851 -0.33017078164621139 0 0.21332938443465849 -0.30867984084673689 0 0.20602366740948211 -0.31738816263822928 0 0.216969205764935 -0.31596123572932933 0 0.20602366740948211 -0.31738816263822928 0 0.216969205764935 -0.31596123572932933 0 0.2127573242080241 -0.3253302308444096 0 0.22181399103439939 -0.32450670178908342 0 0.216969205764935 -0.31596123572932933 0 0.2127573242080241 -0.3253302308444096 0 0.22181399103439939 -0.32450670178908342 0 0.2127573242080241 -0.3253302308444096 0 0.2174487877784248 -0.33685856896343391 0 0.2127573242080241 -0.3253302308444096 0 0.2174487877784248 -0.33685856896343391 0 0.21010096566204259 -0.33348853180784621 0 0.2174487877784248 -0.33685856896343391 0 0.20678657531671299 -0.3408824108002082 0 0.21010096566204259 -0.33348853180784621 0 0.21194925747335611 -0.34986086631258878 0 0.2174487877784248 -0.33685856896343391 0 0.20678657531671299 -0.3408824108002082 0 0.20678657531671299 -0.3408824108002082 0 0.21010096566204259 -0.33348853180784621 0 0.20238291434459851 -0.33017078164621139 0 0.2127573242080241 -0.3253302308444096 0 0.21010096566204259 -0.33348853180784621 0 0.20238291434459851 -0.33017078164621139 0 0.20238291434459851 -0.33017078164621139 0 0.19401151760855539 -0.33568759097356671 0 0.19580545554593751 -0.32269195746095669 0 0.20678657531671299 -0.3408824108002082 0 0.20238291434459851 -0.33017078164621139 0 0.19401151760855539 -0.33568759097356671 0 0.1989511040905069 -0.34700284761330319 0 0.20678657531671299 -0.3408824108002082 0 0.19401151760855539 -0.33568759097356671 0 0.1989511040905069 -0.34700284761330319 0 0.19401151760855539 -0.33568759097356671 0 0.18667644498031361 -0.3431207502066046 0 0.19401151760855539 -0.33568759097356671 0 0.19580545554593751 -0.32269195746095669 0 0.1849397292140233 -0.32345632473152369 0 0.20602366740948211 -0.31738816263822928 0 0.20238291434459851 -0.33017078164621139 0 0.19580545554593751 -0.32269195746095669 0 0.20602366740948211 -0.31738816263822928 0 0.19580545554593751 -0.32269195746095669 0 0.19818805412576029 -0.31480294964197891 0 0.20085981413639031 -0.30642236341200801 0 0.20602366740948211 -0.31738816263822928 0 0.19818805412576029 -0.31480294964197891 0 0.19580545554593751 -0.32269195746095669 0 0.19818805412576029 -0.31480294964197891 0 0.18956638418787539 -0.31310091008127172 0 0.19580545554593751 -0.32269195746095669 0 0.18956638418787539 -0.31310091008127172 0 0.1849397292140233 -0.32345632473152369 0 0.18956638418787539 -0.31310091008127172 0 0.18114021830386989 -0.31262000521250483 0 0.1849397292140233 -0.32345632473152369 0 0.18114021830386989 -0.31262000521250483 0 0.1727428438687609 -0.3230367261736079 0 0.1849397292140233 -0.32345632473152369 0 0.1727428438687609 -0.3230367261736079 0 0.1849397292140233 -0.32345632473152369 0 0.18169438516068709 -0.33416546455439022 0 0.1727428438687609 -0.3230367261736079 0 0.17286862428416949 -0.34438369971061961 0 0.19401151760855539 -0.33568759097356671 0 0.1849397292140233 -0.32345632473152369 0 0.18169438516068709 -0.33416546455439022 0 0.1727428438687609 -0.3230367261736079 0 0.18169438516068709 -0.33416546455439022 0 0.17286862428416949 -0.34438369971061961 0 0.19401151760855539 -0.33568759097356671 0 0.18169438516068709 -0.33416546455439022 0 0.18667644498031361 -0.3431207502066046 0 0.18169438516068709 -0.33416546455439022 0 0.18667644498031361 -0.3431207502066046 0 0.17286862428416949 -0.34438369971061961 0 0.1727428438687609 -0.3230367261736079 0 0.16587605049907331 -0.33525039787405497 0 0.17286862428416949 -0.34438369971061961 0 0.16587605049907331 -0.33525039787405497 0 0.16146938476899159 -0.35133697939776898 0 0.14994436483840631 -0.33694328554790592 0 0.16587605049907331 -0.33525039787405497 0 0.14994436483840631 -0.33694328554790592 0 0.16587605049907331 -0.33525039787405497 0 0.17286862428416949 -0.34438369971061961 0 0.16146938476899159 -0.35133697939776898 0 0.16587605049907331 -0.33525039787405497 0 0.1571036301850158 -0.32850617924108211 0 0.14994436483840631 -0.33694328554790592 0 0.16587605049907331 -0.33525039787405497 0 0.1571036301850158 -0.32850617924108211 0 0.16273297255095301 -0.32336566304110548 0 0.1571036301850158 -0.32850617924108211 0 0.16273297255095301 -0.32336566304110548 0 0.15345245160964779 -0.31806066641754871 0 0.16273297255095301 -0.32336566304110548 0 0.15345245160964779 -0.31806066641754871 0 0.16448988659226729 -0.31197434549923408 0 0.1727428438687609 -0.3230367261736079 0 0.16273297255095301 -0.32336566304110548 0 0.16448988659226729 -0.31197434549923408 0 0.1727428438687609 -0.3230367261736079 0 0.16587605049907331 -0.33525039787405497 0 0.16273297255095301 -0.32336566304110548 0 0.190054340827118 -0.36429064519483251 0 0.17299440469957761 -0.36573067324763131 0 0.18670064360689559 -0.38284850973322859 0 0.190054340827118 -0.36429064519483251 0 0.17299440469957761 -0.36573067324763131 0 0.1858565937576491 -0.35436414818114331 0 0.17299440469957761 -0.36573067324763131 0 0.18670064360689559 -0.38284850973322859 0 0.17299440469957761 -0.36573067324763131 0 0.17286862428416949 -0.34438369971061961 0 0.17299440469957761 -0.36573067324763131 0 0.1858565937576491 -0.35436414818114331 0 0.17286862428416949 -0.34438369971061961 0 0.18667644498031361 -0.3431207502066046 0 0.1858565937576491 -0.35436414818114331 0 0.17286862428416949 -0.34438369971061961 0 0.17299440469957761 -0.36573067324763131 0 0.17286862428416949 -0.34438369971061961 0 0.16146938476899159 -0.35133697939776898 0 0.17299440469957761 -0.36573067324763131 0 0.16146938476899159 -0.35133697939776898 0 0.17299440469957761 -0.36573067324763131 0 0.16146938476899159 -0.35133697939776898 0 0.15522085625649359 -0.36316005622467362 0 0.17299440469957761 -0.36573067324763131 0 0.15522085625649359 -0.36316005622467362 0 0.15954490989016201 -0.37568770588708739 0 0.14162085797256921 -0.36795591948027118 0 0.15522085625649359 -0.36316005622467362 0 0.14436752356626739 -0.35209574136363758 0 0.14162085797256921 -0.36795591948027118 0 0.15522085625649359 -0.36316005622467362 0 0.15954490989016201 -0.37568770588708739 0 0.16146938476899159 -0.35133697939776898 0 0.14436752356626739 -0.35209574136363758 0 0.14994436483840631 -0.33694328554790592 0 0.16146938476899159 -0.35133697939776898 0 0.15522085625649359 -0.36316005622467362 0 0.14436752356626739 -0.35209574136363758 0 0.16146938476899159 -0.35133697939776898 0 0.14994436483840631 -0.33694328554790592 0 0.14436752356626739 -0.35209574136363758 0 0.1265105430837358 -0.3539727440551016 0 0.13188555645161701 -0.33886219951429541 0 0.14162085797256921 -0.36795591948027118 0 0.14436752356626739 -0.35209574136363758 0 0.1265105430837358 -0.3539727440551016 0 0.14162085797256921 -0.36795591948027118 0 0.1216319859097775 -0.36914638831819901 0 0.14162085797256921 -0.36795591948027118 0 0.13834922276355099 -0.38334828709831359 0 0.1216319859097775 -0.36914638831819901 0 0.14162085797256921 -0.36795591948027118 0 0.1265105430837358 -0.3539727440551016 0 0.1216319859097775 -0.36914638831819901 0 0.14196854614040899 -0.326982218822433 0 0.1446458533472017 -0.3183063303690965 0 0.149422969224136 -0.32575973607961328 0 0.14196854614040899 -0.326982218822433 0 0.1446458533472017 -0.3183063303690965 0 0.13527974296379269 -0.32077329441673802 0 0.1446458533472017 -0.3183063303690965 0 0.13667213718017829 -0.31302637998318161 0 0.1502678802469479 -0.31014913929783011 0 0.1446458533472017 -0.3183063303690965 0 0.1502678802469479 -0.31014913929783011 0 0.1446458533472017 -0.3183063303690965 0 0.15345245160964779 -0.31806066641754871 0 0.1502678802469479 -0.31014913929783011 0 0.15345245160964779 -0.31806066641754871 0 0.1502678802469479 -0.31014913929783011 0 0.16448988659226729 -0.31197434549923408 0 0.15345245160964779 -0.31806066641754871 0 0.1502678802469479 -0.31014913929783011 0 0.1446458533472017 -0.3183063303690965 0 0.15345245160964779 -0.31806066641754871 0 0.149422969224136 -0.32575973607961328 0 0.1571036301850158 -0.32850617924108211 0 0.15345245160964779 -0.31806066641754871 0 0.149422969224136 -0.32575973607961328 0 0.14196854614040899 -0.326982218822433 0 0.14994436483840631 -0.33694328554790592 0 0.13188555645161701 -0.33886219951429541 0 0.1571036301850158 -0.32850617924108211 0 0.149422969224136 -0.32575973607961328 0 0.14994436483840631 -0.33694328554790592 0 0.14994436483840631 -0.33694328554790592 0 0.13188555645161701 -0.33886219951429541 0 0.14436752356626739 -0.35209574136363758 0 0.14994436483840631 -0.33694328554790592 0 0.13188555645161701 -0.33886219951429541 0 0.14196854614040899 -0.326982218822433 0 0.149422969224136 -0.32575973607961328 0 0.14994436483840631 -0.33694328554790592 0 0.14196854614040899 -0.326982218822433 0 0.14994436483840631 -0.33694328554790592 0 0.14196854614040899 -0.326982218822433 0 0.13188555645161701 -0.33886219951429541 0 0.13234748709887459 -0.3287867885916349 0 0.13188555645161701 -0.33886219951429541 0 0.13234748709887459 -0.3287867885916349 0 0.1198552928632486 -0.3261567311648329 0 0.13234748709887459 -0.3287867885916349 0 0.12743903169157289 -0.32312162838162761 0 0.13527974296379269 -0.32077329441673802 0 0.13234748709887459 -0.3287867885916349 0 0.12743903169157289 -0.32312162838162761 0 0.1198552928632486 -0.3261567311648329 0 0.14196854614040899 -0.326982218822433 0 0.13234748709887459 -0.3287867885916349 0 0.13527974296379269 -0.32077329441673802 0 0.1446458533472017 -0.3183063303690965 0 0.13527974296379269 -0.32077329441673802 0 0.13667213718017829 -0.31302637998318161 0 0.13527974296379269 -0.32077329441673802 0 0.13667213718017829 -0.31302637998318161 0 0.13034362767040261 -0.31692867359455762 0 0.13667213718017829 -0.31302637998318161 0 0.13034362767040261 -0.31692867359455762 0 0.1294914523686628 -0.31201544742914988 0 0.12743903169157289 -0.32312162838162761 0 0.13527974296379269 -0.32077329441673802 0 0.13034362767040261 -0.31692867359455762 0 0.12743903169157289 -0.32312162838162761 0 0.13034362767040261 -0.31692867359455762 0 0.1258838376616723 -0.31153234884898162 0 0.13034362767040261 -0.31692867359455762 0 0.1258838376616723 -0.31153234884898162 0 0.1294914523686628 -0.31201544742914988 0 0.1258838376616723 -0.31153234884898162 0 0.13046190300016841 -0.30928242346359508 0 0.13046190300016841 -0.30928242346359508 0 0.14308586237088169 -0.30307828163682587 0 0.13958127153172009 -0.28360007349303601 0 0.1258838376616723 -0.31153234884898162 0 0.13046190300016841 -0.30928242346359508 0 0.13492131222195841 -0.28960873584473301 0 0.1258838376616723 -0.31153234884898162 0 0.13492131222195841 -0.28960873584473301 0 0.11763260708448341 -0.29546497210400308 0 0.1258838376616723 -0.31153234884898162 0 0.13492131222195841 -0.28960873584473301 0 0.1258838376616723 -0.31153234884898162 0 0.1294914523686628 -0.31201544742914988 0 0.13046190300016841 -0.30928242346359508 0 0.13667213718017829 -0.31302637998318161 0 0.1294914523686628 -0.31201544742914988 0 0.13046190300016841 -0.30928242346359508 0 0.1294914523686628 -0.31201544742914988 0 0.13046190300016841 -0.30928242346359508 0 0.13046190300016841 -0.30928242346359508 0 0.14308586237088169 -0.30307828163682587 0 0.13667213718017829 -0.31302637998318161 0 0.13046190300016841 -0.30928242346359508 0 0.14308586237088169 -0.30307828163682587 0 0.14308586237088169 -0.30307828163682587 0 0.1502678802469479 -0.31014913929783011 0 0.13958127153172009 -0.28360007349303601 0 0.13667213718017829 -0.31302637998318161 0 0.14308586237088169 -0.30307828163682587 0 0.1502678802469479 -0.31014913929783011 0 0.1502678802469479 -0.31014913929783011 0 0.13958127153172009 -0.28360007349303601 0 0.1637314614079117 -0.29061436901089349 0 0.13958127153172009 -0.28360007349303601 0 0.15865409717363119 -0.27314284816879059 0 0.1637314614079117 -0.29061436901089349 0 0.1502678802469479 -0.31014913929783011 0 0.13958127153172009 -0.28360007349303601 0 0.13958127153172009 -0.28360007349303601 0 0.13492131222195841 -0.28960873584473301 0 0.1254575681919492 -0.2848333848376543 0 0.13046190300016841 -0.30928242346359508 0 0.13958127153172009 -0.28360007349303601 0 0.13492131222195841 -0.28960873584473301 0 0.1254575681919492 -0.2848333848376543 0 0.11763260708448341 -0.29546497210400308 0 0.13046190300016841 -0.30928242346359508 0 0.13958127153172009 -0.28360007349303601 0 0.13492131222195841 -0.28960873584473301 0 0.13958127153172009 -0.28360007349303601 0 0.1254575681919492 -0.2848333848376543 0 0.12642872182324541 -0.27601112996025151 0 0.13958127153172009 -0.28360007349303601 0 0.12981196982254059 -0.25932990127514521 0 0.13958127153172009 -0.28360007349303601 0 0.12642872182324541 -0.27601112996025151 0 0.12981196982254059 -0.25932990127514521 0 0.13958127153172009 -0.28360007349303601 0 0.12981196982254059 -0.25932990127514521 0 0.14639038796624229 -0.26442395283768783 0 0.12981196982254059 -0.25932990127514521 0 0.14056592598656159 -0.25385549118935052 0 0.14639038796624229 -0.26442395283768783 0 0.12981196982254059 -0.25932990127514521 0 0.14056592598656159 -0.25385549118935052 0 0.1313801839549511 -0.24768604346701381 0 0.14056592598656159 -0.25385549118935052 0 0.14639038796624229 -0.26442395283768783 0 0.15319950440076349 -0.24524783218233939 0 0.14639038796624229 -0.26442395283768783 0 0.16637232239340469 -0.25599624677837812 0 0.15319950440076349 -0.24524783218233939 0 0.14639038796624229 -0.26442395283768783 0 0.15319950440076349 -0.24524783218233939 0 0.13958127153172009 -0.28360007349303601 0 0.14639038796624229 -0.26442395283768783 0 0.15865409717363119 -0.27314284816879059 0 0.13958127153172009 -0.28360007349303601 0 0.14639038796624229 -0.26442395283768783 0 0.15865409717363119 -0.27314284816879059 0 0.17719504256887639 -0.27107959872395743 0 0.1637314614079117 -0.29061436901089349 0 0.15865409717363119 -0.27314284816879059 0 0.16637232239340469 -0.25599624677837812 0 0.17719504256887639 -0.27107959872395743 0 0.17719504256887639 -0.27107959872395743 0 0.1637314614079117 -0.29061436901089349 0 0.14639038796624229 -0.26442395283768783 0 0.15865409717363119 -0.27314284816879059 0 0.16637232239340469 -0.25599624677837812 0 0.19296020436881839 -0.26951407465926969 0 0.19065862372983861 -0.25154482843701981 0 0.17719504256887639 -0.27107959872395743 0 0.19065862372983861 -0.25154482843701981 0 0.16637232239340469 -0.25599624677837812 0 0.17719504256887639 -0.27107959872395743 0 0.19065862372983861 -0.25154482843701981 0 0.17719504256887639 -0.27107959872395743 0 0.19296020436881839 -0.26951407465926969 0 0.17719504256887639 -0.27107959872395743 0 0.18233890281043949 -0.28724027461104629 0 0.18233890281043949 -0.28724027461104629 0 0.1726170634533522 -0.3016897526365962 0 0.1637314614079117 -0.29061436901089349 0 0.17719504256887639 -0.27107959872395743 0 0.18233890281043949 -0.28724027461104629 0 0.1637314614079117 -0.29061436901089349 0 0.18233890281043949 -0.28724027461104629 0 0.18583507079533801 -0.30181631243952428 0 0.1726170634533522 -0.3016897526365962 0 0.1727428438687609 -0.3230367261736079 0 0.1726170634533522 -0.3016897526365962 0 0.18114021830386989 -0.31262000521250483 0 0.1727428438687609 -0.3230367261736079 0 0.1726170634533522 -0.3016897526365962 0 0.18114021830386989 -0.31262000521250483 0 0.18583507079533801 -0.30181631243952428 0 0.1726170634533522 -0.3016897526365962 0 0.18956638418787539 -0.31310091008127172 0 0.18114021830386989 -0.31262000521250483 0 0.18583507079533801 -0.30181631243952428 0 0.1727428438687609 -0.3230367261736079 0 0.1726170634533522 -0.3016897526365962 0 0.16448988659226729 -0.31197434549923408 0 0.1502678802469479 -0.31014913929783011 0 0.1637314614079117 -0.29061436901089349 0 0.1502678802469479 -0.31014913929783011 0 0.16448988659226729 -0.31197434549923408 0 0.1637314614079117 -0.29061436901089349 0 0.1726170634533522 -0.3016897526365962 0 0.16448988659226729 -0.31197434549923408 0 0.1637314614079117 -0.29061436901089349 0 0.2018843366052088 -0.48501541531483422 0 0.18748181950810999 -0.47664732842881541 0 0.1853463632492138 -0.5 0 0.2018843366052088 -0.48501541531483422 0 0.21254576294140559 -0.5 0 0.1853463632492138 -0.5 0 0.2018843366052088 -0.48501541531483422 0 0.20348871909643909 -0.46717335751530659 0 0.18748181950810999 -0.47664732842881541 0 0.22716920134834359 -0.47713607105666089 0 0.20348871909643909 -0.46717335751530659 0 0.2018843366052088 -0.48501541531483422 0 0.22716920134834359 -0.47713607105666089 0 0.20348871909643909 -0.46717335751530659 0 0.2018843366052088 -0.48501541531483422 0 0.21254576294140559 -0.5 0 0.22716920134834359 -0.47713607105666089 0 0.21254576294140559 -0.5 0 0.23974516263359719 -0.49999999999999839 0 0.22716920134834359 -0.47713607105666089 0 0.25084968360024801 -0.48709878459801509 0 0.23974516263359719 -0.49999999999999839 0 0.22716920134834359 -0.47713607105666089 0 0.25920913272365043 -0.47996438739144193 0 0.25084968360024801 -0.48709878459801509 0 0.23974516263359719 -0.49999999999999839 0 0.25920913272365043 -0.47996438739144193 0 0.23974516263359719 -0.49999999999999839 0 0.25084968360024801 -0.48709878459801509 0 0.22716920134834359 -0.47713607105666089 0 0.25084968360024801 -0.48709878459801509 0 0.24665595617308389 -0.47091633612383099 0 0.22716920134834359 -0.47713607105666089 0 0.22716920134834359 -0.47713607105666089 0 0.2388093162707226 -0.4562617457014061 0 0.2177732802463403 -0.4522824856968769 0 0.24665595617308389 -0.47091633612383099 0 0.22716920134834359 -0.47713607105666089 0 0.2388093162707226 -0.4562617457014061 0 0.25971150806076571 -0.45655063465810941 0 0.24665595617308389 -0.47091633612383099 0 0.2388093162707226 -0.4562617457014061 0 0.2388093162707226 -0.4562617457014061 0 0.2481190389119364 -0.4411247897113002 0 0.23342691288386549 -0.43956015696165851 0 0.25971150806076571 -0.45655063465810941 0 0.2388093162707226 -0.4562617457014061 0 0.2481190389119364 -0.4411247897113002 0 0.23342691288386549 -0.43956015696165851 0 0.2177732802463403 -0.4522824856968769 0 0.2187879681849359 -0.43656897092814351 0 0.2388093162707226 -0.4562617457014061 0 0.23342691288386549 -0.43956015696165851 0 0.2177732802463403 -0.4522824856968769 0 0.2177732802463403 -0.4522824856968769 0 0.2038750373758498 -0.43766052823680379 0 0.2187879681849359 -0.43656897092814351 0 0.2177732802463403 -0.4522824856968769 0 0.2038750373758498 -0.43766052823680379 0 0.19802541919885761 -0.45087724455656691 0 0.2177732802463403 -0.4522824856968769 0 0.20348871909643909 -0.46717335751530659 0 0.19802541919885761 -0.45087724455656691 0 0.22716920134834359 -0.47713607105666089 0 0.2177732802463403 -0.4522824856968769 0 0.20348871909643909 -0.46717335751530659 0 0.20348871909643909 -0.46717335751530659 0 0.1798082368445347 -0.45721064397395239 0 0.18748181950810999 -0.47664732842881541 0 0.20348871909643909 -0.46717335751530659 0 0.19802541919885761 -0.45087724455656691 0 0.1798082368445347 -0.45721064397395239 0 0.20348871909643909 -0.46717335751530659 0 0.1798082368445347 -0.45721064397395239 0 0.2038750373758498 -0.43766052823680379 0 0.19802541919885761 -0.45087724455656691 0 0.18518182243112399 -0.44005920735989479 0 0.19802541919885761 -0.45087724455656691 0 0.18518182243112399 -0.44005920735989479 0 0.1798082368445347 -0.45721064397395239 0 0.2038750373758498 -0.43766052823680379 0 0.19584895890979201 -0.42028964055995399 0 0.18518182243112399 -0.44005920735989479 0 0.19584895890979201 -0.42028964055995399 0 0.21305464753437209 -0.40739035675576801 0 0.18693830880913609 -0.40354355566892841 0 0.19584895890979201 -0.42028964055995399 0 0.21305464753437209 -0.40739035675576801 0 0.2111032236380937 -0.42361271770034947 0 0.21305464753437209 -0.40739035675576801 0 0.2111032236380937 -0.42361271770034947 0 0.2266976883615951 -0.42435305820956792 0 0.2038750373758498 -0.43766052823680379 0 0.19584895890979201 -0.42028964055995399 0 0.2111032236380937 -0.42361271770034947 0 0.2038750373758498 -0.43766052823680379 0 0.2111032236380937 -0.42361271770034947 0 0.2187879681849359 -0.43656897092814351 0 0.23342691288386549 -0.43956015696165851 0 0.2187879681849359 -0.43656897092814351 0 0.2266976883615951 -0.42435305820956792 0 0.2111032236380937 -0.42361271770034947 0 0.2187879681849359 -0.43656897092814351 0 0.2266976883615951 -0.42435305820956792 0 0.23342691288386549 -0.43956015696165851 0 0.2266976883615951 -0.42435305820956792 0 0.24464877441380811 -0.42667006326667872 0 0.2481190389119364 -0.4411247897113002 0 0.23342691288386549 -0.43956015696165851 0 0.24464877441380811 -0.42667006326667872 0 0.2266976883615951 -0.42435305820956792 0 0.24464877441380811 -0.42667006326667872 0 0.2391831732868446 -0.41115441882798959 0 0.25434375155769168 -0.41347202738741951 0 0.2391831732868446 -0.41115441882798959 0 0.25434375155769168 -0.41347202738741951 0 0.24464877441380811 -0.42667006326667872 0 0.2391831732868446 -0.41115441882798959 0 0.21305464753437209 -0.40739035675576801 0 0.2266976883615951 -0.42435305820956792 0 0.2391831732868446 -0.41115441882798959 0 0.21305464753437209 -0.40739035675576801 0 0.2391831732868446 -0.41115441882798959 0 0.2391831732868446 -0.41115441882798959 0 0.2392178009123675 -0.39979414692290599 0 0.21625158212041409 -0.39980621935321908 0 0.21305464753437209 -0.40739035675576801 0 0.2391831732868446 -0.41115441882798959 0 0.21625158212041409 -0.39980621935321908 0 0.2392178009123675 -0.39979414692290599 0 0.22802047063256201 -0.39062365578516622 0 0.21625158212041409 -0.39980621935321908 0 0.2392178009123675 -0.39979414692290599 0 0.21625158212041409 -0.39980621935321908 0 0.22802047063256201 -0.39062365578516622 0 0.21859601999798389 -0.39097362655601742 0 0.21625158212041409 -0.39980621935321908 0 0.26218401484468501 -0.39977282967117322 0 0.2392178009123675 -0.39979414692290599 0 0.24570885414814159 -0.38484476732218648 0 0.2392178009123675 -0.39979414692290599 0 0.24570885414814159 -0.38484476732218648 0 0.22802047063256201 -0.39062365578516622 0 0.26218401484468501 -0.39977282967117322 0 0.2391831732868446 -0.41115441882798959 0 0.2392178009123675 -0.39979414692290599 0 0.24406793522328629 -0.37190139653370591 0 0.24570885414814159 -0.38484476732218648 0 0.2277456322071473 -0.37771550310597402 0 0.25402880698198999 -0.37241306581236733 0 0.24406793522328629 -0.37190139653370591 0 0.24570885414814159 -0.38484476732218648 0 0.24570885414814159 -0.38484476732218648 0 0.2277456322071473 -0.37771550310597402 0 0.22802047063256201 -0.39062365578516622 0 0.2277456322071473 -0.37771550310597402 0 0.21291065186055549 -0.38381907041151148 0 0.21859601999798389 -0.39097362655601742 0 0.2277456322071473 -0.37771550310597402 0 0.22802047063256201 -0.39062365578516622 0 0.21859601999798389 -0.39097362655601742 0 0.21321715427451449 -0.37370724017685653 0 0.21291065186055549 -0.38381907041151148 0 0.19661109165272339 -0.38278220816568509 0 0.21291065186055549 -0.38381907041151148 0 0.20753094179202761 -0.39143988325399298 0 0.19661109165272339 -0.38278220816568509 0 0.21321715427451449 -0.37370724017685653 0 0.2277456322071473 -0.37771550310597402 0 0.21291065186055549 -0.38381907041151148 0 0.21291065186055549 -0.38381907041151148 0 0.21859601999798389 -0.39097362655601742 0 0.20753094179202761 -0.39143988325399298 0 0.21859601999798389 -0.39097362655601742 0 0.21625158212041409 -0.39980621935321908 0 0.20753094179202761 -0.39143988325399298 0 0.21625158212041409 -0.39980621935321908 0 0.20753094179202761 -0.39143988325399298 0 0.19328536332846069 -0.39981829178353218 0 0.21305464753437209 -0.40739035675576801 0 0.21625158212041409 -0.39980621935321908 0 0.19328536332846069 -0.39981829178353218 0 0.21625158212041409 -0.39980621935321908 0 0.19328536332846069 -0.39981829178353218 0 0.19661109165272339 -0.38278220816568509 0 0.18693830880913609 -0.40354355566892841 0 0.20753094179202761 -0.39143988325399298 0 0.19328536332846069 -0.39981829178353218 0 0.19661109165272339 -0.38278220816568509 0 0.21305464753437209 -0.40739035675576801 0 0.18693830880913609 -0.40354355566892841 0 0.19138175218797279 -0.3886947854186335 0 0.19661109165272339 -0.38278220816568509 0 0.18693830880913609 -0.40354355566892841 0 0.19328536332846069 -0.39981829178353218 0 0.19661109165272339 -0.38278220816568509 0 0.18693830880913609 -0.40354355566892841 0 0.21305464753437209 -0.40739035675576801 0 0.19328536332846069 -0.39981829178353218 0 0.18693830880913609 -0.40354355566892841 0 0.19138175218797279 -0.3886947854186335 0 0.19661109165272339 -0.38278220816568509 0 0.18670064360689559 -0.38284850973322859 0 0.20628387449631161 -0.36202086066244232 0 0.19661109165272339 -0.38278220816568509 0 0.18670064360689559 -0.38284850973322859 0 0.19138175218797279 -0.3886947854186335 0 0.18670064360689559 -0.38284850973322859 0 0.17311027945485619 -0.38539649583608171 0 0.18670064360689559 -0.38284850973322859 0 0.16899903970708441 -0.40167496365685579 0 0.17299440469957761 -0.36573067324763131 0 0.17311027945485619 -0.38539649583608171 0 0.17299440469957761 -0.36573067324763131 0 0.17311027945485619 -0.38539649583608171 0 0.18670064360689559 -0.38284850973322859 0 0.19138175218797279 -0.3886947854186335 0 0.18670064360689559 -0.38284850973322859 0 0.18262479332055839 -0.39583028997610842 0 0.18670064360689559 -0.38284850973322859 0 0.16899903970708441 -0.40167496365685579 0 0.18670064360689559 -0.38284850973322859 0 0.18262479332055839 -0.39583028997610842 0 0.16899903970708441 -0.40167496365685579 0 0.19138175218797279 -0.3886947854186335 0 0.18262479332055839 -0.39583028997610842 0 0.18693830880913609 -0.40354355566892841 0 0.18262479332055839 -0.39583028997610842 0 0.18693830880913609 -0.40354355566892841 0 0.17910422229170289 -0.40238963540289457 0 0.18693830880913609 -0.40354355566892841 0 0.17910422229170289 -0.40238963540289457 0 0.17910422229170289 -0.40238963540289457 0 0.16899903970708441 -0.40167496365685579 0 0.17328247298628779 -0.41290789689599261 0 0.18262479332055839 -0.39583028997610842 0 0.17910422229170289 -0.40238963540289457 0 0.16899903970708441 -0.40167496365685579 0 0.17311027945485619 -0.38539649583608171 0 0.16899903970708441 -0.40167496365685579 0 0.15415285961036371 -0.3888495485815795 0 0.16899903970708441 -0.40167496365685579 0 0.15415285961036371 -0.3888495485815795 0 0.15272514770881779 -0.40467548308103102 0 0.17311027945485619 -0.38539649583608171 0 0.15954490989016201 -0.37568770588708739 0 0.15415285961036371 -0.3888495485815795 0 0.17299440469957761 -0.36573067324763131 0 0.17311027945485619 -0.38539649583608171 0 0.15954490989016201 -0.37568770588708739 0 0.15954490989016201 -0.37568770588708739 0 0.15415285961036371 -0.3888495485815795 0 0.13834922276355099 -0.38334828709831359 0 0.14162085797256921 -0.36795591948027118 0 0.15954490989016201 -0.37568770588708739 0 0.13834922276355099 -0.38334828709831359 0 0.13834922276355099 -0.38334828709831359 0 0.12225216892814091 -0.384360839169612 0 0.1216319859097775 -0.36914638831819901 0 0.13834922276355099 -0.38334828709831359 0 0.12824114461575289 -0.39438734887475307 0 0.12225216892814091 -0.384360839169612 0 0.13914794061572289 -0.40359050037158622 0 0.12824114461575289 -0.39438734887475307 0 0.122588032757713 -0.40575999037970362 0 0.13834922276355099 -0.38334828709831359 0 0.13914794061572289 -0.40359050037158622 0 0.12824114461575289 -0.39438734887475307 0 0.15415285961036371 -0.3888495485815795 0 0.13914794061572289 -0.40359050037158622 0 0.15272514770881779 -0.40467548308103102 0 0.15415285961036371 -0.3888495485815795 0 0.13834922276355099 -0.38334828709831359 0 0.13914794061572289 -0.40359050037158622 0 0.15415285961036371 -0.3888495485815795 0 0.15272514770881779 -0.40467548308103102 0 0.13914794061572289 -0.40359050037158622 0 0.15272514770881779 -0.40467548308103102 0 0.15129743580727251 -0.42050141758048237 0 0.15272514770881779 -0.40467548308103102 0 0.15129743580727251 -0.42050141758048237 0 0.13914794061572289 -0.40359050037158622 0 0.15129743580727251 -0.42050141758048237 0 0.1307229305211404 -0.41578402710132822 0 0.13914794061572289 -0.40359050037158622 0 0.1307229305211404 -0.41578402710132822 0 0.122588032757713 -0.40575999037970362 0 0.15129743580727251 -0.42050141758048237 0 0.1307229305211404 -0.41578402710132822 0 0.13276187296954101 -0.42754413327444662 0 0.1307229305211404 -0.41578402710132822 0 0.12382349032975511 -0.42359035181683408 0 0.12179834482402831 -0.41415248069470761 0 0.1307229305211404 -0.41578402710132822 0 0.12179834482402831 -0.41415248069470761 0 0.122588032757713 -0.40575999037970362 0 0.15129743580727251 -0.42050141758048237 0 0.13276187296954101 -0.42754413327444662 0 0.1326102679755663 -0.44037606318536199 0 0.12525292078927991 -0.43617135243436922 0 0.13276187296954101 -0.42754413327444662 0 0.1326102679755663 -0.44037606318536199 0 0.12525292078927991 -0.43617135243436922 0 0.13276187296954101 -0.42754413327444662 0 0.12382349032975511 -0.42359035181683408 0 0.1307229305211404 -0.41578402710132822 0 0.13276187296954101 -0.42754413327444662 0 0.12382349032975511 -0.42359035181683408 0 0.15129743580727251 -0.42050141758048237 0 0.16355905648648819 -0.42977324086454349 0 0.1490579796448939 -0.44532539397362741 0 0.15129743580727251 -0.42050141758048237 0 0.1326102679755663 -0.44037606318536199 0 0.15129743580727251 -0.42050141758048237 0 0.1490579796448939 -0.44532539397362741 0 0.15129743580727251 -0.42050141758048237 0 0.1490579796448939 -0.44532539397362741 0 0.1326102679755663 -0.44037606318536199 0 0.16355905648648819 -0.42977324086454349 0 0.17328247298628779 -0.41290789689599261 0 0.17729567792599521 -0.42424018598179503 0 0.16355905648648819 -0.42977324086454349 0 0.17729567792599521 -0.42424018598179503 0 0.1676530470428548 -0.44493681629466192 0 0.15129743580727251 -0.42050141758048237 0 0.16355905648648819 -0.42977324086454349 0 0.17328247298628779 -0.41290789689599261 0 0.16899903970708441 -0.40167496365685579 0 0.15129743580727251 -0.42050141758048237 0 0.17328247298628779 -0.41290789689599261 0 0.16899903970708441 -0.40167496365685579 0 0.15129743580727251 -0.42050141758048237 0 0.16899903970708441 -0.40167496365685579 0 0.15272514770881779 -0.40467548308103102 0 0.15129743580727251 -0.42050141758048237 0 0.18693830880913609 -0.40354355566892841 0 0.17328247298628779 -0.41290789689599261 0 0.17729567792599521 -0.42424018598179503 0 0.18693830880913609 -0.40354355566892841 0 0.17729567792599521 -0.42424018598179503 0 0.19584895890979201 -0.42028964055995399 0 0.18693830880913609 -0.40354355566892841 0 0.17729567792599521 -0.42424018598179503 0 0.18693830880913609 -0.40354355566892841 0 0.17910422229170289 -0.40238963540289457 0 0.17328247298628779 -0.41290789689599261 0 0.17729567792599521 -0.42424018598179503 0 0.18518182243112399 -0.44005920735989479 0 0.1676530470428548 -0.44493681629466192 0 0.17729567792599521 -0.42424018598179503 0 0.1676530470428548 -0.44493681629466192 0 0.19584895890979201 -0.42028964055995399 0 0.17729567792599521 -0.42424018598179503 0 0.18518182243112399 -0.44005920735989479 0 0.18518182243112399 -0.44005920735989479 0 0.1798082368445347 -0.45721064397395239 0 0.1676530470428548 -0.44493681629466192 0 0.1798082368445347 -0.45721064397395239 0 0.16258688412462291 -0.46062197736183991 0 0.16921412181932791 -0.478725056423145 0 0.1798082368445347 -0.45721064397395239 0 0.16258688412462291 -0.46062197736183991 0 0.1676530470428548 -0.44493681629466192 0 0.16258688412462291 -0.46062197736183991 0 0.1676530470428548 -0.44493681629466192 0 0.1490579796448939 -0.44532539397362741 0 0.16355905648648819 -0.42977324086454349 0 0.1676530470428548 -0.44493681629466192 0 0.1490579796448939 -0.44532539397362741 0 0.1490579796448939 -0.44532539397362741 0 0.1326102679755663 -0.44037606318536199 0 0.13272643975378939 -0.45879515484206129 0 0.1326102679755663 -0.44037606318536199 0 0.13272643975378939 -0.45879515484206129 0 0.1139231001438598 -0.46025070879024133 0 0.16258688412462291 -0.46062197736183991 0 0.1490579796448939 -0.44532539397362741 0 0.14681852348251581 -0.47014937036677229 0 0.1490579796448939 -0.44532539397362741 0 0.13272643975378939 -0.45879515484206129 0 0.14681852348251581 -0.47014937036677229 0 0.1490579796448939 -0.44532539397362741 0 0.14681852348251581 -0.47014937036677229 0 0.13272643975378939 -0.45879515484206129 0 0.14681852348251581 -0.47014937036677229 0 0.1212223275221115 -0.47787423789430378 0 0.14681852348251581 -0.47014937036677229 0 0.13094756386483039 -0.5 0 0.1212223275221115 -0.47787423789430378 0 0.14681852348251581 -0.47014937036677229 0 0.13094756386483039 -0.5 0 0.15814696355702221 -0.5 0 0.15814696355702221 -0.5 0 0.16921412181932791 -0.478725056423145 0 0.1853463632492138 -0.5 0 0.14681852348251581 -0.47014937036677229 0 0.15814696355702221 -0.5 0 0.16921412181932791 -0.478725056423145 0 0.16258688412462291 -0.46062197736183991 0 0.14681852348251581 -0.47014937036677229 0 0.16921412181932791 -0.478725056423145 0 0.1798082368445347 -0.45721064397395239 0 0.16921412181932791 -0.478725056423145 0 0.18748181950810999 -0.47664732842881541 0 0.16921412181932791 -0.478725056423145 0 0.18748181950810999 -0.47664732842881541 0 0.1853463632492138 -0.5 0 0.076548764480446896 -0.49999999999999989 0 0.069937917102924588 -0.48365752900971509 0 0.055782760628709897 -0.5 0 0.069937917102924588 -0.48365752900971509 0 0.078714879031640816 -0.46925372516881181 0 0.06237955941783483 -0.46773589431547208 0 0.069937917102924588 -0.48365752900971509 0 0.078714879031640816 -0.46925372516881181 0 0.095235932312153299 -0.48012535439512061 0 0.076548764480446896 -0.49999999999999989 0 0.069937917102924588 -0.48365752900971509 0 0.095235932312153299 -0.48012535439512061 0 0.076548764480446896 -0.49999999999999989 0 0.1037481641726387 -0.5 0 0.095235932312153299 -0.48012535439512061 0 0.076548764480446896 -0.49999999999999989 0 0.095235932312153299 -0.48012535439512061 0 0.1037481641726387 -0.5 0 0.1212223275221115 -0.47787423789430378 0 0.095235932312153299 -0.48012535439512061 0 0.13094756386483039 -0.5 0 0.1037481641726387 -0.5 0 0.1212223275221115 -0.47787423789430378 0 0.1212223275221115 -0.47787423789430378 0 0.095235932312153299 -0.48012535439512061 0 0.1139231001438598 -0.46025070879024133 0 0.095235932312153299 -0.48012535439512061 0 0.1139231001438598 -0.46025070879024133 0 0.095235932312153299 -0.48012535439512061 0 0.1020610795766415 -0.45696798574232222 0 0.1139231001438598 -0.46025070879024133 0 0.095235932312153299 -0.48012535439512061 0 0.1020610795766415 -0.45696798574232222 0 0.087772265712482589 -0.45276605616430432 0 0.13272643975378939 -0.45879515484206129 0 0.1212223275221115 -0.47787423789430378 0 0.1139231001438598 -0.46025070879024133 0 0.1020610795766415 -0.45696798574232222 0 0.1139231001438598 -0.46025070879024133 0 0.1141948606593963 -0.44925869613651509 0 0.12525292078927991 -0.43617135243436922 0 0.1326102679755663 -0.44037606318536199 0 0.1141948606593963 -0.44925869613651509 0 0.1326102679755663 -0.44037606318536199 0 0.1139231001438598 -0.46025070879024133 0 0.1326102679755663 -0.44037606318536199 0 0.1139231001438598 -0.46025070879024133 0 0.1141948606593963 -0.44925869613651509 0 0.1141948606593963 -0.44925869613651509 0 0.099179239055315296 -0.44243911322542978 0 0.1019008543101307 -0.42439690129908397 0 0.1020610795766415 -0.45696798574232222 0 0.1141948606593963 -0.44925869613651509 0 0.099179239055315296 -0.44243911322542978 0 0.1020610795766415 -0.45696798574232222 0 0.099179239055315296 -0.44243911322542978 0 0.087772265712482589 -0.45276605616430432 0 0.087772265712482589 -0.45276605616430432 0 0.073101980062764707 -0.45470490664475588 0 0.074046346679800895 -0.43728264378112569 0 0.099179239055315296 -0.44243911322542978 0 0.087772265712482589 -0.45276605616430432 0 0.088922467669817123 -0.43227089154058929 0 0.087772265712482589 -0.45276605616430432 0 0.074046346679800895 -0.43728264378112569 0 0.088922467669817123 -0.43227089154058929 0 0.078714879031640816 -0.46925372516881181 0 0.095235932312153299 -0.48012535439512061 0 0.087772265712482589 -0.45276605616430432 0 0.078714879031640816 -0.46925372516881181 0 0.087772265712482589 -0.45276605616430432 0 0.073101980062764707 -0.45470490664475588 0 0.078714879031640816 -0.46925372516881181 0 0.073101980062764707 -0.45470490664475588 0 0.06237955941783483 -0.46773589431547208 0 0.073101980062764707 -0.45470490664475588 0 0.060994534030161578 -0.45412744944471273 0 0.06237955941783483 -0.46773589431547208 0 0.073101980062764707 -0.45470490664475588 0 0.074046346679800895 -0.43728264378112569 0 0.061354462119159049 -0.44076302188772509 0 0.073101980062764707 -0.45470490664475588 0 0.061354462119159049 -0.44076302188772509 0 0.060994534030161578 -0.45412744944471273 0 0.074046346679800895 -0.43728264378112569 0 0.081826597320333719 -0.4184088751213893 0 0.074046346679800895 -0.43728264378112569 0 0.065700751555415271 -0.42498931830762299 0 0.081826597320333719 -0.4184088751213893 0 0.074046346679800895 -0.43728264378112569 0 0.065700751555415271 -0.42498931830762299 0 0.061354462119159049 -0.44076302188772509 0 0.065700751555415271 -0.42498931830762299 0 0.07179406255102562 -0.4069021737211807 0 0.081826597320333719 -0.4184088751213893 0 0.065700751555415271 -0.42498931830762299 0 0.07179406255102562 -0.4069021737211807 0 0.050462915787107702 -0.41777779175013008 0 0.081826597320333719 -0.4184088751213893 0 0.089606847960865724 -0.39953510646165269 0 0.081826597320333719 -0.4184088751213893 0 0.1019008543101307 -0.42439690129908397 0 0.089606847960865724 -0.39953510646165269 0 0.07179406255102562 -0.4069021737211807 0 0.081826597320333719 -0.4184088751213893 0 0.089606847960865724 -0.39953510646165269 0 0.081826597320333719 -0.4184088751213893 0 0.088922467669817123 -0.43227089154058929 0 0.1019008543101307 -0.42439690129908397 0 0.074046346679800895 -0.43728264378112569 0 0.081826597320333719 -0.4184088751213893 0 0.088922467669817123 -0.43227089154058929 0 0.099179239055315296 -0.44243911322542978 0 0.088922467669817123 -0.43227089154058929 0 0.1019008543101307 -0.42439690129908397 0 0.1141948606593963 -0.44925869613651509 0 0.1019008543101307 -0.42439690129908397 0 0.12525292078927991 -0.43617135243436922 0 0.12382349032975511 -0.42359035181683408 0 0.1100589256875046 -0.41147555348096471 0 0.12525292078927991 -0.43617135243436922 0 0.1100589256875046 -0.41147555348096471 0 0.12525292078927991 -0.43617135243436922 0 0.1141948606593963 -0.44925869613651509 0 0.1019008543101307 -0.42439690129908397 0 0.12525292078927991 -0.43617135243436922 0 0.1019008543101307 -0.42439690129908397 0 0.1100589256875046 -0.41147555348096471 0 0.12179834482402831 -0.41415248069470761 0 0.1100589256875046 -0.41147555348096471 0 0.122588032757713 -0.40575999037970362 0 0.12382349032975511 -0.42359035181683408 0 0.12179834482402831 -0.41415248069470761 0 0.1100589256875046 -0.41147555348096471 0 0.1019008543101307 -0.42439690129908397 0 0.089606847960865724 -0.39953510646165269 0 0.1019008543101307 -0.42439690129908397 0 0.1100589256875046 -0.41147555348096471 0 0.089606847960865724 -0.39953510646165269 0 0.1100589256875046 -0.41147555348096471 0 0.094864930585729562 -0.38677975452755992 0 0.089606847960865724 -0.39953510646165269 0 0.1100589256875046 -0.41147555348096471 0 0.11369911196826971 -0.39389974946273809 0 0.094864930585729562 -0.38677975452755992 0 0.1100589256875046 -0.41147555348096471 0 0.094864930585729562 -0.38677975452755992 0 0.1100589256875046 -0.41147555348096471 0 0.11369911196826971 -0.39389974946273809 0 0.122588032757713 -0.40575999037970362 0 0.12824114461575289 -0.39438734887475307 0 0.11369911196826971 -0.39389974946273809 0 0.122588032757713 -0.40575999037970362 0 0.12824114461575289 -0.39438734887475307 0 0.11369911196826971 -0.39389974946273809 0 0.12225216892814091 -0.384360839169612 0 0.12225216892814091 -0.384360839169612 0 0.1093393793833535 -0.38102242209405618 0 0.1216319859097775 -0.36914638831819901 0 0.11369911196826971 -0.39389974946273809 0 0.12225216892814091 -0.384360839169612 0 0.1093393793833535 -0.38102242209405618 0 0.1093393793833535 -0.38102242209405618 0 0.094864930585729562 -0.38677975452755992 0 0.1016431138469857 -0.37033685715612791 0 0.11369911196826971 -0.39389974946273809 0 0.1093393793833535 -0.38102242209405618 0 0.094864930585729562 -0.38677975452755992 0 0.094864930585729562 -0.38677975452755992 0 0.1016431138469857 -0.37033685715612791 0 0.085345671525069666 -0.37130747706710632 0 0.094864930585729562 -0.38677975452755992 0 0.1016431138469857 -0.37033685715612791 0 0.094864930585729562 -0.38677975452755992 0 0.085345671525069666 -0.37130747706710632 0 0.094864930585729562 -0.38677975452755992 0 0.08277147287294534 -0.3857121354752337 0 0.085345671525069666 -0.37130747706710632 0 0.08277147287294534 -0.3857121354752337 0 0.075936097785025441 -0.37188916448881443 0 0.08277147287294534 -0.3857121354752337 0 0.085345671525069666 -0.37130747706710632 0 0.075936097785025441 -0.37188916448881443 0 0.094864930585729562 -0.38677975452755992 0 0.089606847960865724 -0.39953510646165269 0 0.07179406255102562 -0.4069021737211807 0 0.08277147287294534 -0.3857121354752337 0 0.089606847960865724 -0.39953510646165269 0 0.08277147287294534 -0.3857121354752337 0 0.089606847960865724 -0.39953510646165269 0 0.094864930585729562 -0.38677975452755992 0 0.08277147287294534 -0.3857121354752337 0 0.089606847960865724 -0.39953510646165269 0 0.07179406255102562 -0.4069021737211807 0 0.08277147287294534 -0.3857121354752337 0 0.060395789809486441 -0.39498981521105492 0 0.08277147287294534 -0.3857121354752337 0 0.060395789809486441 -0.39498981521105492 0 0.070328663831864854 -0.37220183867197931 0 0.060395789809486441 -0.39498981521105492 0 0.070328663831864854 -0.37220183867197931 0 0.08277147287294534 -0.3857121354752337 0 0.070328663831864854 -0.37220183867197931 0 0.075936097785025441 -0.37188916448881443 0 0.060395789809486441 -0.39498981521105492 0 0.040897566234527817 -0.39426558891671709 0 0.047138520806633361 -0.37358296425684961 0 0.060395789809486441 -0.39498981521105492 0 0.070328663831864854 -0.37220183867197931 0 0.047138520806633361 -0.37358296425684961 0 0.060395789809486441 -0.39498981521105492 0 0.040897566234527817 -0.39426558891671709 0 0.050462915787107702 -0.41777779175013008 0 0.040897566234527817 -0.39426558891671709 0 0.024178900669506131 -0.40152496868232129 0 0.030553180208592989 -0.41735278197876491 0 0.040897566234527817 -0.39426558891671709 0 0.047138520806633361 -0.37358296425684961 0 0.023948377781401901 -0.37496408984172008 0 0.040897566234527817 -0.39426558891671709 0 0.024178900669506131 -0.40152496868232129 0 0.023948377781401901 -0.37496408984172008 0 0.00075823475617050468 -0.37634521542659061 0 0.0041758016767010483 -0.39653746851730343 0 0.023948377781401901 -0.37496408984172008 0 0.00075823475617050468 -0.37634521542659061 0 0.023948377781401901 -0.37496408984172008 0 0.0041758016767010483 -0.39653746851730343 0 0.024178900669506131 -0.40152496868232129 0 0.0046564239422147539 -0.41979979339307499 0 0.0041758016767010483 -0.39653746851730343 0 0.024178900669506131 -0.40152496868232129 0 0.023948377781401901 -0.37496408984172008 0 0.024178900669506131 -0.40152496868232129 0 0.030553180208592989 -0.41735278197876491 0 0.0046564239422147539 -0.41979979339307499 0 -0.0075358498191973166 -0.42930934009015748 0 0.0046564239422147539 -0.41979979339307499 0 0.0055697211652870702 -0.43773439666326852 0 0.0046564239422147539 -0.41979979339307499 0 0.022593232853472641 -0.43018278084114048 0 0.0046564239422147539 -0.41979979339307499 0 0.022593232853472641 -0.43018278084114048 0 0.0055697211652870702 -0.43773439666326852 0 0.030553180208592989 -0.41735278197876491 0 0.022593232853472641 -0.43018278084114048 0 0.040530041764730421 -0.44056576828920607 0 0.030553180208592989 -0.41735278197876491 0 0.0046564239422147539 -0.41979979339307499 0 0.022593232853472641 -0.43018278084114048 0 0.050462915787107702 -0.41777779175013008 0 0.040530041764730421 -0.44056576828920607 0 0.030553180208592989 -0.41735278197876491 0 0.050462915787107702 -0.41777779175013008 0 0.040530041764730421 -0.44056576828920607 0 0.022593232853472641 -0.43018278084114048 0 0.040530041764730421 -0.44056576828920607 0 0.040897566234527817 -0.39426558891671709 0 0.030553180208592989 -0.41735278197876491 0 0.050462915787107702 -0.41777779175013008 0 0.060395789809486441 -0.39498981521105492 0 0.050462915787107702 -0.41777779175013008 0 0.07179406255102562 -0.4069021737211807 0 0.060395789809486441 -0.39498981521105492 0 0.050462915787107702 -0.41777779175013008 0 0.065700751555415271 -0.42498931830762299 0 0.050462915787107702 -0.41777779175013008 0 0.052579177104413913 -0.43158830996258829 0 0.065700751555415271 -0.42498931830762299 0 0.052579177104413913 -0.43158830996258829 0 0.061354462119159049 -0.44076302188772509 0 0.050462915787107702 -0.41777779175013008 0 0.052579177104413913 -0.43158830996258829 0 0.040530041764730421 -0.44056576828920607 0 0.052579177104413913 -0.43158830996258829 0 0.049979131668775587 -0.43846668883905032 0 0.040530041764730421 -0.44056576828920607 0 0.052579177104413913 -0.43158830996258829 0 0.049979131668775587 -0.43846668883905032 0 0.061354462119159049 -0.44076302188772509 0 0.052175498289607922 -0.44751106742915092 0 0.051361147672846018 -0.4577761131748127 0 0.044599560841832822 -0.45102399876352062 0 0.052175498289607922 -0.44751106742915092 0 0.049979131668775587 -0.43846668883905032 0 0.043805815365581813 -0.44246199834599131 0 0.052175498289607922 -0.44751106742915092 0 0.049979131668775587 -0.43846668883905032 0 0.061354462119159049 -0.44076302188772509 0 0.052175498289607922 -0.44751106742915092 0 0.061354462119159049 -0.44076302188772509 0 0.060994534030161578 -0.45412744944471273 0 0.052175498289607922 -0.44751106742915092 0 0.060994534030161578 -0.45412744944471273 0 0.051361147672846018 -0.4577761131748127 0 0.060994534030161578 -0.45412744944471273 0 0.06237955941783483 -0.46773589431547208 0 0.051361147672846018 -0.4577761131748127 0 0.06237955941783483 -0.46773589431547208 0 0.051361147672846018 -0.4577761131748127 0 0.04889972482973555 -0.46904788754758248 0 0.051361147672846018 -0.4577761131748127 0 0.038854566889284237 -0.45978520289797381 0 0.044599560841832822 -0.45102399876352062 0 0.038854566889284237 -0.45978520289797381 0 0.036587241563822717 -0.449611331363305 0 0.044599560841832822 -0.45102399876352062 0 0.038854566889284237 -0.45978520289797381 0 0.036174550727474421 -0.47481727715241651 0 0.04889972482973555 -0.46904788754758248 0 0.051361147672846018 -0.4577761131748127 0 0.038854566889284237 -0.45978520289797381 0 0.04889972482973555 -0.46904788754758248 0 0.038854566889284237 -0.45978520289797381 0 0.025506343907185262 -0.46266959101898492 0 0.036174550727474421 -0.47481727715241651 0 0.038854566889284237 -0.45978520289797381 0 0.036587241563822717 -0.449611331363305 0 0.027614878651815909 -0.45284459768259461 0 0.052175498289607922 -0.44751106742915092 0 0.044599560841832822 -0.45102399876352062 0 0.043805815365581813 -0.44246199834599131 0 0.036587241563822717 -0.449611331363305 0 0.044599560841832822 -0.45102399876352062 0 0.043805815365581813 -0.44246199834599131 0 0.049979131668775587 -0.43846668883905032 0 0.043805815365581813 -0.44246199834599131 0 0.040530041764730421 -0.44056576828920607 0 0.036587241563822717 -0.449611331363305 0 0.043805815365581813 -0.44246199834599131 0 0.040530041764730421 -0.44056576828920607 0 0.043805815365581813 -0.44246199834599131 0 0.040530041764730421 -0.44056576828920607 0 0.036587241563822717 -0.449611331363305 0 0.040530041764730421 -0.44056576828920607 0 0.036587241563822717 -0.449611331363305 0 0.040530041764730421 -0.44056576828920607 0 0.0291795146042911 -0.44393234635519457 0 0.022593232853472641 -0.43018278084114048 0 0.040530041764730421 -0.44056576828920607 0 0.0291795146042911 -0.44393234635519457 0 0.022593232853472641 -0.43018278084114048 0 0.0291795146042911 -0.44393234635519457 0 0.018572178187615269 -0.4464572535997276 0 0.0291795146042911 -0.44393234635519457 0 0.027614878651815909 -0.45284459768259461 0 0.018572178187615269 -0.4464572535997276 0 0.036587241563822717 -0.449611331363305 0 0.0291795146042911 -0.44393234635519457 0 0.027614878651815909 -0.45284459768259461 0 0.027614878651815909 -0.45284459768259461 0 0.018572178187615269 -0.4464572535997276 0 0.01955670516596849 -0.45726331161208988 0 -0.001791314669352303 -0.44920187423530628 0 0.0055697211652870702 -0.43773439666326852 0 0.0084633984186032428 -0.45848959777551279 0 0.018572178187615269 -0.4464572535997276 0 0.0055697211652870702 -0.43773439666326852 0 0.0084633984186032428 -0.45848959777551279 0 0.022593232853472641 -0.43018278084114048 0 0.018572178187615269 -0.4464572535997276 0 0.0055697211652870702 -0.43773439666326852 0 0.0055697211652870702 -0.43773439666326852 0 0.0084633984186032428 -0.45848959777551279 0 0.0084633984186032428 -0.45848959777551279 0 0.017626726664622779 -0.46585551798362962 0 0.011357075671919421 -0.47924479888775728 0 -0.001791314669352303 -0.44920187423530628 0 0.0084633984186032428 -0.45848959777551279 0 0.0039532204804927258 -0.46909440838045507 0 -0.001791314669352303 -0.44920187423530628 0 0.0039532204804927258 -0.46909440838045507 0 0.0084633984186032428 -0.45848959777551279 0 0.017626726664622779 -0.46585551798362962 0 0.01955670516596849 -0.45726331161208988 0 0.018572178187615269 -0.4464572535997276 0 0.0084633984186032428 -0.45848959777551279 0 0.01955670516596849 -0.45726331161208988 0 0.017626726664622779 -0.46585551798362962 0 0.025506343907185262 -0.46266959101898492 0 0.02463303041029782 -0.47337823846930183 0 0.017626726664622779 -0.46585551798362962 0 0.01955670516596849 -0.45726331161208988 0 0.025506343907185262 -0.46266959101898492 0 0.038854566889284237 -0.45978520289797381 0 0.027614878651815909 -0.45284459768259461 0 0.025506343907185262 -0.46266959101898492 0 0.027614878651815909 -0.45284459768259461 0 0.01955670516596849 -0.45726331161208988 0 0.025506343907185262 -0.46266959101898492 0 0.025506343907185262 -0.46266959101898492 0 0.02463303041029782 -0.47337823846930183 0 0.036174550727474421 -0.47481727715241651 0 0.02463303041029782 -0.47337823846930183 0 0.026379817612730179 -0.48613354050086732 0 0.036174550727474421 -0.47481727715241651 0 0.02463303041029782 -0.47337823846930183 0 0.011357075671919421 -0.47924479888775728 0 0.026379817612730179 -0.48613354050086732 0 0.017626726664622779 -0.46585551798362962 0 0.02463303041029782 -0.47337823846930183 0 0.011357075671919421 -0.47924479888775728 0 0.0084633984186032428 -0.45848959777551279 0 0.011357075671919421 -0.47924479888775728 0 0.0084633984186032428 -0.45848959777551279 0 0.011357075671919421 -0.47924479888775728 0 0.0039532204804927258 -0.46909440838045507 0 -0.0003429189120410816 -0.48320524922695668 0 0.011357075671919421 -0.47924479888775728 0 0.0039532204804927258 -0.46909440838045507 0 -0.0003429189120410816 -0.48320524922695668 0 0.011357075671919421 -0.47924479888775728 0 0.0142507529252358 -0.50000000000000155 0 -0.013137108382453411 -0.5 0 -0.0003429189120410816 -0.48320524922695668 0 0.0142507529252358 -0.50000000000000155 0 0.011357075671919421 -0.47924479888775728 0 0.0142507529252358 -0.50000000000000155 0 0.0142507529252358 -0.50000000000000155 0 0.026379817612730179 -0.48613354050086732 0 0.035016756776972913 -0.5 0 0.011357075671919421 -0.47924479888775728 0 0.0142507529252358 -0.50000000000000155 0 0.026379817612730179 -0.48613354050086732 0 0.035016756776972913 -0.5 0 0.041058202813889937 -0.4884525785670446 0 0.055782760628709897 -0.5 0 0.026379817612730179 -0.48613354050086732 0 0.035016756776972913 -0.5 0 0.041058202813889937 -0.4884525785670446 0 0.036174550727474421 -0.47481727715241651 0 0.051937128323562308 -0.48131207518193919 0 0.04889972482973555 -0.46904788754758248 0 0.026379817612730179 -0.48613354050086732 0 0.041058202813889937 -0.4884525785670446 0 0.036174550727474421 -0.47481727715241651 0 0.041058202813889937 -0.4884525785670446 0 0.036174550727474421 -0.47481727715241651 0 0.051937128323562308 -0.48131207518193919 0 0.069937917102924588 -0.48365752900971509 0 0.06237955941783483 -0.46773589431547208 0 0.051937128323562308 -0.48131207518193919 0 0.06237955941783483 -0.46773589431547208 0 0.051937128323562308 -0.48131207518193919 0 0.04889972482973555 -0.46904788754758248 0 0.069937917102924588 -0.48365752900971509 0 0.051937128323562308 -0.48131207518193919 0 0.055782760628709897 -0.5 0 0.041058202813889937 -0.4884525785670446 0 0.051937128323562308 -0.48131207518193919 0 0.055782760628709897 -0.5 0 0.085829105674243261 -0.28459566366750028 0 0.091723037869579804 -0.29457031732296968 0 0.078123854934071785 -0.29695991906590008 0 0.091723037869579804 -0.29457031732296968 0 0.082864374927914708 -0.31010275658867659 0 0.1002117575231302 -0.30364411445064149 0 0.091723037869579804 -0.29457031732296968 0 0.082864374927914708 -0.31010275658867659 0 0.078123854934071785 -0.29695991906590008 0 0.082864374927914708 -0.31010275658867659 0 0.078123854934071785 -0.29695991906590008 0 0.069406877445944287 -0.30364715017061061 0 0.082864374927914708 -0.31010275658867659 0 0.069406877445944287 -0.30364715017061061 0 0.068607893495370761 -0.31470478243993338 0 0.069406877445944287 -0.30364715017061061 0 0.068607893495370761 -0.31470478243993338 0 0.061951158844859071 -0.30823530570994379 0 0.069406877445944287 -0.30364715017061061 0 0.061013842005784691 -0.30090512897212501 0 0.061951158844859071 -0.30823530570994379 0 0.069406877445944287 -0.30364715017061061 0 0.065945357096584251 -0.28940906579471981 0 0.061013842005784691 -0.30090512897212501 0 0.085829105674243261 -0.28459566366750028 0 0.065945357096584251 -0.28940906579471981 0 0.074878106180972001 -0.27369106698156198 0 0.085829105674243261 -0.28459566366750028 0 0.078123854934071785 -0.29695991906590008 0 0.065945357096584251 -0.28940906579471981 0 0.078123854934071785 -0.29695991906590008 0 0.069406877445944287 -0.30364715017061061 0 0.065945357096584251 -0.28940906579471981 0 0.065945357096584251 -0.28940906579471981 0 0.063101740003234319 -0.27636619243471622 0 0.074878106180972001 -0.27369106698156198 0 0.063101740003234319 -0.27636619243471622 0 0.066080528056668406 -0.26601097084377262 0 0.074878106180972001 -0.27369106698156198 0 0.066080528056668406 -0.26601097084377262 0 0.074878106180972001 -0.27369106698156198 0 0.076483253815965824 -0.25987954474703928 0 0.066080528056668406 -0.26601097084377262 0 0.076483253815965824 -0.25987954474703928 0 0.061960276072097538 -0.25317502254585278 0 0.076483253815965824 -0.25987954474703928 0 0.061960276072097538 -0.25317502254585278 0 0.07435051669031438 -0.24586319306072721 0 0.076483253815965824 -0.25987954474703928 0 0.092855148493487707 -0.26515479124791741 0 0.087533553985440077 -0.24846678200877431 0 0.076483253815965824 -0.25987954474703928 0 0.07435051669031438 -0.24586319306072721 0 0.087533553985440077 -0.24846678200877431 0 0.074878106180972001 -0.27369106698156198 0 0.076483253815965824 -0.25987954474703928 0 0.092855148493487707 -0.26515479124791741 0 0.085829105674243261 -0.28459566366750028 0 0.074878106180972001 -0.27369106698156198 0 0.092855148493487707 -0.26515479124791741 0 0.092855148493487707 -0.26515479124791741 0 0.1090707259180313 -0.25707617054866733 0 0.11158609628853911 -0.27754913284213029 0 0.085829105674243261 -0.28459566366750028 0 0.092855148493487707 -0.26515479124791741 0 0.11158609628853911 -0.27754913284213029 0 0.092855148493487707 -0.26515479124791741 0 0.087533553985440077 -0.24846678200877431 0 0.1027654762942779 -0.2468419229344371 0 0.092855148493487707 -0.26515479124791741 0 0.1090707259180313 -0.25707617054866733 0 0.1027654762942779 -0.2468419229344371 0 0.12981196982254059 -0.25932990127514521 0 0.1229604350539481 -0.25145415123361881 0 0.11158609628853911 -0.27754913284213029 0 0.1090707259180313 -0.25707617054866733 0 0.1229604350539481 -0.25145415123361881 0 0.11158609628853911 -0.27754913284213029 0 0.1229604350539481 -0.25145415123361881 0 0.11158609628853911 -0.27754913284213029 0 0.1090707259180313 -0.25707617054866733 0 0.1229604350539481 -0.25145415123361881 0 0.1134702479629007 -0.24444635753201729 0 0.12642872182324541 -0.27601112996025151 0 0.12981196982254059 -0.25932990127514521 0 0.11158609628853911 -0.27754913284213029 0 0.1254575681919492 -0.2848333848376543 0 0.12642872182324541 -0.27601112996025151 0 0.11158609628853911 -0.27754913284213029 0 0.11158609628853911 -0.27754913284213029 0 0.11763260708448341 -0.29546497210400308 0 0.1002117575231302 -0.30364411445064149 0 0.1254575681919492 -0.2848333848376543 0 0.11158609628853911 -0.27754913284213029 0 0.11763260708448341 -0.29546497210400308 0 0.085829105674243261 -0.28459566366750028 0 0.091723037869579804 -0.29457031732296968 0 0.11158609628853911 -0.27754913284213029 0 0.11158609628853911 -0.27754913284213029 0 0.1002117575231302 -0.30364411445064149 0 0.091723037869579804 -0.29457031732296968 0 0.11158609628853911 -0.27754913284213029 0 0.1002117575231302 -0.30364411445064149 0 0.1002117575231302 -0.30364411445064149 0 0.1127722076197458 -0.30781928946442361 0 0.10736062820969711 -0.32063572245406768 0 0.1258838376616723 -0.31153234884898162 0 0.11763260708448341 -0.29546497210400308 0 0.1127722076197458 -0.30781928946442361 0 0.11763260708448341 -0.29546497210400308 0 0.1002117575231302 -0.30364411445064149 0 0.1127722076197458 -0.30781928946442361 0 0.1258838376616723 -0.31153234884898162 0 0.10736062820969711 -0.32063572245406768 0 0.1258838376616723 -0.31153234884898162 0 0.1198552928632486 -0.3261567311648329 0 0.10736062820969711 -0.32063572245406768 0 0.12743903169157289 -0.32312162838162761 0 0.1258838376616723 -0.31153234884898162 0 0.1198552928632486 -0.3261567311648329 0 0.1258838376616723 -0.31153234884898162 0 0.1127722076197458 -0.30781928946442361 0 0.10736062820969711 -0.32063572245406768 0 0.1258838376616723 -0.31153234884898162 0 0.1198552928632486 -0.3261567311648329 0 0.1198552928632486 -0.3261567311648329 0 0.1050450340881679 -0.33248938424739077 0 0.10736062820969711 -0.32063572245406768 0 0.13188555645161701 -0.33886219951429541 0 0.1198552928632486 -0.3261567311648329 0 0.1138267480648275 -0.34078111348068529 0 0.13188555645161701 -0.33886219951429541 0 0.1138267480648275 -0.34078111348068529 0 0.1198552928632486 -0.3261567311648329 0 0.1138267480648275 -0.34078111348068529 0 0.1050450340881679 -0.33248938424739077 0 0.1198552928632486 -0.3261567311648329 0 0.1138267480648275 -0.34078111348068529 0 0.1050450340881679 -0.33248938424739077 0 0.098201885120118071 -0.34244139842780852 0 0.088837418757721595 -0.32973909605915303 0 0.1138267480648275 -0.34078111348068529 0 0.098201885120118071 -0.34244139842780852 0 0.1138267480648275 -0.34078111348068529 0 0.1050450340881679 -0.33248938424739077 0 0.098201885120118071 -0.34244139842780852 0 0.1002117575231302 -0.30364411445064149 0 0.088837418757721595 -0.32973909605915303 0 0.1002117575231302 -0.30364411445064149 0 0.10736062820969711 -0.32063572245406768 0 0.088837418757721595 -0.32973909605915303 0 0.10736062820969711 -0.32063572245406768 0 0.088837418757721595 -0.32973909605915303 0 0.1050450340881679 -0.33248938424739077 0 0.10736062820969711 -0.32063572245406768 0 0.088837418757721595 -0.32973909605915303 0 0.1216319859097775 -0.36914638831819901 0 0.1077349309559068 -0.35555898531840657 0 0.1016431138469857 -0.37033685715612791 0 0.1265105430837358 -0.3539727440551016 0 0.1216319859097775 -0.36914638831819901 0 0.1077349309559068 -0.35555898531840657 0 0.1216319859097775 -0.36914638831819901 0 0.1016431138469857 -0.37033685715612791 0 0.1093393793833535 -0.38102242209405618 0 0.1216319859097775 -0.36914638831819901 0 0.1016431138469857 -0.37033685715612791 0 0.1265105430837358 -0.3539727440551016 0 0.13188555645161701 -0.33886219951429541 0 0.1138267480648275 -0.34078111348068529 0 0.1265105430837358 -0.3539727440551016 0 0.1138267480648275 -0.34078111348068529 0 0.1077349309559068 -0.35555898531840657 0 0.1138267480648275 -0.34078111348068529 0 0.1077349309559068 -0.35555898531840657 0 0.098201885120118071 -0.34244139842780852 0 0.1077349309559068 -0.35555898531840657 0 0.091960540894095638 -0.35661291536063588 0 0.1138267480648275 -0.34078111348068529 0 0.098201885120118071 -0.34244139842780852 0 0.1077349309559068 -0.35555898531840657 0 0.1077349309559068 -0.35555898531840657 0 0.1016431138469857 -0.37033685715612791 0 0.091960540894095638 -0.35661291536063588 0 0.1077349309559068 -0.35555898531840657 0 0.1016431138469857 -0.37033685715612791 0 0.1016431138469857 -0.37033685715612791 0 0.085345671525069666 -0.37130747706710632 0 0.1016431138469857 -0.37033685715612791 0 0.085345671525069666 -0.37130747706710632 0 0.091960540894095638 -0.35661291536063588 0 0.085345671525069666 -0.37130747706710632 0 0.075936097785025441 -0.37188916448881443 0 0.085345671525069666 -0.37130747706710632 0 0.091960540894095638 -0.35661291536063588 0 0.076784099970147929 -0.35739179205936222 0 0.085345671525069666 -0.37130747706710632 0 0.076784099970147929 -0.35739179205936222 0 0.075936097785025441 -0.37188916448881443 0 0.085345671525069666 -0.37130747706710632 0 0.076784099970147929 -0.35739179205936222 0 0.091960540894095638 -0.35661291536063588 0 0.082577022175408549 -0.34410168337493069 0 0.076784099970147929 -0.35739179205936222 0 0.098201885120118071 -0.34244139842780852 0 0.091960540894095638 -0.35661291536063588 0 0.082577022175408549 -0.34410168337493069 0 0.082577022175408549 -0.34410168337493069 0 0.076784099970147929 -0.35739179205936222 0 0.069464640894404156 -0.34549499410916179 0 0.066519190896153657 -0.34070756062000862 0 0.053278188235797948 -0.34721495311241918 0 0.063133067499157522 -0.35230201300868769 0 0.076784099970147929 -0.35739179205936222 0 0.060307883397943157 -0.36145196156562043 0 0.082577022175408549 -0.34410168337493069 0 0.069464640894404156 -0.34549499410916179 0 0.076784099970147929 -0.35739179205936222 0 0.069464640894404156 -0.34549499410916179 0 0.076784099970147929 -0.35739179205936222 0 0.082577022175408549 -0.34410168337493069 0 0.069464640894404156 -0.34549499410916179 0 0.069464640894404156 -0.34549499410916179 0 0.063133067499157522 -0.35230201300868769 0 0.076784099970147929 -0.35739179205936222 0 0.076784099970147929 -0.35739179205936222 0 0.070328663831864854 -0.37220183867197931 0 0.060307883397943157 -0.36145196156562043 0 0.076784099970147929 -0.35739179205936222 0 0.070328663831864854 -0.37220183867197931 0 0.076784099970147929 -0.35739179205936222 0 0.070328663831864854 -0.37220183867197931 0 0.075936097785025441 -0.37188916448881443 0 0.070328663831864854 -0.37220183867197931 0 0.075936097785025441 -0.37188916448881443 0 0.082864374927914708 -0.31010275658867659 0 0.088837418757721595 -0.32973909605915303 0 0.0749234295735655 -0.32442656873693848 0 0.082864374927914708 -0.31010275658867659 0 0.1002117575231302 -0.30364411445064149 0 0.088837418757721595 -0.32973909605915303 0 0.082577022175408549 -0.34410168337493069 0 0.088837418757721595 -0.32973909605915303 0 0.066519190896153657 -0.34070756062000862 0 0.098201885120118071 -0.34244139842780852 0 0.082577022175408549 -0.34410168337493069 0 0.098201885120118071 -0.34244139842780852 0 0.082577022175408549 -0.34410168337493069 0 0.088837418757721595 -0.32973909605915303 0 0.082577022175408549 -0.34410168337493069 0 0.088837418757721595 -0.32973909605915303 0 0.082577022175408549 -0.34410168337493069 0 0.069464640894404156 -0.34549499410916179 0 0.066519190896153657 -0.34070756062000862 0 0.088837418757721595 -0.32973909605915303 0 0.066519190896153657 -0.34070756062000862 0 0.0749234295735655 -0.32442656873693848 0 0.088837418757721595 -0.32973909605915303 0 0.066519190896153657 -0.34070756062000862 0 0.066519190896153657 -0.34070756062000862 0 0.066024988759020103 -0.32703892565343118 0 0.0749234295735655 -0.32442656873693848 0 0.069464640894404156 -0.34549499410916179 0 0.066519190896153657 -0.34070756062000862 0 0.066519190896153657 -0.34070756062000862 0 0.06329405106238313 -0.33546552885694558 0 0.066519190896153657 -0.34070756062000862 0 0.06329405106238313 -0.33546552885694558 0 0.066024988759020103 -0.32703892565343118 0 0.066024988759020103 -0.32703892565343118 0 0.0749234295735655 -0.32442656873693848 0 0.068607893495370761 -0.31470478243993338 0 0.082864374927914708 -0.31010275658867659 0 0.0749234295735655 -0.32442656873693848 0 0.068607893495370761 -0.31470478243993338 0 0.068607893495370761 -0.31470478243993338 0 0.057386148494931212 -0.31737337074465799 0 0.061951158844859071 -0.30823530570994379 0 0.066024988759020103 -0.32703892565343118 0 0.068607893495370761 -0.31470478243993338 0 0.057386148494931212 -0.31737337074465799 0 0.057386148494931212 -0.31737337074465799 0 0.057229978390971568 -0.32809412936756122 0 0.03992281307960073 -0.32231978327394428 0 0.057386148494931212 -0.31737337074465799 0 0.03992281307960073 -0.32231978327394428 0 0.053385356868353898 -0.30673419077772451 0 0.066024988759020103 -0.32703892565343118 0 0.057386148494931212 -0.31737337074465799 0 0.057229978390971568 -0.32809412936756122 0 0.06329405106238313 -0.33546552885694558 0 0.066024988759020103 -0.32703892565343118 0 0.057229978390971568 -0.32809412936756122 0 0.06329405106238313 -0.33546552885694558 0 0.057229978390971568 -0.32809412936756122 0 0.056610195083487073 -0.33836717696275431 0 0.057229978390971568 -0.32809412936756122 0 0.049852908714387668 -0.33415130286541278 0 0.03992281307960073 -0.32231978327394428 0 0.050673583153351381 -0.34187463111293021 0 0.049852908714387668 -0.33415130286541278 0 0.040144534247556901 -0.35192169894862613 0 0.066519190896153657 -0.34070756062000862 0 0.056610195083487073 -0.33836717696275431 0 0.053278188235797948 -0.34721495311241918 0 0.066519190896153657 -0.34070756062000862 0 0.06329405106238313 -0.33546552885694558 0 0.056610195083487073 -0.33836717696275431 0 0.056610195083487073 -0.33836717696275431 0 0.050673583153351381 -0.34187463111293021 0 0.053278188235797948 -0.34721495311241918 0 0.056610195083487073 -0.33836717696275431 0 0.050673583153351381 -0.34187463111293021 0 0.049852908714387668 -0.33415130286541278 0 0.057229978390971568 -0.32809412936756122 0 0.056610195083487073 -0.33836717696275431 0 0.049852908714387668 -0.33415130286541278 0 0.03992281307960073 -0.32231978327394428 0 0.032808053798279932 -0.3449519498361987 0 0.040144534247556901 -0.35192169894862613 0 0.03992281307960073 -0.32231978327394428 0 0.032808053798279932 -0.3449519498361987 0 0.026939225051689511 -0.33971267866768001 0 0.049852908714387668 -0.33415130286541278 0 0.03992281307960073 -0.32231978327394428 0 0.040144534247556901 -0.35192169894862613 0 0.03992281307960073 -0.32231978327394428 0 0.040144534247556901 -0.35192169894862613 0 0.070328663831864854 -0.37220183867197931 0 0.047138520806633361 -0.37358296425684961 0 0.060307883397943157 -0.36145196156562043 0 0.070328663831864854 -0.37220183867197931 0 0.047138520806633361 -0.37358296425684961 0 0.047138520806633361 -0.37358296425684961 0 0.060307883397943157 -0.36145196156562043 0 0.048908922413575237 -0.35938321020644171 0 0.069464640894404156 -0.34549499410916179 0 0.063133067499157522 -0.35230201300868769 0 0.053278188235797948 -0.34721495311241918 0 0.069464640894404156 -0.34549499410916179 0 0.053278188235797948 -0.34721495311241918 0 0.048908922413575237 -0.35938321020644171 0 0.047306488182720152 -0.35507759684796342 0 0.055481262937013373 -0.35487457934659311 0 0.047306488182720152 -0.35507759684796342 0 0.055481262937013373 -0.35487457934659311 0 0.053278188235797948 -0.34721495311241918 0 0.060307883397943157 -0.36145196156562043 0 0.048908922413575237 -0.35938321020644171 0 0.055481262937013373 -0.35487457934659311 0 0.063133067499157522 -0.35230201300868769 0 0.060307883397943157 -0.36145196156562043 0 0.055481262937013373 -0.35487457934659311 0 0.066519190896153657 -0.34070756062000862 0 0.053278188235797948 -0.34721495311241918 0 0.063133067499157522 -0.35230201300868769 0 0.055481262937013373 -0.35487457934659311 0 0.053278188235797948 -0.34721495311241918 0 0.053278188235797948 -0.34721495311241918 0 0.049249383699163873 -0.34764305053322431 0 0.040144534247556901 -0.35192169894862613 0 0.053278188235797948 -0.34721495311241918 0 0.049249383699163873 -0.34764305053322431 0 0.050673583153351381 -0.34187463111293021 0 0.053278188235797948 -0.34721495311241918 0 0.049249383699163873 -0.34764305053322431 0 0.053278188235797948 -0.34721495311241918 0 0.036606108128447223 -0.35540857497825379 0 0.053278188235797948 -0.34721495311241918 0 0.036606108128447223 -0.35540857497825379 0 0.040144534247556901 -0.35192169894862613 0 0.047306488182720152 -0.35507759684796342 0 0.053278188235797948 -0.34721495311241918 0 0.036606108128447223 -0.35540857497825379 0 0.050673583153351381 -0.34187463111293021 0 0.049249383699163873 -0.34764305053322431 0 0.040144534247556901 -0.35192169894862613 0 0.032808053798279932 -0.3449519498361987 0 0.035115982657055227 -0.35162860416298841 0 0.02953196912776342 -0.35322499211484032 0 0.032808053798279932 -0.3449519498361987 0 0.035115982657055227 -0.35162860416298841 0 0.040144534247556901 -0.35192169894862613 0 0.036606108128447223 -0.35540857497825379 0 0.035115982657055227 -0.35162860416298841 0 0.040144534247556901 -0.35192169894862613 0 0.036606108128447223 -0.35540857497825379 0 0.035115982657055227 -0.35162860416298841 0 0.02953196912776342 -0.35322499211484032 0 0.036606108128447223 -0.35540857497825379 0 0.042257959198767049 -0.35850666659610991 0 0.034728439014972162 -0.36177685373050361 0 0.047306488182720152 -0.35507759684796342 0 0.036606108128447223 -0.35540857497825379 0 0.042257959198767049 -0.35850666659610991 0 0.048908922413575237 -0.35938321020644171 0 0.047306488182720152 -0.35507759684796342 0 0.042257959198767049 -0.35850666659610991 0 0.047138520806633361 -0.37358296425684961 0 0.033382091802316237 -0.36747090426690648 0 0.023948377781401901 -0.37496408984172008 0 0.047138520806633361 -0.37358296425684961 0 0.023948377781401901 -0.37496408984172008 0 0.047138520806633361 -0.37358296425684961 0 0.048908922413575237 -0.35938321020644171 0 0.041462007924234073 -0.36389592596716003 0 0.048908922413575237 -0.35938321020644171 0 0.042257959198767049 -0.35850666659610991 0 0.041462007924234073 -0.36389592596716003 0 0.042257959198767049 -0.35850666659610991 0 0.041462007924234073 -0.36389592596716003 0 0.034728439014972162 -0.36177685373050361 0 0.041462007924234073 -0.36389592596716003 0 0.034728439014972162 -0.36177685373050361 0 0.033382091802316237 -0.36747090426690648 0 0.047138520806633361 -0.37358296425684961 0 0.041462007924234073 -0.36389592596716003 0 0.033382091802316237 -0.36747090426690648 0 0.036606108128447223 -0.35540857497825379 0 0.034728439014972162 -0.36177685373050361 0 0.01993402802109626 -0.36360219684408812 0 0.036606108128447223 -0.35540857497825379 0 0.01993402802109626 -0.36360219684408812 0 0.023948377781401901 -0.37496408984172008 0 0.01993402802109626 -0.36360219684408812 0 0.0090326711079518132 -0.36488049777504211 0 0.033382091802316237 -0.36747090426690648 0 0.023948377781401901 -0.37496408984172008 0 0.01993402802109626 -0.36360219684408812 0 0.034728439014972162 -0.36177685373050361 0 0.033382091802316237 -0.36747090426690648 0 0.01993402802109626 -0.36360219684408812 0 0.036606108128447223 -0.35540857497825379 0 0.01993402802109626 -0.36360219684408812 0 0.02953196912776342 -0.35322499211484032 0 0.01993402802109626 -0.36360219684408812 0 0.023195673033938439 -0.35053363475267241 0 0.011415512107136179 -0.35278846551989668 0 0.01993402802109626 -0.36360219684408812 0 0.02953196912776342 -0.35322499211484032 0 0.023195673033938439 -0.35053363475267241 0 0.032808053798279932 -0.3449519498361987 0 0.02953196912776342 -0.35322499211484032 0 0.023195673033938439 -0.35053363475267241 0 0.032808053798279932 -0.3449519498361987 0 0.023195673033938439 -0.35053363475267241 0 0.026939225051689511 -0.33971267866768001 0 0.023195673033938439 -0.35053363475267241 0 0.026939225051689511 -0.33971267866768001 0 0.017869697460045231 -0.34315261806498132 0 0.023195673033938439 -0.35053363475267241 0 0.011415512107136179 -0.35278846551989668 0 0.017869697460045231 -0.34315261806498132 0 -0.00690637017417266 -0.35646792118819731 0 -0.0012638636643911281 -0.34388760355336129 0 0.011415512107136179 -0.35278846551989668 0 -0.00690637017417266 -0.35646792118819731 0 0.011415512107136179 -0.35278846551989668 0 0.0090326711079518132 -0.36488049777504211 0 0.011415512107136179 -0.35278846551989668 0 0.017869697460045231 -0.34315261806498132 0 0.0091226545205650815 -0.33870327202132472 0 -0.0012638636643911281 -0.34388760355336129 0 0.011415512107136179 -0.35278846551989668 0 0.0091226545205650815 -0.33870327202132472 0 0.00075823475617050468 -0.37634521542659061 0 0.023948377781401901 -0.37496408984172008 0 0.0090326711079518132 -0.36488049777504211 0 -0.00690637017417266 -0.35646792118819731 0 0.00075823475617050468 -0.37634521542659061 0 0.0090326711079518132 -0.36488049777504211 0 0.01993402802109626 -0.36360219684408812 0 0.011415512107136179 -0.35278846551989668 0 0.0090326711079518132 -0.36488049777504211 0 0.03992281307960073 -0.32231978327394428 0 0.01983029931370681 -0.31554988813316692 0 0.027320202959045341 -0.30720217769423391 0 0.03992281307960073 -0.32231978327394428 0 0.01983029931370681 -0.31554988813316692 0 0.019618182203985781 -0.33016949413724839 0 0.01983029931370681 -0.31554988813316692 0 0.019618182203985781 -0.33016949413724839 0 0.0082809770307047392 -0.32422584375760349 0 0.03992281307960073 -0.32231978327394428 0 0.026939225051689511 -0.33971267866768001 0 0.019618182203985781 -0.33016949413724839 0 0.026939225051689511 -0.33971267866768001 0 0.017869697460045231 -0.34315261806498132 0 0.019618182203985781 -0.33016949413724839 0 0.019618182203985781 -0.33016949413724839 0 0.0091226545205650815 -0.33870327202132472 0 0.0082809770307047392 -0.32422584375760349 0 0.017869697460045231 -0.34315261806498132 0 0.019618182203985781 -0.33016949413724839 0 0.0091226545205650815 -0.33870327202132472 0 -0.0018655608206777821 -0.33228212765969012 0 -0.0012638636643911281 -0.34388760355336129 0 0.0091226545205650815 -0.33870327202132472 0 -0.0018655608206777821 -0.33228212765969012 0 0.0091226545205650815 -0.33870327202132472 0 0.0082809770307047392 -0.32422584375760349 0 -0.0054994254322928079 -0.31735566732876491 0 -0.0018655608206777821 -0.33228212765969012 0 0.0082809770307047392 -0.32422584375760349 0 0.01983029931370681 -0.31554988813316692 0 0.0082809770307047392 -0.32422584375760349 0 0.0084797123989413543 -0.31129461326542668 0 -0.0054994254322928079 -0.31735566732876491 0 0.0082809770307047392 -0.32422584375760349 0 0.0084797123989413543 -0.31129461326542668 0 -0.0054994254322928079 -0.31735566732876491 0 0.0058325711166652416 -0.29709404586203292 0 -0.0054994254322928079 -0.31735566732876491 0 0.0058325711166652416 -0.29709404586203292 0 0.0084797123989413543 -0.31129461326542668 0 0.0058325711166652416 -0.29709404586203292 0 0.014479815924223659 -0.29183489151895953 0 0.016463798555868929 -0.30341612969476661 0 0.0058325711166652416 -0.29709404586203292 0 0.0084797123989413543 -0.31129461326542668 0 0.016463798555868929 -0.30341612969476661 0 0.01983029931370681 -0.31554988813316692 0 0.0084797123989413543 -0.31129461326542668 0 0.016463798555868929 -0.30341612969476661 0 0.0058325711166652416 -0.29709404586203292 0 0.01716456766562326 -0.27683242439530092 0 -0.002414121994255156 -0.29063778867238549 0 0.0066223954527101321 -0.28407954886254738 0 0.0059065650228071788 -0.27175393652047042 0 0.0058325711166652416 -0.29709404586203292 0 0.014479815924223659 -0.29183489151895953 0 0.01716456766562326 -0.27683242439530092 0 0.0058325711166652416 -0.29709404586203292 0 0.0066223954527101321 -0.28407954886254738 0 0.01716456766562326 -0.27683242439530092 0 -0.002414121994255156 -0.29063778867238549 0 0.0058325711166652416 -0.29709404586203292 0 0.0066223954527101321 -0.28407954886254738 0 0.03965752417745122 -0.28690115462766708 0 0.01716456766562326 -0.27683242439530092 0 0.028078836602331139 -0.289906292560836 0 0.03965752417745122 -0.28690115462766708 0 0.01716456766562326 -0.27683242439530092 0 0.019606051900943409 -0.28617102307816139 0 0.028078836602331139 -0.289906292560836 0 0.01716456766562326 -0.27683242439530092 0 0.014479815924223659 -0.29183489151895953 0 0.019606051900943409 -0.28617102307816139 0 0.01716456766562326 -0.27683242439530092 0 0.014479815924223659 -0.29183489151895953 0 0.019606051900943409 -0.28617102307816139 0 0.02269907953719361 -0.29128123461081862 0 0.014479815924223659 -0.29183489151895953 0 0.02269907953719361 -0.29128123461081862 0 0.02358943354257198 -0.29744794577923078 0 0.019606051900943409 -0.28617102307816139 0 0.02269907953719361 -0.29128123461081862 0 0.028078836602331139 -0.289906292560836 0 0.028078836602331139 -0.289906292560836 0 0.02358943354257198 -0.29744794577923078 0 0.032494867676769207 -0.3010469485957703 0 0.02269907953719361 -0.29128123461081862 0 0.028078836602331139 -0.289906292560836 0 0.02358943354257198 -0.29744794577923078 0 0.01983029931370681 -0.31554988813316692 0 0.016463798555868929 -0.30341612969476661 0 0.027320202959045341 -0.30720217769423391 0 0.014479815924223659 -0.29183489151895953 0 0.016463798555868929 -0.30341612969476661 0 0.02358943354257198 -0.29744794577923078 0 0.016463798555868929 -0.30341612969476661 0 0.02358943354257198 -0.29744794577923078 0 0.027320202959045341 -0.30720217769423391 0 0.02358943354257198 -0.29744794577923078 0 0.027320202959045341 -0.30720217769423391 0 0.032494867676769207 -0.3010469485957703 0 0.03992281307960073 -0.32231978327394428 0 0.039701091911644552 -0.29271786759926249 0 0.03992281307960073 -0.32231978327394428 0 0.032494867676769207 -0.3010469485957703 0 0.039701091911644552 -0.29271786759926249 0 0.03992281307960073 -0.32231978327394428 0 0.039701091911644552 -0.29271786759926249 0 0.047556807422257041 -0.29903509284348001 0 0.03992281307960073 -0.32231978327394428 0 0.027320202959045341 -0.30720217769423391 0 0.032494867676769207 -0.3010469485957703 0 0.028078836602331139 -0.289906292560836 0 0.032494867676769207 -0.3010469485957703 0 0.039701091911644552 -0.29271786759926249 0 0.028078836602331139 -0.289906292560836 0 0.03965752417745122 -0.28690115462766708 0 0.039701091911644552 -0.29271786759926249 0 0.03965752417745122 -0.28690115462766708 0 0.039701091911644552 -0.29271786759926249 0 0.046430217431243058 -0.27786567761450398 0 0.039701091911644552 -0.29271786759926249 0 0.047338480615047987 -0.28755479110470977 0 0.046430217431243058 -0.27786567761450398 0 0.039701091911644552 -0.29271786759926249 0 0.047338480615047987 -0.28755479110470977 0 0.047556807422257041 -0.29903509284348001 0 0.03965752417745122 -0.28690115462766708 0 0.039701091911644552 -0.29271786759926249 0 0.052828427391595482 -0.28971502083631168 0 0.055023862974250881 -0.296740372435777 0 0.047556807422257041 -0.29903509284348001 0 0.052828427391595482 -0.28971502083631168 0 0.047338480615047987 -0.28755479110470977 0 0.047556807422257041 -0.29903509284348001 0 0.052828427391595482 -0.28971502083631168 0 0.047338480615047987 -0.28755479110470977 0 0.054607429130264423 -0.28110235450738918 0 0.047338480615047987 -0.28755479110470977 0 0.054607429130264423 -0.28110235450738918 0 0.046430217431243058 -0.27786567761450398 0 0.065945357096584251 -0.28940906579471981 0 0.052828427391595482 -0.28971502083631168 0 0.054607429130264423 -0.28110235450738918 0 0.065945357096584251 -0.28940906579471981 0 0.063101740003234319 -0.27636619243471622 0 0.054607429130264423 -0.28110235450738918 0 0.065945357096584251 -0.28940906579471981 0 0.055023862974250881 -0.296740372435777 0 0.061013842005784691 -0.30090512897212501 0 0.065945357096584251 -0.28940906579471981 0 0.052828427391595482 -0.28971502083631168 0 0.055023862974250881 -0.296740372435777 0 0.03992281307960073 -0.32231978327394428 0 0.053385356868353898 -0.30673419077772451 0 0.047556807422257041 -0.29903509284348001 0 0.055023862974250881 -0.296740372435777 0 0.061013842005784691 -0.30090512897212501 0 0.053385356868353898 -0.30673419077772451 0 0.057386148494931212 -0.31737337074465799 0 0.061951158844859071 -0.30823530570994379 0 0.053385356868353898 -0.30673419077772451 0 0.061013842005784691 -0.30090512897212501 0 0.061951158844859071 -0.30823530570994379 0 0.053385356868353898 -0.30673419077772451 0 0.055023862974250881 -0.296740372435777 0 0.053385356868353898 -0.30673419077772451 0 0.047556807422257041 -0.29903509284348001 0 0.047221784094662128 -0.25023484954332531 0 0.061960276072097538 -0.25317502254585278 0 0.053979264211072367 -0.26694302750969251 0 0.047221784094662128 -0.25023484954332531 0 0.053979264211072367 -0.26694302750969251 0 0.039479370743688368 -0.26311595192458059 0 0.066080528056668406 -0.26601097084377262 0 0.061960276072097538 -0.25317502254585278 0 0.053979264211072367 -0.26694302750969251 0 0.063101740003234319 -0.27636619243471622 0 0.066080528056668406 -0.26601097084377262 0 0.053979264211072367 -0.26694302750969251 0 0.063101740003234319 -0.27636619243471622 0 0.054607429130264423 -0.28110235450738918 0 0.053979264211072367 -0.26694302750969251 0 0.054607429130264423 -0.28110235450738918 0 0.053979264211072367 -0.26694302750969251 0 0.046430217431243058 -0.27786567761450398 0 0.03965752417745122 -0.28690115462766708 0 0.039479370743688368 -0.26311595192458059 0 0.03965752417745122 -0.28690115462766708 0 0.046430217431243058 -0.27786567761450398 0 0.039479370743688368 -0.26311595192458059 0 0.053979264211072367 -0.26694302750969251 0 0.046430217431243058 -0.27786567761450398 0 0.039479370743688368 -0.26311595192458059 0 0.03965752417745122 -0.28690115462766708 0 0.031418635864993362 -0.27501203640199728 0 0.039479370743688368 -0.26311595192458059 0 0.031418635864993362 -0.27501203640199728 0 0.039479370743688368 -0.26311595192458059 0 0.02905114843893827 -0.26804128549934592 0 0.039479370743688368 -0.26311595192458059 0 0.028142019481448059 -0.25720472927550458 0 0.02905114843893827 -0.26804128549934592 0 0.047221784094662128 -0.25023484954332531 0 0.039479370743688368 -0.26311595192458059 0 0.038490661404267858 -0.25203314122477971 0 0.039479370743688368 -0.26311595192458059 0 0.038490661404267858 -0.25203314122477971 0 0.028142019481448059 -0.25720472927550458 0 0.028142019481448059 -0.25720472927550458 0 0.02785851574825066 -0.24416256721569099 0 0.01583451592812497 -0.24922238874285901 0 0.028142019481448059 -0.25720472927550458 0 0.016761917024500861 -0.26375336973353369 0 0.01583451592812497 -0.24922238874285901 0 0.03965752417745122 -0.28690115462766708 0 0.031418635864993362 -0.27501203640199728 0 0.01716456766562326 -0.27683242439530092 0 0.028142019481448059 -0.25720472927550458 0 0.016761917024500861 -0.26375336973353369 0 0.01716456766562326 -0.27683242439530092 0 0.028142019481448059 -0.25720472927550458 0 0.02905114843893827 -0.26804128549934592 0 0.01716456766562326 -0.27683242439530092 0 0.028142019481448059 -0.25720472927550458 0 0.01716456766562326 -0.27683242439530092 0 0.031418635864993362 -0.27501203640199728 0 0.02905114843893827 -0.26804128549934592 0 0.01716456766562326 -0.27683242439530092 0 -0.002414121994255156 -0.29063778867238549 0 0.0059065650228071788 -0.27175393652047042 0 0.0066223954527101321 -0.28407954886254738 0 0.01716456766562326 -0.27683242439530092 0 0.0059065650228071788 -0.27175393652047042 0 0.01716456766562326 -0.27683242439530092 0 0.0059065650228071788 -0.27175393652047042 0 0.016761917024500861 -0.26375336973353369 0 0.01716456766562326 -0.27683242439530092 0 0.0059065650228071788 -0.27175393652047042 0 0.0059065650228071788 -0.27175393652047042 0 0.0037735047295409112 -0.25356804962544388 0 0.01583451592812497 -0.24922238874285901 0 0.016761917024500861 -0.26375336973353369 0 0.0059065650228071788 -0.27175393652047042 0 0.01583451592812497 -0.24922238874285901 0 0.0059065650228071788 -0.27175393652047042 0 0.01583451592812497 -0.24922238874285901 0 -0.0049631903719375078 -0.25702848078525448 0 0.0059065650228071788 -0.27175393652047042 0 0.0037735047295409112 -0.25356804962544388 0 0.00365285595354017 -0.24304585125558209 0 0.0077876491562095338 -0.2318289349763841 0 0.01583451592812497 -0.24922238874285901 0 0.0037735047295409112 -0.25356804962544388 0 0.00365285595354017 -0.24304585125558209 0 0.01583451592812497 -0.24922238874285901 0 -0.0041269308005008401 -0.2467473806334986 0 0.0037735047295409112 -0.25356804962544388 0 0.00365285595354017 -0.24304585125558209 0 -0.0050044592456737176 -0.23386250229972511 0 0.00365285595354017 -0.24304585125558209 0 0.0077876491562095338 -0.2318289349763841 0 0.0077876491562095338 -0.2318289349763841 0 0.025762466833442708 -0.22669084096524761 0 0.0076156262736421926 -0.21369324546414289 0 -0.0082696867449335125 -0.22158505704386791 0 0.0077876491562095338 -0.2318289349763841 0 0.0076156262736421926 -0.21369324546414289 0 0.025762466833442708 -0.22669084096524761 0 0.02785851574825066 -0.24416256721569099 0 0.01583451592812497 -0.24922238874285901 0 0.0077876491562095338 -0.2318289349763841 0 0.025762466833442708 -0.22669084096524761 0 0.01583451592812497 -0.24922238874285901 0 0.025762466833442708 -0.22669084096524761 0 0.02785851574825066 -0.24416256721569099 0 0.039119471297272883 -0.2375770341557083 0 0.025762466833442708 -0.22669084096524761 0 0.01583451592812497 -0.24922238874285901 0 0.0089569571408165214 -0.1966774085414536 0 0.024240476306061961 -0.18620781657179231 0 0.0043319602977526031 -0.17985444031778691 0 -0.0091767263642812159 -0.20179350012404371 0 0.0089569571408165214 -0.1966774085414536 0 0.0043319602977526031 -0.17985444031778691 0 0.0089569571408165214 -0.1966774085414536 0 0.0076156262736421926 -0.21369324546414289 0 0.020453188858544781 -0.2054857209460545 0 -0.0091767263642812159 -0.20179350012404371 0 0.0089569571408165214 -0.1966774085414536 0 0.0076156262736421926 -0.21369324546414289 0 0.025762466833442708 -0.22669084096524761 0 0.020453188858544781 -0.2054857209460545 0 0.035690417738760499 -0.20415929318763601 0 0.025762466833442708 -0.22669084096524761 0 0.0076156262736421926 -0.21369324546414289 0 0.020453188858544781 -0.2054857209460545 0 0.025762466833442708 -0.22669084096524761 0 0.035690417738760499 -0.20415929318763601 0 0.0089569571408165214 -0.1966774085414536 0 0.020453188858544781 -0.2054857209460545 0 0.024240476306061961 -0.18620781657179231 0 0.020453188858544781 -0.2054857209460545 0 0.035690417738760499 -0.20415929318763601 0 0.024240476306061961 -0.18620781657179231 0 0.035690417738760499 -0.20415929318763601 0 0.051798251720699372 -0.20202442928734871 0 0.045618368644078318 -0.18162774541002449 0 0.035690417738760499 -0.20415929318763601 0 0.045618368644078318 -0.18162774541002449 0 0.024240476306061961 -0.18620781657179231 0 0.035690417738760499 -0.20415929318763601 0 0.045618368644078318 -0.18162774541002449 0 0.035690417738760499 -0.20415929318763601 0 0.050096923113097713 -0.21794933903591199 0 0.051798251720699372 -0.20202442928734871 0 0.025762466833442708 -0.22669084096524761 0 0.035690417738760499 -0.20415929318763601 0 0.050096923113097713 -0.21794933903591199 0 0.050096923113097713 -0.21794933903591199 0 0.051798251720699372 -0.20202442928734871 0 0.066045996827189923 -0.21123157618589899 0 0.051798251720699372 -0.20202442928734871 0 0.066045996827189923 -0.21123157618589899 0 0.06495970543925092 -0.1939595971137992 0 0.051798251720699372 -0.20202442928734871 0 0.06495970543925092 -0.1939595971137992 0 0.045618368644078318 -0.18162774541002449 0 0.028142019481448059 -0.25720472927550458 0 0.02785851574825066 -0.24416256721569099 0 0.039119471297272883 -0.2375770341557083 0 0.028142019481448059 -0.25720472927550458 0 0.039119471297272883 -0.2375770341557083 0 0.038490661404267858 -0.25203314122477971 0 0.028142019481448059 -0.25720472927550458 0 0.039119471297272883 -0.2375770341557083 0 0.047221784094662128 -0.25023484954332531 0 0.039119471297272883 -0.2375770341557083 0 0.052743957224882752 -0.23825487794998149 0 0.047221784094662128 -0.25023484954332531 0 0.038490661404267858 -0.25203314122477971 0 0.039119471297272883 -0.2375770341557083 0 0.050096923113097713 -0.21794933903591199 0 0.039119471297272883 -0.2375770341557083 0 0.025762466833442708 -0.22669084096524761 0 0.050096923113097713 -0.21794933903591199 0 0.039119471297272883 -0.2375770341557083 0 0.050096923113097713 -0.21794933903591199 0 0.065321331547283493 -0.23233814446910919 0 0.066045996827189923 -0.21123157618589899 0 0.050096923113097713 -0.21794933903591199 0 0.052743957224882752 -0.23825487794998149 0 0.065321331547283493 -0.23233814446910919 0 0.050096923113097713 -0.21794933903591199 0 0.039119471297272883 -0.2375770341557083 0 0.052743957224882752 -0.23825487794998149 0 0.061960276072097538 -0.25317502254585278 0 0.052743957224882752 -0.23825487794998149 0 0.065321331547283493 -0.23233814446910919 0 0.047221784094662128 -0.25023484954332531 0 0.061960276072097538 -0.25317502254585278 0 0.052743957224882752 -0.23825487794998149 0 0.061960276072097538 -0.25317502254585278 0 0.07435051669031438 -0.24586319306072721 0 0.065321331547283493 -0.23233814446910919 0 0.07435051669031438 -0.24586319306072721 0 0.080454168030785006 -0.23545647153286031 0 0.065321331547283493 -0.23233814446910919 0 0.07435051669031438 -0.24586319306072721 0 0.080454168030785006 -0.23545647153286031 0 0.087533553985440077 -0.24846678200877431 0 0.080454168030785006 -0.23545647153286031 0 0.087533553985440077 -0.24846678200877431 0 0.094822298307850716 -0.23027066713742669 0 0.081191706728460558 -0.21960467367924719 0 0.095232418390307202 -0.20956499491323441 0 0.094822298307850716 -0.23027066713742669 0 0.080454168030785006 -0.23545647153286031 0 0.081191706728460558 -0.21960467367924719 0 0.094822298307850716 -0.23027066713742669 0 0.080454168030785006 -0.23545647153286031 0 0.081191706728460558 -0.21960467367924719 0 0.065321331547283493 -0.23233814446910919 0 0.081191706728460558 -0.21960467367924719 0 0.065321331547283493 -0.23233814446910919 0 0.066045996827189923 -0.21123157618589899 0 0.081191706728460558 -0.21960467367924719 0 0.066045996827189923 -0.21123157618589899 0 0.08055350498256976 -0.20214178903584401 0 0.066045996827189923 -0.21123157618589899 0 0.06495970543925092 -0.1939595971137992 0 0.08055350498256976 -0.20214178903584401 0 0.06495970543925092 -0.1939595971137992 0 0.08312987745305464 -0.1836296966234153 0 0.06495970543925092 -0.1939595971137992 0 0.08055350498256976 -0.20214178903584401 0 0.08312987745305464 -0.1836296966234153 0 0.08055350498256976 -0.20214178903584401 0 0.092962926922731948 -0.19438969513825391 0 0.08312987745305464 -0.1836296966234153 0 0.08055350498256976 -0.20214178903584401 0 0.092962926922731948 -0.19438969513825391 0 0.095232418390307202 -0.20956499491323441 0 0.081191706728460558 -0.21960467367924719 0 0.08055350498256976 -0.20214178903584401 0 0.095232418390307202 -0.20956499491323441 0 0.095232418390307202 -0.20956499491323441 0 0.10694702819340481 -0.20708083415458581 0 0.1023379070793492 -0.19783345348788731 0 0.095232418390307202 -0.20956499491323441 0 0.10694702819340481 -0.20708083415458581 0 0.1076363012522098 -0.2181368618671673 0 0.092962926922731948 -0.19438969513825391 0 0.10147133332603241 -0.18966710456200009 0 0.1023379070793492 -0.19783345348788731 0 0.092962926922731948 -0.19438969513825391 0 0.10147133332603241 -0.18966710456200009 0 0.096895416456745806 -0.18433508025205991 0 0.092962926922731948 -0.19438969513825391 0 0.095232418390307202 -0.20956499491323441 0 0.1023379070793492 -0.19783345348788731 0 0.10694702819340481 -0.20708083415458581 0 0.1023379070793492 -0.19783345348788731 0 0.1138577618126384 -0.19942883583092519 0 0.1023379070793492 -0.19783345348788731 0 0.1104892693880046 -0.18950504976401589 0 0.1138577618126384 -0.19942883583092519 0 0.10147133332603241 -0.18966710456200009 0 0.1023379070793492 -0.19783345348788731 0 0.1104892693880046 -0.18950504976401589 0 0.1104892693880046 -0.18950504976401589 0 0.1138577618126384 -0.19942883583092519 0 0.11733394325389609 -0.19264228675409081 0 0.1104892693880046 -0.18950504976401589 0 0.11733394325389609 -0.19264228675409081 0 0.11764448860772 -0.18551303589144191 0 0.1138577618126384 -0.19942883583092519 0 0.12107386833236899 -0.19695461727984401 0 0.1231607931242565 -0.20398948802515859 0 0.12107386833236899 -0.19695461727984401 0 0.1231607931242565 -0.20398948802515859 0 0.12783196352609749 -0.19759285276189589 0 0.1138577618126384 -0.19942883583092519 0 0.12107386833236899 -0.19695461727984401 0 0.11733394325389609 -0.19264228675409081 0 0.12107386833236899 -0.19695461727984401 0 0.11733394325389609 -0.19264228675409081 0 0.1231848799449564 -0.1911196230271491 0 0.12107386833236899 -0.19695461727984401 0 0.1231848799449564 -0.1911196230271491 0 0.12783196352609749 -0.19759285276189589 0 0.11733394325389609 -0.19264228675409081 0 0.1231848799449564 -0.1911196230271491 0 0.11764448860772 -0.18551303589144191 0 0.10694702819340481 -0.20708083415458581 0 0.1076363012522098 -0.2181368618671673 0 0.1156707524325194 -0.2104400246737145 0 0.1076363012522098 -0.2181368618671673 0 0.1156707524325194 -0.2104400246737145 0 0.1207872954706672 -0.2225515436010444 0 0.10694702819340481 -0.20708083415458581 0 0.1138577618126384 -0.19942883583092519 0 0.1156707524325194 -0.2104400246737145 0 0.1156707524325194 -0.2104400246737145 0 0.1231607931242565 -0.20398948802515859 0 0.12662354991336011 -0.21275496251744089 0 0.1138577618126384 -0.19942883583092519 0 0.1156707524325194 -0.2104400246737145 0 0.1231607931242565 -0.20398948802515859 0 0.1156707524325194 -0.2104400246737145 0 0.1207872954706672 -0.2225515436010444 0 0.12662354991336011 -0.21275496251744089 0 0.1076363012522098 -0.2181368618671673 0 0.1207872954706672 -0.2225515436010444 0 0.1090794834408774 -0.23193081997967799 0 0.1207872954706672 -0.2225515436010444 0 0.1200426681133626 -0.23505972905725381 0 0.1090794834408774 -0.23193081997967799 0 0.1207872954706672 -0.2225515436010444 0 0.1200426681133626 -0.23505972905725381 0 0.1313747766406988 -0.23156636030865879 0 0.12981196982254059 -0.25932990127514521 0 0.1229604350539481 -0.25145415123361881 0 0.1200426681133626 -0.23505972905725381 0 0.1229604350539481 -0.25145415123361881 0 0.1200426681133626 -0.23505972905725381 0 0.1134702479629007 -0.24444635753201729 0 0.12981196982254059 -0.25932990127514521 0 0.1200426681133626 -0.23505972905725381 0 0.1200426681133626 -0.23505972905725381 0 0.1134702479629007 -0.24444635753201729 0 0.1090794834408774 -0.23193081997967799 0 0.1134702479629007 -0.24444635753201729 0 0.1027654762942779 -0.2468419229344371 0 0.1090794834408774 -0.23193081997967799 0 0.1027654762942779 -0.2468419229344371 0 0.094822298307850716 -0.23027066713742669 0 0.1090794834408774 -0.23193081997967799 0 0.087533553985440077 -0.24846678200877431 0 0.1027654762942779 -0.2468419229344371 0 0.094822298307850716 -0.23027066713742669 0 0.1090707259180313 -0.25707617054866733 0 0.1134702479629007 -0.24444635753201729 0 0.1027654762942779 -0.2468419229344371 0 0.095232418390307202 -0.20956499491323441 0 0.1076363012522098 -0.2181368618671673 0 0.094822298307850716 -0.23027066713742669 0 0.1076363012522098 -0.2181368618671673 0 0.094822298307850716 -0.23027066713742669 0 0.1090794834408774 -0.23193081997967799 0 0.096887422759195124 -0.14417092858543409 0 0.1003924986739794 -0.1616006974242426 0 0.090601596137164953 -0.15380284876586231 0 0.1112094495496679 -0.13429924392791559 0 0.1003924986739794 -0.1616006974242426 0 0.1112094495496679 -0.13429924392791559 0 0.11200447496158999 -0.14900387005647231 0 0.1003924986739794 -0.1616006974242426 0 0.096887422759195124 -0.14417092858543409 0 0.1112094495496679 -0.13429924392791559 0 0.1003924986739794 -0.1616006974242426 0 0.096887422759195124 -0.14417092858543409 0 0.095754586412362383 -0.13057029952954771 0 0.1112094495496679 -0.13429924392791559 0 0.1112094495496679 -0.13429924392791559 0 0.1031059885059689 -0.1235847184961068 0 0.1099316308271503 -0.117138111767232 0 0.095754586412362383 -0.13057029952954771 0 0.1112094495496679 -0.13429924392791559 0 0.1031059885059689 -0.1235847184961068 0 0.1112094495496679 -0.13429924392791559 0 0.1194807840160223 -0.13570444310177279 0 0.11200447496158999 -0.14900387005647231 0 0.1112094495496679 -0.13429924392791559 0 0.1194807840160223 -0.13570444310177279 0 0.12202640042535599 -0.10699779043158821 0 0.1194807840160223 -0.13570444310177279 0 0.11200447496158999 -0.14900387005647231 0 0.11693516760669 -0.16441109577195759 0 0.1194807840160223 -0.13570444310177279 0 0.11693516760669 -0.16441109577195759 0 0.1351606936033927 -0.15404972606187409 0 0.1194807840160223 -0.13570444310177279 0 0.11693516760669 -0.16441109577195759 0 0.11200447496158999 -0.14900387005647231 0 0.11693516760669 -0.16441109577195759 0 0.1003924986739794 -0.1616006974242426 0 0.11693516760669 -0.16441109577195759 0 0.11598992955695341 -0.17507044738713759 0 0.101300049466859 -0.1732997961330324 0 0.11693516760669 -0.16441109577195759 0 0.11598992955695341 -0.17507044738713759 0 0.127635108636832 -0.1673551145641676 0 0.11693516760669 -0.16441109577195759 0 0.11598992955695341 -0.17507044738713759 0 0.11764448860772 -0.18551303589144191 0 0.1206075048788484 -0.18033411343713149 0 0.12668874226712651 -0.18451132013554819 0 0.1231848799449564 -0.1911196230271491 0 0.11764448860772 -0.18551303589144191 0 0.12668874226712651 -0.18451132013554819 0 0.11764448860772 -0.18551303589144191 0 0.1206075048788484 -0.18033411343713149 0 0.1161232456595499 -0.1819250312807783 0 0.1206075048788484 -0.18033411343713149 0 0.11572587440326711 -0.1780481700144734 0 0.1161232456595499 -0.1819250312807783 0 0.1206075048788484 -0.18033411343713149 0 0.11598992955695341 -0.17507044738713759 0 0.13147274877847381 -0.1769366759134097 0 0.11598992955695341 -0.17507044738713759 0 0.13147274877847381 -0.1769366759134097 0 0.1206075048788484 -0.18033411343713149 0 0.11598992955695341 -0.17507044738713759 0 0.11572587440326711 -0.1780481700144734 0 0.11598992955695341 -0.17507044738713759 0 0.1101607244550931 -0.17838665714171559 0 0.11572587440326711 -0.1780481700144734 0 0.11598992955695341 -0.17507044738713759 0 0.11572587440326711 -0.1780481700144734 0 0.11572587440326711 -0.1780481700144734 0 0.1161232456595499 -0.1819250312807783 0 0.11234874866852761 -0.18289514965410139 0 0.11764448860772 -0.18551303589144191 0 0.1161232456595499 -0.1819250312807783 0 0.11234874866852761 -0.18289514965410139 0 0.1101607244550931 -0.17838665714171559 0 0.11572587440326711 -0.1780481700144734 0 0.11234874866852761 -0.18289514965410139 0 0.1104892693880046 -0.18950504976401589 0 0.11234874866852761 -0.18289514965410139 0 0.10543902017985859 -0.1826197225198323 0 0.1104892693880046 -0.18950504976401589 0 0.11764448860772 -0.18551303589144191 0 0.11234874866852761 -0.18289514965410139 0 0.101300049466859 -0.1732997961330324 0 0.096895416456745806 -0.18433508025205991 0 0.08312987745305464 -0.1836296966234153 0 0.10147133332603241 -0.18966710456200009 0 0.1104892693880046 -0.18950504976401589 0 0.10543902017985859 -0.1826197225198323 0 0.1101607244550931 -0.17838665714171559 0 0.11234874866852761 -0.18289514965410139 0 0.10543902017985859 -0.1826197225198323 0 0.11598992955695341 -0.17507044738713759 0 0.1101607244550931 -0.17838665714171559 0 0.101300049466859 -0.1732997961330324 0 0.1101607244550931 -0.17838665714171559 0 0.10543902017985859 -0.1826197225198323 0 0.101300049466859 -0.1732997961330324 0 0.11598992955695341 -0.17507044738713759 0 0.101300049466859 -0.1732997961330324 0 0.101300049466859 -0.1732997961330324 0 0.092505898921661125 -0.1722397892714298 0 0.10147133332603241 -0.18966710456200009 0 0.10543902017985859 -0.1826197225198323 0 0.096895416456745806 -0.18433508025205991 0 0.10543902017985859 -0.1826197225198323 0 0.101300049466859 -0.1732997961330324 0 0.096895416456745806 -0.18433508025205991 0 0.11693516760669 -0.16441109577195759 0 0.101300049466859 -0.1732997961330324 0 0.11693516760669 -0.16441109577195759 0 0.101300049466859 -0.1732997961330324 0 0.1003924986739794 -0.1616006974242426 0 0.1003924986739794 -0.1616006974242426 0 0.089789751476461011 -0.16275852750166719 0 0.092505898921661125 -0.1722397892714298 0 0.101300049466859 -0.1732997961330324 0 0.1003924986739794 -0.1616006974242426 0 0.092505898921661125 -0.1722397892714298 0 0.1003924986739794 -0.1616006974242426 0 0.089789751476461011 -0.16275852750166719 0 0.090601596137164953 -0.15380284876586231 0 0.089789751476461011 -0.16275852750166719 0 0.081722427964222383 -0.15712967149003479 0 0.090601596137164953 -0.15380284876586231 0 0.089789751476461011 -0.16275852750166719 0 0.079756691432431928 -0.16910681718392409 0 0.092505898921661125 -0.1722397892714298 0 0.089789751476461011 -0.16275852750166719 0 0.079756691432431928 -0.16910681718392409 0 0.081722427964222383 -0.15712967149003479 0 0.101300049466859 -0.1732997961330324 0 0.092505898921661125 -0.1722397892714298 0 0.08312987745305464 -0.1836296966234153 0 0.101300049466859 -0.1732997961330324 0 0.08312987745305464 -0.1836296966234153 0 0.092962926922731948 -0.19438969513825391 0 0.096895416456745806 -0.18433508025205991 0 0.08312987745305464 -0.1836296966234153 0 0.079756691432431928 -0.16910681718392409 0 0.092505898921661125 -0.1722397892714298 0 0.08312987745305464 -0.1836296966234153 0 0.079756691432431928 -0.16910681718392409 0 0.08312987745305464 -0.1836296966234153 0 0.066052517557312521 -0.1761568771706398 0 0.06495970543925092 -0.1939595971137992 0 0.08312987745305464 -0.1836296966234153 0 0.066052517557312521 -0.1761568771706398 0 0.079756691432431928 -0.16910681718392409 0 0.081722427964222383 -0.15712967149003479 0 0.067862605108264501 -0.16209334782813459 0 0.081722427964222383 -0.15712967149003479 0 0.067862605108264501 -0.16209334782813459 0 0.072323727916638741 -0.15063597258405539 0 0.079756691432431928 -0.16910681718392409 0 0.066052517557312521 -0.1761568771706398 0 0.067862605108264501 -0.16209334782813459 0 0.066052517557312521 -0.1761568771706398 0 0.067862605108264501 -0.16209334782813459 0 0.056069953512655868 -0.1661102999848629 0 0.067862605108264501 -0.16209334782813459 0 0.072323727916638741 -0.15063597258405539 0 0.056803877888136428 -0.15038586023681011 0 0.072323727916638741 -0.15063597258405539 0 0.08421587981196689 -0.14335441882793259 0 0.066164220289133921 -0.13830749545358681 0 0.072323727916638741 -0.15063597258405539 0 0.066164220289133921 -0.13830749545358681 0 0.056803877888136428 -0.15038586023681011 0 0.081722427964222383 -0.15712967149003479 0 0.08421587981196689 -0.14335441882793259 0 0.090601596137164953 -0.15380284876586231 0 0.081722427964222383 -0.15712967149003479 0 0.072323727916638741 -0.15063597258405539 0 0.08421587981196689 -0.14335441882793259 0 0.096887422759195124 -0.14417092858543409 0 0.08421587981196689 -0.14335441882793259 0 0.090601596137164953 -0.15380284876586231 0 0.096887422759195124 -0.14417092858543409 0 0.095754586412362383 -0.13057029952954771 0 0.08421587981196689 -0.14335441882793259 0 0.095754586412362383 -0.13057029952954771 0 0.08421587981196689 -0.14335441882793259 0 0.081077193676899278 -0.12855317928837831 0 0.081077193676899278 -0.12855317928837831 0 0.066164220289133921 -0.13830749545358681 0 0.059611507329755453 -0.12117125903582709 0 0.08421587981196689 -0.14335441882793259 0 0.081077193676899278 -0.12855317928837831 0 0.066164220289133921 -0.13830749545358681 0 0.066164220289133921 -0.13830749545358681 0 0.053763970569606648 -0.13286237114906899 0 0.059611507329755453 -0.12117125903582709 0 0.053763970569606648 -0.13286237114906899 0 0.059611507329755453 -0.12117125903582709 0 0.043937121748052449 -0.12462118097121019 0 0.066164220289133921 -0.13830749545358681 0 0.053763970569606648 -0.13286237114906899 0 0.056803877888136428 -0.15038586023681011 0 0.053763970569606648 -0.13286237114906899 0 0.043705575215728147 -0.1412157062524613 0 0.043937121748052449 -0.12462118097121019 0 0.053763970569606648 -0.13286237114906899 0 0.056803877888136428 -0.15038586023681011 0 0.043705575215728147 -0.1412157062524613 0 0.056803877888136428 -0.15038586023681011 0 0.043705575215728147 -0.1412157062524613 0 0.044012398365487572 -0.16028766927870561 0 0.043705575215728147 -0.1412157062524613 0 0.031986533800103183 -0.14982167390143189 0 0.044012398365487572 -0.16028766927870561 0 0.043705575215728147 -0.1412157062524613 0 0.031986533800103183 -0.14982167390143189 0 0.033059620434290803 -0.13098361719968779 0 0.043705575215728147 -0.1412157062524613 0 0.033059620434290803 -0.13098361719968779 0 0.043937121748052449 -0.12462118097121019 0 0.06495970543925092 -0.1939595971137992 0 0.066052517557312521 -0.1761568771706398 0 0.045618368644078318 -0.18162774541002449 0 0.066052517557312521 -0.1761568771706398 0 0.056069953512655868 -0.1661102999848629 0 0.045618368644078318 -0.18162774541002449 0 0.067862605108264501 -0.16209334782813459 0 0.056803877888136428 -0.15038586023681011 0 0.056069953512655868 -0.1661102999848629 0 0.056069953512655868 -0.1661102999848629 0 0.044012398365487572 -0.16028766927870561 0 0.045618368644078318 -0.18162774541002449 0 0.056803877888136428 -0.15038586023681011 0 0.056069953512655868 -0.1661102999848629 0 0.044012398365487572 -0.16028766927870561 0 0.033152477500390437 -0.17173014470117051 0 0.044012398365487572 -0.16028766927870561 0 0.045618368644078318 -0.18162774541002449 0 0.031986533800103183 -0.14982167390143189 0 0.033152477500390437 -0.17173014470117051 0 0.044012398365487572 -0.16028766927870561 0 0.033152477500390437 -0.17173014470117051 0 0.045618368644078318 -0.18162774541002449 0 0.024240476306061961 -0.18620781657179231 0 0.033152477500390437 -0.17173014470117051 0 0.024240476306061961 -0.18620781657179231 0 0.018532895890975142 -0.16673573019603169 0 0.024240476306061961 -0.18620781657179231 0 0.018532895890975142 -0.16673573019603169 0 0.0043319602977526031 -0.17985444031778691 0 0.031986533800103183 -0.14982167390143189 0 0.033152477500390437 -0.17173014470117051 0 0.018532895890975142 -0.16673573019603169 0 0.018532895890975142 -0.16673573019603169 0 0.00085128839454816807 -0.1615185965674765 0 0.01415121754756804 -0.1493418911171597 0 0.018532895890975142 -0.16673573019603169 0 0.00085128839454816807 -0.1615185965674765 0 0.0043319602977526031 -0.17985444031778691 0 0.031986533800103183 -0.14982167390143189 0 0.033059620434290803 -0.13098361719968779 0 0.0228020510691231 -0.1378352869745007 0 0.0228020510691231 -0.1378352869745007 0 0.019952349631791221 -0.12578188353508379 0 0.012817570088964361 -0.13638519017238321 0 0.033059620434290803 -0.13098361719968779 0 0.0228020510691231 -0.1378352869745007 0 0.019952349631791221 -0.12578188353508379 0 0.031986533800103183 -0.14982167390143189 0 0.0228020510691231 -0.1378352869745007 0 0.01415121754756804 -0.1493418911171597 0 0.031986533800103183 -0.14982167390143189 0 0.018532895890975142 -0.16673573019603169 0 0.01415121754756804 -0.1493418911171597 0 0.0228020510691231 -0.1378352869745007 0 0.01415121754756804 -0.1493418911171597 0 0.012817570088964361 -0.13638519017238321 0 -0.0020830339583057132 -0.14375486889113431 0 0.01415121754756804 -0.1493418911171597 0 0.012817570088964361 -0.13638519017238321 0 -0.0020830339583057132 -0.14375486889113431 0 0.00085128839454816807 -0.1615185965674765 0 0.01415121754756804 -0.1493418911171597 0 -0.001344720103037024 -0.1203754713185009 0 -0.0020830339583057132 -0.14375486889113431 0 0.0074543571913040091 -0.12282422903425889 0 -0.0020830339583057132 -0.14375486889113431 0 0.012817570088964361 -0.13638519017238321 0 0.0074543571913040091 -0.12282422903425889 0 0.019952349631791221 -0.12578188353508379 0 0.012817570088964361 -0.13638519017238321 0 0.0074543571913040091 -0.12282422903425889 0 -0.001344720103037024 -0.1203754713185009 0 0.0074543571913040091 -0.12282422903425889 0 -0.001344720103037024 -0.1203754713185009 0 0.0074543571913040091 -0.12282422903425889 0 0.0071948007731657696 -0.1111023692398465 0 0.0074543571913040091 -0.12282422903425889 0 0.0071948007731657696 -0.1111023692398465 0 0.015754788679562658 -0.1154813440920667 0 0.0071948007731657696 -0.1111023692398465 0 0.015754788679562658 -0.1154813440920667 0 0.01554907346874293 -0.102670936079408 0 0.019952349631791221 -0.12578188353508379 0 0.0074543571913040091 -0.12282422903425889 0 0.015754788679562658 -0.1154813440920667 0 0.019952349631791221 -0.12578188353508379 0 0.015754788679562658 -0.1154813440920667 0 0.02862336233280937 -0.1150273025717363 0 0.033059620434290803 -0.13098361719968779 0 0.019952349631791221 -0.12578188353508379 0 0.02862336233280937 -0.1150273025717363 0 0.015754788679562658 -0.1154813440920667 0 0.02862336233280937 -0.1150273025717363 0 0.01554907346874293 -0.102670936079408 0 0.02862336233280937 -0.1150273025717363 0 0.031000197638864579 -0.096384197975635438 0 0.01554907346874293 -0.102670936079408 0 0.031000197638864579 -0.096384197975635438 0 0.01554907346874293 -0.102670936079408 0 0.01487934633526089 -0.084582883674430676 0 -0.00050241834979408489 -0.093703199865545928 0 -0.001344720103037024 -0.1203754713185009 0 0.0071948007731657696 -0.1111023692398465 0 -0.00050241834979408489 -0.093703199865545928 0 0.0071948007731657696 -0.1111023692398465 0 0.01554907346874293 -0.102670936079408 0 -0.00050241834979408489 -0.093703199865545928 0 0.01554907346874293 -0.102670936079408 0 0.01487934633526089 -0.084582883674430676 0 -0.00050241834979408489 -0.093703199865545928 0 0.01487934633526089 -0.084582883674430676 0 0.00033988340344908119 -0.067030928412590951 0 0.01487934633526089 -0.084582883674430676 0 0.00033988340344908119 -0.067030928412590951 0 0.01597958058643735 -0.060894332181149383 0 0.02820977031767687 -0.076415692928982579 0 0.01597958058643735 -0.060894332181149383 0 0.041612498140115008 -0.062133203184148993 0 0.01487934633526089 -0.084582883674430676 0 0.02820977031767687 -0.076415692928982579 0 0.01597958058643735 -0.060894332181149383 0 0.031000197638864579 -0.096384197975635438 0 0.01487934633526089 -0.084582883674430676 0 0.02820977031767687 -0.076415692928982579 0 0.031000197638864579 -0.096384197975635438 0 0.02820977031767687 -0.076415692928982579 0 0.040578620781134701 -0.082473042775099162 0 0.031000197638864579 -0.096384197975635438 0 0.040578620781134701 -0.082473042775099162 0 0.04615699496180091 -0.097337407405334669 0 0.040578620781134701 -0.082473042775099162 0 0.05591364284721613 -0.080094712381394179 0 0.041612498140115008 -0.062133203184148993 0 0.02820977031767687 -0.076415692928982579 0 0.040578620781134701 -0.082473042775099162 0 0.041612498140115008 -0.062133203184148993 0 0.05591364284721613 -0.080094712381394179 0 0.041612498140115008 -0.062133203184148993 0 0.070447164371299137 -0.061335438760182173 0 0.040578620781134701 -0.082473042775099162 0 0.05591364284721613 -0.080094712381394179 0 0.04615699496180091 -0.097337407405334669 0 0.05591364284721613 -0.080094712381394179 0 0.060676817350440657 -0.1049772496280334 0 0.04615699496180091 -0.097337407405334669 0 0.060676817350440657 -0.1049772496280334 0 0.043463820987346621 -0.1107014162292146 0 0.04615699496180091 -0.097337407405334669 0 0.059611507329755453 -0.12117125903582709 0 0.043463820987346621 -0.1107014162292146 0 0.043937121748052449 -0.12462118097121019 0 0.060676817350440657 -0.1049772496280334 0 0.059611507329755453 -0.12117125903582709 0 0.043463820987346621 -0.1107014162292146 0 0.033059620434290803 -0.13098361719968779 0 0.02862336233280937 -0.1150273025717363 0 0.043937121748052449 -0.12462118097121019 0 0.02862336233280937 -0.1150273025717363 0 0.043463820987346621 -0.1107014162292146 0 0.043937121748052449 -0.12462118097121019 0 0.02862336233280937 -0.1150273025717363 0 0.031000197638864579 -0.096384197975635438 0 0.043463820987346621 -0.1107014162292146 0 0.031000197638864579 -0.096384197975635438 0 0.043463820987346621 -0.1107014162292146 0 0.04615699496180091 -0.097337407405334669 0 0.02386708789371559 0.0035588790540027342 0 0.017083954850027571 -0.015540121717301011 0 0.044313967751364453 -0.01193996844612271 0 0.017083954850027571 -0.015540121717301011 0 0.044313967751364453 -0.01193996844612271 0 0.02386708789371559 0.0035588790540027342 0 0.017083954850027571 -0.015540121717301011 0 0.003446058010442044 -0.001436598912300188 0 -0.010146058051308981 -0.019140274988481479 0 0.017083954850027571 -0.015540121717301011 0 0.003446058010442044 -0.001436598912300188 0 0.017083954850027571 -0.015540121717301011 0 0.021119879196800619 -0.034256131095277462 0 0.0060884536637360459 -0.037271583403209678 0 -0.010146058051308981 -0.019140274988481479 0 0.017083954850027571 -0.015540121717301011 0 0.0060884536637360459 -0.037271583403209678 0 -0.010146058051308981 -0.019140274988481479 0 0.017083954850027571 -0.015540121717301011 0 0.017083954850027571 -0.015540121717301011 0 0.029658972434174959 -0.025820918355324459 0 0.044313967751364453 -0.01193996844612271 0 0.017083954850027571 -0.015540121717301011 0 0.029658972434174959 -0.025820918355324459 0 0.021119879196800619 -0.034256131095277462 0 0.021119879196800619 -0.034256131095277462 0 0.02646855906329186 -0.047059729565339228 0 0.039316409812318473 -0.037593192172067358 0 0.021119879196800619 -0.034256131095277462 0 0.0060884536637360459 -0.037271583403209678 0 0.02646855906329186 -0.047059729565339228 0 0.029658972434174959 -0.025820918355324459 0 0.021119879196800619 -0.034256131095277462 0 0.039316409812318473 -0.037593192172067358 0 -0.0043244833945796984 -0.051560032956885403 0 0.00033988340344908119 -0.067030928412590951 0 0.01597958058643735 -0.060894332181149383 0 -0.0043244833945796984 -0.051560032956885403 0 0.0060884536637360459 -0.037271583403209678 0 0.01597958058643735 -0.060894332181149383 0 0.01597958058643735 -0.060894332181149383 0 0.02646855906329186 -0.047059729565339228 0 0.041612498140115008 -0.062133203184148993 0 0.0060884536637360459 -0.037271583403209678 0 0.01597958058643735 -0.060894332181149383 0 0.02646855906329186 -0.047059729565339228 0 0.041612498140115008 -0.062133203184148993 0 0.057158277719980791 -0.045611423848401923 0 0.039316409812318473 -0.037593192172067358 0 0.02646855906329186 -0.047059729565339228 0 0.041612498140115008 -0.062133203184148993 0 0.039316409812318473 -0.037593192172067358 0 0.041612498140115008 -0.062133203184148993 0 0.057158277719980791 -0.045611423848401923 0 0.070447164371299137 -0.061335438760182173 0 0.057258034686612863 -0.032452117141484452 0 0.039316409812318473 -0.037593192172067358 0 0.04638144166136822 -0.027103606109733301 0 0.057158277719980791 -0.045611423848401923 0 0.057258034686612863 -0.032452117141484452 0 0.039316409812318473 -0.037593192172067358 0 0.029658972434174959 -0.025820918355324459 0 0.039316409812318473 -0.037593192172067358 0 0.039313624989537298 -0.024220382115935721 0 0.029658972434174959 -0.025820918355324459 0 0.039313624989537298 -0.024220382115935721 0 0.044313967751364453 -0.01193996844612271 0 0.044699531434163248 -0.019688428508461159 0 0.039313624989537298 -0.024220382115935721 0 0.044313967751364453 -0.01193996844612271 0 0.044699531434163248 -0.019688428508461159 0 0.047875485212019037 -0.014639618288842811 0 0.044699531434163248 -0.019688428508461159 0 0.04638144166136822 -0.027103606109733301 0 0.039313624989537298 -0.024220382115935721 0 0.039316409812318473 -0.037593192172067358 0 0.04638144166136822 -0.027103606109733301 0 0.039313624989537298 -0.024220382115935721 0 0.057258034686612863 -0.032452117141484452 0 0.04638144166136822 -0.027103606109733301 0 0.054413848576754978 -0.02406251926307576 0 0.057258034686612863 -0.032452117141484452 0 0.054413848576754978 -0.02406251926307576 0 0.06702323945334851 -0.020005952768179899 0 0.054413848576754978 -0.02406251926307576 0 0.056436025428241991 -0.01421940444457301 0 0.06702323945334851 -0.020005952768179899 0 0.04638144166136822 -0.027103606109733301 0 0.054413848576754978 -0.02406251926307576 0 0.050700738467143687 -0.019140926993948829 0 0.054413848576754978 -0.02406251926307576 0 0.050700738467143687 -0.019140926993948829 0 0.056436025428241991 -0.01421940444457301 0 0.044699531434163248 -0.019688428508461159 0 0.04638144166136822 -0.027103606109733301 0 0.050700738467143687 -0.019140926993948829 0 0.050700738467143687 -0.019140926993948829 0 0.0519786989470752 -0.014753564483801281 0 0.056436025428241991 -0.01421940444457301 0 0.044699531434163248 -0.019688428508461159 0 0.049574347758862498 -0.01592736545224939 0 0.047875485212019037 -0.014639618288842811 0 0.050700738467143687 -0.019140926993948829 0 0.049574347758862498 -0.01592736545224939 0 0.0519786989470752 -0.014753564483801281 0 0.044699531434163248 -0.019688428508461159 0 0.050700738467143687 -0.019140926993948829 0 0.049574347758862498 -0.01592736545224939 0 0.049574347758862498 -0.01592736545224939 0 0.050050824939820632 -0.01118148312155649 0 0.0519786989470752 -0.014753564483801281 0 0.049574347758862498 -0.01592736545224939 0 0.047875485212019037 -0.014639618288842811 0 0.050050824939820632 -0.01118148312155649 0 0.064523017660921722 0.011824945693661401 0 0.050050824939820632 -0.01118148312155649 0 0.061812329021257717 -0.0096264630212658589 0 0.047875485212019037 -0.014639618288842811 0 0.050050824939820632 -0.01118148312155649 0 0.044313967751364453 -0.01193996844612271 0 0.049574347758862498 -0.01592736545224939 0 0.047875485212019037 -0.014639618288842811 0 0.047875485212019037 -0.014639618288842811 0 0.050050824939820632 -0.01118148312155649 0 0.050050824939820632 -0.01118148312155649 0 0.044313967751364453 -0.01193996844612271 0 0.050050824939820632 -0.01118148312155649 0 0.0519786989470752 -0.014753564483801281 0 0.056436025428241991 -0.01421940444457301 0 0.061812329021257717 -0.0096264630212658589 0 0.056436025428241991 -0.01421940444457301 0 0.06702323945334851 -0.020005952768179899 0 0.050050824939820632 -0.01118148312155649 0 0.061812329021257717 -0.0096264630212658589 0 0.056436025428241991 -0.01421940444457301 0 0.050050824939820632 -0.01118148312155649 0 0.061812329021257717 -0.0096264630212658589 0 0.02386708789371559 0.0035588790540027342 0 0.045226102000073182 0.00069141601889222701 0 0.044313967751364453 -0.01193996844612271 0 0.045226102000073182 0.00069141601889222701 0 0.050050824939820632 -0.01118148312155649 0 0.044313967751364453 -0.01193996844612271 0 0.02386708789371559 0.0035588790540027342 0 0.044313967751364453 -0.01193996844612271 0 0.044699531434163248 -0.019688428508461159 0 0.047875485212019037 -0.014639618288842811 0 0.044313967751364453 -0.01193996844612271 0 0.047875485212019037 -0.014639618288842811 0 0.044313967751364453 -0.01193996844612271 0 0.079604358272816672 0.009465173979337084 0 0.083867398807817822 -0.0077508972080709664 0 0.072328556726947588 -0.0026761394587571821 0 0.083867398807817822 -0.0077508972080709664 0 0.097675428877841836 -0.018623645007231279 0 0.098463245138284958 -0.0055863517735342321 0 0.061812329021257717 -0.0096264630212658589 0 0.072328556726947588 -0.0026761394587571821 0 0.06702323945334851 -0.020005952768179899 0 0.064523017660921722 0.011824945693661401 0 0.061812329021257717 -0.0096264630212658589 0 0.072328556726947588 -0.0026761394587571821 0 0.083867398807817822 -0.0077508972080709664 0 0.072328556726947588 -0.0026761394587571821 0 0.06702323945334851 -0.020005952768179899 0 0.057258034686612863 -0.032452117141484452 0 0.06702323945334851 -0.020005952768179899 0 0.077157281589558466 -0.034543167984126627 0 0.083867398807817822 -0.0077508972080709664 0 0.06702323945334851 -0.020005952768179899 0 0.077157281589558466 -0.034543167984126627 0 0.083867398807817822 -0.0077508972080709664 0 0.077157281589558466 -0.034543167984126627 0 0.097675428877841836 -0.018623645007231279 0 0.077157281589558466 -0.034543167984126627 0 0.1030620201460917 -0.034576805313812027 0 0.097675428877841836 -0.018623645007231279 0 0.083867398807817822 -0.0077508972080709664 0 0.077157281589558466 -0.034543167984126627 0 0.077157281589558466 -0.034543167984126627 0 0.089916786301926413 -0.051513939856525387 0 0.1030620201460917 -0.034576805313812027 0 0.057158277719980791 -0.045611423848401923 0 0.057258034686612863 -0.032452117141484452 0 0.077157281589558466 -0.034543167984126627 0 0.077157281589558466 -0.034543167984126627 0 0.070447164371299137 -0.061335438760182173 0 0.057158277719980791 -0.045611423848401923 0 0.077157281589558466 -0.034543167984126627 0 0.070447164371299137 -0.061335438760182173 0 0.070447164371299137 -0.061335438760182173 0 0.089916786301926413 -0.051513939856525387 0 0.090834610736040655 -0.071854794695554225 0 0.077157281589558466 -0.034543167984126627 0 0.070447164371299137 -0.061335438760182173 0 0.089916786301926413 -0.051513939856525387 0 0.089916786301926413 -0.051513939856525387 0 0.10790909769866069 -0.055578437926898767 0 0.090834610736040655 -0.071854794695554225 0 0.089916786301926413 -0.051513939856525387 0 0.10790909769866069 -0.055578437926898767 0 0.1030620201460917 -0.034576805313812027 0 0.10790909769866069 -0.055578437926898767 0 0.12827056402415329 -0.036583004060271568 0 0.12635051918722021 -0.058235150881355592 0 0.1030620201460917 -0.034576805313812027 0 0.12827056402415329 -0.036583004060271568 0 0.10790909769866069 -0.055578437926898767 0 0.1030620201460917 -0.034576805313812027 0 0.12827056402415329 -0.036583004060271568 0 0.097675428877841836 -0.018623645007231279 0 0.11421263828678491 -0.02258034318342746 0 0.11207589959037929 -0.0058042570280256332 0 0.1030620201460917 -0.034576805313812027 0 0.097675428877841836 -0.018623645007231279 0 0.11421263828678491 -0.02258034318342746 0 0.11421263828678491 -0.02258034318342746 0 0.1299792787954574 -0.017314004507796701 0 0.12827056402415329 -0.036583004060271568 0 0.1030620201460917 -0.034576805313812027 0 0.11421263828678491 -0.02258034318342746 0 0.12827056402415329 -0.036583004060271568 0 0.1316879935667612 0.0019549950446782201 0 0.11207589959037929 -0.0058042570280256332 0 0.1299792787954574 -0.017314004507796701 0 0.11421263828678491 -0.02258034318342746 0 0.11207589959037929 -0.0058042570280256332 0 0.1299792787954574 -0.017314004507796701 0 0.10023425327710089 0.0098333921491909459 0 0.083867398807817822 -0.0077508972080709664 0 0.098463245138284958 -0.0055863517735342321 0 0.10023425327710089 0.0098333921491909459 0 0.11207589959037929 -0.0058042570280256332 0 0.098463245138284958 -0.0055863517735342321 0 0.097675428877841836 -0.018623645007231279 0 0.11207589959037929 -0.0058042570280256332 0 0.098463245138284958 -0.0055863517735342321 0 0.077377161370307923 -0.10832196411962 0 0.092984873223613623 -0.09290083760482537 0 0.095528287234695045 -0.11233121875973209 0 0.077377161370307923 -0.10832196411962 0 0.075169713411616434 -0.088080857069086332 0 0.092984873223613623 -0.09290083760482537 0 0.081077193676899278 -0.12855317928837831 0 0.095528287234695045 -0.11233121875973209 0 0.081077193676899278 -0.12855317928837831 0 0.077377161370307923 -0.10832196411962 0 0.095528287234695045 -0.11233121875973209 0 0.095754586412362383 -0.13057029952954771 0 0.081077193676899278 -0.12855317928837831 0 0.095528287234695045 -0.11233121875973209 0 0.081077193676899278 -0.12855317928837831 0 0.059611507329755453 -0.12117125903582709 0 0.077377161370307923 -0.10832196411962 0 0.060676817350440657 -0.1049772496280334 0 0.059611507329755453 -0.12117125903582709 0 0.077377161370307923 -0.10832196411962 0 0.060676817350440657 -0.1049772496280334 0 0.077377161370307923 -0.10832196411962 0 0.075169713411616434 -0.088080857069086332 0 0.05591364284721613 -0.080094712381394179 0 0.060676817350440657 -0.1049772496280334 0 0.075169713411616434 -0.088080857069086332 0 0.05591364284721613 -0.080094712381394179 0 0.070447164371299137 -0.061335438760182173 0 0.075169713411616434 -0.088080857069086332 0 0.070447164371299137 -0.061335438760182173 0 0.075169713411616434 -0.088080857069086332 0 0.090834610736040655 -0.071854794695554225 0 0.075169713411616434 -0.088080857069086332 0 0.090834610736040655 -0.071854794695554225 0 0.092984873223613623 -0.09290083760482537 0 0.092984873223613623 -0.09290083760482537 0 0.1087481593313854 -0.07576096284035988 0 0.1099793807924908 -0.096109258231085848 0 0.090834610736040655 -0.071854794695554225 0 0.092984873223613623 -0.09290083760482537 0 0.1087481593313854 -0.07576096284035988 0 0.10790909769866069 -0.055578437926898767 0 0.090834610736040655 -0.071854794695554225 0 0.1087481593313854 -0.07576096284035988 0 0.1087481593313854 -0.07576096284035988 0 0.12443047435028649 -0.079887297702439505 0 0.12635051918722021 -0.058235150881355592 0 0.10790909769866069 -0.055578437926898767 0 0.1087481593313854 -0.07576096284035988 0 0.12635051918722021 -0.058235150881355592 0 0.12443047435028649 -0.079887297702439505 0 0.12202640042535599 -0.10699779043158821 0 0.12443047435028649 -0.079887297702439505 0 0.1099793807924908 -0.096109258231085848 0 0.1087481593313854 -0.07576096284035988 0 0.12443047435028649 -0.079887297702439505 0 0.1099793807924908 -0.096109258231085848 0 0.12443047435028649 -0.079887297702439505 0 0.12202640042535599 -0.10699779043158821 0 0.1099793807924908 -0.096109258231085848 0 0.12202640042535599 -0.10699779043158821 0 0.1099793807924908 -0.096109258231085848 0 0.1099316308271503 -0.117138111767232 0 0.1099793807924908 -0.096109258231085848 0 0.095528287234695045 -0.11233121875973209 0 0.1099316308271503 -0.117138111767232 0 0.092984873223613623 -0.09290083760482537 0 0.1099793807924908 -0.096109258231085848 0 0.095528287234695045 -0.11233121875973209 0 0.1099793807924908 -0.096109258231085848 0 0.095528287234695045 -0.11233121875973209 0 0.095754586412362383 -0.13057029952954771 0 0.095528287234695045 -0.11233121875973209 0 0.1031059885059689 -0.1235847184961068 0 0.095528287234695045 -0.11233121875973209 0 0.1031059885059689 -0.1235847184961068 0 0.1099316308271503 -0.117138111767232 0 0.1112094495496679 -0.13429924392791559 0 0.12202640042535599 -0.10699779043158821 0 0.1099316308271503 -0.117138111767232 0 0.1112094495496679 -0.13429924392791559 0 0.12202640042535599 -0.10699779043158821 0 0.1194807840160223 -0.13570444310177279 0 0.12202640042535599 -0.10699779043158821 0 0.1194807840160223 -0.13570444310177279 0 0.12202640042535599 -0.10699779043158821 0 0.1404241251475683 -0.1234635751184066 0 0.12202640042535599 -0.10699779043158821 0 0.1404241251475683 -0.1234635751184066 0 0.14604299423495781 -0.1034934787108535 0 0.1404241251475683 -0.1234635751184066 0 0.14604299423495781 -0.1034934787108535 0 0.16323370440623661 -0.123805236313708 0 0.14604299423495781 -0.1034934787108535 0 0.1330454227902767 -0.098274258234949702 0 0.14180845059257061 -0.089684426435168302 0 0.12202640042535599 -0.10699779043158821 0 0.1330454227902767 -0.098274258234949702 0 0.13075197013057621 -0.084974880438401165 0 0.12202640042535599 -0.10699779043158821 0 0.14604299423495781 -0.1034934787108535 0 0.1330454227902767 -0.098274258234949702 0 0.12202640042535599 -0.10699779043158821 0 0.13075197013057621 -0.084974880438401165 0 0.12443047435028649 -0.079887297702439505 0 0.12202640042535599 -0.10699779043158821 0 0.13075197013057621 -0.084974880438401165 0 0.12443047435028649 -0.079887297702439505 0 0.13075197013057621 -0.084974880438401165 0 0.13178768016972259 -0.071628524625738238 0 0.13075197013057621 -0.084974880438401165 0 0.14393064369239511 -0.077890035691880966 0 0.14180845059257061 -0.089684426435168302 0 0.1330454227902767 -0.098274258234949702 0 0.13075197013057621 -0.084974880438401165 0 0.14180845059257061 -0.089684426435168302 0 0.12443047435028649 -0.079887297702439505 0 0.13178768016972259 -0.071628524625738238 0 0.12635051918722021 -0.058235150881355592 0 0.12443047435028649 -0.079887297702439505 0 0.12635051918722021 -0.058235150881355592 0 0.13075197013057621 -0.084974880438401165 0 0.13947753983579589 -0.062951970445213931 0 0.13075197013057621 -0.084974880438401165 0 0.13178768016972259 -0.071628524625738238 0 0.13947753983579589 -0.062951970445213931 0 0.13075197013057621 -0.084974880438401165 0 0.13947753983579589 -0.062951970445213931 0 0.14393064369239511 -0.077890035691880966 0 0.13178768016972259 -0.071628524625738238 0 0.13947753983579589 -0.062951970445213931 0 0.12635051918722021 -0.058235150881355592 0 0.12443047435028649 -0.079887297702439505 0 0.13178768016972259 -0.071628524625738238 0 0.13947753983579589 -0.062951970445213931 0 0.14393064369239511 -0.077890035691880966 0 0.15094551400158671 -0.068340822409315091 0 0.14393064369239511 -0.077890035691880966 0 0.15094551400158671 -0.068340822409315091 0 0.15527122211464731 -0.083789479099756148 0 0.14604299423495781 -0.1034934787108535 0 0.14180845059257061 -0.089684426435168302 0 0.15527122211464731 -0.083789479099756148 0 0.14393064369239511 -0.077890035691880966 0 0.14180845059257061 -0.089684426435168302 0 0.15527122211464731 -0.083789479099756148 0 0.15527122211464731 -0.083789479099756148 0 0.17951184081247731 -0.068807568187733287 0 0.17137277260935699 -0.096306402250720652 0 0.15094551400158671 -0.068340822409315091 0 0.15527122211464731 -0.083789479099756148 0 0.17951184081247731 -0.068807568187733287 0 0.15094551400158671 -0.068340822409315091 0 0.17951184081247731 -0.068807568187733287 0 0.15803140877196001 -0.05485012656126801 0 0.17951184081247731 -0.068807568187733287 0 0.17137277260935699 -0.096306402250720652 0 0.1926518570763647 -0.082208524290282872 0 0.17951184081247731 -0.068807568187733287 0 0.17137277260935699 -0.096306402250720652 0 0.17137277260935699 -0.096306402250720652 0 0.19296729327668241 -0.114955245123305 0 0.1926518570763647 -0.082208524290282872 0 0.16323370440623661 -0.123805236313708 0 0.17137277260935699 -0.096306402250720652 0 0.19296729327668241 -0.114955245123305 0 0.16323370440623661 -0.123805236313708 0 0.17137277260935699 -0.096306402250720652 0 0.14604299423495781 -0.1034934787108535 0 0.16323370440623661 -0.123805236313708 0 0.17137277260935699 -0.096306402250720652 0 0.14604299423495781 -0.1034934787108535 0 0.15527122211464731 -0.083789479099756148 0 0.17137277260935699 -0.096306402250720652 0 0.1316879935667612 0.0019549950446782201 0 0.15619269953761031 -0.011567155794111311 0 0.1316879935667612 0.0019549950446782201 0 0.15619269953761031 -0.011567155794111311 0 0.145848856093969 -0.01641456038814209 0 0.15619269953761031 -0.011567155794111311 0 0.145848856093969 -0.01641456038814209 0 0.15872308594758411 -0.018051803658844508 0 0.1316879935667612 0.0019549950446782201 0 0.1299792787954574 -0.017314004507796701 0 0.1316879935667612 0.0019549950446782201 0 0.1299792787954574 -0.017314004507796701 0 0.145848856093969 -0.01641456038814209 0 0.1299792787954574 -0.017314004507796701 0 0.14389474623658929 -0.027908307255694119 0 0.145848856093969 -0.01641456038814209 0 0.1299792787954574 -0.017314004507796701 0 0.12827056402415329 -0.036583004060271568 0 0.1299792787954574 -0.017314004507796701 0 0.14389474623658929 -0.027908307255694119 0 0.12827056402415329 -0.036583004060271568 0 0.14389474623658929 -0.027908307255694119 0 0.145848856093969 -0.01641456038814209 0 0.15461533247981141 -0.02560108615708526 0 0.145848856093969 -0.01641456038814209 0 0.15461533247981141 -0.02560108615708526 0 0.15872308594758411 -0.018051803658844508 0 0.14389474623658929 -0.027908307255694119 0 0.15461533247981141 -0.02560108615708526 0 0.15796073651987519 -0.038945869092508571 0 0.14820310954101559 -0.040929060452026669 0 0.12827056402415329 -0.036583004060271568 0 0.15796073651987519 -0.038945869092508571 0 0.14820310954101559 -0.040929060452026669 0 0.15803140877196001 -0.05485012656126801 0 0.15796073651987519 -0.038945869092508571 0 0.12827056402415329 -0.036583004060271568 0 0.15796073651987519 -0.038945869092508571 0 0.14389474623658929 -0.027908307255694119 0 0.12827056402415329 -0.036583004060271568 0 0.15796073651987519 -0.038945869092508571 0 0.14820310954101559 -0.040929060452026669 0 0.12827056402415329 -0.036583004060271568 0 0.1355754331470462 -0.049674796459716931 0 0.12827056402415329 -0.036583004060271568 0 0.1355754331470462 -0.049674796459716931 0 0.12635051918722021 -0.058235150881355592 0 0.12827056402415329 -0.036583004060271568 0 0.12635051918722021 -0.058235150881355592 0 0.13947753983579589 -0.062951970445213931 0 0.1355754331470462 -0.049674796459716931 0 0.12635051918722021 -0.058235150881355592 0 0.13947753983579589 -0.062951970445213931 0 0.14820310954101559 -0.040929060452026669 0 0.15803140877196001 -0.05485012656126801 0 0.13947753983579589 -0.062951970445213931 0 0.14820310954101559 -0.040929060452026669 0 0.13947753983579589 -0.062951970445213931 0 0.14820310954101559 -0.040929060452026669 0 0.1355754331470462 -0.049674796459716931 0 0.13947753983579589 -0.062951970445213931 0 0.15094551400158671 -0.068340822409315091 0 0.15803140877196001 -0.05485012656126801 0 0.15803140877196001 -0.05485012656126801 0 0.17142594246129911 -0.050070675776092838 0 0.15796073651987519 -0.038945869092508571 0 0.17951184081247731 -0.068807568187733287 0 0.15803140877196001 -0.05485012656126801 0 0.17142594246129911 -0.050070675776092838 0 0.17951184081247731 -0.068807568187733287 0 0.187650909015597 -0.041308734124745741 0 0.19331477218623391 -0.059691915682678433 0 0.17951184081247731 -0.068807568187733287 0 0.17142594246129911 -0.050070675776092838 0 0.187650909015597 -0.041308734124745741 0 0.17951184081247731 -0.068807568187733287 0 0.187650909015597 -0.041308734124745741 0 0.17538053092229769 -0.03165331316189042 0 0.15796073651987519 -0.038945869092508571 0 0.187650909015597 -0.041308734124745741 0 0.15796073651987519 -0.038945869092508571 0 0.187650909015597 -0.041308734124745741 0 0.17142594246129911 -0.050070675776092838 0 0.15796073651987519 -0.038945869092508571 0 0.187650909015597 -0.041308734124745741 0 0.17538053092229769 -0.03165331316189042 0 0.1908012825243959 -0.030664813200033749 0 0.187650909015597 -0.041308734124745741 0 0.17538053092229769 -0.03165331316189042 0 0.15796073651987519 -0.038945869092508571 0 0.16422720430122331 -0.02470509352159889 0 0.15461533247981141 -0.02560108615708526 0 0.15796073651987519 -0.038945869092508571 0 0.16422720430122331 -0.02470509352159889 0 0.15872308594758411 -0.018051803658844508 0 0.16422720430122331 -0.02470509352159889 0 0.16172376197639621 -0.01461929854110364 0 0.15461533247981141 -0.02560108615708526 0 0.15872308594758411 -0.018051803658844508 0 0.16422720430122331 -0.02470509352159889 0 0.15872308594758411 -0.018051803658844508 0 0.16172376197639621 -0.01461929854110364 0 0.17626252225039779 -0.022642055870565531 0 0.16172376197639621 -0.01461929854110364 0 0.16422720430122331 -0.02470509352159889 0 0.17626252225039779 -0.022642055870565531 0 0.16172376197639621 -0.01461929854110364 0 0.17626252225039779 -0.022642055870565531 0 0.1819618510729403 -0.0083597454106819624 0 0.1908012825243959 -0.030664813200033749 0 0.17538053092229769 -0.03165331316189042 0 0.16422720430122331 -0.02470509352159889 0 0.17626252225039779 -0.022642055870565531 0 0.17626252225039779 -0.022642055870565531 0 0.1908012825243959 -0.030664813200033749 0 0.17538053092229769 -0.03165331316189042 0 0.17626252225039779 -0.022642055870565531 0 0.1908012825243959 -0.030664813200033749 0 0.17624968729827681 0.0069613371078181691 0 0.1819618510729403 -0.0083597454106819624 0 0.16172376197639621 -0.01461929854110364 0 0.17626252225039779 -0.022642055870565531 0 0.1819618510729403 -0.0083597454106819624 0 0.16172376197639621 -0.01461929854110364 0 0.17624968729827681 0.0069613371078181691 0 0.16088985257273469 0.0043147555944088754 0 0.16172376197639621 -0.01461929854110364 0 0.16088985257273469 0.0043147555944088754 0 0.15619269953761031 -0.011567155794111311 0 0.16172376197639621 -0.01461929854110364 0 0.17624968729827681 0.0069613371078181691 0 0.16172376197639621 -0.01461929854110364 0 0.15619269953761031 -0.011567155794111311 0 0.16172376197639621 -0.01461929854110364 0 0.15619269953761031 -0.011567155794111311 0 0.15872308594758411 -0.018051803658844508 0 0.16172376197639621 -0.01461929854110364 0 0.15619269953761031 -0.011567155794111311 0 0.15872308594758411 -0.018051803658844508 0 0.21924380989572151 0.00025174773304074098 0 0.2108457127273925 0.0040726749941545921 0 0.21016592791471819 -0.0049175676607110339 0 0.21924380989572151 0.00025174773304074098 0 0.218013683611126 -0.012721278366373819 0 0.21016592791471819 -0.0049175676607110339 0 0.218013683611126 -0.012721278366373819 0 0.21016592791471819 -0.0049175676607110339 0 0.20912986579050261 -0.018406664668104079 0 0.21016592791471819 -0.0049175676607110339 0 0.19743854021347099 -0.0082400290269327332 0 0.20912986579050261 -0.018406664668104079 0 0.19410707641681429 0.010150971864904089 0 0.1819618510729403 -0.0083597454106819624 0 0.19743854021347099 -0.0082400290269327332 0 0.2011490055967298 0.0042962305699134201 0 0.19743854021347099 -0.0082400290269327332 0 0.2011490055967298 0.0042962305699134201 0 0.21016592791471819 -0.0049175676607110339 0 0.19743854021347099 -0.0082400290269327332 0 0.19743854021347099 -0.0082400290269327332 0 0.1908012825243959 -0.030664813200033749 0 0.19743854021347099 -0.0082400290269327332 0 0.1908012825243959 -0.030664813200033749 0 0.2004418010568213 -0.035984629969702107 0 0.19743854021347099 -0.0082400290269327332 0 0.2004418010568213 -0.035984629969702107 0 0.2024801970043954 -0.036071973240513741 0 0.19743854021347099 -0.0082400290269327332 0 0.20912986579050261 -0.018406664668104079 0 0.2024801970043954 -0.036071973240513741 0 0.19743854021347099 -0.0082400290269327332 0 0.2024801970043954 -0.036071973240513741 0 0.1819618510729403 -0.0083597454106819624 0 0.19743854021347099 -0.0082400290269327332 0 0.1908012825243959 -0.030664813200033749 0 0.20912986579050261 -0.018406664668104079 0 0.21158620317728999 -0.028082708846375759 0 0.2024801970043954 -0.036071973240513741 0 0.218013683611126 -0.012721278366373819 0 0.20912986579050261 -0.018406664668104079 0 0.21440441658039089 -0.02063475140476681 0 0.20912986579050261 -0.018406664668104079 0 0.21440441658039089 -0.02063475140476681 0 0.21158620317728999 -0.028082708846375759 0 0.2174477713274402 -0.026612146074459081 0 0.21158620317728999 -0.028082708846375759 0 0.21894371130722459 -0.034501540273423913 0 0.21440441658039089 -0.02063475140476681 0 0.2174477713274402 -0.026612146074459081 0 0.21158620317728999 -0.028082708846375759 0 0.21158620317728999 -0.028082708846375759 0 0.2122036869045443 -0.038347187462772721 0 0.21894371130722459 -0.034501540273423913 0 0.2122036869045443 -0.038347187462772721 0 0.21257595772671281 -0.048852933230547659 0 0.22251118673774339 -0.045414569817785848 0 0.2122036869045443 -0.038347187462772721 0 0.22251118673774339 -0.045414569817785848 0 0.21894371130722459 -0.034501540273423913 0 0.2122036869045443 -0.038347187462772721 0 0.2024801970043954 -0.036071973240513741 0 0.21257595772671281 -0.048852933230547659 0 0.21158620317728999 -0.028082708846375759 0 0.2122036869045443 -0.038347187462772721 0 0.2024801970043954 -0.036071973240513741 0 0.1908012825243959 -0.030664813200033749 0 0.2004418010568213 -0.035984629969702107 0 0.2004418010568213 -0.035984629969702107 0 0.2024801970043954 -0.036071973240513741 0 0.19923740023141229 -0.042230834356534963 0 0.1908012825243959 -0.030664813200033749 0 0.2004418010568213 -0.035984629969702107 0 0.187650909015597 -0.041308734124745741 0 0.1908012825243959 -0.030664813200033749 0 0.187650909015597 -0.041308734124745741 0 0.187650909015597 -0.041308734124745741 0 0.19923740023141229 -0.042230834356534963 0 0.2004418010568213 -0.035984629969702107 0 0.187650909015597 -0.041308734124745741 0 0.19923740023141229 -0.042230834356534963 0 0.19923740023141229 -0.042230834356534963 0 0.19331477218623391 -0.059691915682678433 0 0.2075218537953174 -0.063903917454095141 0 0.2024801970043954 -0.036071973240513741 0 0.19923740023141229 -0.042230834356534963 0 0.2075218537953174 -0.063903917454095141 0 0.187650909015597 -0.041308734124745741 0 0.19923740023141229 -0.042230834356534963 0 0.19331477218623391 -0.059691915682678433 0 0.2024801970043954 -0.036071973240513741 0 0.21257595772671281 -0.048852933230547659 0 0.2075218537953174 -0.063903917454095141 0 0.2024801970043954 -0.036071973240513741 0 0.2075218537953174 -0.063903917454095141 0 0.21257595772671281 -0.048852933230547659 0 0.22842928416331509 -0.060706814632356602 0 0.2075218537953174 -0.063903917454095141 0 0.22842928416331509 -0.060706814632356602 0 0.23532074911844161 -0.040534583538697551 0 0.22251118673774339 -0.045414569817785848 0 0.21257595772671281 -0.048852933230547659 0 0.22842928416331509 -0.060706814632356602 0 0.22251118673774339 -0.045414569817785848 0 0.22842928416331509 -0.060706814632356602 0 0.2494154930488493 -0.056303945721135243 0 0.23532074911844161 -0.040534583538697551 0 0.26397613631447059 -0.036617853195912521 0 0.23532074911844161 -0.040534583538697551 0 0.24501485571850801 -0.022870795216477929 0 0.26397613631447059 -0.036617853195912521 0 0.2494154930488493 -0.056303945721135243 0 0.23532074911844161 -0.040534583538697551 0 0.23532074911844161 -0.040534583538697551 0 0.22251118673774339 -0.045414569817785848 0 0.21894371130722459 -0.034501540273423913 0 0.23532074911844161 -0.040534583538697551 0 0.21894371130722459 -0.034501540273423913 0 0.22485675424485549 -0.023229583773269839 0 0.22485675424485549 -0.023229583773269839 0 0.24501485571850801 -0.022870795216477929 0 0.23028132724056749 -0.0093908504244318881 0 0.2174477713274402 -0.026612146074459081 0 0.21894371130722459 -0.034501540273423913 0 0.22485675424485549 -0.023229583773269839 0 0.21440441658039089 -0.02063475140476681 0 0.2174477713274402 -0.026612146074459081 0 0.22485675424485549 -0.023229583773269839 0 0.218013683611126 -0.012721278366373819 0 0.21440441658039089 -0.02063475140476681 0 0.22485675424485549 -0.023229583773269839 0 0.23532074911844161 -0.040534583538697551 0 0.22485675424485549 -0.023229583773269839 0 0.24501485571850801 -0.022870795216477929 0 0.24501485571850801 -0.022870795216477929 0 0.2445691430989767 -0.0075558103417399432 0 0.23028132724056749 -0.0093908504244318881 0 0.23795762476692281 0.0011691324023924449 0 0.2499188484388136 0.0061028047584332926 0 0.2445691430989767 -0.0075558103417399432 0 0.23795762476692281 0.0011691324023924449 0 0.2445691430989767 -0.0075558103417399432 0 0.23028132724056749 -0.0093908504244318881 0 0.23795762476692281 0.0011691324023924449 0 0.22838105389242891 0.0041026387182808242 0 0.23028132724056749 -0.0093908504244318881 0 0.218013683611126 -0.012721278366373819 0 0.22485675424485549 -0.023229583773269839 0 0.23028132724056749 -0.0093908504244318881 0 0.21924380989572151 0.00025174773304074098 0 0.218013683611126 -0.012721278366373819 0 0.23028132724056749 -0.0093908504244318881 0 0.21924380989572151 0.00025174773304074098 0 0.22838105389242891 0.0041026387182808242 0 0.23028132724056749 -0.0093908504244318881 0 0.19296729327668241 -0.114955245123305 0 0.1926518570763647 -0.082208524290282872 0 0.21256351058623951 -0.091735861667676527 0 0.21442825648362279 -0.12419902131376501 0 0.19296729327668241 -0.114955245123305 0 0.21256351058623951 -0.091735861667676527 0 0.17951184081247731 -0.068807568187733287 0 0.19331477218623391 -0.059691915682678433 0 0.1926518570763647 -0.082208524290282872 0 0.19331477218623391 -0.059691915682678433 0 0.1926518570763647 -0.082208524290282872 0 0.2075218537953174 -0.063903917454095141 0 0.2075218537953174 -0.063903917454095141 0 0.21256351058623951 -0.091735861667676527 0 0.2075218537953174 -0.063903917454095141 0 0.21256351058623951 -0.091735861667676527 0 0.2309085041480004 -0.081927335028826209 0 0.1926518570763647 -0.082208524290282872 0 0.2075218537953174 -0.063903917454095141 0 0.21256351058623951 -0.091735861667676527 0 0.22842928416331509 -0.060706814632356602 0 0.2075218537953174 -0.063903917454095141 0 0.2309085041480004 -0.081927335028826209 0 0.25001670439357238 -0.075528839703814757 0 0.22842928416331509 -0.060706814632356602 0 0.2309085041480004 -0.081927335028826209 0 0.25001670439357238 -0.075528839703814757 0 0.22842928416331509 -0.060706814632356602 0 0.2494154930488493 -0.056303945721135243 0 0.25001670439357238 -0.075528839703814757 0 0.2309085041480004 -0.081927335028826209 0 0.24712177919751571 -0.095008000451243552 0 0.2309085041480004 -0.081927335028826209 0 0.24712177919751571 -0.095008000451243552 0 0.23134450966281439 -0.10975256698646881 0 0.25438795154033272 -0.11315316595979349 0 0.24712177919751571 -0.095008000451243552 0 0.23134450966281439 -0.10975256698646881 0 0.21442825648362279 -0.12419902131376501 0 0.21256351058623951 -0.091735861667676527 0 0.23134450966281439 -0.10975256698646881 0 0.21256351058623951 -0.091735861667676527 0 0.2309085041480004 -0.081927335028826209 0 0.23134450966281439 -0.10975256698646881 0 0.21442825648362279 -0.12419902131376501 0 0.23134450966281439 -0.10975256698646881 0 0.2383777443131552 -0.1325642663653131 0 0.25438795154033272 -0.11315316595979349 0 0.23134450966281439 -0.10975256698646881 0 0.2383777443131552 -0.1325642663653131 0 0.2591848636261127 -0.13377228979616429 0 0.2383777443131552 -0.1325642663653131 0 0.24727202298876569 -0.15548751238632391 0 0.2383777443131552 -0.1325642663653131 0 0.24727202298876569 -0.15548751238632391 0 0.2250832248055209 -0.1529212285724996 0 0.21442825648362279 -0.12419902131376501 0 0.2383777443131552 -0.1325642663653131 0 0.2250832248055209 -0.1529212285724996 0 0.21442825648362279 -0.12419902131376501 0 0.2250832248055209 -0.1529212285724996 0 0.2024971762181326 -0.14316326130874371 0 0.21442825648362279 -0.12419902131376501 0 0.19296729327668241 -0.114955245123305 0 0.2024971762181326 -0.14316326130874371 0 0.2250832248055209 -0.1529212285724996 0 0.2024971762181326 -0.14316326130874371 0 0.21091786561310921 -0.16796957220354841 0 0.2024971762181326 -0.14316326130874371 0 0.19136978689830489 -0.1623429400661052 0 0.17939697007849709 -0.14169358982169569 0 0.19296729327668241 -0.114955245123305 0 0.2024971762181326 -0.14316326130874371 0 0.17939697007849709 -0.14169358982169569 0 0.1989255823110293 -0.17656810143428381 0 0.19136978689830489 -0.1623429400661052 0 0.18589701025528671 -0.18349672856507079 0 0.1989255823110293 -0.17656810143428381 0 0.20803065690900449 -0.18522674140419201 0 0.1972640761679966 -0.18928522210984289 0 0.1989255823110293 -0.17656810143428381 0 0.1972640761679966 -0.18928522210984289 0 0.18589701025528671 -0.18349672856507079 0 0.2024971762181326 -0.14316326130874371 0 0.19136978689830489 -0.1623429400661052 0 0.21091786561310921 -0.16796957220354841 0 0.1989255823110293 -0.17656810143428381 0 0.19136978689830489 -0.1623429400661052 0 0.21091786561310921 -0.16796957220354841 0 0.21091786561310921 -0.16796957220354841 0 0.21819030214944371 -0.18124614852914281 0 0.2247719270241175 -0.17399585836562281 0 0.1989255823110293 -0.17656810143428381 0 0.21091786561310921 -0.16796957220354841 0 0.20803065690900449 -0.18522674140419201 0 0.21091786561310921 -0.16796957220354841 0 0.20803065690900449 -0.18522674140419201 0 0.21819030214944371 -0.18124614852914281 0 0.20803065690900449 -0.18522674140419201 0 0.21819030214944371 -0.18124614852914281 0 0.21861633875954639 -0.1927063414618494 0 0.21819030214944371 -0.18124614852914281 0 0.2247719270241175 -0.17399585836562281 0 0.22861472244144121 -0.1863322292105013 0 0.21819030214944371 -0.18124614852914281 0 0.22861472244144121 -0.1863322292105013 0 0.21861633875954639 -0.1927063414618494 0 0.2247719270241175 -0.17399585836562281 0 0.2371614713421126 -0.16984552029403061 0 0.23582649773681749 -0.1799791706818282 0 0.2247719270241175 -0.17399585836562281 0 0.22861472244144121 -0.1863322292105013 0 0.23582649773681749 -0.1799791706818282 0 0.2250832248055209 -0.1529212285724996 0 0.2247719270241175 -0.17399585836562281 0 0.2371614713421126 -0.16984552029403061 0 0.2250832248055209 -0.1529212285724996 0 0.21091786561310921 -0.16796957220354841 0 0.2247719270241175 -0.17399585836562281 0 0.24727202298876569 -0.15548751238632391 0 0.2250832248055209 -0.1529212285724996 0 0.2371614713421126 -0.16984552029403061 0 0.25014093174378021 -0.17469882625318309 0 0.24727202298876569 -0.15548751238632391 0 0.2371614713421126 -0.16984552029403061 0 0.22861472244144121 -0.1863322292105013 0 0.23582649773681749 -0.1799791706818282 0 0.23999847635059729 -0.1879444374860163 0 0.23582649773681749 -0.1799791706818282 0 0.246535971849797 -0.1796148930571414 0 0.23999847635059729 -0.1879444374860163 0 0.2371614713421126 -0.16984552029403061 0 0.23582649773681749 -0.1799791706818282 0 0.246535971849797 -0.1796148930571414 0 0.25014093174378021 -0.17469882625318309 0 0.2371614713421126 -0.16984552029403061 0 0.25014093174378021 -0.17469882625318309 0 0.2371614713421126 -0.16984552029403061 0 0.246535971849797 -0.1796148930571414 0 0.25014093174378021 -0.17469882625318309 0 0.246535971849797 -0.1796148930571414 0 0.25020546794830067 -0.18728268196615061 0 0.246535971849797 -0.1796148930571414 0 0.23999847635059729 -0.1879444374860163 0 0.25020546794830067 -0.18728268196615061 0 0.25014093174378021 -0.17469882625318309 0 0.246535971849797 -0.1796148930571414 0 0.25020546794830067 -0.18728268196615061 0 0.23999847635059729 -0.1879444374860163 0 0.24621610158899651 -0.19762518132003859 0 0.23999847635059729 -0.1879444374860163 0 0.24621610158899651 -0.19762518132003859 0 0.2309974221205443 -0.19600665295167441 0 0.24621610158899651 -0.19762518132003859 0 0.23432074619307011 -0.2073443568118081 0 0.2309974221205443 -0.19600665295167441 0 0.25961374711184909 -0.21923287335733271 0 0.24775799106273511 -0.21030447081815221 0 0.23968282932820409 -0.2224370297676265 0 0.24621610158899651 -0.19762518132003859 0 0.24775799106273511 -0.21030447081815221 0 0.23432074619307011 -0.2073443568118081 0 0.24775799106273511 -0.21030447081815221 0 0.23432074619307011 -0.2073443568118081 0 0.23968282932820409 -0.2224370297676265 0 0.23432074619307011 -0.2073443568118081 0 0.22334203929819951 -0.2151169439099517 0 0.21821814738961459 -0.20408737141983299 0 0.23432074619307011 -0.2073443568118081 0 0.22334203929819951 -0.2151169439099517 0 0.23968282932820409 -0.2224370297676265 0 0.23432074619307011 -0.2073443568118081 0 0.2309974221205443 -0.19600665295167441 0 0.21821814738961459 -0.20408737141983299 0 0.2309974221205443 -0.19600665295167441 0 0.21861633875954639 -0.1927063414618494 0 0.21821814738961459 -0.20408737141983299 0 0.22861472244144121 -0.1863322292105013 0 0.2309974221205443 -0.19600665295167441 0 0.21861633875954639 -0.1927063414618494 0 0.22861472244144121 -0.1863322292105013 0 0.23999847635059729 -0.1879444374860163 0 0.2309974221205443 -0.19600665295167441 0 0.25073707062284067 -0.23306200735045551 0 0.25533953057736541 -0.25554750815456378 0 0.23604318655817569 -0.2401043149900679 0 0.25073707062284067 -0.23306200735045551 0 0.23604318655817569 -0.2401043149900679 0 0.23968282932820409 -0.2224370297676265 0 0.23604318655817569 -0.2401043149900679 0 0.23968282932820409 -0.2224370297676265 0 0.22319022170332811 -0.2291810262921142 0 0.22334203929819951 -0.2151169439099517 0 0.23968282932820409 -0.2224370297676265 0 0.22319022170332811 -0.2291810262921142 0 0.22334203929819951 -0.2151169439099517 0 0.22319022170332811 -0.2291810262921142 0 0.21356644823854751 -0.2219987388331785 0 0.23069743310230159 -0.25534591065307788 0 0.23604318655817569 -0.2401043149900679 0 0.21661203401501419 -0.24505240772256959 0 0.23604318655817569 -0.2401043149900679 0 0.22319022170332811 -0.2291810262921142 0 0.21661203401501419 -0.24505240772256959 0 0.21661203401501419 -0.24505240772256959 0 0.21130974199461741 -0.23147422115787281 0 0.20014924218669661 -0.23777456559096999 0 0.20436488751121931 -0.25083568665356137 0 0.21661203401501419 -0.24505240772256959 0 0.20014924218669661 -0.23777456559096999 0 0.22319022170332811 -0.2291810262921142 0 0.21661203401501419 -0.24505240772256959 0 0.21130974199461741 -0.23147422115787281 0 0.21130974199461741 -0.23147422115787281 0 0.20303076382950069 -0.22336436735053161 0 0.20014924218669661 -0.23777456559096999 0 0.22319022170332811 -0.2291810262921142 0 0.21130974199461741 -0.23147422115787281 0 0.21356644823854751 -0.2219987388331785 0 0.21130974199461741 -0.23147422115787281 0 0.21356644823854751 -0.2219987388331785 0 0.20303076382950069 -0.22336436735053161 0 0.21356644823854751 -0.2219987388331785 0 0.20303076382950069 -0.22336436735053161 0 0.2088866470250301 -0.2116812641483555 0 0.20303076382950069 -0.22336436735053161 0 0.1909480125055554 -0.2256971093665715 0 0.19681117091269529 -0.2146667931743744 0 0.1909480125055554 -0.2256971093665715 0 0.20014924218669661 -0.23777456559096999 0 0.18886501614610801 -0.23709596348700129 0 0.20303076382950069 -0.22336436735053161 0 0.1909480125055554 -0.2256971093665715 0 0.20014924218669661 -0.23777456559096999 0 0.19065862372983861 -0.25154482843701981 0 0.20014924218669661 -0.23777456559096999 0 0.18886501614610801 -0.23709596348700129 0 0.20436488751121931 -0.25083568665356137 0 0.19065862372983861 -0.25154482843701981 0 0.20014924218669661 -0.23777456559096999 0 0.19065862372983861 -0.25154482843701981 0 0.20014924218669661 -0.23777456559096999 0 0.20803065690900449 -0.18522674140419201 0 0.20448866672551069 -0.2002372543759213 0 0.1972640761679966 -0.18928522210984289 0 0.20803065690900449 -0.18522674140419201 0 0.20448866672551069 -0.2002372543759213 0 0.21861633875954639 -0.1927063414618494 0 0.20448866672551069 -0.2002372543759213 0 0.21861633875954639 -0.1927063414618494 0 0.21821814738961459 -0.20408737141983299 0 0.22334203929819951 -0.2151169439099517 0 0.21821814738961459 -0.20408737141983299 0 0.2088866470250301 -0.2116812641483555 0 0.22334203929819951 -0.2151169439099517 0 0.21356644823854751 -0.2219987388331785 0 0.2088866470250301 -0.2116812641483555 0 0.20448866672551069 -0.2002372543759213 0 0.2088866470250301 -0.2116812641483555 0 0.19681117091269529 -0.2146667931743744 0 0.20448866672551069 -0.2002372543759213 0 0.21821814738961459 -0.20408737141983299 0 0.2088866470250301 -0.2116812641483555 0 0.20448866672551069 -0.2002372543759213 0 0.19681117091269529 -0.2146667931743744 0 0.18897846463915199 -0.200897284769747 0 0.20303076382950069 -0.22336436735053161 0 0.2088866470250301 -0.2116812641483555 0 0.19681117091269529 -0.2146667931743744 0 0.1909480125055554 -0.2256971093665715 0 0.19681117091269529 -0.2146667931743744 0 0.1852983050508098 -0.2140130392086424 0 0.19681117091269529 -0.2146667931743744 0 0.18897846463915199 -0.200897284769747 0 0.1852983050508098 -0.2140130392086424 0 0.18897846463915199 -0.200897284769747 0 0.1972640761679966 -0.18928522210984289 0 0.18589701025528671 -0.18349672856507079 0 0.20448866672551069 -0.2002372543759213 0 0.18897846463915199 -0.200897284769747 0 0.1972640761679966 -0.18928522210984289 0 0.18897846463915199 -0.200897284769747 0 0.174969436488429 -0.1944991685233026 0 0.18589701025528671 -0.18349672856507079 0 0.174969436488429 -0.1944991685233026 0 0.1768391319224524 -0.20676673797353329 0 0.1667536990629731 -0.20380871794628769 0 0.18897846463915199 -0.200897284769747 0 0.174969436488429 -0.1944991685233026 0 0.1768391319224524 -0.20676673797353329 0 0.18897846463915199 -0.200897284769747 0 0.1852983050508098 -0.2140130392086424 0 0.1768391319224524 -0.20676673797353329 0 0.1852983050508098 -0.2140130392086424 0 0.17547458090707169 -0.21569824031561011 0 0.18151085341902509 -0.2225762794201023 0 0.17547458090707169 -0.21569824031561011 0 0.1768391319224524 -0.20676673797353329 0 0.16899910004744789 -0.21182979201860311 0 0.1852983050508098 -0.2140130392086424 0 0.17547458090707169 -0.21569824031561011 0 0.1768391319224524 -0.20676673797353329 0 0.1768391319224524 -0.20676673797353329 0 0.1667536990629731 -0.20380871794628769 0 0.16899910004744789 -0.21182979201860311 0 0.1667536990629731 -0.20380871794628769 0 0.16899910004744789 -0.21182979201860311 0 0.16168339058568201 -0.21129174987911181 0 0.17547458090707169 -0.21569824031561011 0 0.16899910004744789 -0.21182979201860311 0 0.1671370081992673 -0.21786352865694489 0 0.16899910004744789 -0.21182979201860311 0 0.1671370081992673 -0.21786352865694489 0 0.16168339058568201 -0.21129174987911181 0 0.16168339058568201 -0.21129174987911181 0 0.1593397991729599 -0.21863160107996649 0 0.15380517137522759 -0.21046937889908421 0 0.1671370081992673 -0.21786352865694489 0 0.16168339058568201 -0.21129174987911181 0 0.1593397991729599 -0.21863160107996649 0 0.1667536990629731 -0.20380871794628769 0 0.16168339058568201 -0.21129174987911181 0 0.15743273356062679 -0.2027491075331459 0 0.16168339058568201 -0.21129174987911181 0 0.15743273356062679 -0.2027491075331459 0 0.15380517137522759 -0.21046937889908421 0 0.1667536990629731 -0.20380871794628769 0 0.15743273356062679 -0.2027491075331459 0 0.16273486556095379 -0.19456255241208409 0 0.15743273356062679 -0.2027491075331459 0 0.16273486556095379 -0.19456255241208409 0 0.1532581213186662 -0.1955516467657856 0 0.16273486556095379 -0.19456255241208409 0 0.15396075294491601 -0.1874245270610233 0 0.1664262891276404 -0.18114981650237641 0 0.16273486556095379 -0.19456255241208409 0 0.1532581213186662 -0.1955516467657856 0 0.15396075294491601 -0.1874245270610233 0 0.174969436488429 -0.1944991685233026 0 0.16273486556095379 -0.19456255241208409 0 0.1664262891276404 -0.18114981650237641 0 0.174969436488429 -0.1944991685233026 0 0.1667536990629731 -0.20380871794628769 0 0.16273486556095379 -0.19456255241208409 0 0.19065862372983861 -0.25154482843701981 0 0.16637232239340469 -0.25599624677837812 0 0.17768977437685921 -0.24021095685758351 0 0.19065862372983861 -0.25154482843701981 0 0.18886501614610801 -0.23709596348700129 0 0.17768977437685921 -0.24021095685758351 0 0.19065862372983861 -0.25154482843701981 0 0.17768977437685921 -0.24021095685758351 0 0.18886501614610801 -0.23709596348700129 0 0.17768977437685921 -0.24021095685758351 0 0.1825062499372466 -0.2302628419703367 0 0.17768977437685921 -0.24021095685758351 0 0.1825062499372466 -0.2302628419703367 0 0.17302318115653059 -0.22573608505114909 0 0.1909480125055554 -0.2256971093665715 0 0.18886501614610801 -0.23709596348700129 0 0.1825062499372466 -0.2302628419703367 0 0.1909480125055554 -0.2256971093665715 0 0.1852983050508098 -0.2140130392086424 0 0.18151085341902509 -0.2225762794201023 0 0.1909480125055554 -0.2256971093665715 0 0.1825062499372466 -0.2302628419703367 0 0.18151085341902509 -0.2225762794201023 0 0.1825062499372466 -0.2302628419703367 0 0.18151085341902509 -0.2225762794201023 0 0.17302318115653059 -0.22573608505114909 0 0.17547458090707169 -0.21569824031561011 0 0.18151085341902509 -0.2225762794201023 0 0.17302318115653059 -0.22573608505114909 0 0.17547458090707169 -0.21569824031561011 0 0.1671370081992673 -0.21786352865694489 0 0.17302318115653059 -0.22573608505114909 0 0.1671370081992673 -0.21786352865694489 0 0.17302318115653059 -0.22573608505114909 0 0.16484590687758449 -0.22343600231863969 0 0.17302318115653059 -0.22573608505114909 0 0.16484590687758449 -0.22343600231863969 0 0.16472092502388 -0.2288770852781469 0 0.1671370081992673 -0.21786352865694489 0 0.1593397991729599 -0.21863160107996649 0 0.16484590687758449 -0.22343600231863969 0 0.1593397991729599 -0.21863160107996649 0 0.16000862083528469 -0.2260717115269909 0 0.15335494086492149 -0.22274727117147619 0 0.1593397991729599 -0.21863160107996649 0 0.16484590687758449 -0.22343600231863969 0 0.16000862083528469 -0.2260717115269909 0 0.16484590687758449 -0.22343600231863969 0 0.16000862083528469 -0.2260717115269909 0 0.16472092502388 -0.2288770852781469 0 0.16000862083528469 -0.2260717115269909 0 0.16472092502388 -0.2288770852781469 0 0.1643982294060384 -0.2392807665246878 0 0.17768977437685921 -0.24021095685758351 0 0.17302318115653059 -0.22573608505114909 0 0.16472092502388 -0.2288770852781469 0 0.16637232239340469 -0.25599624677837812 0 0.1643982294060384 -0.2392807665246878 0 0.15319950440076349 -0.24524783218233939 0 0.16000862083528469 -0.2260717115269909 0 0.1643982294060384 -0.2392807665246878 0 0.15319950440076349 -0.24524783218233939 0 0.16637232239340469 -0.25599624677837812 0 0.17768977437685921 -0.24021095685758351 0 0.1643982294060384 -0.2392807665246878 0 0.16000862083528469 -0.2260717115269909 0 0.15319950440076349 -0.24524783218233939 0 0.17768977437685921 -0.24021095685758351 0 0.16472092502388 -0.2288770852781469 0 0.1643982294060384 -0.2392807665246878 0 0.17768977437685921 -0.24021095685758351 0 0.16472092502388 -0.2288770852781469 0 0.15319950440076349 -0.24524783218233939 0 0.14247969614897341 -0.23665872243486841 0 0.14956992692595511 -0.22909475624746131 0 0.14056592598656159 -0.25385549118935052 0 0.14315614168383201 -0.2447884657161549 0 0.15319950440076349 -0.24524783218233939 0 0.14315614168383201 -0.2447884657161549 0 0.15319950440076349 -0.24524783218233939 0 0.14247969614897341 -0.23665872243486841 0 0.16000862083528469 -0.2260717115269909 0 0.15319950440076349 -0.24524783218233939 0 0.14956992692595511 -0.22909475624746131 0 0.14247969614897341 -0.23665872243486841 0 0.14956992692595511 -0.22909475624746131 0 0.13994154404251499 -0.22687086246834509 0 0.14956992692595511 -0.22909475624746131 0 0.15335494086492149 -0.22274727117147619 0 0.14630312495420739 -0.22203793004653449 0 0.16000862083528469 -0.2260717115269909 0 0.14956992692595511 -0.22909475624746131 0 0.15335494086492149 -0.22274727117147619 0 0.1593397991729599 -0.21863160107996649 0 0.15335494086492149 -0.22274727117147619 0 0.15190509138325661 -0.2179051811176588 0 0.15335494086492149 -0.22274727117147619 0 0.14630312495420739 -0.22203793004653449 0 0.15190509138325661 -0.2179051811176588 0 0.14956992692595511 -0.22909475624746131 0 0.14630312495420739 -0.22203793004653449 0 0.13994154404251499 -0.22687086246834509 0 0.14630312495420739 -0.22203793004653449 0 0.13893844820864429 -0.2197046228746144 0 0.13994154404251499 -0.22687086246834509 0 0.14630312495420739 -0.22203793004653449 0 0.13893844820864429 -0.2197046228746144 0 0.14410879829995171 -0.21590488639965119 0 0.13893844820864429 -0.2197046228746144 0 0.13221526031370301 -0.2213613103763924 0 0.13994154404251499 -0.22687086246834509 0 0.1207872954706672 -0.2225515436010444 0 0.13221526031370301 -0.2213613103763924 0 0.1313747766406988 -0.23156636030865879 0 0.1207872954706672 -0.2225515436010444 0 0.13221526031370301 -0.2213613103763924 0 0.12662354991336011 -0.21275496251744089 0 0.13221526031370301 -0.2213613103763924 0 0.1313747766406988 -0.23156636030865879 0 0.13994154404251499 -0.22687086246834509 0 0.14247969614897341 -0.23665872243486841 0 0.1313747766406988 -0.23156636030865879 0 0.13994154404251499 -0.22687086246834509 0 0.12981196982254059 -0.25932990127514521 0 0.1200426681133626 -0.23505972905725381 0 0.1313801839549511 -0.24768604346701381 0 0.14315614168383201 -0.2447884657161549 0 0.14247969614897341 -0.23665872243486841 0 0.1351001718973395 -0.24249905234630581 0 0.14247969614897341 -0.23665872243486841 0 0.1313747766406988 -0.23156636030865879 0 0.1351001718973395 -0.24249905234630581 0 0.1200426681133626 -0.23505972905725381 0 0.1313747766406988 -0.23156636030865879 0 0.1351001718973395 -0.24249905234630581 0 0.1200426681133626 -0.23505972905725381 0 0.1313801839549511 -0.24768604346701381 0 0.1351001718973395 -0.24249905234630581 0 0.14056592598656159 -0.25385549118935052 0 0.1313801839549511 -0.24768604346701381 0 0.1351001718973395 -0.24249905234630581 0 0.14056592598656159 -0.25385549118935052 0 0.14315614168383201 -0.2447884657161549 0 0.1351001718973395 -0.24249905234630581 0 0.14782768063513341 -0.19600042943182899 0 0.14331354875219809 -0.20162529897623599 0 0.14155241008526009 -0.19222809289492379 0 0.14782768063513341 -0.19600042943182899 0 0.14331354875219809 -0.20162529897623599 0 0.15049727152688949 -0.2022896695985783 0 0.14155241008526009 -0.19222809289492379 0 0.14777859886436909 -0.190405322734505 0 0.14516898424362981 -0.18483909544212479 0 0.14782768063513341 -0.19600042943182899 0 0.14155241008526009 -0.19222809289492379 0 0.14777859886436909 -0.190405322734505 0 0.14782768063513341 -0.19600042943182899 0 0.14777859886436909 -0.190405322734505 0 0.1532581213186662 -0.1955516467657856 0 0.14777859886436909 -0.190405322734505 0 0.1532581213186662 -0.1955516467657856 0 0.15396075294491601 -0.1874245270610233 0 0.14777859886436909 -0.190405322734505 0 0.14516898424362981 -0.18483909544212479 0 0.15396075294491601 -0.1874245270610233 0 0.14782768063513341 -0.19600042943182899 0 0.1532581213186662 -0.1955516467657856 0 0.15049727152688949 -0.2022896695985783 0 0.15743273356062679 -0.2027491075331459 0 0.1532581213186662 -0.1955516467657856 0 0.15049727152688949 -0.2022896695985783 0 0.15049727152688949 -0.2022896695985783 0 0.15380517137522759 -0.21046937889908421 0 0.1473463735194849 -0.2073421559853891 0 0.15743273356062679 -0.2027491075331459 0 0.15049727152688949 -0.2022896695985783 0 0.15380517137522759 -0.21046937889908421 0 0.15380517137522759 -0.21046937889908421 0 0.14879942445719949 -0.21295790068604811 0 0.1473463735194849 -0.2073421559853891 0 0.1593397991729599 -0.21863160107996649 0 0.15380517137522759 -0.21046937889908421 0 0.15190509138325661 -0.2179051811176588 0 0.15380517137522759 -0.21046937889908421 0 0.14879942445719949 -0.21295790068604811 0 0.15190509138325661 -0.2179051811176588 0 0.14879942445719949 -0.21295790068604811 0 0.15190509138325661 -0.2179051811176588 0 0.14410879829995171 -0.21590488639965119 0 0.14630312495420739 -0.22203793004653449 0 0.15190509138325661 -0.2179051811176588 0 0.14410879829995171 -0.21590488639965119 0 0.14879942445719949 -0.21295790068604811 0 0.14410879829995171 -0.21590488639965119 0 0.14235203884358849 -0.20975777373170401 0 0.14410879829995171 -0.21590488639965119 0 0.14235203884358849 -0.20975777373170401 0 0.1363912302984843 -0.21283071951243551 0 0.14331354875219809 -0.20162529897623599 0 0.1473463735194849 -0.2073421559853891 0 0.14235203884358849 -0.20975777373170401 0 0.14331354875219809 -0.20162529897623599 0 0.14235203884358849 -0.20975777373170401 0 0.13830660952198459 -0.20539468283167259 0 0.14331354875219809 -0.20162529897623599 0 0.15049727152688949 -0.2022896695985783 0 0.1473463735194849 -0.2073421559853891 0 0.14879942445719949 -0.21295790068604811 0 0.1473463735194849 -0.2073421559853891 0 0.14235203884358849 -0.20975777373170401 0 0.14235203884358849 -0.20975777373170401 0 0.13830660952198459 -0.20539468283167259 0 0.1363912302984843 -0.21283071951243551 0 0.13830660952198459 -0.20539468283167259 0 0.1363912302984843 -0.21283071951243551 0 0.1315159678405303 -0.2053566889159 0 0.13893844820864429 -0.2197046228746144 0 0.13221526031370301 -0.2213613103763924 0 0.1363912302984843 -0.21283071951243551 0 0.13893844820864429 -0.2197046228746144 0 0.14410879829995171 -0.21590488639965119 0 0.1363912302984843 -0.21283071951243551 0 0.13221526031370301 -0.2213613103763924 0 0.1363912302984843 -0.21283071951243551 0 0.12662354991336011 -0.21275496251744089 0 0.1363912302984843 -0.21283071951243551 0 0.12662354991336011 -0.21275496251744089 0 0.1315159678405303 -0.2053566889159 0 0.1231607931242565 -0.20398948802515859 0 0.12662354991336011 -0.21275496251744089 0 0.1315159678405303 -0.2053566889159 0 0.1315159678405303 -0.2053566889159 0 0.12783196352609749 -0.19759285276189589 0 0.13599563231393741 -0.1984860165360067 0 0.12783196352609749 -0.19759285276189589 0 0.13599563231393741 -0.1984860165360067 0 0.1320218993792294 -0.19121560160477541 0 0.1231607931242565 -0.20398948802515859 0 0.1315159678405303 -0.2053566889159 0 0.12783196352609749 -0.19759285276189589 0 0.13830660952198459 -0.20539468283167259 0 0.1315159678405303 -0.2053566889159 0 0.13599563231393741 -0.1984860165360067 0 0.14331354875219809 -0.20162529897623599 0 0.14155241008526009 -0.19222809289492379 0 0.13599563231393741 -0.1984860165360067 0 0.14331354875219809 -0.20162529897623599 0 0.13830660952198459 -0.20539468283167259 0 0.13599563231393741 -0.1984860165360067 0 0.14155241008526009 -0.19222809289492379 0 0.13599563231393741 -0.1984860165360067 0 0.1320218993792294 -0.19121560160477541 0 0.14155241008526009 -0.19222809289492379 0 0.1320218993792294 -0.19121560160477541 0 0.13716530406290989 -0.18454689727614659 0 0.1231848799449564 -0.1911196230271491 0 0.1320218993792294 -0.19121560160477541 0 0.12668874226712651 -0.18451132013554819 0 0.1231848799449564 -0.1911196230271491 0 0.12783196352609749 -0.19759285276189589 0 0.1320218993792294 -0.19121560160477541 0 0.12668874226712651 -0.18451132013554819 0 0.13147274877847381 -0.1769366759134097 0 0.13716530406290989 -0.18454689727614659 0 0.1320218993792294 -0.19121560160477541 0 0.12668874226712651 -0.18451132013554819 0 0.13716530406290989 -0.18454689727614659 0 0.1206075048788484 -0.18033411343713149 0 0.12668874226712651 -0.18451132013554819 0 0.13147274877847381 -0.1769366759134097 0 0.11598992955695341 -0.17507044738713759 0 0.13147274877847381 -0.1769366759134097 0 0.127635108636832 -0.1673551145641676 0 0.13147274877847381 -0.1769366759134097 0 0.14695556799999421 -0.17880290443968219 0 0.1386170036386512 -0.16630762768645921 0 0.13147274877847381 -0.1769366759134097 0 0.14695556799999421 -0.17880290443968219 0 0.13147274877847381 -0.1769366759134097 0 0.13716530406290989 -0.18454689727614659 0 0.14695556799999421 -0.17880290443968219 0 0.14155241008526009 -0.19222809289492379 0 0.13716530406290989 -0.18454689727614659 0 0.14516898424362981 -0.18483909544212479 0 0.13716530406290989 -0.18454689727614659 0 0.14516898424362981 -0.18483909544212479 0 0.14695556799999421 -0.17880290443968219 0 0.14695556799999421 -0.17880290443968219 0 0.15396075294491601 -0.1874245270610233 0 0.1664262891276404 -0.18114981650237641 0 0.14516898424362981 -0.18483909544212479 0 0.14695556799999421 -0.17880290443968219 0 0.14516898424362981 -0.18483909544212479 0 0.14695556799999421 -0.17880290443968219 0 0.15396075294491601 -0.1874245270610233 0 0.1386170036386512 -0.16630762768645921 0 0.1351606936033927 -0.15404972606187409 0 0.1550946362031162 -0.1513040703766953 0 0.14695556799999421 -0.17880290443968219 0 0.1550946362031162 -0.1513040703766953 0 0.14695556799999421 -0.17880290443968219 0 0.1386170036386512 -0.16630762768645921 0 0.1550946362031162 -0.1513040703766953 0 0.1386170036386512 -0.16630762768645921 0 0.127635108636832 -0.1673551145641676 0 0.1351606936033927 -0.15404972606187409 0 0.11693516760669 -0.16441109577195759 0 0.127635108636832 -0.1673551145641676 0 0.1351606936033927 -0.15404972606187409 0 0.11693516760669 -0.16441109577195759 0 0.1351606936033927 -0.15404972606187409 0 0.13147274877847381 -0.1769366759134097 0 0.1386170036386512 -0.16630762768645921 0 0.127635108636832 -0.1673551145641676 0 0.1194807840160223 -0.13570444310177279 0 0.1351606936033927 -0.15404972606187409 0 0.13953693117780969 -0.13902151378266819 0 0.1194807840160223 -0.13570444310177279 0 0.1404241251475683 -0.1234635751184066 0 0.13953693117780969 -0.13902151378266819 0 0.16323370440623661 -0.123805236313708 0 0.1491452450829274 -0.13249467039164331 0 0.1533862196000951 -0.1436883563517902 0 0.1404241251475683 -0.1234635751184066 0 0.16323370440623661 -0.123805236313708 0 0.1491452450829274 -0.13249467039164331 0 0.1404241251475683 -0.1234635751184066 0 0.13953693117780969 -0.13902151378266819 0 0.1491452450829274 -0.13249467039164331 0 0.13953693117780969 -0.13902151378266819 0 0.1491452450829274 -0.13249467039164331 0 0.1533862196000951 -0.1436883563517902 0 0.1351606936033927 -0.15404972606187409 0 0.1533862196000951 -0.1436883563517902 0 0.1351606936033927 -0.15404972606187409 0 0.13953693117780969 -0.13902151378266819 0 0.1533862196000951 -0.1436883563517902 0 0.1351606936033927 -0.15404972606187409 0 0.1550946362031162 -0.1513040703766953 0 0.1533862196000951 -0.1436883563517902 0 0.1550946362031162 -0.1513040703766953 0 0.17939697007849709 -0.14169358982169569 0 0.1705563812249849 -0.16356749322987549 0 0.16323370440623661 -0.123805236313708 0 0.1550946362031162 -0.1513040703766953 0 0.1533862196000951 -0.1436883563517902 0 0.16323370440623661 -0.123805236313708 0 0.1550946362031162 -0.1513040703766953 0 0.16323370440623661 -0.123805236313708 0 0.1550946362031162 -0.1513040703766953 0 0.17939697007849709 -0.14169358982169569 0 0.16323370440623661 -0.123805236313708 0 0.19296729327668241 -0.114955245123305 0 0.17939697007849709 -0.14169358982169569 0 0.19136978689830489 -0.1623429400661052 0 0.17939697007849709 -0.14169358982169569 0 0.1705563812249849 -0.16356749322987549 0 0.19136978689830489 -0.1623429400661052 0 0.18589701025528671 -0.18349672856507079 0 0.1705563812249849 -0.16356749322987549 0 0.174969436488429 -0.1944991685233026 0 0.18589701025528671 -0.18349672856507079 0 0.1664262891276404 -0.18114981650237641 0 0.18589701025528671 -0.18349672856507079 0 0.1664262891276404 -0.18114981650237641 0 0.1705563812249849 -0.16356749322987549 0 0.18589701025528671 -0.18349672856507079 0 0.1664262891276404 -0.18114981650237641 0 0.14695556799999421 -0.17880290443968219 0 0.1664262891276404 -0.18114981650237641 0 0.1705563812249849 -0.16356749322987549 0 0.14695556799999421 -0.17880290443968219 0 0.1664262891276404 -0.18114981650237641 0 0.14695556799999421 -0.17880290443968219 0 0.1550946362031162 -0.1513040703766953 0 0.1705563812249849 -0.16356749322987549 0 
</DataArray>
</Points>
<Cells>
<DataArray type="UInt32" Name="connectivity" format="ascii">
0 1 2 3 4 5 6 7 8 9 10 11 12 13 14 15 16 17 18 19 20 21 22 23 24 25 26 27 28 29 30 31 32 33 34 35 36 37 38 39 40 41 42 43 44 45 46 47 48 49 50 51 52 53 54 55 56 57 58 59 60 61 62 63 64 65 66 67 68 69 70 71 72 73 74 75 76 77 78 79 80 81 82 83 84 85 86 87 88 89 90 91 92 93 94 95 96 97 98 99 100 101 102 103 104 105 106 107 108 109 110 111 112 113 114 115 116 117 118 119 120 121 122 123 124 125 126 127 128 129 130 131 132 133 134 135 136 137 138 139 140 141 142 143 144 145 146 147 148 149 150 151 152 153 154 155 156 157 158 159 160 161 162 163 164 165 166 167 168 169 170 171 172 173 174 175 176 177 178 179 180 181 182 183 184 185 186 187 188 189 190 191 192 193 194 195 196 197 198 199 200 201 202 203 204 205 206 207 208 209 210 211 212 213 214 215 216 217 218 219 220 221 222 223 224 225 226 227 228 229 230 231 232 233 234 235 236 237 238 239 240 241 242 243 244 245 246 247 248 249 250 251 252 253 254 255 256 257 258 259 260 261 262 263 264 265 266 267 268 269 270 271 272 273 274 275 276 277 278 279 280 281 282 283 284 285 286 287 288 289 290 291 292 293 294 295 296 297 298 299 300 301 302 303 304 305 306 307 308 309 310 311 312 313 314 315 316 317 318 319 320 321 322 323 324 325 326 327 328 329 330 331 332 333 334 335 336 337 338 339 340 341 342 343 344 345 346 347 348 349 350 351 352 353 354 355 356 357 358 359 360 361 362 363 364 365 366 367 368 369 370 371 372 373 374 375 376 377 378 379 380 381 382 383 384 385 386 387 388 389 390 391 392 393 394 395 396 397 398 399 400 401 402 403 404 405 406 407 408 409 410 411 412 413 414 415 416 417 418 419 420 421 422 423 424 425 426 427 428 429 430 431 432 433 434 435 436 437 438 439 440 441 442 443 444 445 446 447 448 449 450 451 452 453 454 455 456 457 458 459 460 461 462 463 464 465 466 467 468 469 470 471 472 473 474 475 476 477 478 479 480 481 482 483 484 485 486 487 488 489 490 491 492 493 494 495 496 497 498 499 500 501 502 503 504 505 506 507 508 509 510 511 512 513 514 515 516 517 518 519 520 521 522 523 524 525 526 527 528 529 530 531 532 533 534 535 536 537 538 539 540 541 542 543 544 545 546 547 548 549 550 551 552 553 554 555 556 557 558 559 560 561 562 563 564 565 566 567 568 569 570 571 572 573 574 575 576 577 578 579 580 581 582 583 584 585 586 587 588 589 590 591 592 593 594 595 596 597 598 599 600 601 602 603 604 605 606 607 608 609 610 611 612 613 614 615 616 617 618 619 620 621 622 623 624 625 626 627 628 629 630 631 632 633 634 635 636 637 638 639 640 641 642 643 644 645 646 647 648 649 650 651 652 653 654 655 656 657 658 659 660 661 662 663 664 665 666 667 668 669 670 671 672 673 674 675 676 677 678 679 680 681 682 683 684 685 686 687 688 689 690 691 692 693 694 695 696 697 698 699 700 701 702 703 704 705 706 707 708 709 710 711 712 713 714 715 716 717 718 719 720 721 722 723 724 725 726 727 728 729 730 731 732 733 734 735 736 737 738 739 740 741 742 743 744 745 746 747 748 749 750 751 752 753 754 755 756 757 758 759 760 761 762 763 764 765 766 767 768 769 770 771 772 773 774 775 776 777 778 779 780 781 782 783 784 785 786 787 788 789 790 791 792 793 794 795 796 797 798 799 800 801 802 803 804 805 806 807 808 809 810 811 812 813 814 815 816 817 818 819 820 821 822 823 824 825 826 827 828 829 830 831 832 833 834 835 836 837 838 839 840 841 842 843 844 845 846 847 848 849 850 851 852 853 854 855 856 857 858 859 860 861 862 863 864 865 866 867 868 869 870 871 872 873 874 875 876 877 878 879 880 881 882 883 884 885 886 887 888 889 890 891 892 893 894 895 896 897 898 899 900 901 902 903 904 905 906 907 908 909 910 911 912 913 914 915 916 917 918 919 920 921 922 923 924 925 926 927 928 929 930 931 932 933 934 935 936 937 938 939 940 941 942 943 944 945 946 947 948 949 950 951 952 953 954 955 956 957 958 959 960 961 962 963 964 965 966 967 968 969 970 971 972 973 974 975 976 977 978 979 980 981 982 983 984 985 986 987 988 989 990 991 992 993 994 995 996 997 998 999 1000 1001 1002 1003 1004 1005 1006 1007 1008 1009 1010 1011 1012 1013 1014 1015 1016 1017 1018 1019 1020 1021 1022 1023 1024 1025 1026 1027 1028 1029 1030 1031 1032 1033 1034 1035 1036 1037 1038 1039 1040 1041 1042 1043 1044 1045 1046 1047 1048 1049 1050 1051 1052 1053 1054 1055 1056 1057 1058 1059 1060 1061 1062 1063 1064 1065 1066 1067 1068 1069 1070 1071 1072 1073 1074 1075 1076 1077 1078 1079 1080 1081 1082 1083 1084 1085 1086 1087 1088 1089 1090 1091 1092 1093 1094 1095 1096 1097 1098 1099 1100 1101 1102 1103 1104 1105 1106 1107 1108 1109 1110 1111 1112 1113 1114 1115 1116 1117 1118 1119 1120 1121 1122 1123 1124 1125 1126 1127 1128 1129 1130 1131 1132 1133 1134 1135 1136 1137 1138 1139 1140 1141 1142 1143 1144 1145 1146 1147 1148 1149 1150 1151 1152 1153 1154 1155 1156 1157 1158 1159 1160 1161 1162 1163 1164 1165 1166 1167 1168 1169 1170 1171 1172 1173 1174 1175 1176 1177 1178 1179 1180 1181 1182 1183 1184 1185 1186 1187 1188 1189 1190 1191 1192 1193 1194 1195 1196 1197 1198 1199 1200 1201 1202 1203 1204 1205 1206 1207 1208 1209 1210 1211 1212 1213 1214 1215 1216 1217 1218 1219 1220 1221 1222 1223 1224 1225 1226 1227 1228 1229 1230 1231 1232 1233 1234 1235 1236 1237 1238 1239 1240 1241 1242 1243 1244 1245 1246 1247 1248 1249 1250 1251 1252 1253 1254 1255 1256 1257 1258 1259 1260 1261 1262 1263 1264 1265 1266 1267 1268 1269 1270 1271 1272 1273 1274 1275 1276 1277 1278 1279 1280 1281 1282 1283 1284 1285 1286 1287 1288 1289 1290 1291 1292 1293 1294 1295 1296 1297 1298 1299 1300 1301 1302 1303 1304 1305 1306 1307 1308 1309 1310 1311 1312 1313 1314 1315 1316 1317 1318 1319 1320 1321 1322 1323 1324 1325 1326 1327 1328 1329 1330 1331 1332 1333 1334 1335 1336 1337 1338 1339 1340 1341 1342 1343 1344 1345 1346 1347 1348 1349 1350 1351 1352 1353 1354 1355 1356 1357 1358 1359 1360 1361 1362 1363 1364 1365 1366 1367 1368 1369 1370 1371 1372 1373 1374 1375 1376 1377 1378 1379 1380 1381 1382 1383 1384 1385 1386 1387 1388 1389 1390 1391 1392 1393 1394 1395 1396 1397 1398 1399 1400 1401 1402 1403 1404 1405 1406 1407 1408 1409 1410 1411 1412 1413 1414 1415 1416 1417 1418 1419 1420 1421 1422 1423 1424 1425 1426 1427 1428 1429 1430 1431 1432 1433 1434 1435 1436 1437 1438 1439 1440 1441 1442 1443 1444 1445 1446 1447 1448 1449 1450 1451 1452 1453 1454 1455 1456 1457 1458 1459 1460 1461 1462 1463 1464 1465 1466 1467 1468 1469 1470 1471 1472 1473 1474 1475 1476 1477 1478 1479 1480 1481 1482 1483 1484 1485 1486 1487 1488 1489 1490 1491 1492 1493 1494 1495 1496 1497 1498 1499 1500 1501 1502 1503 1504 1505 1506 1507 1508 1509 1510 1511 1512 1513 1514 1515 1516 1517 1518 1519 1520 1521 1522 1523 1524 1525 1526 1527 1528 1529 1530 1531 1532 1533 1534 1535 1536 1537 1538 1539 1540 1541 1542 1543 1544 1545 1546 1547 1548 1549 1550 1551 1552 1553 1554 1555 1556 1557 1558 1559 1560 1561 1562 1563 1564 1565 1566 1567 1568 1569 1570 1571 1572 1573 1574 1575 1576 1577 1578 1579 1580 1581 1582 1583 1584 1585 1586 1587 1588 1589 1590 1591 1592 1593 1594 1595 1596 1597 1598 1599 1600 1601 1602 1603 1604 1605 1606 1607 1608 1609 1610 1611 1612 1613 1614 1615 1616 1617 1618 1619 1620 1621 1622 1623 1624 1625 1626 1627 1628 1629 1630 1631 1632 1633 1634 1635 1636 1637 1638 1639 1640 1641 1642 1643 1644 1645 1646 1647 1648 1649 1650 1651 1652 1653 1654 1655 1656 1657 1658 1659 1660 1661 1662 1663 1664 1665 1666 1667 1668 1669 1670 1671 1672 1673 1674 1675 1676 1677 1678 1679 1680 1681 1682 1683 1684 1685 1686 1687 1688 1689 1690 1691 1692 1693 1694 1695 1696 1697 1698 1699 1700 1701 1702 1703 1704 1705 1706 1707 1708 1709 1710 1711 1712 1713 1714 1715 1716 1717 1718 1719 1720 1721 1722 1723 1724 1725 1726 1727 1728 1729 1730 1731 1732 1733 1734 1735 1736 1737 1738 1739 1740 1741 1742 1743 1744 1745 1746 1747 1748 1749 1750 1751 1752 1753 1754 1755 1756 1757 1758 1759 1760 1761 1762 1763 1764 1765 1766 1767 1768 1769 1770 1771 1772 1773 1774 1775 1776 1777 1778 1779 1780 1781 1782 1783 1784 1785 1786 1787 1788 1789 1790 1791 1792 1793 1794 1795 1796 1797 1798 1799 1800 1801 1802 1803 1804 1805 1806 1807 1808 1809 1810 1811 1812 1813 1814 1815 1816 1817 1818 1819 1820 1821 1822 1823 1824 1825 1826 1827 1828 1829 1830 1831 1832 1833 1834 1835 1836 1837 1838 1839 1840 1841 1842 1843 1844 1845 1846 1847 1848 1849 1850 1851 1852 1853 1854 1855 1856 1857 1858 1859 1860 1861 1862 1863 1864 1865 1866 1867 1868 1869 1870 1871 1872 1873 1874 1875 1876 1877 1878 1879 1880 1881 1882 1883 1884 1885 1886 1887 1888 1889 1890 1891 1892 1893 1894 1895 1896 1897 1898 1899 1900 1901 1902 1903 1904 1905 1906 1907 1908 1909 1910 1911 1912 1913 1914 1915 1916 1917 1918 1919 1920 1921 1922 1923 1924 1925 1926 1927 1928 1929 1930 1931 1932 1933 1934 1935 1936 1937 1938 1939 1940 1941 1942 1943 1944 1945 1946 1947 1948 1949 1950 1951 1952 1953 1954 1955 1956 1957 1958 1959 1960 1961 1962 1963 1964 1965 1966 1967 1968 1969 1970 1971 1972 1973 1974 1975 1976 1977 1978 1979 1980 1981 1982 1983 1984 1985 1986 1987 1988 1989 1990 1991 1992 1993 1994 1995 1996 1997 1998 1999 2000 2001 2002 2003 2004 2005 2006 2007 2008 2009 2010 2011 2012 2013 2014 2015 2016 2017 2018 2019 2020 2021 2022 2023 2024 2025 2026 2027 2028 2029 2030 2031 2032 2033 2034 2035 2036 2037 2038 2039 2040 2041 2042 2043 2044 2045 2046 2047 2048 2049 2050 2051 2052 2053 2054 2055 2056 2057 2058 2059 2060 2061 2062 2063 2064 2065 2066 2067 2068 2069 2070 2071 2072 2073 2074 2075 2076 2077 2078 2079 2080 2081 2082 2083 2084 2085 2086 2087 2088 2089 2090 2091 2092 2093 2094 2095 2096 2097 2098 2099 2100 2101 2102 2103 2104 2105 2106 2107 2108 2109 2110 2111 2112 2113 2114 2115 2116 2117 2118 2119 2120 2121 2122 2123 2124 2125 2126 2127 2128 2129 2130 2131 2132 2133 2134 2135 2136 2137 2138 2139 2140 2141 2142 2143 2144 2145 2146 2147 2148 2149 2150 2151 2152 2153 2154 2155 2156 2157 2158 2159 2160 2161 2162 2163 2164 2165 2166 2167 2168 2169 2170 2171 2172 2173 2174 2175 2176 2177 2178 2179 2180 2181 2182 2183 2184 2185 2186 2187 2188 2189 2190 2191 2192 2193 2194 2195 2196 2197 2198 2199 2200 2201 2202 2203 2204 2205 2206 2207 2208 2209 2210 2211 2212 2213 2214 2215 2216 2217 2218 2219 2220 2221 2222 2223 2224 2225 2226 2227 2228 2229 2230 2231 2232 2233 2234 2235 2236 2237 2238 2239 2240 2241 2242 2243 2244 2245 2246 2247 2248 2249 2250 2251 2252 2253 2254 2255 2256 2257 2258 2259 2260 2261 2262 2263 2264 2265 2266 2267 2268 2269 2270 2271 2272 2273 2274 2275 2276 2277 2278 2279 2280 2281 2282 2283 2284 2285 2286 2287 2288 2289 2290 2291 2292 2293 2294 2295 2296 2297 2298 2299 2300 2301 2302 2303 2304 2305 2306 2307 2308 2309 2310 2311 2312 2313 2314 2315 2316 2317 2318 2319 2320 2321 2322 2323 2324 2325 2326 2327 2328 2329 2330 2331 2332 2333 2334 2335 2336 2337 2338 2339 2340 2341 2342 2343 2344 2345 2346 2347 2348 2349 2350 2351 2352 2353 2354 2355 2356 2357 2358 2359 2360 2361 2362 2363 2364 2365 2366 2367 2368 2369 2370 2371 2372 2373 2374 2375 2376 2377 2378 2379 2380 2381 2382 2383 2384 2385 2386 2387 2388 2389 2390 2391 2392 2393 2394 2395 2396 2397 2398 2399 2400 2401 2402 2403 2404 2405 2406 2407 2408 2409 2410 2411 2412 2413 2414 2415 2416 2417 2418 2419 2420 2421 2422 2423 2424 2425 2426 2427 2428 2429 2430 2431 2432 2433 2434 2435 2436 2437 2438 2439 2440 2441 2442 2443 2444 2445 2446 2447 2448 2449 2450 2451 2452 2453 2454 2455 2456 2457 2458 2459 2460 2461 2462 2463 2464 2465 2466 2467 2468 2469 2470 2471 2472 2473 2474 2475 2476 2477 2478 2479 2480 2481 2482 2483 2484 2485 2486 2487 2488 2489 2490 2491 2492 2493 2494 2495 2496 2497 2498 2499 2500 2501 2502 2503 2504 2505 2506 2507 2508 2509 2510 2511 2512 2513 2514 2515 2516 2517 2518 2519 2520 2521 2522 2523 2524 2525 2526 2527 2528 2529 2530 2531 2532 2533 2534 2535 2536 2537 2538 2539 2540 2541 2542 2543 2544 2545 2546 2547 2548 2549 2550 2551 2552 2553 2554 2555 2556 2557 2558 2559 2560 2561 2562 2563 2564 2565 2566 2567 2568 2569 2570 2571 2572 2573 2574 2575 2576 2577 2578 2579 2580 2581 2582 2583 2584 2585 2586 2587 2588 2589 2590 2591 2592 2593 2594 2595 2596 2597 2598 2599 2600 2601 2602 2603 2604 2605 2606 2607 2608 2609 2610 2611 2612 2613 2614 2615 2616 2617 2618 2619 2620 2621 2622 2623 2624 2625 2626 2627 2628 2629 2630 2631 2632 2633 2634 2635 2636 2637 2638 2639 2640 2641 2642 2643 2644 2645 2646 2647 2648 2649 2650 2651 2652 2653 2654 2655 2656 2657 2658 2659 2660 2661 2662 2663 2664 2665 2666 2667 2668 2669 2670 2671 2672 2673 2674 2675 2676 2677 2678 2679 2680 2681 2682 2683 2684 2685 2686 2687 2688 2689 2690 2691 2692 2693 2694 2695 2696 2697 2698 2699 2700 2701 2702 2703 2704 2705 2706 2707 2708 2709 2710 2711 2712 2713 2714 2715 2716 2717 2718 2719 2720 2721 2722 2723 2724 2725 2726 2727 2728 2729 2730 2731 2732 2733 2734 2735 2736 2737 2738 2739 2740 2741 2742 2743 2744 2745 2746 2747 2748 2749 2750 2751 2752 2753 2754 2755 2756 2757 2758 2759 2760 2761 2762 2763 2764 2765 2766 2767 2768 2769 2770 2771 2772 2773 2774 2775 2776 2777 2778 2779 2780 2781 2782 2783 2784 2785 2786 2787 2788 2789 2790 2791 2792 2793 2794 2795 2796 2797 2798 2799 2800 2801 2802 2803 2804 2805 2806 2807 2808 2809 2810 2811 2812 2813 2814 2815 2816 2817 2818 2819 2820 2821 2822 2823 2824 2825 2826 2827 2828 2829 2830 2831 2832 2833 2834 2835 2836 2837 2838 2839 2840 2841 2842 2843 2844 2845 2846 2847 2848 2849 2850 2851 2852 2853 2854 2855 2856 2857 2858 2859 2860 2861 2862 2863 2864 2865 2866 2867 2868 2869 2870 2871 2872 2873 2874 2875 2876 2877 2878 2879 2880 2881 2882 2883 2884 2885 2886 2887 2888 2889 2890 2891 2892 2893 2894 2895 2896 2897 2898 2899 2900 2901 2902 2903 2904 2905 2906 2907 2908 2909 2910 2911 2912 2913 2914 2915 2916 2917 2918 2919 2920 2921 2922 2923 2924 2925 2926 2927 2928 2929 2930 2931 2932 2933 2934 2935 2936 2937 2938 2939 2940 2941 2942 2943 2944 2945 2946 2947 2948 2949 2950 2951 2952 2953 2954 2955 2956 2957 2958 2959 2960 2961 2962 2963 2964 2965 2966 2967 2968 2969 2970 2971 2972 2973 2974 2975 2976 2977 2978 2979 2980 2981 2982 2983 2984 2985 2986 2987 2988 2989 2990 2991 2992 2993 2994 2995 2996 2997 2998 2999 3000 3001 3002 3003 3004 3005 3006 3007 3008 3009 3010 3011 3012 3013 3014 3015 3016 3017 3018 3019 3020 3021 3022 3023 3024 3025 3026 3027 3028 3029 3030 3031 3032 3033 3034 3035 3036 3037 3038 3039 3040 3041 3042 3043 3044 3045 3046 3047 3048 3049 3050 3051 3052 3053 3054 3055 3056 3057 3058 3059 3060 3061 3062 3063 3064 3065 3066 3067 3068 3069 3070 3071 3072 3073 3074 3075 3076 3077 3078 3079 3080 3081 3082 3083 3084 3085 3086 3087 3088 3089 3090 3091 3092 3093 3094 3095 3096 3097 3098 3099 3100 3101 3102 3103 3104 3105 3106 3107 3108 3109 3110 3111 3112 3113 3114 3115 3116 3117 3118 3119 3120 3121 3122 3123 3124 3125 3126 3127 3128 3129 3130 3131 3132 3133 3134 3135 3136 3137 3138 3139 3140 3141 3142 3143 3144 3145 3146 3147 3148 3149 3150 3151 3152 3153 3154 3155 3156 3157 3158 3159 3160 3161 3162 3163 3164 3165 3166 3167 3168 3169 3170 3171 3172 3173 3174 3175 3176 3177 3178 3179 3180 3181 3182 3183 3184 3185 3186 3187 3188 3189 3190 3191 3192 3193 3194 3195 3196 3197 3198 3199 3200 3201 3202 3203 3204 3205 3206 3207 3208 3209 3210 3211 3212 3213 3214 3215 3216 3217 3218 3219 3220 3221 3222 3223 3224 3225 3226 3227 3228 3229 3230 3231 3232 3233 3234 3235 3236 3237 3238 3239 3240 3241 3242 3243 3244 3245 3246 3247 3248 3249 3250 3251 3252 3253 3254 3255 3256 3257 3258 3259 3260 3261 3262 3263 3264 3265 3266 3267 3268 3269 3270 3271 3272 3273 3274 3275 3276 3277 3278 3279 3280 3281 3282 3283 3284 3285 3286 3287 3288 3289 3290 3291 3292 3293 3294 3295 3296 3297 3298 3299 3300 3301 3302 3303 3304 3305 3306 3307 3308 3309 3310 3311 3312 3313 3314 3315 3316 3317 3318 3319 3320 3321 3322 3323 3324 3325 3326 3327 3328 3329 3330 3331 3332 3333 3334 3335 3336 3337 3338 3339 3340 3341 3342 3343 3344 3345 3346 3347 3348 3349 3350 3351 3352 3353 3354 3355 3356 3357 3358 3359 3360 3361 3362 3363 3364 3365 3366 3367 3368 3369 3370 3371 3372 3373 3374 3375 3376 3377 3378 3379 3380 3381 3382 3383 3384 3385 3386 3387 3388 3389 3390 3391 3392 3393 3394 3395 3396 3397 3398 3399 3400 3401 3402 3403 3404 3405 3406 3407 3408 3409 3410 3411 3412 3413 3414 3415 3416 3417 3418 3419 3420 3421 3422 3423 3424 3425 3426 3427 3428 3429 3430 3431 3432 3433 3434 3435 3436 3437 3438 3439 3440 3441 3442 3443 3444 3445 3446 3447 3448 3449 3450 3451 3452 3453 3454 3455 3456 3457 3458 3459 3460 3461 3462 3463 3464 3465 3466 3467 3468 3469 3470 3471 3472 3473 3474 3475 3476 3477 3478 3479 3480 3481 3482 3483 3484 3485 3486 3487 3488 3489 3490 3491 3492 3493 3494 3495 3496 3497 3498 3499 3500 3501 3502 3503 3504 3505 3506 3507 3508 3509 3510 3511 3512 3513 3514 3515 3516 3517 3518 3519 3520 3521 3522 3523 3524 3525 3526 3527 3528 3529 3530 3531 3532 3533 3534 3535 3536 3537 3538 3539 3540 3541 3542 3543 3544 3545 3546 3547 3548 3549 3550 3551 3552 3553 3554 3555 3556 3557 3558 3559 3560 3561 3562 3563 3564 3565 3566 3567 3568 3569 3570 3571 3572 3573 3574 3575 3576 3577 3578 3579 3580 3581 3582 3583 3584 3585 3586 3587 3588 3589 3590 3591 3592 3593 3594 3595 3596 3597 3598 3599 3600 3601 3602 3603 3604 3605 3606 3607 3608 3609 3610 3611 3612 3613 3614 3615 3616 3617 3618 3619 3620 3621 3622 3623 3624 3625 3626 3627 3628 3629 3630 3631 3632 3633 3634 3635 3636 3637 3638 3639 3640 3641 3642 3643 3644 3645 3646 3647 3648 3649 3650 3651 3652 3653 3654 3655 3656 3657 3658 3659 3660 3661 3662 3663 3664 3665 3666 3667 3668 3669 3670 3671 3672 3673 3674 3675 3676 3677 3678 3679 3680 3681 3682 3683 3684 3685 3686 3687 3688 3689 3690 3691 3692 3693 3694 3695 3696 3697 3698 3699 3700 3701 3702 3703 3704 3705 3706 3707 3708 3709 3710 3711 3712 3713 3714 3715 3716 3717 3718 3719 3720 3721 3722 3723 3724 3725 3726 3727 3728 3729 3730 3731 3732 3733 3734 3735 3736 3737 3738 3739 3740 3741 3742 3743 3744 3745 3746 3747 3748 3749 3750 3751 3752 3753 3754 3755 3756 3757 3758 3759 3760 3761 3762 3763 3764 3765 3766 3767 3768 3769 3770 3771 3772 3773 3774 3775 3776 3777 3778 3779 3780 3781 3782 3783 3784 3785 3786 3787 3788 3789 3790 3791 3792 3793 3794 3795 3796 3797 3798 3799 3800 3801 3802 3803 3804 3805 3806 3807 3808 3809 3810 3811 3812 3813 3814 3815 3816 3817 3818 3819 3820 3821 3822 3823 3824 3825 3826 3827 3828 3829 3830 3831 3832 3833 3834 3835 3836 3837 3838 3839 3840 3841 3842 3843 3844 3845 3846 3847 3848 3849 3850 3851 3852 3853 3854 3855 3856 3857 3858 3859 3860 3861 3862 3863 3864 3865 3866 3867 3868 3869 3870 3871 3872 3873 3874 3875 3876 3877 3878 3879 3880 3881 3882 3883 3884 3885 3886 3887 3888 3889 3890 3891 3892 3893 3894 3895 3896 3897 3898 3899 3900 3901 3902 3903 3904 3905 3906 3907 3908 3909 3910 3911 3912 3913 3914 3915 3916 3917 3918 3919 3920 3921 3922 3923 3924 3925 3926 3927 3928 3929 3930 3931 3932 3933 3934 3935 3936 3937 3938 3939 3940 3941 3942 3943 3944 3945 3946 3947 3948 3949 3950 3951 3952 3953 3954 3955 3956 3957 3958 3959 3960 3961 3962 3963 3964 3965 3966 3967 3968 3969 3970 3971 3972 3973 3974 3975 3976 3977 3978 3979 3980 3981 3982 3983 3984 3985 3986 3987 3988 3989 3990 3991 3992 3993 3994 3995 3996 3997 3998 3999 4000 4001 4002 4003 4004 4005 4006 4007 4008 4009 4010 4011 4012 4013 4014 4015 4016 4017 4018 4019 4020 4021 4022 4023 4024 4025 4026 4027 4028 4029 4030 4031 4032 4033 4034 4035 4036 4037 4038 4039 4040 4041 4042 4043 4044 4045 4046 4047 4048 4049 4050 4051 4052 4053 4054 4055 4056 4057 4058 4059 4060 4061 4062 4063 4064 4065 4066 4067 4068 4069 4070 4071 4072 4073 4074 4075 4076 4077 4078 4079 4080 4081 4082 4083 4084 4085 4086 4087 4088 4089 4090 4091 4092 4093 4094 4095 4096 4097 4098 4099 4100 4101 4102 4103 4104 4105 4106 4107 4108 4109 4110 4111 4112 4113 4114 4115 4116 4117 4118 4119 4120 4121 4122 4123 4124 4125 4126 4127 4128 4129 4130 4131 4132 4133 4134 4135 4136 4137 4138 4139 4140 4141 4142 4143 4144 4145 4146 4147 4148 4149 4150 4151 4152 4153 4154 4155 4156 4157 4158 4159 4160 4161 4162 4163 4164 4165 4166 4167 4168 4169 4170 4171 4172 4173 4174 4175 4176 4177 4178 4179 4180 4181 4182 4183 4184 4185 4186 4187 4188 4189 4190 4191 4192 4193 4194 4195 4196 4197 4198 4199 4200 4201 4202 4203 4204 4205 4206 4207 4208 4209 4210 4211 4212 4213 4214 4215 4216 4217 4218 4219 4220 4221 4222 4223 4224 4225 4226 4227 4228 4229 4230 4231 4232 4233 4234 4235 4236 4237 4238 4239 4240 4241 4242 4243 4244 4245 4246 4247 4248 4249 4250 4251 4252 4253 4254 4255 4256 4257 4258 4259 4260 4261 4262 4263 4264 4265 4266 4267 4268 4269 4270 4271 4272 4273 4274 4275 4276 4277 4278 4279 4280 4281 4282 4283 4284 4285 4286 4287 4288 4289 4290 4291 4292 4293 4294 4295 4296 4297 4298 4299 4300 4301 4302 4303 4304 4305 4306 4307 4308 4309 4310 4311 4312 4313 4314 4315 4316 4317 4318 4319 4320 4321 4322 4323 4324 4325 4326 4327 4328 4329 4330 4331 4332 4333 4334 4335 4336 4337 4338 4339 4340 4341 4342 4343 4344 4345 4346 4347 4348 4349 4350 4351 4352 4353 4354 4355 4356 4357 4358 4359 4360 4361 4362 4363 4364 4365 4366 4367 4368 4369 4370 4371 4372 4373 4374 4375 4376 4377 4378 4379 4380 4381 4382 4383 4384 4385 4386 4387 4388 4389 4390 4391 4392 4393 4394 4395 4396 4397 4398 4399 4400 4401 4402 4403 4404 4405 4406 4407 4408 4409 4410 4411 4412 4413 4414 4415 4416 4417 4418 4419 4420 4421 4422 4423 4424 4425 4426 4427 4428 4429 4430 4431 4432 4433 4434 4435 4436 4437 4438 4439 4440 4441 4442 4443 4444 4445 4446 4447 4448 4449 4450 4451 4452 4453 4454 4455 4456 4457 4458 4459 4460 4461 4462 4463 4464 4465 4466 4467 4468 4469 4470 4471 4472 4473 4474 4475 4476 4477 4478 4479 4480 4481 4482 4483 4484 4485 4486 4487 4488 4489 4490 4491 4492 4493 4494 4495 4496 4497 4498 4499 4500 4501 4502 4503 4504 4505 4506 4507 4508 4509 4510 4511 4512 4513 4514 4515 4516 4517 4518 4519 4520 4521 4522 4523 4524 4525 4526 4527 4528 4529 4530 4531 4532 4533 4534 4535 4536 4537 4538 4539 4540 4541 4542 4543 4544 4545 4546 4547 4548 4549 4550 4551 4552 4553 4554 4555 4556 4557 4558 4559 4560 4561 4562 4563 4564 4565 4566 4567 4568 4569 4570 4571 4572 4573 4574 4575 4576 4577 4578 4579 4580 4581 4582 4583 4584 4585 4586 4587 4588 4589 4590 4591 4592 4593 4594 4595 4596 4597 4598 4599 4600 4601 4602 4603 4604 4605 4606 4607 4608 4609 4610 4611 4612 4613 4614 4615 4616 4617 4618 4619 4620 4621 4622 4623 4624 4625 4626 4627 4628 4629 4630 4631 4632 4633 4634 4635 4636 4637 4638 4639 4640 4641 4642 4643 4644 4645 4646 4647 4648 4649 4650 4651 4652 4653 4654 4655 4656 4657 4658 4659 4660 4661 4662 4663 4664 4665 4666 4667 4668 4669 4670 4671 4672 4673 4674 4675 4676 4677 4678 4679 4680 4681 4682 4683 4684 4685 4686 4687 4688 4689 4690 4691 4692 4693 4694 4695 4696 4697 4698 4699 4700 4701 4702 4703 4704 4705 4706 4707 4708 4709 4710 4711 4712 4713 4714 4715 4716 4717 4718 4719 4720 4721 4722 4723 4724 4725 4726 4727 4728 4729 4730 4731 4732 4733 4734 4735 4736 4737 4738 4739 4740 4741 4742 4743 4744 4745 4746 4747 4748 4749 4750 4751 4752 4753 4754 4755 4756 4757 4758 4759 4760 4761 4762 4763 4764 4765 4766 4767 4768 4769 4770 4771 4772 4773 4774 4775 4776 4777 4778 4779 4780 4781 4782 4783 4784 4785 4786 4787 4788 4789 4790 4791 4792 4793 4794 4795 4796 4797 4798 4799 4800 4801 4802 4803 4804 4805 4806 4807 4808 4809 4810 4811 4812 4813 4814 4815 4816 4817 4818 4819 4820 4821 4822 4823 4824 4825 4826 4827 4828 4829 4830 4831 4832 4833 4834 4835 4836 4837 4838 4839 4840 4841 4842 4843 4844 4845 4846 4847 4848 4849 4850 4851 4852 4853 4854 4855 4856 4857 4858 4859 4860 4861 4862 4863 4864 4865 4866 4867 4868 4869 4870 4871 4872 4873 4874 4875 4876 4877 4878 4879 4880 4881 4882 4883 4884 4885 4886 4887 4888 4889 4890 4891 4892 4893 4894 4895 4896 4897 4898 4899 4900 4901 4902 4903 4904 4905 4906 4907 4908 4909 4910 4911 4912 4913 4914 4915 4916 4917 4918 4919 4920 4921 4922 4923 4924 4925 4926 4927 4928 4929 4930 4931 4932 4933 4934 4935 4936 4937 4938 4939 4940 4941 4942 4943 4944 4945 4946 4947 4948 4949 4950 4951 4952 4953 4954 4955 4956 4957 4958 4959 4960 4961 4962 4963 4964 4965 4966 4967 4968 4969 4970 4971 4972 4973 4974 4975 4976 4977 4978 4979 4980 4981 4982 4983 4984 4985 4986 4987 4988 4989 4990 4991 4992 4993 4994 4995 4996 4997 4998 4999 5000 5001 5002 5003 5004 5005 5006 5007 5008 5009 5010 5011 5012 5013 5014 5015 5016 5017 5018 5019 5020 5021 5022 5023 5024 5025 5026 5027 5028 5029 5030 5031 5032 5033 5034 5035 5036 5037 5038 5039 5040 5041 5042 5043 5044 5045 5046 5047 5048 5049 5050 5051 5052 5053 5054 5055 5056 5057 5058 5059 5060 5061 5062 5063 5064 5065 5066 5067 5068 5069 5070 5071 5072 5073 5074 5075 5076 5077 5078 5079 5080 5081 5082 5083 5084 5085 5086 5087 5088 5089 5090 5091 5092 5093 5094 5095 5096 5097 5098 5099 5100 5101 5102 5103 5104 5105 5106 5107 5108 5109 5110 5111 5112 5113 5114 5115 5116 5117 5118 5119 5120 5121 5122 5123 5124 5125 5126 5127 5128 5129 5130 5131 5132 5133 5134 5135 5136 5137 5138 5139 5140 5141 5142 5143 5144 5145 5146 5147 5148 5149 5150 5151 5152 5153 5154 5155 5156 5157 5158 5159 5160 5161 5162 5163 5164 5165 5166 5167 5168 5169 5170 5171 5172 5173 5174 5175 5176 5177 5178 5179 5180 5181 5182 5183 5184 5185 5186 5187 5188 5189 5190 5191 5192 5193 5194 5195 5196 5197 5198 5199 5200 5201 5202 5203 5204 5205 5206 5207 5208 5209 5210 5211 5212 5213 5214 5215 5216 5217 5218 5219 5220 5221 5222 5223 5224 5225 5226 5227 5228 5229 5230 5231 5232 5233 5234 5235 5236 5237 5238 5239 5240 5241 5242 5243 5244 5245 5246 5247 5248 5249 5250 5251 5252 5253 5254 5255 5256 5257 5258 5259 5260 5261 5262 5263 5264 5265 5266 5267 5268 5269 5270 5271 5272 5273 5274 5275 5276 5277 5278 5279 5280 5281 5282 5283 5284 5285 5286 5287 5288 5289 5290 5291 5292 5293 5294 5295 5296 5297 5298 5299 5300 5301 5302 5303 5304 5305 5306 5307 5308 5309 5310 5311 5312 5313 5314 5315 5316 5317 5318 5319 5320 5321 5322 5323 5324 5325 5326 5327 5328 5329 5330 5331 5332 5333 5334 5335 5336 5337 5338 5339 5340 5341 5342 5343 5344 5345 5346 5347 5348 5349 5350 5351 5352 5353 5354 5355 5356 5357 5358 5359 5360 5361 5362 5363 5364 5365 5366 5367 5368 5369 5370 5371 5372 5373 5374 5375 5376 5377 5378 5379 5380 5381 5382 5383 5384 5385 5386 5387 5388 5389 5390 5391 5392 5393 5394 5395 5396 5397 5398 5399 5400 5401 5402 5403 5404 5405 5406 5407 5408 5409 5410 5411 5412 5413 5414 5415 5416 5417 5418 5419 5420 5421 5422 5423 5424 5425 5426 5427 5428 5429 5430 5431 5432 5433 5434 5435 5436 5437 5438 5439 5440 5441 5442 5443 5444 5445 5446 5447 5448 5449 5450 5451 5452 5453 5454 5455 5456 5457 5458 5459 5460 5461 5462 5463 5464 5465 5466 5467 5468 5469 5470 5471 5472 5473 5474 5475 5476 5477 5478 5479 5480 5481 5482 5483 5484 5485 5486 5487 5488 5489 5490 5491 5492 5493 5494 5495 5496 5497 5498 5499 5500 5501 5502 5503 5504 5505 5506 5507 5508 5509 5510 5511 5512 5513 5514 5515 5516 5517 5518 5519 5520 5521 5522 5523 5524 5525 5526 5527 5528 5529 5530 5531 5532 5533 5534 5535 5536 5537 5538 5539 5540 5541 5542 5543 5544 5545 5546 5547 5548 5549 5550 5551 5552 5553 5554 5555 5556 5557 5558 5559 5560 5561 5562 5563 5564 5565 5566 5567 5568 5569 5570 5571 5572 5573 5574 5575 5576 5577 5578 5579 5580 5581 5582 5583 5584 5585 5586 5587 5588 5589 5590 5591 5592 5593 5594 5595 5596 5597 5598 5599 5600 5601 5602 5603 5604 5605 5606 5607 5608 5609 5610 5611 5612 5613 5614 5615 5616 5617 5618 5619 5620 5621 5622 5623 5624 5625 5626 5627 5628 5629 5630 5631 5632 5633 5634 5635 5636 5637 5638 5639 5640 5641 5642 5643 5644 5645 5646 5647 5648 5649 5650 5651 5652 5653 5654 5655 5656 5657 5658 5659 5660 5661 5662 5663 5664 5665 5666 5667 5668 5669 5670 5671 5672 5673 5674 5675 5676 5677 5678 5679 5680 5681 5682 5683 5684 5685 5686 5687 5688 5689 5690 5691 5692 5693 5694 5695 5696 5697 5698 5699 5700 5701 5702 5703 5704 5705 5706 5707 5708 5709 5710 5711 5712 5713 5714 5715 5716 5717 5718 5719 5720 5721 5722 5723 5724 5725 5726 5727 5728 5729 5730 5731 5732 5733 5734 5735 5736 5737 5738 5739 5740 5741 5742 5743 5744 5745 5746 5747 5748 5749 5750 5751 5752 5753 5754 5755 5756 5757 5758 5759 5760 5761 5762 5763 5764 5765 5766 5767 5768 5769 5770 5771 5772 5773 5774 5775 5776 5777 5778 5779 5780 5781 5782 5783 5784 5785 5786 5787 5788 5789 5790 5791 5792 5793 5794 5795 5796 5797 5798 5799 5800 5801 5802 5803 5804 5805 5806 5807 5808 5809 5810 5811 5812 5813 5814 5815 5816 5817 5818 5819 5820 5821 5822 5823 5824 5825 5826 5827 5828 5829 5830 5831 5832 5833 5834 5835 5836 5837 5838 5839 5840 5841 5842 5843 5844 5845 5846 5847 5848 5849 5850 5851 5852 5853 5854 5855 5856 5857 5858 5859 5860 5861 5862 5863 5864 5865 5866 5867 5868 5869 5870 5871 5872 5873 5874 5875 5876 5877 5878 5879 5880 5881 5882 5883 5884 5885 5886 5887 5888 5889 5890 5891 5892 5893 5894 5895 5896 5897 5898 5899 5900 5901 5902 5903 5904 5905 5906 5907 5908 5909 5910 5911 5912 5913 5914 5915 5916 5917 5918 5919 5920 5921 5922 5923 5924 5925 5926 5927 5928 5929 5930 5931 5932 5933 5934 5935 5936 5937 5938 5939 5940 5941 5942 5943 5944 5945 5946 5947 5948 5949 5950 5951 5952 5953 5954 5955 5956 5957 5958 5959 5960 5961 5962 5963 5964 5965 5966 5967 5968 5969 5970 5971 5972 5973 5974 5975 5976 5977 5978 5979 5980 5981 5982 5983 5984 5985 5986 5987 5988 5989 5990 5991 5992 5993 5994 5995 5996 5997 5998 5999 6000 6001 6002 6003 6004 6005 6006 6007 6008 6009 6010 6011 6012 6013 6014 6015 6016 6017 6018 6019 6020 6021 6022 6023 6024 6025 6026 6027 6028 6029 6030 6031 6032 6033 6034 6035 6036 6037 6038 6039 6040 6041 6042 6043 6044 6045 6046 6047 6048 6049 6050 6051 6052 6053 6054 6055 6056 6057 6058 6059 6060 6061 6062 6063 6064 6065 6066 6067 6068 6069 6070 6071 6072 6073 6074 6075 6076 6077 6078 6079 6080 6081 6082 6083 6084 6085 6086 6087 6088 6089 6090 6091 6092 6093 6094 6095 6096 6097 6098 6099 6100 6101 6102 6103 6104 6105 6106 6107 6108 6109 6110 6111 6112 6113 6114 6115 6116 6117 6118 6119 6120 6121 6122 6123 6124 6125 6126 6127 6128 6129 6130 6131 6132 6133 6134 6135 6136 6137 6138 6139 6140 6141 6142 6143 6144 6145 6146 6147 6148 6149 6150 6151 6152 6153 6154 6155 6156 6157 6158 6159 6160 6161 6162 6163 6164 6165 6166 6167 6168 6169 6170 6171 6172 6173 6174 6175 6176 6177 6178 6179 6180 6181 6182 6183 6184 6185 6186 6187 6188 6189 6190 6191 6192 6193 6194 6195 6196 6197 6198 6199 6200 6201 6202 6203 6204 6205 6206 6207 6208 6209 6210 6211 6212 6213 6214 6215 6216 6217 6218 6219 6220 6221 6222 6223 6224 6225 6226 6227 6228 6229 6230 6231 6232 6233 6234 6235 6236 6237 6238 6239 6240 6241 6242 6243 6244 6245 6246 6247 6248 6249 6250 6251 6252 6253 6254 6255 6256 6257 6258 6259 6260 6261 6262 6263 6264 6265 6266 6267 6268 6269 6270 6271 6272 6273 6274 6275 6276 6277 6278 6279 6280 6281 6282 6283 6284 6285 6286 6287 6288 6289 6290 6291 6292 6293 6294 6295 6296 6297 6298 6299 6300 6301 6302 6303 6304 6305 6306 6307 6308 6309 6310 6311 6312 6313 6314 6315 6316 6317 6318 6319 6320 6321 6322 6323 6324 6325 6326 6327 6328 6329 6330 6331 6332 6333 6334 6335 6336 6337 6338 6339 6340 6341 6342 6343 6344 6345 6346 6347 6348 6349 6350 6351 6352 6353 6354 6355 6356 6357 6358 6359 6360 6361 6362 6363 6364 6365 6366 6367 6368 6369 6370 6371 6372 6373 6374 6375 6376 6377 6378 6379 6380 6381 6382 6383 6384 6385 6386 6387 6388 6389 6390 6391 6392 6393 6394 6395 6396 6397 6398 6399 6400 6401 6402 6403 6404 6405 6406 6407 6408 6409 6410 6411 6412 6413 6414 6415 6416 6417 6418 6419 6420 6421 6422 6423 6424 6425 6426 6427 6428 6429 6430 6431 6432 6433 6434 6435 6436 6437 6438 6439 6440 6441 6442 6443 6444 6445 6446 6447 6448 6449 6450 6451 6452 6453 6454 6455 6456 6457 6458 6459 6460 6461 6462 6463 6464 6465 6466 6467 6468 6469 6470 6471 6472 6473 6474 6475 6476 6477 6478 6479 6480 6481 6482 6483 6484 6485 6486 6487 6488 6489 6490 6491 6492 6493 6494 6495 6496 6497 6498 6499 6500 6501 6502 6503 6504 6505 6506 6507 6508 6509 6510 6511 6512 6513 6514 6515 6516 6517 6518 6519 6520 6521 6522 6523 6524 6525 6526 6527 6528 6529 6530 6531 6532 6533 6534 6535 6536 6537 6538 6539 6540 6541 6542 6543 6544 6545 6546 6547 6548 6549 6550 6551 6552 6553 6554 6555 6556 6557 6558 6559 6560 6561 6562 6563 6564 6565 6566 6567 6568 6569 6570 6571 6572 6573 6574 6575 6576 6577 6578 6579 6580 6581 6582 6583 6584 6585 6586 6587 6588 6589 6590 6591 6592 6593 6594 6595 6596 6597 6598 6599 6600 6601 6602 6603 6604 6605 6606 6607 6608 6609 6610 6611 6612 6613 6614 6615 6616 6617 6618 6619 6620 6621 6622 6623 6624 6625 6626 6627 6628 6629 6630 6631 6632 6633 6634 6635 6636 6637 6638 6639 6640 6641 6642 6643 6644 6645 6646 6647 6648 6649 6650 6651 6652 6653 6654 6655 6656 6657 6658 6659 6660 6661 6662 6663 6664 6665 6666 6667 6668 6669 6670 6671 6672 6673 6674 6675 6676 6677 6678 6679 6680 6681 6682 6683 6684 6685 6686 6687 6688 6689 6690 6691 6692 6693 6694 6695 6696 6697 6698 6699 6700 6701 6702 6703 6704 6705 6706 6707 6708 6709 6710 6711 6712 6713 6714 6715 6716 6717 6718 6719 6720 6721 6722 6723 6724 6725 6726 6727 6728 6729 6730 6731 6732 6733 6734 6735 6736 6737 6738 6739 6740 6741 6742 6743 6744 6745 6746 6747 6748 6749 6750 6751 6752 6753 6754 6755 6756 6757 6758 6759 6760 6761 6762 6763 6764 6765 6766 6767 6768 6769 6770 6771 6772 6773 6774 6775 6776 6777 6778 6779 6780 6781 6782 6783 6784 6785 6786 6787 6788 6789 6790 6791 6792 6793 6794 6795 6796 6797 6798 6799 6800 6801 6802 6803 6804 6805 6806 6807 6808 6809 6810 6811 6812 6813 6814 6815 6816 6817 6818 6819 6820 6821 6822 6823 6824 6825 6826 6827 6828 6829 6830 6831 6832 6833 6834 6835 6836 6837 6838 6839 6840 6841 6842 6843 6844 6845 6846 6847 6848 6849 6850 6851 6852 6853 6854 6855 6856 6857 6858 6859 6860 6861 6862 6863 6864 6865 6866 6867 6868 6869 6870 6871 6872 6873 6874 6875 6876 6877 6878 6879 6880 6881 6882 6883 6884 6885 6886 6887 6888 6889 6890 6891 6892 6893 6894 6895 6896 6897 6898 6899 6900 6901 6902 6903 6904 6905 6906 6907 6908 6909 6910 6911 6912 6913 6914 6915 6916 6917 6918 6919 6920 6921 6922 6923 6924 6925 6926 6927 6928 6929 6930 6931 6932 6933 6934 6935 6936 6937 6938 6939 6940 6941 6942 6943 6944 6945 6946 6947 6948 6949 6950 6951 6952 6953 6954 6955 6956 6957 6958 6959 6960 6961 6962 6963 6964 6965 6966 6967 6968 6969 6970 6971 6972 6973 6974 6975 6976 6977 6978 6979 6980 6981 6982 6983 6984 6985 6986 6987 6988 6989 6990 6991 6992 6993 6994 6995 6996 6997 6998 6999 7000 7001 7002 7003 7004 7005 7006 7007 7008 7009 7010 7011 7012 7013 7014 7015 7016 7017 7018 7019 7020 7021 7022 7023 7024 7025 7026 7027 7028 7029 7030 7031 7032 7033 7034 7035 7036 7037 7038 7039 7040 7041 7042 7043 7044 7045 7046 7047 7048 7049 7050 7051 7052 7053 7054 7055 7056 7057 7058 7059 7060 7061 7062 7063 7064 7065 7066 7067 7068 7069 7070 7071 7072 7073 7074 7075 7076 7077 7078 7079 7080 7081 7082 7083 7084 7085 7086 7087 7088 7089 7090 7091 7092 7093 7094 7095 7096 7097 7098 7099 7100 7101 7102 7103 7104 7105 7106 7107 7108 7109 7110 7111 7112 7113 7114 7115 7116 7117 7118 7119 7120 7121 7122 7123 7124 7125 7126 7127 7128 7129 7130 7131 7132 7133 7134 7135 7136 7137 7138 7139 7140 7141 7142 7143 7144 7145 7146 7147 7148 7149 7150 7151 7152 7153 7154 7155 7156 7157 7158 7159 7160 7161 7162 7163 7164 7165 7166 7167 7168 7169 7170 7171 7172 7173 7174 7175 7176 7177 7178 7179 7180 7181 7182 7183 7184 7185 7186 7187 7188 7189 7190 7191 7192 7193 7194 7195 7196 7197 7198 7199 7200 7201 7202 7203 7204 7205 7206 7207 7208 7209 7210 7211 7212 7213 7214 7215 7216 7217 7218 7219 7220 7221 7222 7223 7224 7225 7226 7227 7228 7229 7230 7231 7232 7233 7234 7235 7236 7237 7238 7239 7240 7241 7242 7243 7244 7245 7246 7247 7248 7249 7250 7251 7252 7253 7254 7255 7256 7257 7258 7259 7260 7261 7262 7263 7264 7265 7266 7267 7268 7269 7270 7271 7272 7273 7274 7275 7276 7277 7278 7279 7280 7281 7282 7283 7284 7285 7286 7287 7288 7289 7290 7291 7292 7293 7294 7295 7296 7297 7298 7299 7300 7301 7302 7303 7304 7305 7306 7307 7308 7309 7310 7311 7312 7313 7314 7315 7316 7317 7318 7319 7320 7321 7322 7323 7324 7325 7326 7327 7328 7329 7330 7331 7332 7333 7334 7335 7336 7337 7338 7339 7340 7341 7342 7343 7344 7345 7346 7347 7348 7349 7350 7351 7352 7353 7354 7355 7356 7357 7358 7359 7360 7361 7362 7363 7364 7365 7366 7367 7368 7369 7370 7371 7372 7373 7374 7375 7376 7377 7378 7379 7380 7381 7382 7383 7384 7385 7386 7387 7388 7389 7390 7391 7392 7393 7394 7395 7396 7397 7398 7399 7400 7401 7402 7403 7404 7405 7406 7407 7408 7409 7410 7411 7412 7413 7414 7415 7416 7417 7418 7419 7420 7421 7422 7423 7424 7425 7426 7427 7428 7429 7430 7431 7432 7433 7434 7435 7436 7437 7438 7439 7440 7441 7442 7443 7444 7445 7446 7447 7448 7449 7450 7451 7452 7453 7454 7455 7456 7457 7458 7459 7460 7461 7462 7463 7464 7465 7466 7467 7468 7469 7470 7471 7472 7473 7474 7475 7476 7477 7478 7479 7480 7481 7482 7483 7484 7485 7486 7487 7488 7489 7490 7491 7492 7493 7494 7495 7496 7497 7498 7499 7500 7501 7502 7503 7504 7505 7506 7507 7508 7509 7510 7511 7512 7513 7514 7515 7516 7517 7518 7519 7520 7521 7522 7523 7524 7525 7526 7527 7528 7529 7530 7531 7532 7533 7534 7535 7536 7537 7538 7539 7540 7541 7542 7543 7544 7545 7546 7547 7548 7549 7550 7551 7552 7553 7554 7555 7556 7557 7558 7559 7560 7561 7562 7563 7564 7565 7566 7567 7568 7569 7570 7571 7572 7573 7574 7575 7576 7577 7578 7579 7580 7581 7582 7583 7584 7585 7586 7587 7588 7589 7590 7591 7592 7593 7594 7595 7596 7597 7598 7599 7600 7601 7602 7603 7604 7605 7606 7607 7608 7609 7610 7611 7612 7613 7614 7615 7616 7617 7618 7619 7620 7621 7622 7623 7624 7625 7626 7627 7628 7629 7630 7631 7632 7633 7634 7635 7636 7637 7638 7639 7640 7641 7642 7643 7644 7645 7646 7647 7648 7649 7650 7651 7652 7653 7654 7655 7656 7657 7658 7659 7660 7661 7662 7663 7664 7665 7666 7667 7668 7669 7670 7671 7672 7673 7674 7675 7676 7677 7678 7679 7680 7681 7682 7683 7684 7685 7686 7687 7688 7689 7690 7691 7692 7693 7694 7695 7696 7697 7698 7699 7700 7701 7702 7703 7704 7705 7706 7707 7708 7709 7710 7711 7712 7713 7714 7715 7716 7717 7718 7719 7720 7721 7722 7723 7724 7725 7726 7727 7728 7729 7730 7731 7732 7733 7734 7735 7736 7737 7738 7739 7740 7741 7742 7743 7744 7745 7746 7747 7748 7749 7750 7751 7752 7753 7754 7755 7756 7757 7758 7759 7760 7761 7762 7763 7764 7765 7766 7767 7768 7769 7770 7771 7772 7773 7774 7775 7776 7777 7778 7779 7780 7781 7782 7783 7784 7785 7786 7787 7788 7789 7790 7791 7792 7793 7794 7795 7796 7797 7798 7799 7800 7801 7802 7803 7804 7805 7806 7807 7808 7809 7810 7811 7812 7813 7814 7815 7816 7817 7818 7819 7820 7821 7822 7823 7824 7825 7826 7827 7828 7829 7830 7831 7832 7833 7834 7835 7836 7837 7838 7839 7840 7841 7842 7843 7844 7845 7846 7847 7848 7849 7850 7851 7852 7853 7854 7855 7856 7857 7858 7859 7860 7861 7862 7863 7864 7865 7866 7867 7868 7869 7870 7871 7872 7873 7874 7875 7876 7877 7878 7879 7880 7881 7882 7883 7884 7885 7886 7887 7888 7889 7890 7891 7892 7893 7894 7895 7896 7897 7898 7899 7900 7901 7902 7903 7904 7905 7906 7907 7908 7909 7910 7911 7912 7913 7914 7915 7916 7917 7918 7919 7920 7921 7922 7923 7924 7925 7926 7927 7928 7929 7930 7931 7932 7933 7934 7935 7936 7937 7938 7939 7940 7941 7942 7943 7944 7945 7946 7947 7948 7949 7950 7951 7952 7953 7954 7955 7956 7957 7958 7959 7960 7961 7962 7963 7964 7965 7966 7967 7968 7969 7970 7971 7972 7973 7974 7975 7976 7977 7978 7979 7980 7981 7982 7983 7984 7985 7986 7987 7988 7989 7990 7991 7992 7993 7994 7995 7996 7997 7998 7999 8000 8001 8002 8003 8004 8005 8006 8007 8008 8009 8010 8011 8012 8013 8014 8015 8016 8017 8018 8019 8020 8021 8022 8023 8024 8025 8026 8027 8028 8029 8030 8031 8032 8033 8034 8035 8036 8037 8038 8039 8040 8041 8042 8043 8044 8045 8046 8047 8048 8049 8050 8051 8052 8053 8054 8055 8056 8057 8058 8059 8060 8061 8062 8063 8064 8065 8066 8067 8068 8069 8070 8071 8072 8073 8074 8075 8076 8077 8078 8079 8080 8081 8082 8083 8084 8085 8086 8087 8088 8089 8090 8091 8092 8093 8094 8095 8096 8097 8098 8099 8100 8101 8102 8103 8104 8105 8106 8107 8108 8109 8110 8111 8112 8113 8114 8115 8116 8117 8118 8119 8120 8121 8122 8123 8124 8125 8126 8127 8128 8129 8130 8131 8132 8133 8134 8135 8136 8137 8138 8139 8140 8141 8142 8143 8144 8145 8146 8147 8148 8149 8150 8151 8152 8153 8154 8155 8156 8157 8158 8159 8160 8161 8162 8163 8164 8165 8166 8167 8168 8169 8170 8171 8172 8173 8174 8175 8176 8177 8178 8179 8180 8181 8182 8183 8184 8185 8186 8187 8188 8189 8190 8191 8192 8193 8194 8195 8196 8197 8198 8199 8200 8201 8202 8203 8204 8205 8206 8207 8208 8209 8210 8211 8212 8213 8214 8215 8216 8217 8218 8219 8220 8221 8222 8223 8224 8225 8226 8227 8228 8229 8230 8231 8232 8233 8234 8235 8236 8237 8238 8239 8240 8241 8242 8243 8244 8245 8246 8247 8248 8249 8250 8251 8252 8253 8254 8255 8256 8257 8258 8259 8260 8261 8262 8263 8264 8265 8266 8267 8268 8269 8270 8271 8272 8273 8274 8275 8276 8277 8278 8279 8280 8281 8282 8283 8284 8285 8286 8287 8288 8289 8290 8291 8292 8293 8294 8295 8296 8297 8298 8299 8300 8301 8302 8303 8304 8305 8306 8307 8308 8309 8310 8311 8312 8313 8314 8315 8316 8317 8318 8319 8320 8321 8322 8323 8324 8325 8326 8327 8328 8329 8330 8331 8332 8333 8334 8335 8336 8337 8338 8339 8340 8341 8342 8343 8344 8345 8346 8347 8348 8349 8350 8351 8352 8353 8354 8355 8356 8357 8358 8359 8360 8361 8362 8363 8364 8365 8366 8367 8368 8369 8370 8371 8372 8373 8374 8375 8376 8377 8378 8379 8380 8381 8382 8383 8384 8385 8386 8387 8388 8389 8390 8391 8392 8393 8394 8395 8396 8397 8398 8399 8400 8401 8402 8403 8404 8405 8406 8407 8408 8409 8410 8411 8412 8413 8414 8415 8416 8417 8418 8419 8420 8421 8422 8423 8424 8425 8426 8427 8428 8429 8430 8431 8432 8433 8434 8435 8436 8437 8438 8439 8440 8441 8442 8443 8444 8445 8446 8447 8448 8449 8450 8451 8452 8453 8454 8455 8456 8457 8458 8459 8460 8461 8462 8463 8464 8465 8466 8467 8468 8469 8470 8471 8472 8473 8474 8475 8476 8477 8478 8479 8480 8481 8482 8483 8484 8485 8486 8487 8488 8489 8490 8491 8492 8493 8494 8495 8496 8497 8498 8499 8500 8501 8502 8503 8504 8505 8506 8507 8508 8509 8510 8511 8512 8513 8514 8515 8516 8517 8518 8519 8520 8521 8522 8523 8524 8525 8526 8527 8528 8529 8530 8531 8532 8533 8534 8535 8536 8537 8538 8539 8540 8541 8542 8543 8544 8545 8546 8547 8548 8549 8550 8551 8552 8553 8554 8555 8556 8557 8558 8559 8560 8561 8562 8563 8564 8565 8566 8567 8568 8569 8570 8571 8572 8573 8574 8575 8576 8577 8578 8579 8580 8581 8582 8583 8584 8585 8586 8587 8588 8589 8590 8591 8592 8593 8594 8595 8596 8597 8598 8599 8600 8601 8602 8603 8604 8605 8606 8607 8608 8609 8610 8611 8612 8613 8614 8615 8616 8617 8618 8619 8620 8621 8622 8623 8624 8625 8626 8627 8628 8629 8630 8631 8632 8633 8634 8635 8636 8637 8638 8639 8640 8641 8642 8643 8644 8645 8646 8647 8648 8649 8650 8651 8652 8653 8654 8655 8656 8657 8658 8659 8660 8661 8662 8663 8664 8665 8666 8667 8668 8669 8670 8671 8672 8673 8674 8675 8676 8677 8678 8679 8680 8681 8682 8683 8684 8685 8686 8687 8688 8689 8690 8691 8692 8693 8694 8695 8696 8697 8698 8699 8700 8701 8702 8703 8704 8705 8706 8707 8708 8709 8710 8711 8712 8713 8714 8715 8716 8717 8718 8719 8720 8721 8722 8723 8724 8725 8726 8727 8728 8729 8730 8731 8732 8733 8734 8735 8736 8737 8738 8739 8740 8741 8742 8743 8744 8745 8746 8747 8748 8749 8750 8751 8752 8753 8754 8755 8756 8757 8758 8759 8760 8761 8762 8763 8764 8765 8766 8767 8768 8769 8770 8771 8772 8773 8774 8775 8776 8777 8778 8779 8780 8781 8782 8783 8784 8785 8786 8787 8788 8789 8790 8791 8792 8793 8794 8795 8796 8797 8798 8799 8800 8801 8802 8803 8804 8805 8806 8807 8808 8809 8810 8811 8812 8813 8814 8815 8816 8817 8818 8819 8820 8821 8822 8823 8824 8825 8826 8827 8828 8829 8830 8831 8832 8833 8834 8835 8836 8837 8838 8839 8840 8841 8842 8843 8844 8845 8846 8847 8848 8849 8850 8851 8852 8853 8854 8855 8856 8857 8858 8859 8860 8861 8862 8863 8864 8865 8866 8867 8868 8869 8870 8871 8872 8873 8874 8875 8876 8877 8878 8879 8880 8881 8882 8883 8884 8885 8886 8887 8888 8889 8890 8891 8892 8893 8894 8895 8896 8897 8898 8899 8900 8901 8902 8903 8904 8905 8906 8907 8908 8909 8910 8911 8912 8913 8914 8915 8916 8917 8918 8919 8920 8921 8922 8923 8924 8925 8926 8927 8928 8929 8930 8931 8932 8933 8934 8935 8936 8937 8938 8939 8940 8941 8942 8943 8944 8945 8946 8947 8948 8949 8950 8951 8952 8953 8954 8955 8956 8957 8958 8959 8960 8961 8962 8963 8964 8965 8966 8967 8968 8969 8970 8971 8972 8973 8974 8975 8976 8977 8978 8979 8980 8981 8982 8983 8984 8985 8986 8987 8988 8989 8990 8991 8992 8993 8994 8995 8996 8997 8998 8999 9000 9001 9002 9003 9004 9005 9006 9007 9008 9009 9010 9011 9012 9013 9014 9015 9016 9017 9018 9019 9020 9021 9022 9023 9024 9025 9026 9027 9028 9029 9030 9031 9032 9033 9034 9035 9036 9037 9038 9039 9040 9041 9042 9043 9044 9045 9046 9047 9048 9049 9050 9051 9052 9053 9054 9055 9056 9057 9058 9059 9060 9061 9062 9063 9064 9065 9066 9067 9068 9069 9070 9071 9072 9073 9074 9075 9076 9077 9078 9079 9080 9081 9082 9083 9084 9085 9086 9087 9088 9089 9090 9091 9092 9093 9094 9095 9096 9097 9098 9099 9100 9101 9102 9103 9104 9105 9106 9107 9108 9109 9110 9111 9112 9113 9114 9115 9116 9117 9118 9119 9120 9121 9122 9123 9124 9125 9126 9127 9128 9129 9130 9131 9132 9133 9134 9135 9136 9137 9138 9139 9140 9141 9142 9143 9144 9145 9146 9147 9148 9149 9150 9151 9152 9153 9154 9155 9156 9157 9158 9159 9160 9161 9162 9163 9164 9165 9166 9167 9168 9169 9170 9171 9172 9173 9174 9175 9176 9177 9178 9179 9180 9181 9182 9183 9184 9185 9186 9187 9188 9189 9190 9191 9192 9193 9194 9195 9196 9197 9198 9199 9200 9201 9202 9203 9204 9205 9206 9207 9208 9209 9210 9211 9212 9213 9214 9215 9216 9217 9218 9219 9220 9221 9222 9223 9224 9225 9226 9227 9228 9229 9230 9231 9232 9233 9234 9235 9236 9237 9238 9239 9240 9241 9242 9243 9244 9245 9246 9247 9248 9249 9250 9251 9252 9253 9254 9255 9256 9257 9258 9259 9260 9261 9262 9263 9264 9265 9266 9267 9268 9269 9270 9271 9272 9273 9274 9275 9276 9277 9278 9279 9280 9281 9282 9283 9284 9285 9286 9287 9288 9289 9290 9291 9292 9293 9294 9295 9296 9297 9298 9299 9300 9301 9302 9303 9304 9305 9306 9307 9308 9309 9310 9311 9312 9313 9314 9315 9316 9317 9318 9319 9320 9321 9322 9323 9324 9325 9326 9327 9328 9329 9330 9331 9332 9333 9334 9335 9336 9337 9338 9339 9340 9341 9342 9343 9344 9345 9346 9347 9348 9349 9350 9351 9352 9353 9354 9355 9356 9357 9358 9359 9360 9361 9362 9363 9364 9365 9366 9367 9368 9369 9370 9371 9372 9373 9374 9375 9376 9377 9378 9379 9380 9381 9382 9383 9384 9385 9386 9387 9388 9389 9390 9391 9392 9393 9394 9395 9396 9397 9398 9399 9400 9401 9402 9403 9404 9405 9406 9407 9408 9409 9410 9411 9412 9413 9414 9415 9416 9417 9418 9419 9420 9421 9422 9423 9424 9425 9426 9427 9428 9429 9430 9431 9432 9433 9434 9435 9436 9437 9438 9439 9440 9441 9442 9443 9444 9445 9446 9447 9448 9449 9450 9451 9452 9453 9454 9455 9456 9457 9458 9459 9460 9461 9462 9463 9464 9465 9466 9467 9468 9469 9470 9471 9472 9473 9474 9475 9476 9477 9478 9479 9480 9481 9482 9483 9484 9485 9486 9487 9488 9489 9490 9491 9492 9493 9494 9495 9496 9497 9498 9499 9500 9501 9502 9503 9504 9505 9506 9507 9508 9509 9510 9511 9512 9513 9514 9515 9516 9517 9518 9519 9520 9521 9522 9523 9524 9525 9526 9527 9528 9529 9530 9531 9532 9533 9534 9535 9536 9537 9538 9539 9540 9541 9542 9543 9544 9545 9546 9547 9548 9549 9550 9551 9552 9553 9554 9555 9556 9557 9558 9559 9560 9561 9562 9563 9564 9565 9566 9567 9568 9569 9570 9571 9572 9573 9574 9575 9576 9577 9578 9579 9580 9581 9582 9583 9584 9585 9586 9587 9588 9589 9590 9591 9592 9593 9594 9595 9596 9597 9598 9599 9600 9601 9602 9603 9604 9605 9606 9607 9608 9609 9610 9611 9612 9613 9614 9615 9616 9617 9618 9619 9620 9621 9622 9623 9624 9625 9626 9627 9628 9629 9630 9631 9632 9633 9634 9635 9636 9637 9638 9639 9640 9641 9642 9643 9644 9645 9646 9647 9648 9649 9650 9651 9652 9653 9654 9655 9656 9657 9658 9659 9660 9661 9662 9663 9664 9665 9666 9667 9668 9669 9670 9671 9672 9673 9674 9675 9676 9677 9678 9679 9680 9681 9682 9683 9684 9685 9686 9687 9688 9689 9690 9691 9692 9693 9694 9695 9696 9697 9698 9699 9700 9701 9702 9703 9704 9705 9706 9707 9708 9709 9710 9711 9712 9713 9714 9715 9716 9717 9718 9719 9720 9721 9722 9723 9724 9725 9726 9727 9728 9729 9730 9731 9732 9733 9734 9735 9736 9737 9738 9739 9740 9741 9742 9743 9744 9745 9746 9747 9748 9749 9750 9751 9752 9753 9754 9755 9756 9757 9758 9759 9760 9761 9762 9763 9764 9765 9766 9767 9768 9769 9770 9771 9772 9773 9774 9775 9776 9777 9778 9779 9780 9781 9782 9783 9784 9785 9786 9787 9788 9789 9790 9791 9792 9793 9794 9795 9796 9797 9798 9799 9800 9801 9802 9803 9804 9805 9806 9807 9808 9809 9810 9811 9812 9813 9814 9815 9816 9817 9818 9819 9820 9821 9822 9823 9824 9825 9826 9827 9828 9829 9830 9831 9832 9833 9834 9835 9836 9837 9838 9839 9840 9841 9842 9843 9844 9845 9846 9847 9848 9849 9850 9851 9852 9853 9854 9855 9856 9857 9858 9859 9860 9861 9862 9863 9864 9865 9866 9867 9868 9869 9870 9871 9872 9873 9874 9875 9876 9877 9878 9879 9880 9881 9882 9883 9884 9885 9886 9887 9888 9889 9890 9891 9892 9893 9894 9895 9896 9897 9898 9899 9900 9901 9902 9903 9904 9905 9906 9907 9908 9909 9910 9911 9912 9913 9914 9915 9916 9917 9918 9919 9920 9921 9922 9923 9924 9925 9926 9927 9928 9929 9930 9931 9932 9933 9934 9935 9936 9937 9938 9939 9940 9941 9942 9943 9944 9945 9946 9947 9948 9949 9950 9951 9952 9953 9954 9955 9956 9957 9958 9959 9960 9961 9962 9963 9964 9965 9966 9967 9968 9969 9970 9971 9972 9973 9974 9975 9976 9977 9978 9979 9980 9981 9982 9983 9984 9985 9986 9987 9988 9989 9990 9991 9992 9993 9994 9995 9996 9997 9998 9999 10000 10001 10002 10003 10004 10005 10006 10007 10008 10009 10010 10011 10012 10013 10014 10015 10016 10017 10018 10019 10020 10021 10022 10023 10024 10025 10026 10027 10028 10029 10030 10031 10032 10033 10034 10035 10036 10037 10038 10039 10040 10041 10042 10043 10044 10045 10046 10047 10048 10049 10050 10051 10052 10053 10054 10055 10056 10057 10058 10059 10060 10061 10062 10063 10064 10065 10066 10067 10068 10069 10070 10071 10072 10073 10074 10075 10076 10077 10078 10079 10080 10081 10082 10083 10084 10085 10086 10087 10088 10089 10090 10091 10092 10093 10094 10095 10096 10097 10098 10099 10100 10101 10102 10103 10104 10105 10106 10107 10108 10109 10110 10111 10112 10113 10114 10115 10116 10117 10118 10119 10120 10121 10122 10123 10124 10125 10126 10127 10128 10129 10130 10131 10132 10133 10134 10135 10136 10137 10138 10139 10140 10141 10142 10143 10144 10145 10146 10147 10148 10149 10150 10151 10152 10153 10154 10155 10156 10157 10158 10159 10160 10161 10162 10163 10164 10165 10166 10167 10168 10169 10170 10171 10172 10173 10174 10175 10176 10177 10178 10179 10180 10181 10182 10183 10184 10185 10186 10187 10188 10189 10190 10191 10192 10193 10194 10195 10196 10197 10198 10199 10200 10201 10202 10203 10204 10205 10206 10207 10208 10209 10210 10211 10212 10213 10214 10215 10216 10217 10218 10219 10220 10221 10222 10223 10224 10225 10226 10227 10228 10229 10230 10231 10232 10233 10234 10235 10236 10237 10238 10239 10240 10241 10242 10243 10244 10245 10246 10247 10248 10249 10250 10251 10252 10253 10254 10255 10256 10257 10258 10259 10260 10261 10262 10263 10264 10265 10266 10267 10268 10269 10270 10271 10272 10273 10274 10275 10276 10277 10278 10279 10280 10281 10282 10283 10284 10285 10286 10287 10288 10289 10290 10291 10292 10293 10294 10295 10296 10297 10298 10299 10300 10301 10302 10303 10304 10305 10306 10307 10308 10309 10310 10311 10312 10313 10314 10315 10316 10317 10318 10319 10320 10321 10322 10323 10324 10325 10326 10327 10328 10329 10330 10331 10332 10333 10334 10335 10336 10337 10338 10339 10340 10341 10342 10343 10344 10345 10346 10347 10348 10349 10350 10351 10352 10353 10354 10355 10356 10357 10358 10359 10360 10361 10362 10363 10364 10365 10366 10367 10368 10369 10370 10371 10372 10373 10374 10375 10376 10377 10378 10379 10380 10381 10382 10383 10384 10385 10386 10387 10388 10389 10390 10391 10392 10393 10394 10395 10396 10397 10398 10399 10400 10401 10402 10403 10404 10405 10406 10407 10408 10409 10410 10411 10412 10413 10414 10415 10416 10417 10418 10419 10420 10421 10422 10423 10424 10425 10426 10427 10428 10429 10430 10431 10432 10433 10434 10435 10436 10437 10438 10439 10440 10441 10442 10443 10444 10445 10446 10447 10448 10449 10450 10451 10452 10453 10454 10455 10456 10457 10458 10459 10460 10461 10462 10463 10464 10465 10466 10467 10468 10469 10470 10471 10472 10473 10474 10475 10476 10477 10478 10479 10480 10481 10482 10483 10484 10485 10486 10487 10488 10489 10490 10491 10492 10493 10494 10495 10496 10497 10498 10499 10500 10501 10502 10503 10504 10505 10506 10507 10508 10509 10510 10511 10512 10513 10514 10515 10516 10517 10518 10519 10520 10521 10522 10523 10524 10525 10526 10527 10528 10529 10530 10531 10532 10533 10534 10535 10536 10537 10538 10539 10540 10541 10542 10543 10544 10545 10546 10547 10548 10549 10550 10551 10552 10553 10554 10555 10556 10557 10558 10559 10560 10561 10562 10563 10564 10565 10566 10567 10568 10569 10570 10571 10572 10573 10574 10575 10576 10577 10578 10579 10580 10581 10582 10583 10584 10585 10586 10587 10588 10589 10590 10591 10592 10593 10594 10595 10596 10597 10598 10599 10600 10601 10602 10603 10604 10605 10606 10607 10608 10609 10610 10611 10612 10613 10614 10615 10616 10617 10618 10619 10620 10621 10622 10623 10624 10625 10626 10627 10628 10629 10630 10631 10632 10633 10634 10635 10636 10637 10638 10639 10640 10641 10642 10643 10644 10645 10646 10647 10648 10649 10650 10651 10652 10653 10654 10655 10656 10657 10658 10659 10660 10661 10662 10663 10664 10665 10666 10667 10668 10669 10670 10671 10672 10673 10674 10675 10676 10677 10678 10679 10680 10681 10682 10683 10684 10685 10686 10687 10688 10689 10690 10691 10692 10693 10694 10695 10696 10697 10698 10699 10700 10701 10702 10703 10704 10705 10706 10707 10708 10709 10710 10711 10712 10713 10714 10715 10716 10717 10718 10719 10720 10721 10722 10723 10724 10725 10726 10727 10728 10729 10730 10731 10732 10733 10734 10735 10736 10737 10738 10739 10740 10741 10742 10743 10744 10745 10746 10747 10748 10749 10750 10751 10752 10753 10754 10755 10756 10757 10758 10759 10760 10761 10762 10763 10764 10765 10766 10767 10768 10769 10770 10771 10772 10773 10774 10775 10776 10777 10778 10779 10780 10781 10782 10783 10784 10785 10786 10787 10788 10789 10790 10791 10792 10793 10794 10795 10796 10797 10798 10799 10800 10801 10802 10803 10804 10805 10806 10807 10808 10809 10810 10811 10812 10813 10814 10815 10816 10817 10818 10819 10820 10821 10822 10823 10824 10825 10826 10827 10828 10829 10830 10831 10832 10833 10834 10835 10836 10837 10838 10839 10840 10841 10842 10843 10844 10845 10846 10847 10848 10849 10850 10851 10852 10853 10854 10855 10856 10857 10858 10859 10860 10861 10862 10863 10864 10865 10866 10867 10868 10869 10870 10871 10872 10873 10874 10875 10876 10877 10878 10879 10880 10881 10882 10883 10884 10885 10886 10887 10888 10889 10890 10891 10892 10893 10894 10895 10896 10897 10898 10899 10900 10901 10902 10903 10904 10905 10906 10907 10908 10909 10910 10911 10912 10913 10914 10915 10916 10917 10918 10919 10920 10921 10922 10923 10924 10925 10926 10927 10928 10929 10930 10931 10932 10933 10934 10935 10936 10937 10938 10939 10940 10941 10942 10943 10944 10945 10946 10947 10948 10949 10950 10951 10952 10953 10954 10955 10956 10957 10958 10959 10960 10961 10962 10963 10964 10965 10966 10967 10968 10969 10970 10971 10972 10973 10974 10975 10976 10977 10978 10979 10980 10981 10982 10983 10984 10985 10986 10987 10988 10989 10990 10991 10992 10993 10994 10995 10996 10997 10998 10999 11000 11001 11002 11003 11004 11005 11006 11007 11008 11009 11010 11011 11012 11013 11014 11015 11016 11017 11018 11019 11020 11021 11022 11023 11024 11025 11026 11027 11028 11029 11030 11031 11032 11033 11034 11035 11036 11037 11038 11039 11040 11041 11042 11043 11044 11045 11046 11047 11048 11049 11050 11051 11052 11053 11054 11055 11056 11057 11058 11059 11060 11061 11062 11063 11064 11065 11066 11067 11068 11069 11070 11071 11072 11073 11074 11075 11076 11077 11078 11079 11080 11081 11082 11083 11084 11085 11086 11087 11088 11089 11090 11091 11092 11093 11094 11095 11096 11097 11098 11099 11100 11101 11102 11103 11104 11105 11106 11107 11108 11109 11110 11111 11112 11113 11114 11115 11116 11117 11118 11119 11120 11121 11122 11123 11124 11125 11126 11127 11128 11129 11130 11131 11132 11133 11134 11135 11136 11137 11138 11139 11140 11141 11142 11143 11144 11145 11146 11147 11148 11149 11150 11151 11152 11153 11154 11155 11156 11157 11158 11159 11160 11161 11162 11163 11164 11165 11166 11167 11168 11169 11170 11171 11172 11173 11174 11175 11176 11177 11178 11179 11180 11181 11182 11183 11184 11185 11186 11187 11188 11189 11190 11191 11192 11193 11194 11195 11196 11197 11198 11199 11200 11201 11202 11203 11204 11205 11206 11207 11208 11209 11210 11211 11212 11213 11214 11215 11216 11217 11218 11219 11220 11221 11222 11223 11224 11225 11226 11227 11228 11229 11230 11231 11232 11233 11234 11235 11236 11237 11238 11239 11240 11241 11242 11243 11244 11245 11246 11247 11248 11249 11250 11251 11252 11253 11254 11255 11256 11257 11258 11259 11260 11261 11262 11263 11264 11265 11266 11267 11268 11269 11270 11271 11272 11273 11274 11275 11276 11277 11278 11279 11280 11281 11282 11283 11284 11285 11286 11287 11288 11289 11290 11291 11292 11293 11294 11295 11296 11297 11298 11299 11300 11301 11302 11303 11304 11305 11306 11307 11308 11309 11310 11311 11312 11313 11314 11315 11316 11317 11318 11319 11320 11321 11322 11323 11324 11325 11326 11327 11328 11329 11330 11331 11332 11333 11334 11335 11336 11337 11338 11339 11340 11341 11342 11343 11344 11345 11346 11347 11348 11349 11350 11351 11352 11353 11354 11355 11356 11357 11358 11359 11360 11361 11362 11363 11364 11365 11366 11367 11368 11369 11370 11371 11372 11373 11374 11375 11376 11377 11378 11379 11380 11381 11382 11383 11384 11385 11386 11387 11388 11389 11390 11391 11392 11393 11394 11395 11396 11397 11398 11399 11400 11401 11402 11403 11404 11405 11406 11407 11408 11409 11410 11411 11412 11413 11414 11415 11416 11417 11418 11419 11420 11421 11422 11423 11424 11425 11426 11427 11428 11429 11430 11431 11432 11433 11434 11435 11436 11437 11438 11439 11440 11441 11442 11443 11444 11445 11446 11447 11448 11449 11450 11451 11452 11453 11454 11455 11456 11457 11458 11459 11460 11461 11462 11463 11464 11465 11466 11467 11468 11469 11470 11471 11472 11473 11474 11475 11476 11477 11478 11479 11480 11481 11482 11483 11484 11485 11486 11487 11488 11489 11490 11491 11492 11493 11494 11495 11496 11497 11498 11499 11500 11501 11502 11503 11504 11505 11506 11507 11508 11509 11510 11511 11512 11513 11514 11515 11516 11517 11518 11519 11520 11521 11522 11523 11524 11525 11526 11527 11528 11529 11530 11531 11532 11533 11534 11535 11536 11537 11538 11539 11540 11541 11542 11543 11544 11545 11546 11547 11548 11549 11550 11551 11552 11553 11554 11555 11556 11557 11558 11559 11560 11561 11562 11563 11564 11565 11566 11567 11568 11569 11570 11571 11572 11573 11574 11575 11576 11577 11578 11579 11580 11581 11582 11583 11584 11585 11586 11587 11588 11589 11590 11591 11592 11593 11594 11595 11596 11597 11598 11599 11600 11601 11602 11603 11604 11605 11606 11607 11608 11609 11610 11611 11612 11613 11614 11615 11616 11617 11618 11619 11620 11621 11622 11623 11624 11625 11626 11627 11628 11629 11630 11631 11632 11633 11634 11635 11636 11637 11638 11639 11640 11641 11642 11643 11644 11645 11646 11647 11648 11649 11650 11651 11652 11653 11654 11655 11656 11657 11658 11659 11660 11661 11662 11663 11664 11665 11666 11667 11668 11669 11670 11671 11672 11673 11674 11675 11676 11677 11678 11679 11680 11681 11682 11683 11684 11685 11686 11687 11688 11689 11690 11691 11692 11693 11694 11695 11696 11697 11698 11699 11700 11701 11702 11703 11704 11705 11706 11707 11708 11709 11710 11711 11712 11713 11714 11715 11716 11717 11718 11719 11720 11721 11722 11723 11724 11725 11726 11727 11728 11729 11730 11731 11732 11733 11734 11735 11736 11737 11738 11739 11740 11741 11742 11743 11744 11745 11746 11747 11748 11749 11750 11751 11752 11753 11754 11755 11756 11757 11758 11759 11760 11761 11762 11763 11764 11765 11766 11767 11768 11769 11770 11771 11772 11773 11774 11775 11776 11777 11778 11779 11780 11781 11782 11783 11784 11785 11786 11787 11788 11789 11790 11791 11792 11793 11794 11795 11796 11797 11798 11799 11800 11801 11802 11803 11804 11805 11806 11807 11808 11809 11810 11811 11812 11813 11814 11815 11816 11817 11818 11819 11820 11821 11822 11823 11824 11825 11826 11827 11828 11829 11830 11831 11832 11833 11834 11835 11836 11837 11838 11839 11840 11841 11842 11843 11844 11845 11846 11847 11848 11849 11850 11851 11852 11853 11854 11855 11856 11857 11858 11859 11860 11861 11862 11863 11864 11865 11866 11867 11868 11869 11870 11871 11872 11873 11874 11875 11876 11877 11878 11879 11880 11881 11882 11883 11884 11885 11886 11887 11888 11889 11890 11891 11892 11893 11894 11895 11896 11897 11898 11899 11900 11901 11902 11903 11904 11905 11906 11907 11908 11909 11910 11911 11912 11913 11914 11915 11916 11917 11918 11919 11920 11921 11922 11923 11924 11925 11926 11927 11928 11929 11930 11931 11932 11933 11934 11935 11936 11937 11938 11939 11940 11941 11942 11943 11944 11945 11946 11947 11948 11949 11950 11951 11952 11953 11954 11955 11956 11957 11958 11959 11960 11961 11962 11963 11964 11965 11966 11967 11968 11969 11970 11971 11972 11973 11974 11975 11976 11977 11978 11979 11980 11981 11982 11983 11984 11985 11986 11987 11988 11989 11990 11991 11992 11993 11994 11995 11996 11997 11998 11999 12000 12001 12002 12003 12004 12005 12006 12007 12008 12009 12010 12011 12012 12013 12014 12015 12016 12017 12018 12019 12020 12021 12022 12023 12024 12025 12026 12027 12028 12029 12030 12031 12032 12033 12034 12035 12036 12037 12038 12039 12040 12041 12042 12043 12044 12045 12046 12047 12048 12049 12050 12051 12052 12053 12054 12055 12056 12057 12058 12059 12060 12061 12062 12063 12064 12065 12066 12067 12068 12069 12070 12071 12072 12073 12074 12075 12076 12077 12078 12079 12080 12081 12082 12083 12084 12085 12086 12087 12088 12089 12090 12091 12092 12093 12094 12095 12096 12097 12098 12099 12100 12101 12102 12103 12104 12105 12106 12107 12108 12109 12110 12111 12112 12113 12114 12115 12116 12117 12118 12119 12120 12121 12122 12123 12124 12125 12126 12127 12128 12129 12130 12131 12132 12133 12134 12135 12136 12137 12138 12139 12140 12141 12142 12143 12144 12145 12146 12147 12148 12149 12150 12151 12152 12153 12154 12155 12156 12157 12158 12159 12160 12161 12162 12163 12164 12165 12166 12167 12168 12169 12170 12171 12172 12173 12174 12175 12176 12177 12178 12179 12180 12181 12182 12183 12184 12185 12186 12187 12188 12189 12190 12191 12192 12193 12194 12195 12196 12197 12198 12199 12200 12201 12202 12203 12204 12205 12206 12207 12208 12209 12210 12211 12212 12213 12214 12215 12216 12217 12218 12219 12220 12221 12222 12223 12224 12225 12226 12227 12228 12229 12230 12231 12232 12233 12234 12235 12236 12237 12238 12239 12240 12241 12242 12243 12244 12245 12246 12247 12248 12249 12250 12251 12252 12253 12254 12255 12256 12257 12258 12259 12260 12261 12262 12263 12264 12265 12266 12267 12268 12269 12270 12271 12272 12273 12274 12275 12276 12277 12278 12279 12280 12281 12282 12283 12284 12285 12286 12287 12288 12289 12290 12291 12292 12293 12294 12295 12296 12297 12298 12299 12300 12301 12302 12303 12304 12305 12306 12307 12308 12309 12310 12311 12312 12313 12314 12315 12316 12317 12318 12319 12320 12321 12322 12323 12324 12325 12326 12327 12328 12329 12330 12331 12332 12333 12334 12335 12336 12337 12338 12339 12340 12341 12342 12343 12344 12345 12346 12347 12348 12349 12350 12351 12352 12353 12354 12355 12356 12357 12358 12359 12360 12361 12362 12363 12364 12365 12366 12367 12368 12369 12370 12371 12372 12373 12374 12375 12376 12377 12378 12379 12380 12381 12382 12383 12384 12385 12386 12387 12388 12389 12390 12391 12392 12393 12394 12395 12396 12397 12398 12399 12400 12401 12402 12403 12404 12405 12406 12407 12408 12409 12410 12411 12412 12413 12414 12415 12416 12417 12418 12419 12420 12421 12422 12423 12424 12425 12426 12427 12428 12429 12430 12431 12432 12433 12434 12435 12436 12437 12438 12439 12440 12441 12442 12443 12444 12445 12446 12447 12448 12449 12450 12451 12452 12453 12454 12455 12456 12457 12458 12459 12460 12461 12462 12463 12464 12465 12466 12467 12468 12469 12470 12471 12472 12473 12474 12475 12476 12477 12478 12479 12480 12481 12482 12483 12484 12485 12486 12487 12488 12489 12490 12491 12492 12493 12494 12495 12496 12497 12498 12499 12500 12501 12502 12503 12504 12505 12506 12507 12508 12509 12510 12511 12512 12513 12514 12515 12516 12517 12518 12519 12520 12521 12522 12523 12524 12525 12526 12527 12528 12529 12530 12531 12532 12533 12534 12535 12536 12537 12538 12539 12540 12541 12542 12543 12544 12545 12546 12547 12548 12549 12550 12551 12552 12553 12554 12555 12556 12557 12558 12559 12560 12561 12562 12563 12564 12565 12566 12567 12568 12569 12570 12571 12572 12573 12574 12575 12576 12577 12578 12579 12580 12581 12582 12583 12584 12585 12586 12587 12588 12589 12590 12591 12592 12593 12594 12595 12596 12597 12598 12599 12600 12601 12602 12603 12604 12605 12606 12607 12608 12609 12610 12611 12612 12613 12614 12615 12616 12617 12618 12619 12620 12621 12622 12623 12624 12625 12626 12627 12628 12629 12630 12631 12632 12633 12634 12635 12636 12637 12638 12639 12640 12641 12642 12643 12644 12645 12646 12647 12648 12649 12650 12651 12652 12653 12654 12655 12656 12657 12658 12659 12660 12661 12662 12663 12664 12665 12666 12667 12668 12669 12670 12671 12672 12673 12674 12675 12676 12677 12678 12679 12680 12681 12682 12683 12684 12685 12686 12687 12688 12689 12690 12691 12692 12693 12694 12695 12696 12697 12698 12699 12700 12701 12702 12703 12704 12705 12706 12707 12708 12709 12710 12711 12712 12713 12714 12715 12716 12717 12718 12719 12720 12721 12722 12723 12724 12725 12726 12727 12728 12729 12730 12731 12732 12733 12734 12735 12736 12737 12738 12739 12740 12741 12742 12743 12744 12745 12746 12747 12748 12749 12750 12751 12752 12753 12754 12755 12756 12757 12758 12759 12760 12761 12762 12763 12764 12765 12766 12767 12768 12769 12770 12771 12772 12773 12774 12775 12776 12777 12778 12779 12780 12781 12782 12783 12784 12785 12786 12787 12788 12789 12790 12791 12792 12793 12794 12795 12796 12797 12798 12799 12800 12801 12802 12803 12804 12805 12806 12807 12808 12809 12810 12811 12812 12813 12814 12815 12816 12817 12818 12819 12820 12821 12822 12823 12824 12825 12826 12827 12828 12829 12830 12831 12832 12833 12834 12835 12836 12837 12838 12839 12840 12841 12842 12843 12844 12845 12846 12847 12848 12849 12850 12851 12852 12853 12854 12855 12856 12857 12858 12859 12860 12861 12862 12863 12864 12865 12866 12867 12868 12869 12870 12871 12872 12873 12874 12875 12876 12877 12878 12879 12880 12881 12882 12883 12884 12885 12886 12887 12888 12889 12890 12891 12892 12893 12894 12895 12896 12897 12898 12899 12900 12901 12902 12903 12904 12905 12906 12907 12908 12909 12910 12911 12912 12913 12914 12915 12916 12917 12918 12919 12920 12921 12922 12923 12924 12925 12926 12927 12928 12929 12930 12931 12932 12933 12934 12935 12936 12937 12938 12939 12940 12941 12942 12943 12944 12945 12946 12947 12948 12949 12950 12951 12952 12953 12954 12955 12956 12957 12958 12959 12960 12961 12962 12963 12964 12965 12966 12967 12968 12969 12970 12971 12972 12973 12974 12975 12976 12977 12978 12979 12980 12981 12982 12983 12984 12985 12986 12987 12988 12989 12990 12991 12992 12993 12994 12995 12996 12997 12998 12999 13000 13001 13002 13003 13004 13005 13006 13007 13008 13009 13010 13011 13012 13013 13014 13015 13016 13017 13018 13019 13020 13021 13022 13023 13024 13025 13026 13027 13028 13029 13030 13031 13032 13033 13034 13035 13036 13037 13038 13039 13040 13041 13042 13043 13044 13045 13046 13047 13048 13049 13050 13051 13052 13053 13054 13055 13056 13057 13058 13059 13060 13061 13062 13063 13064 13065 13066 13067 13068 13069 13070 13071 13072 13073 13074 13075 13076 13077 13078 13079 13080 13081 13082 13083 13084 13085 13086 13087 13088 13089 13090 13091 13092 13093 13094 13095 13096 13097 13098 13099 13100 13101 13102 13103 13104 13105 13106 13107 13108 13109 13110 13111 13112 13113 13114 13115 13116 13117 13118 13119 13120 13121 13122 13123 13124 13125 13126 13127 13128 13129 13130 13131 13132 13133 13134 13135 13136 13137 13138 13139 13140 13141 13142 13143 13144 13145 13146 13147 13148 13149 13150 13151 13152 13153 13154 13155 13156 13157 13158 13159 13160 13161 13162 13163 13164 13165 13166 13167 13168 13169 13170 13171 13172 13173 13174 13175 13176 13177 13178 13179 13180 13181 13182 13183 13184 13185 13186 13187 13188 13189 13190 13191 13192 13193 13194 13195 13196 13197 13198 13199 13200 13201 13202 13203 13204 13205 13206 13207 13208 13209 13210 13211 13212 13213 13214 13215 13216 13217 13218 13219 13220 13221 13222 13223 13224 13225 13226 13227 13228 13229 13230 13231 13232 13233 13234 13235 13236 13237 13238 13239 13240 13241 13242 13243 13244 13245 13246 13247 13248 13249 13250 13251 13252 13253 13254 13255 13256 13257 13258 13259 13260 13261 13262 13263 13264 13265 13266 13267 13268 13269 13270 13271 13272 13273 13274 13275 13276 13277 13278 13279 13280 13281 13282 13283 13284 13285 13286 13287 13288 13289 13290 13291 13292 13293 13294 13295 13296 13297 13298 13299 13300 13301 13302 13303 13304 13305 13306 13307 13308 13309 13310 13311 13312 13313 13314 13315 13316 13317 13318 13319 13320 13321 13322 13323 13324 13325 13326 13327 13328 13329 13330 13331 13332 13333 13334 13335 13336 13337 13338 13339 13340 13341 13342 13343 13344 13345 13346 13347 13348 13349 13350 13351 13352 13353 13354 13355 13356 13357 13358 13359 13360 13361 13362 13363 13364 13365 13366 13367 13368 13369 13370 13371 13372 13373 13374 13375 13376 13377 13378 13379 13380 13381 13382 13383 13384 13385 13386 13387 13388 13389 13390 13391 13392 13393 13394 13395 13396 13397 13398 13399 13400 13401 13402 13403 13404 13405 13406 13407 13408 13409 13410 13411 13412 13413 13414 13415 13416 13417 13418 13419 13420 13421 13422 13423 13424 13425 13426 13427 13428 13429 13430 13431 13432 13433 13434 13435 13436 13437 13438 13439 13440 13441 13442 13443 13444 13445 13446 13447 13448 13449 13450 13451 13452 13453 13454 13455 13456 13457 13458 13459 13460 13461 13462 13463 13464 13465 13466 13467 13468 13469 13470 13471 13472 13473 13474 13475 13476 13477 13478 13479 13480 13481 13482 13483 13484 13485 13486 13487 13488 13489 13490 13491 13492 13493 13494 13495 13496 13497 13498 13499 13500 13501 13502 13503 13504 13505 13506 13507 13508 13509 13510 13511 13512 13513 13514 13515 13516 13517 13518 13519 13520 13521 13522 13523 13524 13525 13526 13527 13528 13529 13530 13531 13532 13533 13534 13535 13536 13537 13538 13539 13540 13541 13542 13543 13544 13545 13546 13547 13548 13549 13550 13551 13552 13553 13554 13555 13556 13557 13558 13559 13560 13561 13562 13563 13564 13565 13566 13567 13568 13569 13570 13571 13572 13573 13574 13575 13576 13577 13578 13579 13580 13581 13582 13583 13584 13585 13586 13587 13588 13589 13590 13591 13592 13593 13594 13595 13596 13597 13598 13599 13600 13601 13602 13603 13604 13605 13606 13607 13608 13609 13610 13611 13612 13613 13614 13615 13616 13617 13618 13619 13620 13621 13622 13623 13624 13625 13626 13627 13628 13629 13630 13631 13632 13633 13634 13635 13636 13637 13638 13639 13640 13641 13642 13643 13644 13645 13646 13647 13648 13649 13650 13651 13652 13653 13654 13655 13656 13657 13658 13659 13660 13661 13662 13663 13664 13665 13666 13667 13668 13669 13670 13671 13672 13673 13674 13675 13676 13677 13678 13679 13680 13681 13682 13683 13684 13685 13686 13687 13688 13689 13690 13691 13692 13693 13694 13695 13696 13697 13698 13699 13700 13701 13702 13703 13704 13705 13706 13707 13708 13709 13710 13711 13712 13713 13714 13715 13716 13717 13718 13719 13720 13721 13722 13723 13724 13725 13726 13727 13728 13729 13730 13731 13732 13733 13734 13735 13736 13737 13738 13739 13740 13741 13742 13743 13744 13745 13746 13747 13748 13749 13750 13751 13752 13753 13754 13755 13756 13757 13758 13759 13760 13761 13762 13763 13764 13765 13766 13767 13768 13769 13770 13771 13772 13773 13774 13775 13776 13777 13778 13779 13780 13781 13782 13783 13784 13785 13786 13787 13788 13789 13790 13791 13792 13793 13794 13795 13796 13797 13798 13799 13800 13801 13802 13803 13804 13805 13806 13807 13808 13809 13810 13811 13812 13813 13814 13815 13816 13817 13818 13819 13820 13821 13822 13823 13824 13825 13826 13827 13828 13829 13830 13831 13832 13833 13834 13835 13836 13837 13838 13839 13840 13841 13842 13843 13844 13845 13846 13847 13848 13849 13850 13851 13852 13853 13854 13855 13856 13857 13858 13859 13860 13861 13862 13863 13864 13865 13866 13867 13868 13869 13870 13871 13872 13873 13874 13875 13876 13877 13878 13879 13880 13881 13882 13883 13884 13885 13886 13887 13888 13889 13890 13891 13892 13893 13894 13895 13896 13897 13898 13899 13900 13901 13902 13903 13904 13905 13906 13907 13908 13909 13910 13911 13912 13913 13914 13915 13916 13917 13918 13919 13920 13921 13922 13923 13924 13925 13926 13927 13928 13929 13930 13931 13932 13933 13934 13935 13936 13937 13938 13939 13940 13941 13942 13943 13944 13945 13946 13947 13948 13949 13950 13951 13952 13953 13954 13955 13956 13957 13958 13959 13960 13961 13962 13963 13964 13965 13966 13967 13968 13969 13970 13971 13972 13973 13974 13975 13976 13977 13978 13979 13980 13981 13982 13983 13984 13985 13986 13987 13988 13989 13990 13991 13992 13993 13994 13995 13996 13997 13998 13999 14000 14001 14002 14003 14004 14005 14006 14007 14008 14009 14010 14011 14012 14013 14014 14015 14016 14017 14018 14019 14020 14021 14022 14023 14024 14025 14026 14027 14028 14029 14030 14031 14032 14033 14034 14035 14036 14037 14038 14039 14040 14041 14042 14043 14044 14045 14046 14047 14048 14049 14050 14051 14052 14053 14054 14055 14056 14057 14058 14059 14060 14061 14062 14063 14064 14065 14066 14067 14068 14069 14070 14071 14072 14073 14074 14075 14076 14077 14078 14079 14080 14081 14082 14083 14084 14085 14086 14087 14088 14089 14090 14091 14092 14093 14094 14095 14096 14097 14098 14099 14100 14101 14102 14103 14104 14105 14106 14107 14108 14109 14110 14111 14112 14113 14114 14115 14116 14117 14118 14119 14120 14121 14122 14123 14124 14125 14126 14127 14128 14129 14130 14131 14132 14133 14134 14135 14136 14137 14138 14139 14140 14141 14142 14143 14144 14145 14146 14147 14148 14149 14150 14151 14152 14153 14154 14155 14156 14157 14158 14159 14160 14161 14162 14163 14164 14165 14166 14167 14168 14169 14170 14171 14172 14173 14174 14175 14176 14177 14178 14179 14180 14181 14182 14183 14184 14185 14186 14187 14188 14189 14190 14191 14192 14193 14194 14195 14196 14197 14198 14199 14200 14201 14202 14203 14204 14205 14206 14207 14208 14209 14210 14211 14212 14213 14214 14215 14216 14217 14218 14219 14220 14221 14222 14223 14224 14225 14226 14227 14228 14229 14230 14231 14232 14233 14234 14235 14236 14237 14238 14239 14240 14241 14242 14243 14244 14245 14246 14247 14248 14249 14250 14251 14252 14253 14254 14255 14256 14257 14258 14259 14260 14261 14262 14263 14264 14265 14266 14267 14268 14269 14270 14271 14272 14273 14274 14275 14276 14277 14278 14279 14280 14281 14282 14283 14284 14285 14286 14287 14288 14289 14290 14291 14292 14293 14294 14295 14296 14297 14298 14299 14300 14301 14302 14303 14304 14305 14306 14307 14308 14309 14310 14311 14312 14313 14314 14315 14316 14317 14318 14319 14320 14321 14322 14323 14324 14325 14326 14327 14328 14329 14330 14331 14332 14333 14334 14335 14336 14337 14338 14339 14340 14341 14342 14343 14344 14345 14346 14347 14348 14349 14350 14351 14352 14353 14354 14355 14356 14357 14358 14359 14360 14361 14362 14363 14364 14365 14366 14367 14368 14369 14370 14371 14372 14373 14374 14375 14376 14377 14378 14379 14380 14381 14382 14383 14384 14385 14386 14387 14388 14389 14390 14391 14392 14393 14394 14395 14396 14397 14398 14399 14400 14401 14402 14403 14404 14405 14406 14407 14408 14409 14410 14411 14412 14413 14414 14415 14416 14417 14418 14419 14420 14421 14422 14423 14424 14425 14426 14427 14428 14429 14430 14431 14432 14433 14434 14435 14436 14437 14438 14439 14440 14441 14442 14443 14444 14445 14446 14447 14448 14449 14450 14451 14452 14453 14454 14455 14456 14457 14458 14459 14460 14461 14462 14463 14464 14465 14466 14467 14468 14469 14470 14471 14472 14473 14474 14475 14476 14477 14478 14479 14480 14481 14482 14483 14484 14485 14486 14487 14488 14489 14490 14491 14492 14493 14494 14495 14496 14497 14498 14499 14500 14501 14502 14503 14504 14505 14506 14507 14508 14509 14510 14511 14512 14513 14514 14515 14516 14517 14518 14519 14520 14521 14522 14523 14524 14525 14526 14527 14528 14529 14530 14531 14532 14533 14534 14535 14536 14537 14538 14539 14540 14541 14542 14543 14544 14545 14546 14547 14548 14549 14550 14551 14552 14553 14554 14555 14556 14557 14558 14559 14560 14561 14562 14563 14564 14565 14566 14567 14568 14569 14570 14571 14572 14573 14574 14575 14576 14577 14578 14579 14580 14581 14582 14583 14584 14585 14586 14587 14588 14589 14590 14591 14592 14593 14594 14595 14596 14597 14598 14599 14600 14601 14602 14603 14604 14605 14606 14607 14608 14609 14610 14611 14612 14613 14614 14615 14616 14617 14618 14619 14620 14621 14622 14623 14624 14625 14626 14627 14628 14629 14630 14631 14632 14633 14634 14635 14636 14637 14638 14639 14640 14641 14642 14643 14644 14645 14646 14647 14648 14649 14650 14651 14652 14653 14654 14655 14656 14657 14658 14659 14660 14661 14662 14663 14664 14665 14666 14667 14668 14669 14670 14671 14672 14673 14674 14675 14676 14677 14678 14679 14680 14681 14682 14683 14684 14685 14686 14687 14688 14689 14690 14691 14692 14693 14694 14695 14696 14697 14698 14699 14700 14701 14702 14703 14704 14705 14706 14707 14708 14709 14710 14711 14712 14713 14714 14715 14716 14717 14718 14719 14720 14721 14722 14723 14724 14725 14726 14727 14728 14729 14730 14731 14732 14733 14734 14735 14736 14737 14738 14739 14740 14741 14742 14743 14744 14745 14746 14747 14748 14749 14750 14751 14752 14753 14754 14755 14756 14757 14758 14759 14760 14761 14762 14763 14764 14765 14766 14767 14768 14769 14770 14771 14772 14773 14774 14775 14776 14777 14778 14779 14780 14781 14782 14783 14784 14785 14786 14787 14788 14789 14790 14791 14792 14793 14794 14795 14796 14797 14798 14799 14800 14801 14802 14803 14804 14805 14806 14807 14808 14809 14810 14811 14812 14813 14814 14815 14816 14817 14818 14819 14820 14821 14822 14823 14824 14825 14826 14827 14828 14829 14830 14831 14832 14833 14834 14835 14836 14837 14838 14839 14840 14841 14842 14843 14844 14845 14846 14847 14848 14849 14850 14851 14852 14853 14854 14855 14856 14857 14858 14859 14860 14861 14862 14863 14864 14865 14866 14867 14868 14869 14870 14871 14872 14873 14874 14875 14876 14877 14878 14879 14880 14881 14882 14883 14884 14885 14886 14887 14888 14889 14890 14891 14892 14893 14894 14895 14896 14897 14898 14899 14900 14901 14902 14903 14904 14905 14906 14907 14908 14909 14910 14911 14912 14913 14914 14915 14916 14917 14918 14919 14920 14921 14922 14923 14924 14925 14926 14927 14928 14929 14930 14931 14932 14933 14934 14935 14936 14937 14938 14939 14940 14941 14942 14943 14944 14945 14946 14947 14948 14949 14950 14951 14952 14953 14954 14955 14956 14957 14958 14959 14960 14961 14962 14963 14964 14965 14966 14967 14968 14969 14970 14971 14972 14973 14974 14975 14976 14977 14978 14979 14980 14981 14982 14983 14984 14985 14986 14987 14988 14989 14990 14991 14992 14993 14994 14995 14996 14997 14998 14999 15000 15001 15002 15003 15004 15005 15006 15007 15008 15009 15010 15011 15012 15013 15014 15015 15016 15017 15018 15019 15020 15021 15022 15023 15024 15025 15026 15027 15028 15029 15030 15031 15032 15033 15034 15035 15036 15037 15038 15039 15040 15041 15042 15043 15044 15045 15046 15047 15048 15049 15050 15051 15052 15053 15054 15055 15056 15057 15058 15059 15060 15061 15062 15063 15064 15065 15066 15067 15068 15069 15070 15071 15072 15073 15074 15075 15076 15077 15078 15079 15080 15081 15082 15083 15084 15085 15086 15087 15088 15089 15090 15091 15092 15093 15094 15095 15096 15097 15098 15099 15100 15101 15102 15103 15104 15105 15106 15107 15108 15109 15110 15111 15112 15113 15114 15115 15116 15117 15118 15119 15120 15121 15122 15123 15124 15125 15126 15127 15128 15129 15130 15131 15132 15133 15134 15135 15136 15137 15138 15139 15140 15141 15142 15143 15144 15145 15146 15147 15148 15149 15150 15151 15152 15153 15154 15155 15156 15157 15158 15159 15160 15161 15162 15163 15164 15165 15166 15167 15168 15169 15170 15171 15172 15173 15174 15175 15176 15177 15178 15179 15180 15181 15182 15183 15184 15185 15186 15187 15188 15189 15190 15191 15192 15193 15194 15195 15196 15197 15198 15199 15200 15201 15202 15203 15204 15205 15206 15207 15208 15209 15210 15211 15212 15213 15214 15215 15216 15217 15218 15219 15220 15221 15222 15223 15224 15225 15226 15227 15228 15229 15230 15231 15232 15233 15234 15235 15236 15237 15238 15239 15240 15241 15242 15243 15244 15245 15246 15247 15248 15249 15250 15251 15252 15253 15254 15255 15256 15257 15258 15259 15260 15261 15262 15263 15264 15265 15266 15267 15268 15269 15270 15271 15272 15273 15274 15275 15276 15277 15278 15279 15280 15281 15282 15283 15284 15285 15286 15287 15288 15289 15290 15291 15292 15293 15294 15295 15296 15297 15298 15299 15300 15301 15302 15303 15304 15305 15306 15307 15308 15309 15310 15311 15312 15313 15314 15315 15316 15317 15318 15319 15320 15321 15322 15323 15324 15325 15326 15327 15328 15329 15330 15331 15332 15333 15334 15335 15336 15337 15338 15339 15340 15341 15342 15343 15344 15345 15346 15347 15348 15349 15350 15351 15352 15353 15354 15355 15356 15357 15358 15359 15360 15361 15362 15363 15364 15365 15366 15367 15368 15369 15370 15371 15372 15373 15374 15375 15376 15377 15378 15379 15380 15381 15382 15383 15384 15385 15386 15387 15388 15389 15390 15391 15392 15393 15394 15395 15396 15397 15398 15399 15400 15401 15402 15403 15404 15405 15406 15407 15408 15409 15410 15411 15412 15413 15414 15415 15416 15417 15418 15419 15420 15421 15422 15423 15424 15425 15426 15427 15428 15429 15430 15431 15432 15433 15434 15435 15436 15437 15438 15439 15440 15441 15442 15443 15444 15445 15446 15447 15448 15449 15450 15451 15452 15453 15454 15455 15456 15457 15458 15459 15460 15461 15462 15463 15464 15465 15466 15467 15468 15469 15470 15471 15472 15473 15474 15475 15476 15477 15478 15479 15480 15481 15482 15483 15484 15485 15486 15487 15488 15489 15490 15491 15492 15493 15494 15495 15496 15497 15498 15499 15500 15501 15502 15503 15504 15505 15506 15507 15508 15509 15510 15511 15512 15513 15514 15515 15516 15517 15518 15519 15520 15521 15522 15523 15524 15525 15526 15527 15528 15529 15530 15531 15532 15533 15534 15535 15536 15537 15538 15539 15540 15541 15542 15543 15544 15545 15546 15547 15548 15549 15550 15551 15552 15553 15554 15555 15556 15557 15558 15559 15560 15561 15562 15563 15564 15565 15566 15567 15568 15569 15570 15571 15572 15573 15574 15575 15576 15577 15578 15579 15580 15581 15582 15583 15584 15585 15586 15587 15588 15589 15590 15591 15592 15593 15594 15595 15596 15597 15598 15599 15600 15601 15602 15603 15604 15605 15606 15607 15608 15609 15610 15611 15612 15613 15614 15615 15616 15617 15618 15619 15620 15621 15622 15623 15624 15625 15626 15627 15628 15629 15630 15631 15632 15633 15634 15635 15636 15637 15638 15639 15640 15641 15642 15643 15644 15645 15646 15647 15648 15649 15650 15651 15652 15653 15654 15655 15656 15657 15658 15659 15660 15661 15662 15663 15664 15665 15666 15667 15668 15669 15670 15671 15672 15673 15674 15675 15676 15677 15678 15679 15680 15681 15682 15683 15684 15685 15686 15687 15688 15689 15690 15691 15692 15693 15694 15695 15696 15697 15698 15699 15700 15701 15702 15703 15704 15705 15706 15707 15708 15709 15710 15711 15712 15713 15714 15715 15716 15717 15718 15719 15720 15721 15722 15723 15724 15725 15726 15727 15728 15729 15730 15731 15732 15733 15734 15735 15736 15737 15738 15739 15740 15741 15742 15743 15744 15745 15746 15747 15748 15749 15750 15751 15752 15753 15754 15755 15756 15757 15758 15759 15760 15761 15762 15763 15764 15765 15766 15767 15768 15769 15770 15771 15772 15773 15774 15775 15776 15777 15778 15779 15780 15781 15782 15783 15784 15785 15786 15787 15788 15789 15790 15791 15792 15793 15794 15795 15796 15797 15798 15799 15800 15801 15802 15803 15804 15805 15806 15807 15808 15809 15810 15811 15812 15813 15814 15815 15816 15817 15818 15819 15820 15821 15822 15823 15824 15825 15826 15827 15828 15829 15830 15831 15832 15833 15834 15835 15836 15837 15838 15839 15840 15841 15842 15843 15844 15845 15846 15847 15848 15849 15850 15851 15852 15853 15854 15855 15856 15857 15858 15859 15860 15861 15862 15863 15864 15865 15866 15867 15868 15869 15870 15871 15872 15873 15874 15875 15876 15877 15878 15879 15880 15881 15882 15883 15884 15885 15886 15887 15888 15889 15890 15891 15892 15893 15894 15895 15896 15897 15898 15899 15900 15901 15902 15903 15904 15905 15906 15907 15908 15909 15910 15911 15912 15913 15914 15915 15916 15917 15918 15919 15920 15921 15922 15923 15924 15925 15926 15927 15928 15929 15930 15931 15932 15933 15934 15935 15936 15937 15938 15939 15940 15941 15942 15943 15944 15945 15946 15947 15948 15949 15950 15951 15952 15953 15954 15955 15956 15957 15958 15959 15960 15961 15962 15963 15964 15965 15966 15967 15968 15969 15970 15971 15972 15973 15974 15975 15976 15977 15978 15979 15980 15981 15982 15983 15984 15985 15986 15987 15988 15989 15990 15991 15992 15993 15994 15995 15996 15997 15998 15999 16000 16001 16002 16003 16004 16005 16006 16007 16008 16009 16010 16011 16012 16013 16014 16015 16016 16017 16018 16019 16020 16021 16022 16023 16024 16025 16026 16027 16028 16029 16030 16031 16032 16033 16034 16035 16036 16037 16038 16039 16040 16041 16042 16043 16044 16045 16046 16047 16048 16049 16050 16051 16052 16053 16054 16055 16056 16057 16058 16059 16060 16061 16062 16063 16064 16065 16066 16067 16068 16069 16070 16071 16072 16073 16074 16075 16076 16077 16078 16079 16080 16081 16082 16083 16084 16085 16086 16087 16088 16089 16090 16091 16092 16093 16094 16095 16096 16097 16098 16099 16100 16101 16102 16103 16104 16105 16106 16107 16108 16109 16110 16111 16112 16113 16114 16115 16116 16117 16118 16119 16120 16121 16122 16123 16124 16125 16126 16127 16128 16129 16130 16131 16132 16133 16134 16135 16136 16137 16138 16139 16140 16141 16142 16143 16144 16145 16146 16147 16148 16149 16150 16151 16152 16153 16154 16155 16156 16157 16158 16159 16160 16161 16162 16163 16164 16165 16166 16167 16168 16169 16170 16171 16172 16173 16174 16175 16176 16177 16178 16179 16180 16181 16182 16183 16184 16185 16186 16187 16188 16189 16190 16191 16192 16193 16194 16195 16196 16197 16198 16199 16200 16201 16202 16203 16204 16205 16206 16207 16208 16209 16210 16211 16212 16213 16214 16215 16216 16217 16218 16219 16220 16221 16222 16223 16224 16225 16226 16227 16228 16229 16230 16231 16232 16233 16234 16235 16236 16237 16238 16239 16240 16241 16242 16243 16244 16245 16246 16247 16248 16249 16250 16251 16252 16253 16254 16255 16256 16257 16258 16259 16260 16261 16262 16263 16264 16265 16266 16267 16268 16269 16270 16271 16272 16273 16274 16275 16276 16277 16278 16279 16280 16281 16282 16283 16284 16285 16286 16287 16288 16289 16290 16291 16292 16293 16294 16295 16296 16297 16298 16299 16300 16301 16302 16303 16304 16305 16306 16307 16308 16309 16310 16311 16312 16313 16314 16315 16316 16317 16318 16319 16320 16321 16322 16323 16324 16325 16326 16327 16328 16329 16330 16331 16332 16333 16334 16335 16336 16337 16338 16339 16340 16341 16342 16343 16344 16345 16346 16347 16348 16349 16350 16351 16352 16353 16354 16355 16356 16357 16358 16359 16360 16361 16362 16363 16364 16365 16366 16367 16368 16369 16370 16371 16372 16373 16374 16375 16376 16377 16378 16379 16380 16381 16382 16383 16384 16385 16386 16387 16388 16389 16390 16391 16392 16393 16394 16395 16396 16397 16398 16399 16400 16401 16402 16403 16404 16405 16406 16407 16408 16409 16410 16411 16412 16413 16414 16415 16416 16417 16418 16419 16420 16421 16422 16423 16424 16425 16426 16427 16428 16429 16430 16431 16432 16433 16434 16435 16436 16437 16438 16439 16440 16441 16442 16443 16444 16445 16446 16447 16448 16449 16450 16451 16452 16453 16454 16455 16456 16457 16458 16459 16460 16461 16462 16463 16464 16465 16466 16467 16468 16469 16470 16471 16472 16473 16474 16475 16476 16477 16478 16479 16480 16481 16482 16483 16484 16485 16486 16487 16488 16489 16490 16491 16492 16493 16494 16495 16496 16497 16498 16499 16500 16501 16502 16503 16504 16505 16506 16507 16508 16509 16510 16511 16512 16513 16514 16515 16516 16517 16518 16519 16520 16521 16522 16523 16524 16525 16526 16527 16528 16529 16530 16531 16532 16533 16534 16535 16536 16537 16538 16539 16540 16541 16542 16543 16544 16545 16546 16547 16548 16549 16550 16551 16552 16553 16554 16555 16556 16557 16558 16559 16560 16561 16562 16563 16564 16565 16566 16567 16568 16569 16570 16571 16572 16573 16574 16575 16576 16577 16578 16579 16580 16581 16582 16583 16584 16585 16586 16587 16588 16589 16590 16591 16592 16593 16594 16595 16596 16597 16598 16599 16600 16601 16602 16603 16604 16605 16606 16607 16608 16609 16610 16611 16612 16613 16614 16615 16616 16617 16618 16619 16620 16621 16622 16623 16624 16625 16626 16627 16628 16629 16630 16631 16632 16633 16634 16635 16636 16637 16638 16639 16640 16641 16642 16643 16644 16645 16646 16647 16648 16649 16650 16651 16652 16653 16654 16655 16656 16657 16658 16659 16660 16661 16662 16663 16664 16665 16666 16667 16668 16669 16670 16671 16672 16673 16674 16675 16676 16677 16678 16679 16680 16681 16682 16683 16684 16685 16686 16687 16688 16689 16690 16691 16692 16693 16694 16695 16696 16697 16698 16699 16700 16701 16702 16703 16704 16705 16706 16707 16708 16709 16710 16711 16712 16713 16714 16715 16716 16717 16718 16719 16720 16721 16722 16723 16724 16725 16726 16727 16728 16729 16730 16731 16732 16733 16734 16735 16736 16737 16738 16739 16740 16741 16742 16743 16744 16745 16746 16747 16748 16749 16750 16751 16752 16753 16754 16755 16756 16757 16758 16759 16760 16761 16762 16763 16764 16765 16766 16767 16768 16769 16770 16771 16772 16773 16774 16775 16776 16777 16778 16779 16780 16781 16782 16783 16784 16785 16786 16787 16788 16789 16790 16791 16792 16793 16794 16795 16796 16797 16798 16799 16800 16801 16802 16803 16804 16805 16806 16807 16808 16809 16810 16811 16812 16813 16814 16815 16816 16817 16818 16819 16820 16821 16822 16823 16824 16825 16826 16827 16828 16829 16830 16831 16832 16833 16834 16835 16836 16837 16838 16839 16840 16841 16842 16843 16844 16845 16846 16847 16848 16849 16850 16851 16852 16853 16854 16855 16856 16857 16858 16859 16860 16861 16862 16863 16864 16865 16866 16867 16868 16869 16870 16871 16872 16873 16874 16875 16876 16877 16878 16879 16880 16881 16882 16883 16884 16885 16886 16887 16888 16889 16890 16891 16892 16893 16894 16895 16896 16897 16898 16899 16900 16901 16902 16903 16904 16905 16906 16907 16908 16909 16910 16911 16912 16913 16914 16915 16916 16917 16918 16919 16920 16921 16922 16923 16924 16925 16926 16927 16928 16929 16930 16931 16932 16933 16934 16935 16936 16937 16938 16939 16940 16941 16942 16943 16944 16945 16946 16947 16948 16949 16950 16951 16952 16953 16954 16955 16956 16957 16958 16959 16960 16961 16962 16963 16964 16965 16966 16967 16968 16969 16970 16971 16972 16973 16974 16975 16976 16977 16978 16979 16980 16981 16982 16983 16984 16985 16986 16987 16988 16989 16990 16991 16992 16993 16994 16995 16996 16997 16998 16999 17000 17001 17002 17003 17004 17005 17006 17007 17008 17009 17010 17011 17012 17013 17014 17015 17016 17017 17018 17019 17020 17021 17022 17023 17024 17025 17026 17027 17028 17029 17030 17031 17032 17033 17034 17035 17036 17037 17038 17039 17040 17041 17042 17043 17044 17045 17046 17047 17048 17049 17050 17051 17052 17053 17054 17055 17056 17057 17058 17059 17060 17061 17062 17063 17064 17065 17066 17067 17068 17069 17070 17071 17072 17073 17074 17075 17076 17077 17078 17079 17080 17081 17082 17083 17084 17085 17086 17087 17088 17089 17090 17091 17092 17093 17094 17095 17096 17097 17098 17099 17100 17101 17102 17103 17104 17105 17106 17107 17108 17109 17110 17111 17112 17113 17114 17115 17116 17117 17118 17119 17120 17121 17122 17123 17124 17125 17126 17127 17128 17129 17130 17131 17132 17133 17134 17135 17136 17137 17138 17139 17140 17141 17142 17143 17144 17145 17146 17147 17148 17149 17150 17151 17152 17153 17154 17155 17156 17157 17158 17159 17160 17161 17162 17163 17164 17165 17166 17167 17168 17169 17170 17171 17172 17173 17174 17175 17176 17177 17178 17179 17180 17181 17182 17183 17184 17185 17186 17187 17188 17189 17190 17191 17192 17193 17194 17195 17196 17197 17198 17199 17200 17201 17202 17203 17204 17205 17206 17207 17208 17209 17210 17211 17212 17213 17214 17215 17216 17217 17218 17219 17220 17221 17222 17223 17224 17225 17226 17227 17228 17229 17230 17231 17232 17233 17234 17235 17236 17237 17238 17239 17240 17241 17242 17243 17244 17245 17246 17247 17248 17249 17250 17251 17252 17253 17254 17255 17256 17257 17258 17259 17260 17261 17262 17263 17264 17265 17266 17267 17268 17269 17270 17271 17272 17273 17274 17275 17276 17277 17278 17279 17280 17281 17282 17283 17284 17285 17286 17287 17288 17289 17290 17291 17292 17293 17294 17295 17296 17297 17298 17299 17300 17301 17302 17303 17304 17305 17306 17307 17308 17309 17310 17311 17312 17313 17314 17315 17316 17317 17318 17319 17320 17321 17322 17323 17324 17325 17326 17327 17328 17329 17330 17331 17332 17333 17334 17335 17336 17337 17338 17339 17340 17341 17342 17343 17344 17345 17346 17347 17348 17349 17350 17351 17352 17353 17354 17355 17356 17357 17358 17359 17360 17361 17362 17363 17364 17365 17366 17367 17368 17369 17370 17371 17372 17373 17374 17375 17376 17377 17378 17379 17380 17381 17382 17383 17384 17385 17386 17387 17388 17389 17390 17391 17392 17393 17394 17395 17396 17397 17398 17399 17400 17401 17402 17403 17404 17405 17406 17407 17408 17409 17410 17411 17412 17413 17414 17415 17416 17417 17418 17419 17420 17421 17422 17423 17424 17425 17426 17427 17428 17429 17430 17431 17432 17433 17434 17435 17436 17437 17438 17439 17440 17441 17442 17443 17444 17445 17446 17447 17448 17449 17450 17451 17452 17453 17454 17455 17456 17457 17458 17459 17460 17461 17462 17463 17464 17465 17466 17467 17468 17469 17470 17471 17472 17473 17474 17475 17476 17477 17478 17479 17480 17481 17482 17483 17484 17485 17486 17487 17488 17489 17490 17491 17492 17493 17494 17495 17496 17497 17498 17499 17500 17501 17502 17503 17504 17505 17506 17507 17508 17509 17510 17511 17512 17513 17514 17515 17516 17517 17518 17519 17520 17521 17522 17523 17524 17525 17526 17527 17528 17529 17530 17531 17532 17533 17534 17535 17536 17537 17538 17539 17540 17541 17542 17543 17544 17545 17546 17547 17548 17549 17550 17551 17552 17553 17554 17555 17556 17557 17558 17559 17560 17561 17562 17563 17564 17565 17566 17567 17568 17569 17570 17571 17572 17573 17574 17575 17576 17577 17578 17579 17580 17581 17582 17583 17584 17585 17586 17587 17588 17589 17590 17591 17592 17593 17594 17595 17596 17597 17598 17599 17600 17601 17602 17603 17604 17605 17606 17607 17608 17609 17610 17611 17612 17613 17614 17615 17616 17617 17618 17619 17620 17621 17622 17623 17624 17625 17626 17627 17628 17629 17630 17631 17632 17633 17634 17635 17636 17637 17638 17639 17640 17641 17642 17643 17644 17645 17646 17647 17648 17649 17650 17651 17652 17653 17654 17655 17656 17657 17658 17659 17660 17661 17662 17663 17664 17665 17666 17667 17668 17669 17670 17671 17672 17673 17674 17675 17676 17677 17678 17679 17680 17681 17682 17683 17684 17685 17686 17687 17688 17689 17690 17691 17692 17693 17694 17695 17696 17697 17698 17699 17700 17701 17702 17703 17704 17705 17706 17707 17708 17709 17710 17711 17712 17713 17714 17715 17716 17717 17718 17719 17720 17721 17722 17723 17724 17725 17726 17727 17728 17729 17730 17731 17732 17733 17734 17735 17736 17737 17738 17739 17740 17741 17742 17743 17744 17745 17746 17747 17748 17749 17750 17751 17752 17753 17754 17755 17756 17757 17758 17759 17760 17761 17762 17763 17764 17765 17766 17767 17768 17769 17770 17771 17772 17773 17774 17775 17776 17777 17778 17779 17780 17781 17782 17783 17784 17785 17786 17787 17788 17789 17790 17791 17792 17793 17794 17795 17796 17797 17798 17799 17800 17801 17802 17803 17804 17805 17806 17807 17808 17809 17810 17811 17812 17813 17814 17815 17816 17817 17818 17819 17820 17821 17822 17823 17824 17825 17826 17827 17828 17829 17830 17831 17832 17833 17834 17835 17836 17837 17838 17839 17840 17841 17842 17843 17844 17845 17846 17847 17848 17849 17850 17851 17852 17853 17854 17855 17856 17857 17858 17859 17860 17861 17862 17863 17864 17865 17866 17867 17868 17869 17870 17871 17872 17873 17874 17875 17876 17877 17878 17879 17880 17881 17882 17883 17884 17885 17886 17887 17888 17889 17890 17891 17892 17893 17894 17895 17896 17897 17898 17899 17900 17901 17902 17903 17904 17905 17906 17907 17908 17909 17910 17911 17912 17913 17914 17915 17916 17917 17918 17919 17920 17921 17922 17923 17924 17925 17926 17927 17928 17929 17930 17931 17932 17933 17934 17935 17936 17937 17938 17939 17940 17941 17942 17943 17944 17945 17946 17947 17948 17949 17950 17951 17952 17953 17954 17955 17956 17957 17958 17959 17960 17961 17962 17963 17964 17965 17966 17967 17968 17969 17970 17971 17972 17973 17974 17975 17976 17977 17978 17979 17980 17981 17982 17983 17984 17985 17986 17987 17988 17989 17990 17991 17992 17993 17994 17995 17996 17997 17998 17999 18000 18001 18002 18003 18004 18005 18006 18007 18008 18009 18010 18011 18012 18013 18014 18015 18016 18017 18018 18019 18020 18021 18022 18023 18024 18025 18026 18027 18028 18029 18030 18031 18032 18033 18034 18035 18036 18037 18038 18039 18040 18041 18042 18043 18044 18045 18046 18047 18048 18049 18050 18051 18052 18053 18054 18055 18056 18057 18058 18059 18060 18061 18062 18063 18064 18065 18066 18067 18068 18069 18070 18071 18072 18073 18074 18075 18076 18077 18078 18079 18080 18081 18082 18083 18084 18085 18086 18087 18088 18089 18090 18091 18092 18093 18094 18095 18096 18097 18098 18099 18100 18101 18102 18103 18104 18105 18106 18107 18108 18109 18110 18111 18112 18113 18114 18115 18116 18117 18118 18119 18120 18121 18122 18123 18124 18125 18126 18127 18128 18129 18130 18131 18132 18133 18134 18135 18136 18137 18138 18139 18140 18141 18142 18143 18144 18145 18146 18147 18148 18149 18150 18151 18152 18153 18154 18155 18156 18157 18158 18159 18160 18161 18162 18163 18164 18165 18166 18167 18168 18169 18170 18171 18172 18173 18174 18175 18176 18177 18178 18179 18180 18181 18182 18183 18184 18185 18186 18187 18188 18189 18190 18191 18192 18193 18194 18195 18196 18197 18198 18199 18200 18201 18202 18203 18204 18205 18206 18207 18208 18209 18210 18211 18212 18213 18214 18215 18216 18217 18218 18219 18220 18221 18222 18223 18224 18225 18226 18227 18228 18229 18230 18231 18232 18233 18234 18235 18236 18237 18238 18239 18240 18241 18242 18243 18244 18245 18246 18247 18248 18249 18250 18251 18252 18253 18254 18255 18256 18257 18258 18259 18260 18261 18262 18263 18264 18265 18266 18267 18268 18269 18270 18271 18272 18273 18274 18275 18276 18277 18278 18279 18280 18281 18282 18283 18284 18285 18286 18287 18288 18289 18290 18291 18292 18293 18294 18295 18296 18297 18298 18299 18300 18301 18302 18303 18304 18305 18306 18307 18308 18309 18310 18311 18312 18313 18314 18315 18316 18317 18318 18319 18320 18321 18322 18323 18324 18325 18326 18327 18328 18329 18330 18331 18332 18333 18334 18335 18336 18337 18338 18339 18340 18341 18342 18343 18344 18345 18346 18347 18348 18349 18350 18351 18352 18353 18354 18355 18356 18357 18358 18359 18360 18361 18362 18363 18364 18365 18366 18367 18368 18369 18370 18371 18372 18373 18374 18375 18376 18377 18378 18379 18380 18381 18382 18383 18384 18385 18386 18387 18388 18389 18390 18391 18392 18393 18394 18395 18396 18397 18398 18399 18400 18401 18402 18403 18404 18405 18406 18407 18408 18409 18410 18411 18412 18413 18414 18415 18416 18417 18418 18419 18420 18421 18422 18423 18424 18425 18426 18427 18428 18429 18430 18431 18432 18433 18434 18435 18436 18437 18438 18439 18440 18441 18442 18443 18444 18445 18446 18447 18448 18449 18450 18451 18452 18453 18454 18455 18456 18457 18458 18459 18460 18461 18462 18463 18464 18465 18466 18467 18468 18469 18470 18471 18472 18473 18474 18475 18476 18477 18478 18479 18480 18481 18482 18483 18484 18485 18486 18487 18488 18489 18490 18491 18492 18493 18494 18495 18496 18497 18498 18499 18500 18501 18502 18503 18504 18505 18506 18507 18508 18509 18510 18511 18512 18513 18514 18515 18516 18517 18518 18519 18520 18521 18522 18523 18524 18525 18526 18527 18528 18529 18530 18531 18532 18533 18534 18535 18536 18537 18538 18539 18540 18541 18542 18543 18544 18545 18546 18547 18548 18549 18550 18551 18552 18553 18554 18555 18556 18557 18558 18559 18560 18561 18562 18563 18564 18565 18566 18567 18568 18569 18570 18571 18572 18573 18574 18575 18576 18577 18578 18579 18580 18581 18582 18583 18584 18585 18586 18587 18588 18589 18590 18591 18592 18593 18594 18595 18596 18597 18598 18599 18600 18601 18602 18603 18604 18605 18606 18607 18608 18609 18610 18611 18612 18613 18614 18615 18616 18617 18618 18619 18620 18621 18622 18623 18624 18625 18626 18627 18628 18629 18630 18631 18632 18633 18634 18635 18636 18637 18638 18639 18640 18641 18642 18643 18644 18645 18646 18647 18648 18649 18650 18651 18652 18653 18654 18655 18656 18657 18658 18659 18660 18661 18662 18663 18664 18665 18666 18667 18668 18669 18670 18671 18672 18673 18674 18675 18676 18677 18678 18679 18680 18681 18682 18683 18684 18685 18686 18687 18688 18689 18690 18691 18692 18693 18694 18695 18696 18697 18698 18699 18700 18701 18702 18703 18704 18705 18706 18707 18708 18709 18710 18711 18712 18713 18714 18715 18716 18717 18718 18719 18720 18721 18722 18723 18724 18725 18726 18727 18728 18729 18730 18731 18732 18733 18734 18735 18736 18737 18738 18739 18740 18741 18742 18743 18744 18745 18746 18747 18748 18749 18750 18751 18752 18753 18754 18755 18756 18757 18758 18759 18760 18761 18762 18763 18764 18765 18766 18767 18768 18769 18770 18771 18772 18773 18774 18775 18776 18777 18778 18779 18780 18781 18782 18783 18784 18785 18786 18787 18788 18789 18790 18791 18792 18793 18794 18795 18796 18797 18798 18799 18800 18801 18802 18803 18804 18805 18806 18807 18808 18809 18810 18811 18812 18813 18814 18815 18816 18817 18818 18819 18820 18821 18822 18823 18824 18825 18826 18827 18828 18829 18830 18831 18832 18833 18834 18835 18836 18837 18838 18839 18840 18841 18842 18843 18844 18845 18846 18847 18848 18849 18850 18851 18852 18853 18854 18855 18856 18857 18858 18859 18860 18861 18862 18863 18864 18865 18866 18867 18868 18869 18870 18871 18872 18873 18874 18875 18876 18877 18878 18879 18880 18881 18882 18883 18884 18885 18886 18887 18888 18889 18890 18891 18892 18893 18894 18895 18896 18897 18898 18899 18900 18901 18902 18903 18904 18905 18906 18907 18908 18909 18910 18911 18912 18913 18914 18915 18916 18917 18918 18919 18920 18921 18922 18923 18924 18925 18926 18927 18928 18929 18930 18931 18932 18933 18934 18935 18936 18937 18938 18939 18940 18941 18942 18943 18944 18945 18946 18947 18948 18949 18950 18951 18952 18953 18954 18955 18956 18957 18958 18959 18960 18961 18962 18963 18964 18965 18966 18967 18968 18969 18970 18971 18972 18973 18974 18975 18976 18977 18978 18979 18980 18981 18982 18983 18984 18985 18986 18987 18988 18989 18990 18991 18992 18993 18994 18995 18996 18997 18998 18999 19000 19001 19002 19003 19004 19005 19006 19007 19008 19009 19010 19011 19012 19013 19014 19015 19016 19017 19018 19019 19020 19021 19022 19023 19024 19025 19026 19027 19028 19029 19030 19031 19032 19033 19034 19035 19036 19037 19038 19039 19040 19041 19042 19043 19044 19045 19046 19047 19048 19049 19050 19051 19052 19053 19054 19055 19056 19057 19058 19059 19060 19061 19062 19063 19064 19065 19066 19067 19068 19069 19070 19071 19072 19073 19074 19075 19076 19077 19078 19079 19080 19081 19082 19083 19084 19085 19086 19087 19088 19089 19090 19091 19092 19093 19094 19095 19096 19097 19098 19099 19100 19101 19102 19103 19104 19105 19106 19107 19108 19109 19110 19111 19112 19113 19114 19115 19116 19117 19118 19119 19120 19121 19122 19123 19124 19125 19126 19127 19128 19129 19130 19131 19132 19133 19134 19135 19136 19137 19138 19139 19140 19141 19142 19143 19144 19145 19146 19147 19148 19149 19150 19151 19152 19153 19154 19155 19156 19157 19158 19159 19160 19161 19162 19163 19164 19165 19166 19167 19168 19169 19170 19171 19172 19173 19174 19175 19176 19177 19178 19179 19180 19181 19182 19183 19184 19185 19186 19187 19188 19189 19190 19191 19192 19193 19194 19195 19196 19197 19198 19199 19200 19201 19202 19203 19204 19205 19206 19207 19208 19209 19210 19211 19212 19213 19214 19215 19216 19217 19218 19219 19220 19221 19222 19223 19224 19225 19226 19227 19228 19229 19230 19231 19232 19233 19234 19235 19236 19237 19238 19239 19240 19241 19242 19243 19244 19245 19246 19247 19248 19249 19250 19251 19252 19253 19254 19255 19256 19257 19258 19259 19260 19261 19262 19263 19264 19265 19266 19267 19268 19269 19270 19271 19272 19273 19274 19275 19276 19277 19278 19279 19280 19281 19282 19283 19284 19285 19286 19287 19288 19289 19290 19291 19292 19293 19294 19295 19296 19297 19298 19299 19300 19301 19302 19303 19304 19305 19306 19307 19308 19309 19310 19311 19312 19313 19314 19315 19316 19317 19318 19319 19320 19321 19322 19323 19324 19325 19326 19327 19328 19329 19330 19331 19332 19333 19334 19335 19336 19337 19338 19339 19340 19341 19342 19343 19344 19345 19346 19347 19348 19349 19350 19351 19352 19353 19354 19355 19356 19357 19358 19359 19360 19361 19362 19363 19364 19365 19366 19367 19368 19369 19370 19371 19372 19373 19374 19375 19376 19377 19378 19379 19380 19381 19382 19383 19384 19385 19386 19387 19388 19389 19390 19391 19392 19393 19394 19395 19396 19397 19398 19399 19400 19401 19402 19403 19404 19405 19406 19407 19408 19409 19410 19411 19412 19413 19414 19415 19416 19417 19418 19419 19420 19421 19422 19423 19424 19425 19426 19427 19428 19429 19430 19431 19432 19433 19434 19435 19436 19437 19438 19439 19440 19441 19442 19443 19444 19445 19446 19447 19448 19449 19450 19451 19452 19453 19454 19455 19456 19457 19458 19459 19460 19461 19462 19463 19464 19465 19466 19467 19468 19469 19470 19471 19472 19473 19474 19475 19476 19477 19478 19479 19480 19481 19482 19483 19484 19485 19486 19487 19488 19489 19490 19491 19492 19493 19494 19495 19496 19497 19498 19499 19500 19501 19502 19503 19504 19505 19506 19507 19508 19509 19510 19511 19512 19513 19514 19515 19516 19517 19518 19519 19520 19521 19522 19523 19524 19525 19526 19527 19528 19529 19530 19531 19532 19533 19534 19535 19536 19537 19538 19539 19540 19541 19542 19543 19544 19545 19546 19547 19548 19549 19550 19551 19552 19553 19554 19555 19556 19557 19558 19559 19560 19561 19562 19563 19564 19565 19566 19567 19568 19569 19570 19571 19572 19573 19574 19575 19576 19577 19578 19579 19580 19581 19582 19583 19584 19585 19586 19587 19588 19589 19590 19591 19592 19593 19594 19595 19596 19597 19598 19599 19600 19601 19602 19603 19604 19605 19606 19607 19608 19609 19610 19611 19612 19613 19614 19615 19616 19617 19618 19619 19620 19621 19622 19623 19624 19625 19626 19627 19628 19629 19630 19631 19632 19633 19634 19635 19636 19637 19638 19639 19640 19641 19642 19643 19644 19645 19646 19647 19648 19649 19650 19651 19652 19653 19654 19655 19656 19657 19658 19659 19660 19661 19662 19663 19664 19665 19666 19667 19668 19669 19670 19671 19672 19673 19674 19675 19676 19677 19678 19679 19680 19681 19682 19683 19684 19685 19686 19687 19688 19689 19690 19691 19692 19693 19694 19695 19696 19697 19698 19699 19700 19701 19702 19703 19704 19705 19706 19707 19708 19709 19710 19711 19712 19713 19714 19715 19716 19717 19718 19719 19720 19721 19722 19723 19724 19725 19726 19727 19728 19729 19730 19731 19732 19733 19734 19735 19736 19737 19738 19739 19740 19741 19742 19743 19744 19745 19746 19747 19748 19749 19750 19751 19752 19753 19754 19755 19756 19757 19758 19759 19760 19761 19762 19763 19764 19765 19766 19767 19768 19769 19770 19771 19772 19773 19774 19775 19776 19777 19778 19779 19780 19781 19782 19783 19784 19785 19786 19787 19788 19789 19790 19791 19792 19793 19794 19795 19796 19797 19798 19799 19800 19801 19802 19803 19804 19805 19806 19807 19808 19809 19810 19811 19812 19813 19814 19815 19816 19817 19818 19819 19820 19821 19822 19823 19824 19825 19826 19827 19828 19829 19830 19831 19832 19833 19834 19835 19836 19837 19838 19839 19840 19841 19842 19843 19844 19845 19846 19847 19848 19849 19850 19851 19852 19853 19854 19855 19856 19857 19858 19859 19860 19861 19862 19863 19864 19865 19866 19867 19868 19869 19870 19871 19872 19873 19874 19875 19876 19877 19878 19879 19880 19881 19882 19883 19884 19885 19886 19887 19888 19889 19890 19891 19892 19893 19894 19895 19896 19897 19898 19899 19900 19901 19902 19903 19904 19905 19906 19907 19908 19909 19910 19911 19912 19913 19914 19915 19916 19917 19918 19919 19920 19921 19922 19923 19924 19925 19926 19927 19928 19929 19930 19931 19932 19933 19934 19935 19936 19937 19938 19939 19940 19941 19942 19943 19944 19945 19946 19947 19948 19949 19950 19951 19952 19953 19954 19955 19956 19957 19958 19959 19960 19961 19962 19963 19964 19965 19966 19967 19968 19969 19970 19971 19972 19973 19974 19975 19976 19977 19978 19979 19980 19981 19982 19983 19984 19985 19986 19987 19988 19989 19990 19991 19992 19993 19994 19995 19996 19997 19998 19999 20000 20001 20002 20003 20004 20005 20006 20007 20008 20009 20010 20011 20012 20013 20014 20015 20016 20017 20018 20019 20020 20021 20022 20023 20024 20025 20026 20027 20028 20029 20030 20031 20032 20033 20034 20035 20036 20037 20038 20039 20040 20041 20042 20043 20044 20045 20046 20047 20048 20049 20050 20051 20052 20053 20054 20055 20056 20057 20058 20059 20060 20061 20062 20063 20064 20065 20066 20067 20068 20069 20070 20071 20072 20073 20074 20075 20076 20077 20078 20079 20080 20081 20082 20083 20084 20085 20086 20087 20088 20089 20090 20091 20092 20093 20094 20095 20096 20097 20098 20099 20100 20101 20102 20103 20104 20105 20106 20107 20108 20109 20110 20111 20112 20113 20114 20115 20116 20117 20118 20119 20120 20121 20122 20123 20124 20125 20126 20127 20128 20129 20130 20131 20132 20133 20134 20135 20136 20137 20138 20139 20140 20141 20142 20143 20144 20145 20146 20147 20148 20149 20150 20151 20152 20153 20154 20155 20156 20157 20158 20159 20160 20161 20162 20163 20164 20165 20166 20167 20168 20169 20170 20171 20172 20173 20174 20175 20176 20177 20178 20179 20180 20181 20182 20183 20184 20185 20186 20187 20188 20189 20190 20191 20192 20193 20194 20195 20196 20197 20198 20199 20200 20201 20202 20203 20204 20205 20206 20207 20208 20209 20210 20211 20212 20213 20214 20215 20216 20217 20218 20219 20220 20221 20222 20223 20224 20225 20226 20227 20228 20229 20230 20231 20232 20233 20234 20235 20236 20237 20238 20239 20240 20241 20242 20243 20244 20245 20246 20247 20248 20249 20250 20251 20252 20253 20254 20255 20256 20257 20258 20259 20260 20261 20262 20263 20264 20265 20266 20267 20268 20269 20270 20271 20272 20273 20274 20275 20276 20277 20278 20279 20280 20281 20282 20283 20284 20285 20286 20287 20288 20289 20290 20291 20292 20293 20294 20295 20296 20297 20298 20299 20300 20301 20302 20303 20304 20305 20306 20307 20308 20309 20310 20311 20312 20313 20314 20315 20316 20317 20318 20319 20320 20321 20322 20323 20324 20325 20326 20327 20328 20329 20330 20331 20332 20333 20334 20335 20336 20337 20338 20339 20340 20341 20342 20343 20344 20345 20346 20347 20348 20349 20350 20351 20352 20353 20354 20355 20356 20357 20358 20359 20360 20361 20362 20363 20364 20365 20366 20367 20368 20369 20370 20371 20372 20373 20374 20375 20376 20377 20378 20379 20380 20381 20382 20383 20384 20385 20386 20387 20388 20389 20390 20391 20392 20393 20394 20395 20396 20397 20398 20399 20400 20401 20402 20403 20404 20405 20406 20407 20408 20409 20410 20411 20412 20413 20414 20415 20416 20417 20418 20419 20420 20421 20422 20423 20424 20425 20426 20427 20428 20429 20430 20431 20432 20433 20434 20435 20436 20437 20438 20439 20440 20441 20442 20443 20444 20445 20446 20447 20448 20449 20450 20451 20452 20453 20454 20455 20456 20457 20458 20459 20460 20461 20462 20463 20464 20465 20466 20467 20468 20469 20470 20471 20472 20473 20474 20475 20476 20477 20478 20479 20480 20481 20482 20483 20484 20485 20486 20487 20488 20489 20490 20491 20492 20493 20494 20495 20496 20497 20498 20499 20500 20501 20502 20503 20504 20505 20506 20507 20508 20509 20510 20511 20512 20513 20514 20515 20516 20517 20518 20519 20520 20521 20522 20523 20524 20525 20526 20527 20528 20529 20530 20531 20532 20533 20534 20535 20536 20537 20538 20539 20540 20541 20542 20543 20544 20545 20546 20547 20548 20549 20550 20551 20552 20553 20554 20555 20556 20557 20558 20559 20560 20561 20562 20563 20564 20565 20566 20567 20568 20569 20570 20571 20572 20573 20574 20575 20576 20577 20578 20579 20580 20581 20582 20583 20584 20585 20586 20587 20588 20589 20590 20591 20592 20593 20594 20595 20596 20597 20598 20599 20600 20601 20602 20603 20604 20605 20606 20607 20608 20609 20610 20611 20612 20613 20614 20615 20616 20617 20618 20619 20620 20621 20622 20623 20624 20625 20626 20627 20628 20629 20630 20631 20632 20633 20634 20635 20636 20637 20638 20639 20640 20641 20642 20643 20644 20645 20646 20647 20648 20649 20650 20651 20652 20653 20654 20655 20656 20657 20658 20659 20660 20661 20662 20663 20664 20665 20666 20667 20668 20669 20670 20671 20672 20673 20674 20675 20676 20677 20678 20679 20680 20681 20682 20683 20684 20685 20686 20687 20688 20689 20690 20691 20692 20693 20694 20695 20696 20697 20698 20699 20700 20701 20702 20703 20704 20705 20706 20707 20708 20709 20710 20711 20712 20713 20714 20715 20716 20717 20718 20719 20720 20721 20722 20723 20724 20725 20726 20727 20728 20729 20730 20731 20732 20733 20734 20735 20736 20737 20738 20739 20740 20741 20742 20743 20744 20745 20746 20747 20748 20749 20750 20751 20752 20753 20754 20755 20756 20757 20758 20759 20760 20761 20762 20763 20764 20765 20766 20767 20768 20769 20770 20771 20772 20773 20774 20775 20776 20777 20778 20779 20780 20781 20782 20783 20784 20785 20786 20787 20788 20789 20790 20791 20792 20793 20794 20795 20796 20797 20798 20799 20800 20801 20802 20803 20804 20805 20806 20807 20808 20809 20810 20811 20812 20813 20814 20815 20816 20817 20818 20819 20820 20821 20822 20823 20824 20825 20826 20827 20828 20829 20830 20831 20832 20833 20834 20835 20836 20837 20838 20839 20840 20841 20842 20843 20844 20845 20846 20847 20848 20849 20850 20851 20852 20853 20854 20855 20856 20857 20858 20859 20860 20861 20862 20863 20864 20865 20866 20867 20868 20869 20870 20871 20872 20873 20874 20875 20876 20877 20878 20879 20880 20881 20882 20883 20884 20885 20886 20887 20888 20889 20890 20891 20892 20893 20894 20895 20896 20897 20898 20899 20900 20901 20902 20903 20904 20905 20906 20907 20908 20909 20910 20911 20912 20913 20914 20915 20916 20917 20918 20919 20920 20921 20922 20923 20924 20925 20926 20927 20928 20929 20930 20931 20932 20933 20934 20935 20936 20937 20938 20939 20940 20941 20942 20943 20944 20945 20946 20947 20948 20949 20950 20951 20952 20953 20954 20955 20956 20957 20958 20959 20960 20961 20962 20963 20964 20965 20966 20967 20968 20969 20970 20971 20972 20973 20974 20975 20976 20977 20978 20979 20980 20981 20982 20983 20984 20985 20986 20987 20988 20989 20990 20991 20992 20993 20994 20995 20996 20997 20998 20999 21000 21001 21002 21003 21004 21005 21006 21007 21008 21009 21010 21011 21012 21013 21014 21015 21016 21017 21018 21019 21020 21021 21022 21023 21024 21025 21026 21027 21028 21029 21030 21031 21032 21033 21034 21035 21036 21037 21038 21039 21040 21041 21042 21043 21044 21045 21046 21047 21048 21049 21050 21051 21052 21053 21054 21055 21056 21057 21058 21059 21060 21061 21062 21063 21064 21065 21066 21067 21068 21069 21070 21071 21072 21073 21074 21075 21076 21077 21078 21079 21080 21081 21082 21083 21084 21085 21086 21087 21088 21089 21090 21091 21092 21093 21094 21095 21096 21097 21098 21099 21100 21101 21102 21103 21104 21105 21106 21107 21108 21109 21110 21111 21112 21113 21114 21115 21116 21117 21118 21119 21120 21121 21122 21123 21124 21125 21126 21127 21128 21129 21130 21131 21132 21133 21134 21135 21136 21137 21138 21139 21140 21141 21142 21143 21144 21145 21146 21147 21148 21149 21150 21151 21152 21153 21154 21155 21156 21157 21158 21159 21160 21161 21162 21163 21164 21165 21166 21167 21168 21169 21170 21171 21172 21173 21174 21175 21176 21177 21178 21179 21180 21181 21182 21183 21184 21185 21186 21187 21188 21189 21190 21191 21192 21193 21194 21195 21196 21197 21198 21199 21200 21201 21202 21203 21204 21205 21206 21207 21208 21209 21210 21211 21212 21213 21214 21215 21216 21217 21218 21219 21220 21221 21222 21223 21224 21225 21226 21227 21228 21229 21230 21231 21232 21233 21234 21235 21236 21237 21238 21239 21240 21241 21242 21243 21244 21245 21246 21247 21248 21249 21250 21251 21252 21253 21254 21255 21256 21257 21258 21259 21260 21261 21262 21263 21264 21265 21266 21267 21268 21269 21270 21271 21272 21273 21274 21275 21276 21277 21278 21279 21280 21281 21282 21283 21284 21285 21286 21287 21288 21289 21290 21291 21292 21293 21294 21295 21296 21297 21298 21299 21300 21301 21302 21303 21304 21305 21306 21307 21308 21309 21310 21311 21312 21313 21314 21315 21316 21317 21318 21319 21320 21321 21322 21323 21324 21325 21326 21327 21328 21329 21330 21331 21332 21333 21334 21335 21336 21337 21338 21339 21340 21341 21342 21343 21344 21345 21346 21347 21348 21349 21350 21351 21352 21353 21354 21355 21356 21357 21358 21359 21360 21361 21362 21363 21364 21365 21366 21367 21368 21369 21370 21371 21372 21373 21374 21375 21376 21377 21378 21379 21380 21381 21382 21383 21384 21385 21386 21387 21388 21389 21390 21391 21392 21393 21394 21395 21396 21397 21398 21399 21400 21401 21402 21403 21404 21405 21406 21407 21408 21409 21410 21411 21412 21413 21414 21415 21416 21417 21418 21419 21420 21421 21422 21423 21424 21425 21426 21427 21428 21429 21430 21431 21432 21433 21434 21435 21436 21437 21438 21439 21440 21441 21442 21443 21444 21445 21446 21447 21448 21449 21450 21451 21452 21453 21454 21455 21456 21457 21458 21459 21460 21461 21462 21463 21464 21465 21466 21467 21468 21469 21470 21471 21472 21473 21474 21475 21476 21477 21478 21479 21480 21481 21482 21483 21484 21485 21486 21487 21488 21489 21490 21491 21492 21493 21494 21495 21496 21497 21498 21499 21500 21501 21502 21503 21504 21505 21506 21507 21508 21509 21510 21511 21512 21513 21514 21515 21516 21517 21518 21519 21520 21521 21522 21523 21524 21525 21526 21527 21528 21529 21530 21531 21532 21533 21534 21535 21536 21537 21538 21539 21540 21541 21542 21543 21544 21545 21546 21547 21548 21549 21550 21551 21552 21553 21554 21555 21556 21557 21558 21559 21560 21561 21562 21563 21564 21565 21566 21567 21568 21569 21570 21571 21572 21573 21574 21575 21576 21577 21578 21579 21580 21581 21582 21583 21584 21585 21586 21587 21588 21589 21590 21591 21592 21593 21594 21595 21596 21597 21598 21599 21600 21601 21602 21603 21604 21605 21606 21607 21608 21609 21610 21611 21612 21613 21614 21615 21616 21617 21618 21619 21620 21621 21622 21623 21624 21625 21626 21627 21628 21629 21630 21631 21632 21633 21634 21635 21636 21637 21638 21639 21640 21641 21642 21643 21644 21645 21646 21647 21648 21649 21650 21651 21652 21653 21654 21655 21656 21657 21658 21659 21660 21661 21662 21663 21664 21665 21666 21667 21668 21669 21670 21671 21672 21673 21674 21675 21676 21677 21678 21679 21680 21681 21682 21683 21684 21685 21686 21687 21688 21689 21690 21691 21692 21693 21694 21695 21696 21697 21698 21699 21700 21701 21702 21703 21704 21705 21706 21707 21708 21709 21710 21711 21712 21713 21714 21715 21716 21717 21718 21719 21720 21721 21722 21723 21724 21725 21726 21727 21728 21729 21730 21731 21732 21733 21734 21735 21736 21737 21738 21739 21740 21741 21742 21743 21744 21745 21746 21747 21748 21749 21750 21751 21752 21753 21754 21755 21756 21757 21758 21759 21760 21761 21762 21763 21764 21765 21766 21767 21768 21769 21770 21771 21772 21773 21774 21775 21776 21777 21778 21779 21780 21781 21782 21783 21784 21785 21786 21787 21788 21789 21790 21791 21792 21793 21794 21795 21796 21797 21798 21799 21800 21801 21802 21803 21804 21805 21806 21807 21808 21809 21810 21811 21812 21813 21814 21815 21816 21817 21818 21819 21820 21821 21822 21823 21824 21825 21826 21827 21828 21829 21830 21831 21832 21833 21834 21835 21836 21837 21838 21839 21840 21841 21842 21843 21844 21845 21846 21847 21848 21849 21850 21851 21852 21853 21854 21855 21856 21857 21858 21859 21860 21861 21862 21863 21864 21865 21866 21867 21868 21869 21870 21871 21872 21873 21874 21875 21876 21877 21878 21879 21880 21881 21882 21883 21884 21885 21886 21887 21888 21889 21890 21891 21892 21893 21894 21895 21896 21897 21898 21899 21900 21901 21902 21903 21904 21905 21906 21907 21908 21909 21910 21911 21912 21913 21914 21915 21916 21917 21918 21919 21920 21921 21922 21923 21924 21925 21926 21927 21928 21929 21930 21931 21932 21933 21934 21935 21936 21937 21938 21939 21940 21941 21942 21943 21944 21945 21946 21947 21948 21949 21950 21951 21952 21953 21954 21955 21956 21957 21958 21959 21960 21961 21962 21963 21964 21965 21966 21967 21968 21969 21970 21971 21972 21973 21974 21975 21976 21977 21978 21979 21980 21981 21982 21983 21984 21985 21986 21987 21988 21989 21990 21991 21992 21993 21994 21995 21996 21997 21998 21999 22000 22001 22002 22003 22004 22005 22006 22007 22008 22009 22010 22011 22012 22013 22014 22015 22016 22017 22018 22019 22020 22021 22022 22023 22024 22025 22026 22027 22028 22029 22030 22031 22032 22033 22034 22035 22036 22037 22038 22039 22040 22041 22042 22043 22044 22045 22046 22047 22048 22049 22050 22051 22052 22053 22054 22055 22056 22057 22058 22059 22060 22061 22062 22063 22064 22065 22066 22067 22068 22069 22070 22071 22072 22073 22074 22075 22076 22077 22078 22079 22080 22081 22082 22083 22084 22085 22086 22087 22088 22089 22090 22091 22092 22093 22094 22095 22096 22097 22098 22099 22100 22101 22102 22103 22104 22105 22106 22107 22108 22109 22110 22111 22112 22113 22114 22115 22116 22117 22118 22119 22120 22121 22122 22123 22124 22125 22126 22127 22128 22129 22130 22131 22132 22133 22134 22135 22136 22137 22138 22139 22140 22141 22142 22143 22144 22145 22146 22147 22148 22149 22150 22151 22152 22153 22154 22155 22156 22157 22158 22159 22160 22161 22162 22163 22164 22165 22166 22167 22168 22169 22170 22171 22172 22173 22174 22175 22176 22177 22178 22179 22180 22181 22182 22183 22184 22185 22186 22187 22188 22189 22190 22191 22192 22193 22194 22195 22196 22197 22198 22199 22200 22201 22202 22203 22204 22205 22206 22207 22208 22209 22210 22211 22212 22213 22214 22215 22216 22217 22218 22219 22220 22221 22222 22223 22224 22225 22226 22227 22228 22229 22230 22231 22232 22233 22234 22235 22236 22237 22238 22239 22240 22241 22242 22243 22244 22245 22246 22247 22248 22249 22250 22251 22252 22253 22254 22255 22256 22257 22258 22259 22260 22261 22262 22263 22264 22265 22266 22267 22268 22269 22270 22271 22272 22273 22274 22275 22276 22277 22278 22279 22280 22281 22282 22283 22284 22285 22286 22287 22288 22289 22290 22291 22292 22293 22294 22295 22296 22297 22298 22299 22300 22301 22302 22303 22304 22305 22306 22307 22308 22309 22310 22311 22312 22313 22314 22315 22316 22317 22318 22319 22320 22321 22322 22323 22324 22325 22326 22327 22328 22329 22330 22331 22332 22333 22334 22335 22336 22337 22338 22339 22340 22341 22342 22343 22344 22345 22346 22347 22348 22349 22350 22351 22352 22353 22354 22355 22356 22357 22358 22359 22360 22361 22362 22363 22364 22365 22366 22367 22368 22369 22370 22371 22372 22373 22374 22375 22376 22377 22378 22379 22380 22381 22382 22383 22384 22385 22386 22387 22388 22389 22390 22391 22392 22393 22394 22395 22396 22397 22398 22399 22400 22401 22402 22403 22404 22405 22406 22407 22408 22409 22410 22411 22412 22413 22414 22415 22416 22417 22418 22419 22420 22421 22422 22423 22424 22425 22426 22427 22428 22429 22430 22431 22432 22433 22434 22435 22436 22437 22438 22439 22440 22441 22442 22443 22444 22445 22446 22447 22448 22449 22450 22451 22452 22453 22454 22455 22456 22457 22458 22459 22460 22461 22462 22463 22464 22465 22466 22467 22468 22469 22470 22471 22472 22473 22474 22475 22476 22477 22478 22479 22480 22481 22482 22483 22484 22485 22486 22487 22488 22489 22490 22491 22492 22493 22494 22495 22496 22497 22498 22499 22500 22501 22502 22503 22504 22505 22506 22507 22508 22509 22510 22511 22512 22513 22514 22515 22516 22517 22518 22519 22520 22521 22522 22523 22524 22525 22526 22527 22528 22529 22530 22531 22532 22533 22534 22535 22536 22537 22538 22539 22540 22541 22542 22543 22544 22545 22546 22547 22548 22549 22550 22551 22552 22553 22554 22555 22556 22557 22558 22559 22560 22561 22562 22563 22564 22565 22566 22567 22568 22569 22570 22571 22572 22573 22574 22575 22576 22577 22578 22579 22580 22581 22582 22583 22584 22585 22586 22587 22588 22589 22590 22591 22592 22593 22594 22595 22596 22597 22598 22599 22600 22601 22602 22603 22604 22605 22606 22607 22608 22609 22610 22611 22612 22613 22614 22615 22616 22617 22618 22619 22620 22621 22622 22623 22624 22625 22626 22627 22628 22629 22630 22631 22632 22633 22634 22635 22636 22637 22638 22639 22640 22641 22642 22643 22644 22645 22646 22647 22648 22649 22650 22651 22652 22653 22654 22655 22656 22657 22658 22659 22660 22661 22662 22663 22664 22665 22666 22667 22668 22669 22670 22671 22672 22673 22674 22675 22676 22677 22678 22679 22680 22681 22682 22683 22684 22685 22686 22687 22688 22689 22690 22691 22692 22693 22694 22695 22696 22697 22698 22699 22700 22701 22702 22703 22704 22705 22706 22707 22708 22709 22710 22711 22712 22713 22714 22715 22716 22717 22718 22719 22720 22721 22722 22723 22724 22725 22726 22727 22728 22729 22730 22731 22732 22733 22734 22735 22736 22737 22738 22739 22740 22741 22742 22743 22744 22745 22746 22747 22748 22749 22750 22751 22752 22753 22754 22755 22756 22757 22758 22759 22760 22761 22762 22763 22764 22765 22766 22767 22768 22769 22770 22771 22772 22773 22774 22775 22776 22777 22778 22779 22780 22781 22782 22783 22784 22785 22786 22787 22788 22789 22790 22791 22792 22793 22794 22795 22796 22797 22798 22799 22800 22801 22802 22803 22804 22805 22806 22807 22808 22809 22810 22811 22812 22813 22814 22815 22816 22817 22818 22819 22820 22821 22822 22823 22824 22825 22826 22827 22828 22829 22830 22831 22832 22833 22834 22835 22836 22837 22838 22839 22840 22841 22842 22843 22844 22845 22846 22847 22848 22849 22850 22851 22852 22853 22854 22855 22856 22857 22858 22859 22860 22861 22862 22863 22864 22865 22866 22867 22868 22869 22870 22871 22872 22873 22874 22875 22876 22877 22878 22879 22880 22881 22882 22883 22884 22885 22886 22887 22888 22889 22890 22891 22892 22893 22894 22895 22896 22897 22898 22899 22900 22901 22902 22903 22904 22905 22906 22907 22908 22909 22910 22911 22912 22913 22914 22915 22916 22917 22918 22919 22920 22921 22922 22923 22924 22925 22926 22927 22928 22929 22930 22931 22932 22933 22934 22935 22936 22937 22938 22939 22940 22941 22942 22943 22944 22945 22946 22947 22948 22949 22950 22951 22952 22953 22954 22955 22956 22957 22958 22959 22960 22961 22962 22963 22964 22965 22966 22967 22968 22969 22970 22971 22972 22973 22974 22975 22976 22977 22978 22979 22980 22981 22982 22983 22984 22985 22986 22987 22988 22989 22990 22991 22992 22993 22994 22995 22996 22997 22998 22999 23000 23001 23002 23003 23004 23005 23006 23007 23008 23009 23010 23011 23012 23013 23014 23015 23016 23017 23018 23019 23020 23021 23022 23023 23024 23025 23026 23027 23028 23029 23030 23031 23032 23033 23034 23035 23036 23037 23038 23039 23040 23041 23042 23043 23044 23045 23046 23047 23048 23049 23050 23051 23052 23053 23054 23055 23056 23057 23058 23059 23060 23061 23062 23063 23064 23065 23066 23067 23068 23069 23070 23071 23072 23073 23074 23075 23076 23077 23078 23079 23080 23081 23082 23083 23084 23085 23086 23087 23088 23089 23090 23091 23092 23093 23094 23095 23096 23097 23098 23099 23100 23101 23102 23103 23104 23105 23106 23107 23108 23109 23110 23111 23112 23113 23114 23115 23116 23117 23118 23119 23120 23121 23122 23123 23124 23125 23126 23127 23128 23129 23130 23131 23132 23133 23134 23135 23136 23137 23138 23139 23140 23141 23142 23143 23144 23145 23146 23147 23148 23149 23150 23151 23152 23153 23154 23155 23156 23157 23158 23159 23160 23161 23162 23163 23164 23165 23166 23167 23168 23169 23170 23171 23172 23173 23174 23175 23176 23177 23178 23179 23180 23181 23182 23183 23184 23185 23186 23187 23188 23189 23190 23191 23192 23193 23194 23195 23196 23197 23198 23199 23200 23201 23202 23203 23204 23205 23206 23207 23208 23209 23210 23211 23212 23213 23214 23215 23216 23217 23218 23219 23220 23221 23222 23223 23224 23225 23226 23227 23228 23229 23230 23231 23232 23233 23234 23235 23236 23237 23238 23239 23240 23241 23242 23243 23244 23245 23246 23247 23248 23249 23250 23251 23252 23253 23254 23255 23256 23257 23258 23259 23260 23261 23262 23263 23264 23265 23266 23267 23268 23269 23270 23271 23272 23273 23274 23275 23276 23277 23278 23279 23280 23281 23282 23283 23284 23285 23286 23287 23288 23289 23290 23291 23292 23293 23294 23295 23296 23297 23298 23299 23300 23301 23302 23303 23304 23305 23306 23307 23308 23309 23310 23311 23312 23313 23314 23315 23316 23317 23318 23319 23320 23321 23322 23323 23324 23325 23326 23327 23328 23329 23330 23331 23332 23333 23334 23335 23336 23337 23338 23339 23340 23341 23342 23343 23344 23345 23346 23347 23348 23349 23350 23351 23352 23353 23354 23355 23356 23357 23358 23359 23360 23361 23362 23363 23364 23365 23366 23367 23368 23369 23370 23371 23372 23373 23374 23375 23376 23377 23378 23379 23380 23381 23382 23383 23384 23385 23386 23387 23388 23389 23390 23391 23392 23393 23394 23395 23396 23397 23398 23399 23400 23401 23402 23403 23404 23405 23406 23407 23408 23409 23410 23411 23412 23413 23414 23415 23416 23417 23418 23419 23420 23421 23422 23423 23424 23425 23426 23427 23428 23429 23430 23431 23432 23433 23434 23435 23436 23437 23438 23439 23440 23441 23442 23443 23444 23445 23446 23447 23448 23449 23450 23451 23452 23453 23454 23455 23456 23457 23458 23459 23460 23461 23462 23463 23464 23465 23466 23467 23468 23469 23470 23471 23472 23473 23474 23475 23476 23477 23478 23479 23480 23481 23482 23483 23484 23485 23486 23487 23488 23489 23490 23491 23492 23493 23494 23495 23496 23497 23498 23499 23500 23501 23502 23503 23504 23505 23506 23507 23508 23509 23510 23511 23512 23513 23514 23515 23516 23517 23518 23519 23520 23521 23522 23523 23524 23525 23526 23527 23528 23529 23530 23531 23532 23533 23534 23535 23536 23537 23538 23539 23540 23541 23542 23543 23544 23545 23546 23547 23548 23549 23550 23551 23552 23553 23554 23555 23556 23557 23558 23559 23560 23561 23562 23563 23564 23565 23566 23567 23568 23569 23570 23571 23572 23573 23574 23575 23576 23577 23578 23579 23580 23581 23582 23583 23584 23585 23586 23587 23588 23589 23590 23591 23592 23593 23594 23595 23596 23597 23598 23599 23600 23601 23602 23603 23604 23605 23606 23607 23608 23609 23610 23611 23612 23613 23614 23615 23616 23617 23618 23619 23620 23621 23622 23623 23624 23625 23626 23627 23628 23629 23630 23631 23632 23633 23634 23635 23636 23637 23638 23639 23640 23641 23642 23643 23644 23645 23646 23647 23648 23649 23650 23651 23652 23653 23654 23655 23656 23657 23658 23659 23660 23661 23662 23663 23664 23665 23666 23667 23668 23669 23670 23671 23672 23673 23674 23675 23676 23677 23678 23679 23680 23681 23682 23683 23684 23685 23686 23687 23688 23689 23690 23691 23692 23693 23694 23695 23696 23697 23698 23699 23700 23701 23702 23703 23704 23705 23706 23707 23708 23709 23710 23711 23712 23713 23714 23715 23716 23717 23718 23719 23720 23721 23722 23723 23724 23725 23726 23727 23728 23729 23730 23731 23732 23733 23734 23735 23736 23737 23738 23739 23740 23741 23742 23743 23744 23745 23746 23747 23748 23749 23750 23751 23752 23753 23754 23755 23756 23757 23758 23759 23760 23761 23762 23763 23764 23765 23766 23767 23768 23769 23770 23771 23772 23773 23774 23775 23776 23777 23778 23779 23780 23781 23782 23783 23784 23785 23786 23787 23788 23789 23790 23791 23792 23793 23794 23795 23796 23797 23798 23799 23800 23801 23802 23803 23804 23805 23806 23807 23808 23809 23810 23811 23812 23813 23814 23815 23816 23817 23818 23819 23820 23821 23822 23823 23824 23825 23826 23827 23828 23829 23830 23831 23832 23833 23834 23835 23836 23837 23838 23839 23840 23841 23842 23843 23844 23845 23846 23847 23848 23849 23850 23851 23852 23853 23854 23855 23856 23857 23858 23859 23860 23861 23862 23863 23864 23865 23866 23867 23868 23869 23870 23871 23872 23873 23874 23875 23876 23877 23878 23879 23880 23881 23882 23883 23884 23885 23886 23887 23888 23889 23890 23891 23892 23893 23894 23895 23896 23897 23898 23899 23900 23901 23902 23903 23904 23905 23906 23907 23908 23909 23910 23911 23912 23913 23914 23915 23916 23917 23918 23919 23920 23921 23922 23923 23924 23925 23926 23927 23928 23929 23930 23931 23932 23933 23934 23935 23936 23937 23938 23939 23940 23941 23942 23943 23944 23945 23946 23947 23948 23949 23950 23951 23952 23953 23954 23955 23956 23957 23958 23959 23960 23961 23962 23963 23964 23965 23966 23967 23968 23969 23970 23971 23972 23973 23974 23975 23976 23977 23978 23979 23980 23981 23982 23983 23984 23985 23986 23987 23988 23989 23990 23991 23992 23993 23994 23995 23996 23997 23998 23999 24000 24001 24002 24003 24004 24005 24006 24007 24008 24009 24010 24011 24012 24013 24014 24015 24016 24017 24018 24019 24020 24021 24022 24023 24024 24025 24026 24027 24028 24029 24030 24031 24032 24033 24034 24035 24036 24037 24038 24039 24040 24041 24042 24043 24044 24045 24046 24047 24048 24049 24050 24051 24052 24053 24054 24055 24056 24057 24058 24059 24060 24061 24062 24063 24064 24065 24066 24067 24068 24069 24070 24071 24072 24073 24074 24075 24076 24077 24078 24079 24080 24081 24082 24083 24084 24085 24086 24087 24088 24089 24090 24091 24092 24093 24094 24095 24096 24097 24098 24099 24100 24101 24102 24103 24104 24105 24106 24107 24108 24109 24110 24111 24112 24113 24114 24115 24116 24117 24118 24119 24120 24121 24122 24123 24124 24125 24126 24127 24128 24129 24130 24131 24132 24133 24134 24135 24136 24137 24138 24139 24140 24141 24142 24143 24144 24145 24146 24147 24148 24149 24150 24151 24152 24153 24154 24155 24156 24157 24158 24159 24160 24161 24162 24163 24164 24165 24166 24167 24168 24169 24170 24171 24172 24173 24174 24175 24176 24177 24178 24179 24180 24181 24182 24183 24184 24185 24186 24187 24188 24189 24190 24191 24192 24193 24194 24195 24196 24197 24198 24199 24200 24201 24202 24203 24204 24205 24206 24207 24208 24209 24210 24211 24212 24213 24214 24215 24216 24217 24218 24219 24220 24221 24222 24223 24224 24225 24226 24227 24228 24229 24230 24231 24232 24233 24234 24235 24236 24237 24238 24239 24240 24241 24242 24243 24244 24245 24246 24247 24248 24249 24250 24251 24252 24253 24254 24255 24256 24257 24258 24259 24260 24261 24262 24263 24264 24265 24266 24267 24268 24269 24270 24271 24272 24273 24274 24275 24276 24277 24278 24279 24280 24281 24282 24283 24284 24285 24286 24287 24288 24289 24290 24291 24292 24293 24294 24295 24296 24297 24298 24299 24300 24301 24302 24303 24304 24305 24306 24307 24308 24309 24310 24311 24312 24313 24314 24315 24316 24317 24318 24319 24320 24321 24322 24323 24324 24325 24326 24327 24328 24329 24330 24331 24332 24333 24334 24335 24336 24337 24338 24339 24340 24341 24342 24343 24344 24345 24346 24347 24348 24349 24350 24351 24352 24353 24354 24355 24356 24357 24358 24359 24360 24361 24362 24363 24364 24365 24366 24367 24368 24369 24370 24371 24372 24373 24374 24375 24376 24377 24378 24379 24380 24381 24382 24383 24384 24385 24386 24387 24388 24389 24390 24391 24392 24393 24394 24395 24396 24397 24398 24399 24400 24401 24402 24403 24404 24405 24406 24407 24408 24409 24410 24411 24412 24413 24414 24415 24416 24417 24418 24419 24420 24421 24422 24423 24424 24425 24426 24427 24428 24429 24430 24431 24432 24433 24434 24435 24436 24437 24438 24439 24440 24441 24442 24443 24444 24445 24446 24447 24448 24449 24450 24451 24452 24453 24454 24455 24456 24457 24458 24459 24460 24461 24462 24463 24464 24465 24466 24467 24468 24469 24470 24471 24472 24473 24474 24475 24476 24477 24478 24479 24480 24481 24482 24483 24484 24485 24486 24487 24488 24489 24490 24491 24492 24493 24494 24495 24496 24497 24498 24499 24500 24501 24502 24503 24504 24505 24506 24507 24508 24509 24510 24511 24512 24513 24514 24515 24516 24517 24518 24519 24520 24521 24522 24523 24524 24525 24526 24527 24528 24529 24530 24531 24532 24533 24534 24535 24536 24537 24538 24539 24540 24541 24542 24543 24544 24545 24546 24547 24548 24549 24550 24551 24552 24553 24554 24555 24556 24557 24558 24559 24560 24561 24562 24563 24564 24565 24566 24567 24568 24569 24570 24571 24572 24573 24574 24575 24576 24577 24578 24579 24580 24581 24582 24583 24584 24585 24586 24587 24588 24589 24590 24591 24592 24593 24594 24595 24596 24597 24598 24599 24600 24601 24602 24603 24604 24605 24606 24607 24608 24609 24610 24611 24612 24613 24614 24615 24616 24617 24618 24619 24620 24621 24622 24623 24624 24625 24626 24627 24628 24629 24630 24631 24632 24633 24634 24635 24636 24637 24638 24639 24640 24641 24642 24643 24644 24645 24646 24647 24648 24649 24650 24651 24652 24653 24654 24655 24656 24657 24658 24659 24660 24661 24662 24663 24664 24665 24666 24667 24668 24669 24670 24671 24672 24673 24674 24675 24676 24677 24678 24679 24680 24681 24682 24683 24684 24685 24686 24687 24688 24689 24690 24691 24692 24693 24694 24695 24696 24697 24698 24699 24700 24701 24702 24703 24704 24705 24706 24707 24708 24709 24710 24711 24712 24713 24714 24715 24716 24717 24718 24719 24720 24721 24722 24723 24724 24725 24726 24727 24728 24729 24730 24731 24732 24733 24734 24735 24736 24737 24738 24739 24740 24741 24742 24743 24744 24745 24746 24747 24748 24749 24750 24751 24752 24753 24754 24755 24756 24757 24758 24759 24760 24761 24762 24763 24764 24765 24766 24767 24768 24769 24770 24771 24772 24773 24774 24775 24776 24777 24778 24779 24780 24781 24782 24783 24784 24785 24786 24787 24788 24789 24790 24791 24792 24793 24794 24795 24796 24797 24798 24799 24800 24801 24802 24803 24804 24805 24806 24807 24808 24809 24810 24811 24812 24813 24814 24815 24816 24817 24818 24819 24820 24821 24822 24823 24824 24825 24826 24827 24828 24829 24830 24831 24832 24833 24834 24835 24836 24837 24838 24839 24840 24841 24842 24843 24844 24845 24846 24847 24848 24849 24850 24851 24852 24853 24854 24855 24856 24857 24858 24859 24860 24861 24862 24863 24864 24865 24866 24867 24868 24869 24870 24871 24872 24873 24874 24875 24876 24877 24878 24879 24880 24881 24882 24883 24884 24885 24886 24887 24888 24889 24890 24891 24892 24893 24894 24895 24896 24897 24898 24899 24900 24901 24902 24903 24904 24905 24906 24907 24908 24909 24910 24911 24912 24913 24914 24915 24916 24917 24918 24919 24920 24921 24922 24923 24924 24925 24926 24927 24928 24929 24930 24931 24932 24933 24934 24935 24936 24937 24938 24939 24940 24941 24942 24943 24944 24945 24946 24947 24948 24949 24950 24951 24952 24953 24954 24955 24956 24957 24958 24959 24960 24961 24962 24963 24964 24965 24966 24967 24968 24969 24970 24971 24972 24973 24974 24975 24976 24977 24978 24979 24980 24981 24982 24983 24984 24985 24986 24987 24988 24989 24990 24991 24992 24993 24994 24995 24996 24997 24998 24999 25000 25001 25002 25003 25004 25005 25006 25007 25008 25009 25010 25011 25012 25013 25014 25015 25016 25017 25018 25019 25020 25021 25022 25023 25024 25025 25026 25027 25028 25029 25030 25031 25032 25033 25034 25035 25036 25037 25038 25039 25040 25041 25042 25043 25044 25045 25046 25047 25048 25049 25050 25051 25052 25053 25054 25055 25056 25057 25058 25059 25060 25061 25062 25063 25064 25065 25066 25067 25068 25069 25070 25071 25072 25073 25074 25075 25076 25077 25078 25079 25080 25081 25082 25083 25084 25085 25086 25087 25088 25089 25090 25091 25092 25093 25094 25095 25096 25097 25098 25099 25100 25101 25102 25103 25104 25105 25106 25107 25108 25109 25110 25111 25112 25113 25114 25115 25116 25117 25118 25119 25120 25121 25122 25123 25124 25125 25126 25127 25128 25129 25130 25131 25132 25133 25134 25135 25136 25137 25138 25139 25140 25141 25142 25143 25144 25145 25146 25147 25148 25149 25150 25151 25152 25153 25154 25155 25156 25157 25158 25159 25160 25161 25162 25163 25164 25165 25166 25167 25168 25169 25170 25171 25172 25173 25174 25175 25176 25177 25178 25179 25180 25181 25182 25183 25184 25185 25186 25187 25188 25189 25190 25191 25192 25193 25194 25195 25196 25197 25198 25199 25200 25201 25202 25203 25204 25205 25206 25207 25208 25209 25210 25211 25212 25213 25214 25215 25216 25217 25218 25219 25220 25221 25222 25223 25224 25225 25226 25227 25228 25229 25230 25231 25232 25233 25234 25235 25236 25237 25238 25239 25240 25241 25242 25243 25244 25245 25246 25247 25248 25249 25250 25251 25252 25253 25254 25255 25256 25257 25258 25259 25260 25261 25262 25263 25264 25265 25266 25267 25268 25269 25270 25271 25272 25273 25274 25275 25276 25277 25278 25279 25280 25281 25282 25283 25284 25285 25286 25287 25288 25289 25290 25291 25292 25293 25294 25295 25296 25297 25298 25299 25300 25301 25302 25303 25304 25305 25306 25307 25308 25309 25310 25311 25312 25313 25314 25315 25316 25317 25318 25319 25320 25321 25322 25323 25324 25325 25326 25327 25328 25329 25330 25331 25332 25333 25334 25335 25336 25337 25338 25339 25340 25341 25342 25343 25344 25345 25346 25347 25348 25349 25350 25351 25352 25353 25354 25355 25356 25357 25358 25359 25360 25361 25362 25363 25364 25365 25366 25367 25368 25369 25370 25371 25372 25373 25374 25375 25376 25377 25378 25379 25380 25381 25382 25383 25384 25385 25386 25387 25388 25389 25390 25391 25392 25393 25394 25395 25396 25397 25398 25399 25400 25401 25402 25403 25404 25405 25406 25407 25408 25409 25410 25411 25412 25413 25414 25415 25416 25417 25418 25419 25420 25421 25422 25423 25424 25425 25426 25427 25428 25429 25430 25431 25432 25433 25434 25435 25436 25437 25438 25439 25440 25441 25442 25443 25444 25445 25446 25447 25448 25449 25450 25451 25452 25453 25454 25455 25456 25457 25458 25459 25460 25461 25462 25463 25464 25465 25466 25467 25468 25469 25470 25471 25472 25473 25474 25475 25476 25477 25478 25479 25480 25481 25482 25483 25484 25485 25486 25487 25488 25489 25490 25491 25492 25493 25494 25495 25496 25497 25498 25499 25500 25501 25502 25503 25504 25505 25506 25507 25508 25509 25510 25511 25512 25513 25514 25515 25516 25517 25518 25519 25520 25521 25522 25523 25524 25525 25526 25527 25528 25529 25530 25531 25532 25533 25534 25535 25536 25537 25538 25539 25540 25541 25542 25543 25544 25545 25546 25547 25548 25549 25550 25551 25552 25553 25554 25555 25556 25557 25558 25559 25560 25561 25562 25563 25564 25565 25566 25567 25568 25569 25570 25571 25572 25573 25574 25575 25576 25577 25578 25579 25580 25581 25582 25583 25584 25585 25586 25587 25588 25589 25590 25591 25592 25593 25594 25595 25596 25597 25598 25599 25600 25601 25602 25603 25604 25605 25606 25607 25608 25609 25610 25611 25612 25613 25614 25615 25616 25617 25618 25619 25620 25621 25622 25623 25624 25625 25626 25627 25628 25629 25630 25631 25632 25633 25634 25635 25636 25637 25638 25639 25640 25641 25642 25643 25644 25645 25646 25647 25648 25649 25650 25651 25652 25653 25654 25655 25656 25657 25658 25659 25660 25661 25662 25663 25664 25665 25666 25667 25668 25669 25670 25671 25672 25673 25674 25675 25676 25677 25678 25679 25680 25681 25682 25683 25684 25685 25686 25687 25688 25689 25690 25691 25692 25693 25694 25695 25696 25697 25698 25699 25700 25701 25702 25703 25704 25705 25706 25707 25708 25709 25710 25711 25712 25713 25714 25715 25716 25717 25718 25719 25720 25721 25722 25723 25724 25725 25726 25727 25728 25729 25730 25731 25732 25733 25734 25735 25736 25737 25738 25739 25740 25741 25742 25743 25744 25745 25746 25747 25748 25749 25750 25751 25752 25753 25754 25755 25756 25757 25758 25759 25760 25761 25762 25763 25764 25765 25766 25767 25768 25769 25770 25771 25772 25773 25774 25775 25776 25777 25778 25779 25780 25781 25782 25783 25784 25785 25786 25787 25788 25789 25790 25791 25792 25793 25794 25795 25796 25797 25798 25799 25800 25801 25802 25803 25804 25805 25806 25807 25808 25809 25810 25811 25812 25813 25814 25815 25816 25817 25818 25819 25820 25821 25822 25823 25824 25825 25826 25827 25828 25829 25830 25831 25832 25833 25834 25835 25836 25837 25838 25839 25840 25841 25842 25843 25844 25845 25846 25847 25848 25849 25850 25851 25852 25853 25854 25855 25856 25857 25858 25859 25860 25861 25862 25863 25864 25865 25866 25867 25868 25869 25870 25871 25872 25873 25874 25875 25876 25877 25878 25879 25880 25881 25882 25883 25884 25885 25886 25887 25888 25889 25890 25891 25892 25893 25894 25895 25896 25897 25898 25899 25900 25901 25902 25903 25904 25905 25906 25907 25908 25909 25910 25911 25912 25913 25914 25915 25916 25917 25918 25919 25920 25921 25922 25923 25924 25925 25926 25927 25928 25929 25930 25931 25932 25933 25934 25935 25936 25937 25938 25939 25940 25941 25942 25943 25944 25945 25946 25947 25948 25949 25950 25951 25952 25953 25954 25955 25956 25957 25958 25959 25960 25961 25962 25963 25964 25965 25966 25967 25968 25969 25970 25971 25972 25973 25974 25975 25976 25977 25978 25979 25980 25981 25982 25983 25984 25985 25986 25987 25988 25989 25990 25991 25992 25993 25994 25995 25996 25997 25998 25999 26000 26001 26002 26003 26004 26005 26006 26007 26008 26009 26010 26011 26012 26013 26014 26015 26016 26017 26018 26019 26020 26021 26022 26023 26024 26025 26026 26027 26028 26029 26030 26031 26032 26033 26034 26035 26036 26037 26038 26039 26040 26041 26042 26043 26044 26045 26046 26047 26048 26049 26050 26051 26052 26053 26054 26055 26056 26057 26058 26059 26060 26061 26062 26063 26064 26065 26066 26067 26068 26069 26070 26071 26072 26073 26074 26075 26076 26077 26078 26079 26080 26081 26082 26083 26084 26085 26086 26087 26088 26089 26090 26091 26092 26093 26094 26095 26096 26097 26098 26099 26100 26101 26102 26103 26104 26105 26106 26107 26108 26109 26110 26111 26112 26113 26114 26115 26116 26117 26118 26119 26120 26121 26122 26123 26124 26125 26126 26127 26128 26129 26130 26131 26132 26133 26134 26135 26136 26137 26138 26139 26140 26141 26142 26143 26144 26145 26146 26147 26148 26149 26150 26151 26152 26153 26154 26155 26156 26157 26158 26159 26160 26161 26162 26163 26164 26165 26166 26167 26168 26169 26170 26171 26172 26173 26174 26175 26176 26177 26178 26179 26180 26181 26182 26183 26184 26185 26186 26187 26188 26189 26190 26191 26192 26193 26194 26195 26196 26197 26198 26199 26200 26201 26202 26203 26204 26205 26206 26207 26208 26209 26210 26211 26212 26213 26214 26215 26216 26217 26218 26219 26220 26221 26222 26223 26224 26225 26226 26227 26228 26229 26230 26231 26232 26233 26234 26235 26236 26237 26238 26239 26240 26241 26242 26243 26244 26245 26246 26247 26248 26249 26250 26251 26252 26253 26254 26255 26256 26257 26258 26259 26260 26261 26262 26263 26264 26265 26266 26267 26268 26269 26270 26271 26272 26273 26274 26275 26276 26277 26278 26279 26280 26281 26282 26283 26284 26285 26286 26287 26288 26289 26290 26291 26292 26293 26294 26295 26296 26297 26298 26299 26300 26301 26302 26303 26304 26305 26306 26307 26308 26309 26310 26311 26312 26313 26314 26315 26316 26317 26318 26319 26320 26321 26322 26323 26324 26325 26326 26327 26328 26329 26330 26331 26332 26333 26334 26335 26336 26337 26338 26339 26340 26341 26342 26343 26344 26345 26346 26347 26348 26349 26350 26351 26352 26353 26354 26355 26356 26357 26358 26359 26360 26361 26362 26363 26364 26365 26366 26367 26368 26369 26370 26371 26372 26373 26374 26375 26376 26377 26378 26379 26380 26381 26382 26383 26384 26385 26386 26387 26388 26389 26390 26391 26392 26393 26394 26395 26396 26397 26398 26399 26400 26401 26402 26403 26404 26405 26406 26407 26408 26409 26410 26411 26412 26413 26414 26415 26416 26417 26418 26419 26420 26421 26422 26423 26424 26425 26426 26427 26428 26429 26430 26431 26432 26433 26434 26435 26436 26437 26438 26439 26440 26441 26442 26443 26444 26445 26446 26447 26448 26449 26450 26451 26452 26453 26454 26455 26456 26457 26458 26459 26460 26461 26462 26463 26464 26465 26466 26467 26468 26469 26470 26471 26472 26473 26474 26475 26476 26477 26478 26479 26480 26481 26482 26483 26484 26485 26486 26487 26488 26489 26490 26491 26492 26493 26494 26495 26496 26497 26498 26499 26500 26501 26502 26503 26504 26505 26506 26507 26508 26509 26510 26511 26512 26513 26514 26515 26516 26517 26518 26519 26520 26521 26522 26523 26524 26525 26526 26527 26528 26529 26530 26531 26532 26533 26534 26535 26536 26537 26538 26539 26540 26541 26542 26543 26544 26545 26546 26547 26548 26549 26550 26551 26552 26553 26554 26555 26556 26557 26558 26559 26560 26561 26562 26563 26564 26565 26566 26567 26568 26569 26570 26571 26572 26573 26574 26575 26576 26577 26578 26579 26580 26581 26582 26583 26584 26585 26586 26587 26588 26589 26590 26591 26592 26593 26594 26595 26596 26597 26598 26599 26600 26601 26602 26603 26604 26605 26606 26607 26608 26609 26610 26611 26612 26613 26614 26615 26616 26617 26618 26619 26620 26621 26622 26623 26624 26625 26626 26627 26628 26629 26630 26631 26632 26633 26634 26635 26636 26637 26638 26639 26640 26641 26642 26643 26644 26645 26646 26647 26648 26649 26650 26651 26652 26653 26654 26655 26656 26657 26658 26659 26660 26661 26662 26663 26664 26665 26666 26667 26668 26669 26670 26671 26672 26673 26674 26675 26676 26677 26678 26679 26680 26681 26682 26683 26684 26685 26686 26687 26688 26689 26690 26691 26692 26693 26694 26695 26696 26697 26698 26699 26700 26701 26702 26703 26704 26705 26706 26707 26708 26709 26710 26711 26712 26713 26714 26715 26716 26717 26718 26719 26720 26721 26722 26723 26724 26725 26726 26727 26728 26729 26730 26731 26732 26733 26734 26735 26736 26737 26738 26739 26740 26741 26742 26743 26744 26745 26746 26747 26748 26749 26750 26751 26752 26753 26754 26755 26756 26757 26758 26759 26760 26761 26762 26763 26764 26765 26766 26767 26768 26769 26770 26771 26772 26773 26774 26775 26776 26777 26778 26779 26780 26781 26782 26783 26784 26785 26786 26787 26788 26789 26790 26791 26792 26793 26794 26795 26796 26797 26798 26799 26800 26801 26802 26803 26804 26805 26806 26807 26808 26809 26810 26811 26812 26813 26814 26815 26816 26817 26818 26819 26820 26821 26822 26823 26824 26825 26826 26827 26828 26829 26830 26831 26832 26833 26834 26835 26836 26837 26838 26839 26840 26841 26842 26843 26844 26845 26846 26847 26848 26849 26850 26851 26852 26853 26854 26855 26856 26857 26858 26859 26860 26861 26862 26863 26864 26865 26866 26867 26868 26869 26870 26871 26872 26873 26874 26875 26876 26877 26878 26879 26880 26881 26882 26883 26884 26885 26886 26887 26888 26889 26890 26891 26892 26893 26894 26895 26896 26897 26898 26899 26900 26901 26902 26903 26904 26905 26906 26907 26908 26909 26910 26911 26912 26913 26914 26915 26916 26917 26918 26919 26920 26921 26922 26923 26924 26925 26926 26927 26928 26929 26930 26931 26932 26933 26934 26935 26936 26937 26938 26939 26940 26941 26942 26943 26944 26945 26946 26947 26948 26949 26950 26951 26952 26953 26954 26955 26956 26957 26958 26959 26960 26961 26962 26963 26964 26965 26966 26967 26968 26969 26970 26971 26972 26973 26974 26975 26976 26977 26978 26979 26980 26981 26982 26983 26984 26985 26986 26987 26988 26989 26990 26991 26992 26993 26994 26995 26996 26997 26998 26999 27000 27001 27002 27003 27004 27005 27006 27007 27008 27009 27010 27011 27012 27013 27014 27015 27016 27017 27018 27019 27020 27021 27022 27023 27024 27025 27026 27027 27028 27029 27030 27031 27032 27033 27034 27035 27036 27037 27038 27039 27040 27041 27042 27043 27044 27045 27046 27047 27048 27049 27050 27051 27052 27053 27054 27055 27056 27057 27058 27059 27060 27061 27062 27063 27064 27065 27066 27067 27068 27069 27070 27071 27072 27073 27074 27075 27076 27077 27078 27079 27080 27081 27082 27083 27084 27085 27086 27087 27088 27089 27090 27091 27092 27093 27094 27095 27096 27097 27098 27099 27100 27101 27102 27103 27104 27105 27106 27107 27108 27109 27110 27111 27112 27113 27114 27115 27116 27117 27118 27119 27120 27121 27122 27123 27124 27125 27126 27127 27128 27129 27130 27131 27132 27133 27134 27135 27136 27137 27138 27139 27140 27141 27142 27143 27144 27145 27146 27147 27148 27149 27150 27151 27152 27153 27154 27155 27156 27157 27158 27159 27160 27161 27162 27163 27164 27165 27166 27167 27168 27169 27170 27171 27172 27173 27174 27175 27176 27177 27178 27179 27180 27181 27182 27183 27184 27185 27186 27187 27188 27189 27190 27191 27192 27193 27194 27195 27196 27197 27198 27199 27200 27201 27202 27203 27204 27205 27206 27207 27208 27209 27210 27211 27212 27213 27214 27215 27216 27217 27218 27219 27220 27221 27222 27223 27224 27225 27226 27227 27228 27229 27230 27231 27232 27233 27234 27235 27236 27237 27238 27239 27240 27241 27242 27243 27244 27245 27246 27247 27248 27249 27250 27251 27252 27253 27254 27255 27256 27257 27258 27259 27260 27261 27262 27263 27264 27265 27266 27267 27268 27269 27270 27271 27272 27273 27274 27275 27276 27277 27278 27279 27280 27281 27282 27283 27284 27285 27286 27287 27288 27289 27290 27291 27292 27293 27294 27295 27296 27297 27298 27299 27300 27301 27302 27303 27304 27305 27306 27307 27308 27309 27310 27311 27312 27313 27314 27315 27316 27317 27318 27319 27320 27321 27322 27323 27324 27325 27326 27327 27328 27329 27330 27331 27332 27333 27334 27335 27336 27337 27338 27339 27340 27341 27342 27343 27344 27345 27346 27347 27348 27349 27350 27351 27352 27353 27354 27355 27356 27357 27358 27359 27360 27361 27362 27363 27364 27365 27366 27367 27368 27369 27370 27371 27372 27373 27374 27375 27376 27377 27378 27379 27380 27381 27382 27383 27384 27385 27386 27387 27388 27389 27390 27391 27392 27393 27394 27395 27396 27397 27398 27399 27400 27401 27402 27403 27404 27405 27406 27407 27408 27409 27410 27411 27412 27413 27414 27415 27416 27417 27418 27419 27420 27421 27422 27423 27424 27425 27426 27427 27428 27429 27430 27431 27432 27433 27434 27435 27436 27437 27438 27439 27440 27441 27442 27443 27444 27445 27446 27447 27448 27449 27450 27451 27452 27453 27454 27455 27456 27457 27458 27459 27460 27461 27462 27463 27464 27465 27466 27467 27468 27469 27470 27471 27472 27473 27474 27475 27476 27477 27478 27479 27480 27481 27482 27483 27484 27485 27486 27487 27488 27489 27490 27491 27492 27493 27494 27495 27496 27497 27498 27499 27500 27501 27502 27503 27504 27505 27506 27507 27508 27509 27510 27511 27512 27513 27514 27515 27516 27517 27518 27519 27520 27521 27522 27523 27524 27525 27526 27527 27528 27529 27530 27531 27532 27533 27534 27535 27536 27537 27538 27539 27540 27541 27542 27543 27544 27545 27546 27547 27548 27549 27550 27551 27552 27553 27554 27555 27556 27557 27558 27559 27560 27561 27562 27563 27564 27565 27566 27567 27568 27569 27570 27571 27572 27573 27574 27575 27576 27577 27578 27579 27580 27581 27582 27583 27584 27585 27586 27587 27588 27589 27590 27591 27592 27593 27594 27595 27596 27597 27598 27599 27600 27601 27602 27603 27604 27605 27606 27607 27608 27609 27610 27611 27612 27613 27614 27615 27616 27617 27618 27619 27620 27621 27622 27623 27624 27625 27626 27627 27628 27629 27630 27631 27632 27633 27634 27635 27636 27637 27638 27639 27640 27641 27642 27643 27644 27645 27646 27647 27648 27649 27650 27651 27652 27653 27654 27655 27656 27657 27658 27659 27660 27661 27662 27663 27664 27665 27666 27667 27668 27669 27670 27671 27672 27673 27674 27675 27676 27677 27678 27679 27680 27681 27682 27683 27684 27685 27686 27687 27688 27689 27690 27691 27692 27693 27694 27695 27696 27697 27698 27699 27700 27701 27702 27703 27704 27705 27706 27707 27708 27709 27710 27711 27712 27713 27714 27715 27716 27717 27718 27719 27720 27721 27722 27723 27724 27725 27726 27727 27728 27729 27730 27731 27732 27733 27734 27735 27736 27737 27738 27739 27740 27741 27742 27743 27744 27745 27746 27747 27748 27749 27750 27751 27752 27753 27754 27755 27756 27757 27758 27759 27760 27761 27762 27763 27764 27765 27766 27767 27768 27769 27770 27771 27772 27773 27774 27775 27776 27777 27778 27779 27780 27781 27782 27783 27784 27785 27786 27787 27788 27789 27790 27791 27792 27793 27794 27795 27796 27797 27798 27799 27800 27801 27802 27803 27804 27805 27806 27807 27808 27809 27810 27811 27812 27813 27814 27815 27816 27817 27818 27819 27820 27821 27822 27823 27824 27825 27826 27827 27828 27829 27830 27831 27832 27833 27834 27835 27836 27837 27838 27839 27840 27841 27842 27843 27844 27845 27846 27847 27848 27849 27850 27851 27852 27853 27854 27855 27856 27857 27858 27859 27860 27861 27862 27863 27864 27865 27866 27867 27868 27869 27870 27871 27872 27873 27874 27875 27876 27877 27878 27879 27880 27881 27882 27883 27884 27885 27886 27887 27888 27889 27890 27891 27892 27893 27894 27895 27896 27897 27898 27899 27900 27901 27902 27903 27904 27905 27906 27907 27908 27909 27910 27911 27912 27913 27914 27915 27916 27917 27918 27919 27920 27921 27922 27923 27924 27925 27926 27927 27928 27929 27930 27931 27932 27933 27934 27935 27936 27937 27938 27939 27940 27941 27942 27943 27944 27945 27946 27947 27948 27949 27950 27951 27952 27953 27954 27955 27956 27957 27958 27959 27960 27961 27962 27963 27964 27965 27966 27967 27968 27969 27970 27971 27972 27973 27974 27975 27976 27977 27978 27979 27980 27981 27982 27983 27984 27985 27986 27987 27988 27989 27990 27991 27992 27993 27994 27995 27996 27997 27998 27999 28000 28001 28002 28003 28004 28005 28006 28007 28008 28009 28010 28011 28012 28013 28014 28015 28016 28017 28018 28019 28020 28021 28022 28023 28024 28025 28026 28027 28028 28029 28030 28031 28032 28033 28034 28035 28036 28037 28038 28039 28040 28041 28042 28043 28044 28045 28046 28047 28048 28049 28050 28051 28052 28053 28054 28055 28056 28057 28058 28059 28060 28061 28062 28063 28064 28065 28066 28067 28068 28069 28070 28071 28072 28073 28074 28075 28076 28077 28078 28079 28080 28081 28082 28083 28084 28085 28086 28087 28088 28089 28090 28091 28092 28093 28094 28095 28096 28097 28098 28099 28100 28101 28102 28103 28104 28105 28106 28107 28108 28109 28110 28111 28112 28113 28114 28115 28116 28117 28118 28119 28120 28121 28122 28123 28124 28125 28126 28127 28128 28129 28130 28131 28132 28133 28134 28135 28136 28137 28138 28139 28140 28141 28142 28143 28144 28145 28146 28147 28148 28149 28150 28151 28152 28153 28154 28155 28156 28157 28158 28159 28160 28161 28162 28163 28164 28165 28166 28167 28168 28169 28170 28171 28172 28173 28174 28175 28176 28177 28178 28179 28180 28181 28182 28183 28184 28185 28186 28187 28188 28189 28190 28191 28192 28193 28194 28195 28196 28197 28198 28199 28200 28201 28202 28203 28204 28205 28206 28207 28208 28209 28210 28211 28212 28213 28214 28215 28216 28217 28218 28219 28220 28221 28222 28223 28224 28225 28226 28227 28228 28229 28230 28231 28232 28233 28234 28235 28236 28237 28238 28239 28240 28241 28242 28243 28244 28245 28246 28247 28248 28249 28250 28251 28252 28253 28254 28255 28256 28257 28258 28259 28260 28261 28262 28263 28264 28265 28266 28267 28268 28269 28270 28271 28272 28273 28274 28275 28276 28277 28278 28279 28280 28281 28282 28283 28284 28285 28286 28287 28288 28289 28290 28291 28292 28293 28294 28295 28296 28297 28298 28299 28300 28301 28302 28303 28304 28305 28306 28307 28308 28309 28310 28311 28312 28313 28314 28315 28316 28317 28318 28319 28320 28321 28322 28323 28324 28325 28326 28327 28328 28329 28330 28331 28332 28333 28334 28335 28336 28337 28338 28339 28340 28341 28342 28343 28344 28345 28346 28347 28348 28349 28350 28351 28352 28353 28354 28355 28356 28357 28358 28359 28360 28361 28362 28363 28364 28365 28366 28367 28368 28369 28370 28371 28372 28373 28374 28375 28376 28377 28378 28379 28380 28381 28382 28383 28384 28385 28386 28387 28388 28389 28390 28391 28392 28393 28394 28395 28396 28397 28398 28399 28400 28401 28402 28403 28404 28405 28406 28407 28408 28409 28410 28411 28412 28413 28414 28415 28416 28417 28418 28419 28420 28421 28422 28423 28424 28425 28426 28427 28428 28429 28430 28431 28432 28433 28434 28435 28436 28437 28438 28439 28440 28441 28442 28443 28444 28445 28446 28447 28448 28449 28450 28451 28452 28453 28454 28455 28456 28457 28458 28459 28460 28461 28462 28463 28464 28465 28466 28467 28468 28469 28470 28471 28472 28473 28474 28475 28476 28477 28478 28479 28480 28481 28482 28483 28484 28485 28486 28487 28488 28489 28490 28491 28492 28493 28494 28495 28496 28497 28498 28499 28500 28501 28502 28503 28504 28505 28506 28507 28508 28509 28510 28511 28512 28513 28514 28515 28516 28517 28518 28519 28520 28521 28522 28523 28524 28525 28526 28527 28528 28529 28530 28531 28532 28533 28534 28535 28536 28537 28538 28539 28540 28541 28542 28543 28544 28545 28546 28547 28548 28549 28550 28551 28552 28553 28554 28555 28556 28557 28558 28559 28560 28561 28562 28563 28564 28565 28566 28567 28568 28569 28570 28571 28572 28573 28574 28575 28576 28577 28578 28579 28580 28581 28582 28583 28584 28585 28586 28587 28588 28589 28590 28591 28592 28593 28594 28595 28596 28597 28598 28599 28600 28601 28602 28603 28604 28605 28606 28607 28608 28609 28610 28611 28612 28613 28614 28615 28616 28617 28618 28619 28620 28621 28622 28623 28624 28625 28626 28627 28628 28629 28630 28631 28632 28633 28634 28635 28636 28637 28638 28639 28640 28641 28642 28643 28644 28645 28646 28647 28648 28649 28650 28651 28652 28653 28654 28655 28656 28657 28658 28659 28660 28661 28662 28663 28664 28665 28666 28667 28668 28669 28670 28671 28672 28673 28674 28675 28676 28677 28678 28679 28680 28681 28682 28683 28684 28685 28686 28687 28688 28689 28690 28691 28692 28693 28694 28695 28696 28697 28698 28699 28700 28701 28702 28703 28704 28705 28706 28707 28708 28709 28710 28711 28712 28713 28714 28715 28716 28717 28718 28719 28720 28721 28722 28723 28724 28725 28726 28727 28728 28729 28730 28731 28732 28733 28734 28735 28736 28737 28738 28739 28740 28741 28742 28743 28744 28745 28746 28747 28748 28749 28750 28751 28752 28753 28754 28755 28756 28757 28758 28759 28760 28761 28762 28763 28764 28765 28766 28767 28768 28769 28770 28771 28772 28773 28774 28775 28776 28777 28778 28779 28780 28781 28782 28783 28784 28785 28786 28787 28788 28789 28790 28791 28792 28793 28794 28795 28796 28797 28798 28799 28800 28801 28802 28803 28804 28805 28806 28807 28808 28809 28810 28811 28812 28813 28814 28815 28816 28817 28818 28819 28820 28821 28822 28823 28824 28825 28826 28827 28828 28829 28830 28831 28832 28833 28834 28835 28836 28837 28838 28839 28840 28841 28842 28843 28844 28845 28846 28847 28848 28849 28850 28851 28852 28853 28854 28855 28856 28857 28858 28859 28860 28861 28862 28863 28864 28865 28866 28867 28868 28869 28870 28871 28872 28873 28874 28875 28876 28877 28878 28879 28880 28881 28882 28883 28884 28885 28886 28887 28888 28889 28890 28891 28892 28893 28894 28895 28896 28897 28898 28899 28900 28901 28902 28903 28904 28905 28906 28907 28908 28909 28910 28911 28912 28913 28914 28915 28916 28917 28918 28919 28920 28921 28922 28923 28924 28925 28926 28927 28928 28929 28930 28931 28932 28933 28934 28935 28936 28937 28938 28939 28940 28941 28942 28943 28944 28945 28946 28947 28948 28949 28950 28951 28952 28953 28954 28955 28956 28957 28958 28959 28960 28961 28962 28963 28964 28965 28966 28967 28968 28969 28970 28971 28972 28973 28974 28975 28976 28977 28978 28979 28980 28981 28982 28983 28984 28985 28986 28987 28988 28989 28990 28991 28992 28993 28994 28995 28996 28997 28998 28999 29000 29001 29002 29003 29004 29005 29006 29007 29008 29009 29010 29011 29012 29013 29014 29015 29016 29017 29018 29019 29020 29021 29022 29023 29024 29025 29026 29027 29028 29029 29030 29031 29032 29033 29034 29035 29036 29037 29038 29039 29040 29041 29042 29043 29044 29045 29046 29047 29048 29049 29050 29051 29052 29053 29054 29055 29056 29057 29058 29059 29060 29061 29062 29063 29064 29065 29066 29067 29068 29069 29070 29071 29072 29073 29074 29075 29076 29077 29078 29079 29080 29081 29082 29083 29084 29085 29086 29087 29088 29089 29090 29091 29092 29093 29094 29095 29096 29097 29098 29099 29100 29101 29102 29103 29104 29105 29106 29107 29108 29109 29110 29111 29112 29113 29114 29115 29116 29117 29118 29119 29120 29121 29122 29123 29124 29125 29126 29127 29128 29129 29130 29131 29132 29133 29134 29135 29136 29137 29138 29139 29140 29141 29142 29143 29144 29145 29146 29147 29148 29149 29150 29151 29152 29153 29154 29155 29156 29157 29158 29159 29160 29161 29162 29163 29164 29165 29166 29167 29168 29169 29170 29171 29172 29173 29174 29175 29176 29177 29178 29179 29180 29181 29182 29183 29184 29185 29186 29187 29188 29189 29190 29191 29192 29193 29194 29195 29196 29197 29198 29199 29200 29201 29202 29203 29204 29205 29206 29207 29208 29209 29210 29211 29212 29213 29214 29215 29216 29217 29218 29219 29220 29221 29222 29223 29224 29225 29226 29227 29228 29229 29230 29231 29232 29233 29234 29235 29236 29237 29238 29239 29240 29241 29242 29243 29244 29245 29246 29247 29248 29249 29250 29251 29252 29253 29254 29255 29256 29257 29258 29259 29260 29261 29262 29263 29264 29265 29266 29267 29268 29269 29270 29271 29272 29273 29274 29275 29276 29277 29278 29279 29280 29281 29282 29283 29284 29285 29286 29287 29288 29289 29290 29291 29292 29293 29294 29295 29296 29297 29298 29299 29300 29301 29302 29303 29304 29305 29306 29307 29308 29309 29310 29311 29312 29313 29314 29315 29316 29317 29318 29319 29320 29321 29322 29323 29324 29325 29326 29327 29328 29329 29330 29331 29332 29333 29334 29335 29336 29337 29338 29339 29340 29341 29342 29343 29344 29345 29346 29347 29348 29349 29350 29351 29352 29353 29354 29355 29356 29357 29358 29359 29360 29361 29362 29363 29364 29365 29366 29367 29368 29369 29370 29371 29372 29373 29374 29375 29376 29377 29378 29379 29380 29381 29382 29383 29384 29385 29386 29387 29388 29389 29390 29391 29392 29393 29394 29395 29396 29397 29398 29399 29400 29401 29402 29403 29404 29405 29406 29407 29408 29409 29410 29411 29412 29413 29414 29415 29416 29417 29418 29419 29420 29421 29422 29423 29424 29425 29426 29427 29428 29429 29430 29431 29432 29433 29434 29435 29436 29437 29438 29439 29440 29441 29442 29443 29444 29445 29446 29447 29448 29449 29450 29451 29452 29453 29454 29455 29456 29457 29458 29459 29460 29461 29462 29463 29464 29465 29466 29467 29468 29469 29470 29471 29472 29473 29474 29475 29476 29477 29478 29479 29480 29481 29482 29483 29484 29485 29486 29487 29488 29489 29490 29491 29492 29493 29494 29495 29496 29497 29498 29499 29500 29501 29502 29503 29504 29505 29506 29507 29508 29509 29510 29511 29512 29513 29514 29515 29516 29517 29518 29519 29520 29521 29522 29523 29524 29525 29526 29527 29528 29529 29530 29531 29532 29533 29534 29535 29536 29537 29538 29539 29540 29541 29542 29543 29544 29545 29546 29547 29548 29549 29550 29551 29552 29553 29554 29555 29556 29557 29558 29559 29560 29561 29562 29563 29564 29565 29566 29567 29568 29569 29570 29571 29572 29573 29574 29575 29576 29577 29578 29579 29580 29581 29582 29583 29584 29585 29586 29587 29588 29589 29590 29591 29592 29593 29594 29595 29596 29597 29598 29599 29600 29601 29602 29603 29604 29605 29606 29607 29608 29609 29610 29611 29612 29613 29614 29615 29616 29617 29618 29619 29620 29621 29622 29623 29624 29625 29626 29627 29628 29629 29630 29631 29632 29633 29634 29635 29636 29637 29638 29639 29640 29641 29642 29643 29644 29645 29646 29647 29648 29649 29650 29651 29652 29653 29654 29655 29656 29657 29658 29659 29660 29661 29662 29663 29664 29665 29666 29667 29668 29669 29670 29671 29672 29673 29674 29675 29676 29677 29678 29679 29680 29681 29682 29683 29684 29685 29686 29687 29688 29689 29690 29691 29692 29693 29694 29695 29696 29697 29698 29699 29700 29701 29702 29703 29704 29705 29706 29707 29708 29709 29710 29711 29712 29713 29714 29715 29716 29717 29718 29719 29720 29721 29722 29723 29724 29725 29726 29727 29728 29729 29730 29731 29732 29733 29734 29735 29736 29737 29738 29739 29740 29741 29742 29743 29744 29745 29746 29747 29748 29749 29750 29751 29752 29753 29754 29755 29756 29757 29758 29759 29760 29761 29762 29763 29764 29765 29766 29767 29768 29769 29770 29771 29772 29773 29774 29775 29776 29777 29778 29779 29780 29781 29782 29783 29784 29785 29786 29787 29788 29789 29790 29791 29792 29793 29794 29795 29796 29797 29798 29799 29800 29801 29802 29803 29804 29805 29806 29807 29808 29809 29810 29811 29812 29813 29814 29815 29816 29817 29818 29819 29820 29821 29822 29823 29824 29825 29826 29827 29828 29829 29830 29831 29832 29833 29834 29835 29836 29837 29838 29839 29840 29841 29842 29843 29844 29845 29846 29847 29848 29849 29850 29851 29852 29853 29854 29855 29856 29857 29858 29859 29860 29861 29862 29863 29864 29865 29866 29867 29868 29869 29870 29871 29872 29873 29874 29875 29876 29877 29878 29879 29880 29881 29882 29883 29884 29885 29886 29887 29888 29889 29890 29891 29892 29893 29894 29895 29896 29897 29898 29899 29900 29901 29902 29903 29904 29905 29906 29907 29908 29909 29910 29911 29912 29913 29914 29915 29916 29917 29918 29919 29920 29921 29922 29923 29924 29925 29926 29927 29928 29929 29930 29931 29932 29933 29934 29935 29936 29937 29938 29939 29940 29941 29942 29943 29944 29945 29946 29947 29948 29949 29950 29951 29952 29953 29954 29955 29956 29957 29958 29959 29960 29961 29962 29963 29964 29965 29966 29967 29968 29969 29970 29971 29972 29973 29974 29975 29976 29977 29978 29979 29980 29981 29982 29983 29984 29985 29986 29987 29988 29989 29990 29991 29992 29993 29994 29995 29996 29997 29998 29999 30000 30001 30002 30003 30004 30005 30006 30007 30008 30009 30010 30011 30012 30013 30014 30015 30016 30017 30018 30019 30020 30021 30022 30023 30024 30025 30026 30027 30028 30029 30030 30031 30032 30033 30034 30035 30036 30037 30038 30039 30040 30041 30042 30043 30044 30045 30046 30047 30048 30049 30050 30051 30052 30053 30054 30055 30056 30057 30058 30059 30060 30061 30062 30063 30064 30065 30066 30067 30068 30069 30070 30071 30072 30073 30074 30075 30076 30077 30078 30079 30080 30081 30082 30083 30084 30085 30086 30087 30088 30089 30090 30091 30092 30093 30094 30095 30096 30097 30098 30099 30100 30101 30102 30103 30104 30105 30106 30107 30108 30109 30110 30111 30112 30113 30114 30115 30116 30117 30118 30119 30120 30121 30122 30123 30124 30125 30126 30127 30128 30129 30130 30131 30132 30133 30134 30135 30136 30137 30138 30139 30140 30141 30142 30143 30144 30145 30146 30147 30148 30149 30150 30151 30152 30153 30154 30155 30156 30157 30158 30159 30160 30161 30162 30163 30164 30165 30166 30167 30168 30169 30170 30171 30172 30173 30174 30175 30176 30177 30178 30179 30180 30181 30182 30183 30184 30185 30186 30187 30188 30189 30190 30191 30192 30193 30194 30195 30196 30197 30198 30199 30200 30201 30202 30203 30204 30205 30206 30207 30208 30209 30210 30211 30212 30213 30214 30215 30216 30217 30218 30219 30220 30221 30222 30223 30224 30225 30226 30227 30228 30229 30230 30231 30232 30233 30234 30235 30236 30237 30238 30239 30240 30241 30242 30243 30244 30245 30246 30247 30248 30249 30250 30251 30252 30253 30254 30255 30256 30257 30258 30259 30260 30261 30262 30263 30264 30265 30266 30267 30268 30269 30270 30271 30272 30273 30274 30275 30276 30277 30278 30279 30280 30281 30282 30283 30284 30285 30286 30287 30288 30289 30290 30291 30292 30293 30294 30295 30296 30297 30298 30299 30300 30301 30302 30303 30304 30305 30306 30307 30308 30309 30310 30311 30312 30313 30314 30315 30316 30317 30318 30319 30320 30321 30322 30323 30324 30325 30326 30327 30328 30329 30330 30331 30332 30333 30334 30335 30336 30337 30338 30339 30340 30341 30342 30343 30344 30345 30346 30347 30348 30349 30350 30351 30352 30353 30354 30355 30356 30357 30358 30359 30360 30361 30362 30363 30364 30365 30366 30367 30368 30369 30370 30371 30372 30373 30374 30375 30376 30377 30378 30379 30380 30381 30382 30383 30384 30385 30386 30387 30388 30389 30390 30391 30392 30393 30394 30395 30396 30397 30398 30399 30400 30401 30402 30403 30404 30405 30406 30407 30408 30409 30410 30411 30412 30413 30414 30415 30416 30417 30418 30419 30420 30421 30422 30423 30424 30425 30426 30427 30428 30429 30430 30431 30432 30433 30434 30435 30436 30437 30438 30439 30440 30441 30442 30443 30444 30445 30446 30447 30448 30449 30450 30451 30452 30453 30454 30455 30456 30457 30458 30459 30460 30461 30462 30463 30464 30465 30466 30467 30468 30469 30470 30471 30472 30473 30474 30475 30476 30477 30478 30479 30480 30481 30482 30483 30484 30485 30486 30487 30488 30489 30490 30491 30492 30493 30494 30495 30496 30497 30498 30499 30500 30501 30502 30503 30504 30505 30506 30507 30508 30509 30510 30511 30512 30513 30514 30515 30516 30517 30518 30519 30520 30521 30522 30523 30524 30525 30526 30527 30528 30529 30530 30531 30532 30533 30534 30535 30536 30537 30538 30539 30540 30541 30542 30543 30544 30545 30546 30547 30548 30549 30550 30551 30552 30553 30554 30555 30556 30557 30558 30559 30560 30561 30562 30563 30564 30565 30566 30567 30568 30569 30570 30571 30572 30573 30574 30575 30576 30577 30578 30579 30580 30581 30582 30583 30584 30585 30586 30587 30588 30589 30590 30591 30592 30593 30594 30595 30596 30597 30598 30599 30600 30601 30602 30603 30604 30605 30606 30607 30608 30609 30610 30611 30612 30613 30614 30615 30616 30617 30618 30619 30620 30621 30622 30623 30624 30625 30626 30627 30628 30629 30630 30631 30632 30633 30634 30635 30636 30637 30638 30639 30640 30641 30642 30643 30644 30645 30646 30647 30648 30649 30650 30651 30652 30653 30654 30655 30656 30657 30658 30659 30660 30661 30662 30663 30664 30665 30666 30667 30668 30669 30670 30671 30672 30673 30674 30675 30676 30677 30678 30679 30680 30681 30682 30683 30684 30685 30686 30687 30688 30689 30690 30691 30692 30693 30694 30695 30696 30697 30698 30699 30700 30701 30702 30703 30704 30705 30706 30707 30708 30709 30710 30711 30712 30713 30714 30715 30716 30717 30718 30719 30720 30721 30722 30723 30724 30725 30726 30727 30728 30729 30730 30731 30732 30733 30734 30735 30736 30737 30738 30739 30740 30741 30742 30743 30744 30745 30746 30747 30748 30749 30750 30751 30752 30753 30754 30755 30756 30757 30758 30759 30760 30761 30762 30763 30764 30765 30766 30767 30768 30769 30770 30771 30772 30773 30774 30775 30776 30777 30778 30779 30780 30781 30782 30783 30784 30785 30786 30787 30788 30789 30790 30791 30792 30793 30794 30795 30796 30797 30798 30799 30800 30801 30802 30803 30804 30805 30806 30807 30808 30809 30810 30811 30812 30813 30814 30815 30816 30817 30818 30819 30820 30821 30822 30823 30824 30825 30826 30827 30828 30829 30830 30831 30832 30833 30834 30835 30836 30837 30838 30839 30840 30841 30842 30843 30844 30845 30846 30847 30848 30849 30850 30851 30852 30853 30854 30855 30856 30857 30858 30859 30860 30861 30862 30863 30864 30865 30866 30867 30868 30869 30870 30871 30872 30873 30874 30875 30876 30877 30878 30879 30880 30881 30882 30883 30884 30885 30886 30887 30888 30889 30890 30891 30892 30893 30894 30895 30896 30897 30898 30899 30900 30901 30902 30903 30904 30905 30906 30907 30908 30909 30910 30911 30912 30913 30914 30915 30916 30917 30918 30919 30920 30921 30922 30923 30924 30925 30926 30927 30928 30929 30930 30931 30932 30933 30934 30935 30936 30937 30938 30939 30940 30941 30942 30943 30944 30945 30946 30947 30948 30949 30950 30951 30952 30953 30954 30955 30956 30957 30958 30959 30960 30961 30962 30963 30964 30965 30966 30967 30968 30969 30970 30971 30972 30973 30974 30975 30976 30977 30978 30979 30980 30981 30982 30983 30984 30985 30986 30987 30988 30989 30990 30991 30992 30993 30994 30995 30996 30997 30998 30999 31000 31001 
</DataArray>
<DataArray type="UInt32" Name="offsets" format="ascii">
3 6 8 11 14 17 20 23 26 29 32 34 37 40 43 46 49 52 55 58 61 64 67 69 72 75 78 80 83 85 88 91 94 97 100 103 106 108 111 114 116 119 122 125 128 131 134 137 140 143 146 149 152 155 158 161 164 167 170 173 175 177 180 182 185 188 191 194 197 200 203 206 209 212 215 218 221 224 227 230 233 236 239 242 245 248 250 253 255 258 261 264 267 270 273 276 279 282 285 288 291 294 297 300 303 306 309 312 315 317 319 322 325 328 331 334 337 340 343 346 349 352 355 358 361 364 367 370 373 376 379 382 384 386 389 391 394 397 399 402 405 408 411 414 416 419 421 424 427 430 432 435 437 440 443 446 449 452 455 457 460 463 465 467 470 473 475 478 481 484 487 489 491 494 497 500 502 505 508 511 513 516 519 522 525 528 531 533 536 539 542 544 546 549 552 554 557 560 563 566 569 572 575 577 580 583 586 589 592 594 597 600 603 606 608 611 614 616 619 622 624 627 630 633 636 639 642 645 648 651 653 656 658 661 664 667 669 671 674 676 679 682 685 687 690 693 696 699 701 704 707 710 713 716 719 722 724 727 730 733 736 739 742 745 747 750 753 756 758 760 763 766 769 772 775 778 780 783 786 789 792 795 797 799 801 803 806 809 812 815 818 821 823 826 829 831 834 837 839 841 844 846 849 852 855 857 860 863 866 869 872 874 877 880 882 885 887 890 893 896 898 901 904 907 910 913 916 918 921 924 927 930 933 936 939 942 945 948 951 954 957 960 963 966 968 971 974 977 980 982 985 988 991 994 997 1000 1003 1006 1009 1012 1015 1018 1021 1024 1027 1030 1033 1036 1039 1042 1045 1048 1051 1054 1057 1060 1063 1066 1069 1072 1075 1078 1081 1084 1087 1090 1093 1096 1098 1101 1103 1106 1109 1111 1114 1117 1119 1122 1125 1127 1129 1132 1135 1138 1141 1143 1146 1149 1151 1154 1156 1159 1162 1164 1167 1170 1173 1175 1178 1181 1184 1186 1189 1192 1195 1198 1201 1204 1207 1210 1213 1216 1218 1221 1224 1227 1230 1233 1235 1238 1241 1244 1247 1250 1253 1256 1259 1262 1265 1268 1271 1274 1277 1280 1283 1286 1289 1292 1295 1298 1301 1304 1307 1310 1313 1316 1319 1322 1325 1328 1331 1334 1337 1340 1343 1346 1349 1352 1355 1358 1361 1364 1367 1369 1372 1375 1378 1381 1384 1387 1390 1393 1396 1399 1402 1405 1408 1411 1414 1417 1420 1422 1425 1428 1431 1433 1436 1439 1442 1445 1448 1450 1453 1456 1459 1461 1464 1467 1470 1473 1476 1479 1482 1485 1487 1490 1493 1496 1499 1502 1505 1507 1510 1513 1516 1518 1521 1524 1527 1530 1532 1535 1538 1541 1543 1546 1549 1552 1555 1558 1561 1564 1567 1570 1573 1576 1579 1582 1585 1588 1591 1594 1597 1600 1603 1606 1609 1612 1615 1618 1621 1624 1627 1630 1633 1636 1639 1642 1645 1648 1651 1654 1657 1660 1663 1666 1669 1672 1675 1678 1681 1684 1687 1690 1693 1696 1699 1702 1705 1708 1711 1714 1717 1720 1723 1726 1729 1732 1735 1738 1741 1743 1746 1748 1751 1754 1757 1760 1763 1765 1768 1771 1774 1777 1780 1783 1786 1789 1792 1795 1798 1801 1804 1806 1809 1812 1815 1818 1821 1824 1826 1829 1832 1834 1837 1840 1843 1845 1848 1851 1854 1857 1860 1863 1866 1868 1871 1873 1876 1879 1882 1885 1888 1891 1894 1897 1900 1903 1906 1909 1912 1915 1918 1921 1924 1926 1929 1932 1935 1938 1941 1944 1947 1950 1953 1956 1959 1962 1965 1968 1971 1973 1976 1979 1981 1984 1987 1990 1993 1996 1999 2002 2005 2008 2011 2013 2016 2018 2021 2024 2027 2030 2033 2035 2038 2041 2044 2047 2050 2053 2055 2058 2061 2064 2067 2070 2073 2076 2079 2082 2085 2087 2090 2093 2096 2099 2102 2105 2108 2111 2114 2117 2120 2123 2125 2128 2131 2134 2137 2140 2143 2146 2149 2152 2155 2158 2161 2164 2167 2169 2172 2175 2178 2181 2184 2187 2189 2192 2195 2198 2201 2204 2207 2210 2213 2216 2219 2222 2224 2227 2229 2232 2234 2237 2240 2243 2246 2249 2252 2255 2258 2261 2264 2267 2269 2272 2275 2277 2280 2283 2286 2289 2292 2295 2298 2300 2303 2305 2308 2310 2313 2316 2318 2321 2324 2327 2330 2333 2336 2338 2341 2344 2347 2350 2353 2356 2359 2362 2365 2368 2371 2374 2377 2380 2383 2386 2389 2392 2395 2398 2400 2403 2406 2409 2411 2414 2417 2420 2423 2426 2429 2432 2435 2438 2441 2444 2447 2450 2453 2456 2459 2462 2465 2468 2471 2474 2477 2480 2482 2484 2487 2490 2493 2496 2499 2502 2505 2508 2511 2513 2516 2519 2522 2525 2528 2531 2534 2537 2540 2543 2545 2548 2550 2553 2555 2557 2560 2563 2566 2569 2571 2573 2576 2579 2582 2585 2588 2591 2594 2596 2599 2602 2605 2608 2611 2613 2616 2619 2621 2624 2627 2629 2631 2634 2636 2639 2642 2645 2648 2651 2654 2657 2660 2662 2665 2668 2671 2674 2676 2678 2681 2684 2686 2688 2691 2694 2697 2699 2702 2705 2708 2711 2713 2716 2719 2722 2725 2728 2731 2734 2737 2740 2743 2746 2749 2752 2755 2758 2761 2764 2767 2770 2773 2776 2779 2782 2785 2788 2791 2794 2797 2800 2803 2806 2809 2812 2815 2818 2820 2823 2826 2829 2832 2835 2838 2841 2844 2847 2850 2853 2856 2859 2862 2865 2868 2871 2874 2877 2880 2883 2886 2889 2892 2895 2898 2901 2904 2907 2910 2913 2916 2919 2922 2925 2928 2931 2934 2937 2940 2943 2946 2949 2952 2955 2958 2961 2964 2967 2970 2973 2976 2979 2982 2985 2988 2991 2994 2997 3000 3003 3006 3009 3012 3015 3018 3021 3023 3026 3029 3032 3035 3038 3041 3044 3047 3050 3053 3056 3059 3062 3065 3068 3071 3074 3077 3080 3083 3086 3089 3092 3095 3097 3100 3103 3106 3109 3112 3115 3118 3121 3124 3126 3129 3132 3135 3138 3140 3143 3146 3149 3152 3155 3158 3161 3164 3167 3170 3173 3176 3179 3182 3185 3188 3191 3194 3197 3200 3203 3206 3209 3212 3215 3218 3221 3224 3227 3230 3233 3236 3239 3242 3245 3248 3251 3253 3256 3259 3262 3265 3268 3271 3273 3276 3278 3281 3283 3286 3289 3292 3295 3298 3300 3303 3305 3308 3310 3313 3316 3319 3322 3324 3326 3329 3331 3334 3337 3340 3343 3345 3348 3351 3354 3357 3360 3362 3364 3367 3370 3373 3376 3379 3382 3385 3388 3391 3394 3397 3400 3403 3406 3409 3412 3415 3418 3421 3424 3427 3430 3433 3436 3439 3442 3445 3448 3451 3454 3457 3460 3463 3466 3469 3472 3475 3477 3480 3482 3485 3488 3491 3494 3496 3499 3502 3505 3508 3511 3514 3517 3520 3523 3526 3529 3532 3535 3538 3541 3544 3547 3550 3553 3556 3559 3562 3565 3568 3571 3574 3577 3580 3583 3586 3589 3592 3595 3598 3601 3604 3607 3610 3613 3616 3619 3622 3625 3628 3631 3634 3637 3640 3643 3646 3649 3652 3655 3658 3661 3664 3667 3670 3673 3676 3679 3682 3685 3688 3691 3694 3697 3700 3703 3706 3708 3711 3714 3717 3720 3722 3725 3728 3731 3734 3737 3740 3743 3746 3749 3752 3755 3757 3760 3763 3765 3768 3771 3773 3776 3778 3781 3784 3787 3790 3793 3796 3799 3801 3804 3807 3810 3813 3816 3819 3822 3825 3828 3831 3834 3837 3840 3843 3845 3848 3851 3854 3857 3860 3863 3866 3869 3872 3875 3878 3880 3883 3886 3889 3892 3895 3898 3901 3904 3907 3909 3912 3915 3918 3921 3924 3927 3930 3933 3936 3939 3942 3945 3948 3951 3954 3957 3960 3963 3966 3969 3972 3975 3978 3981 3984 3987 3990 3993 3996 3999 4002 4005 4008 4010 4013 4016 4019 4022 4025 4028 4031 4033 4036 4039 4041 4044 4046 4049 4052 4055 4057 4060 4063 4066 4069 4072 4075 4077 4079 4082 4085 4087 4089 4092 4095 4098 4101 4104 4107 4110 4113 4116 4119 4122 4125 4128 4131 4134 4137 4140 4143 4146 4149 4152 4155 4158 4161 4164 4167 4169 4172 4175 4177 4180 4183 4186 4189 4191 4194 4197 4200 4203 4205 4208 4211 4214 4217 4220 4223 4226 4229 4232 4235 4237 4240 4243 4246 4249 4252 4254 4256 4259 4262 4264 4267 4270 4272 4275 4278 4281 4284 4286 4288 4291 4294 4296 4299 4302 4305 4308 4311 4314 4317 4320 4323 4325 4328 4331 4334 4337 4340 4343 4345 4348 4351 4353 4355 4358 4361 4364 4367 4369 4372 4375 4378 4381 4384 4387 4390 4393 4396 4399 4402 4405 4408 4411 4414 4417 4420 4423 4426 4429 4432 4435 4438 4441 4444 4446 4449 4451 4454 4457 4459 4462 4465 4468 4471 4474 4477 4480 4483 4486 4489 4492 4495 4498 4501 4504 4507 4509 4512 4514 4517 4519 4522 4525 4528 4531 4534 4537 4540 4543 4546 4549 4552 4555 4558 4560 4562 4565 4568 4571 4574 4577 4580 4583 4586 4589 4592 4595 4598 4601 4604 4607 4610 4613 4616 4619 4622 4625 4628 4631 4634 4637 4640 4643 4646 4649 4652 4655 4658 4661 4664 4667 4670 4673 4675 4678 4680 4683 4686 4689 4691 4694 4697 4700 4703 4706 4709 4712 4715 4718 4721 4724 4727 4729 4732 4735 4738 4741 4744 4747 4750 4753 4756 4759 4761 4764 4767 4770 4772 4775 4778 4781 4784 4787 4789 4792 4794 4797 4800 4803 4806 4809 4811 4814 4817 4820 4823 4826 4829 4832 4835 4838 4841 4844 4847 4850 4853 4856 4859 4862 4865 4868 4871 4874 4877 4880 4883 4886 4889 4892 4895 4898 4901 4904 4907 4909 4912 4915 4917 4920 4923 4926 4929 4932 4935 4938 4941 4944 4947 4950 4953 4955 4958 4961 4964 4967 4970 4973 4976 4979 4982 4985 4988 4991 4993 4996 4999 5002 5005 5008 5011 5014 5016 5019 5022 5025 5027 5030 5033 5036 5038 5041 5044 5046 5049 5052 5055 5058 5061 5064 5067 5070 5073 5076 5079 5082 5085 5088 5091 5094 5097 5099 5102 5104 5106 5109 5112 5115 5118 5121 5124 5126 5129 5131 5134 5137 5140 5143 5146 5149 5152 5155 5158 5160 5163 5166 5169 5172 5175 5177 5180 5183 5186 5189 5192 5195 5197 5200 5203 5206 5209 5212 5215 5218 5221 5224 5226 5229 5232 5235 5238 5241 5243 5246 5249 5252 5255 5258 5261 5264 5267 5269 5272 5275 5278 5281 5283 5286 5289 5292 5295 5297 5300 5302 5305 5308 5310 5313 5316 5319 5322 5325 5328 5331 5334 5337 5340 5343 5345 5348 5351 5354 5357 5360 5363 5366 5369 5372 5375 5378 5381 5384 5387 5390 5393 5396 5399 5402 5405 5408 5410 5413 5415 5418 5421 5424 5427 5429 5432 5435 5438 5441 5444 5447 5450 5452 5455 5458 5460 5462 5465 5468 5471 5474 5477 5480 5483 5485 5488 5490 5493 5496 5499 5502 5505 5508 5511 5513 5516 5519 5522 5525 5528 5530 5533 5536 5539 5542 5545 5548 5551 5554 5557 5560 5563 5566 5569 5572 5575 5578 5581 5584 5587 5590 5592 5595 5598 5600 5603 5606 5609 5612 5615 5618 5621 5624 5627 5630 5633 5636 5639 5642 5645 5648 5651 5654 5657 5660 5663 5666 5669 5672 5675 5677 5680 5683 5686 5688 5691 5694 5697 5700 5703 5706 5708 5711 5713 5715 5718 5721 5724 5727 5730 5732 5735 5738 5741 5744 5747 5750 5753 5756 5759 5762 5765 5768 5771 5774 5776 5779 5782 5784 5787 5790 5793 5796 5799 5802 5805 5808 5811 5814 5817 5820 5823 5826 5829 5832 5835 5838 5841 5844 5847 5850 5853 5856 5858 5861 5864 5867 5870 5873 5876 5879 5882 5885 5888 5890 5892 5894 5897 5900 5903 5906 5909 5912 5915 5918 5921 5924 5927 5930 5933 5936 5939 5942 5945 5948 5951 5954 5957 5960 5962 5965 5968 5971 5974 5977 5980 5983 5986 5989 5992 5995 5998 6001 6004 6007 6010 6013 6015 6018 6021 6024 6026 6029 6032 6035 6038 6041 6044 6046 6049 6052 6055 6058 6061 6063 6066 6069 6072 6075 6078 6081 6083 6086 6089 6092 6095 6098 6100 6103 6106 6109 6112 6115 6118 6120 6123 6126 6129 6132 6134 6137 6140 6143 6146 6149 6152 6155 6158 6160 6163 6166 6168 6171 6174 6176 6179 6182 6185 6187 6190 6193 6196 6199 6202 6205 6208 6211 6214 6216 6219 6222 6225 6228 6230 6233 6236 6239 6242 6245 6248 6250 6253 6256 6259 6261 6264 6267 6270 6273 6276 6279 6282 6285 6288 6291 6294 6297 6300 6303 6305 6308 6310 6313 6315 6318 6320 6323 6326 6329 6332 6335 6338 6341 6344 6347 6350 6352 6355 6358 6361 6364 6366 6369 6372 6375 6377 6380 6383 6386 6389 6392 6394 6397 6400 6403 6406 6409 6412 6415 6418 6421 6424 6427 6430 6433 6436 6439 6442 6445 6448 6451 6454 6457 6460 6463 6466 6469 6472 6475 6478 6481 6484 6487 6490 6493 6496 6499 6502 6505 6508 6511 6514 6517 6520 6523 6526 6529 6532 6534 6537 6540 6542 6545 6548 6551 6554 6557 6560 6563 6566 6569 6572 6575 6578 6581 6584 6587 6590 6593 6596 6598 6601 6603 6606 6608 6611 6614 6617 6620 6623 6626 6628 6631 6634 6637 6640 6643 6646 6649 6652 6654 6657 6660 6662 6664 6667 6670 6673 6676 6679 6682 6685 6688 6691 6694 6697 6700 6703 6706 6709 6712 6715 6718 6721 6724 6727 6730 6733 6736 6739 6742 6745 6748 6751 6754 6756 6759 6762 6764 6767 6770 6773 6776 6779 6782 6785 6788 6791 6794 6797 6800 6803 6806 6809 6812 6815 6818 6821 6824 6827 6830 6833 6836 6839 6842 6845 6848 6851 6854 6857 6860 6863 6866 6869 6872 6875 6878 6881 6884 6887 6890 6893 6896 6899 6902 6905 6907 6909 6912 6915 6918 6921 6924 6927 6930 6933 6935 6938 6941 6944 6946 6949 6952 6955 6958 6961 6964 6967 6970 6973 6976 6979 6982 6985 6988 6991 6994 6997 7000 7003 7005 7008 7011 7014 7017 7020 7023 7026 7029 7032 7035 7038 7041 7044 7047 7050 7053 7056 7059 7062 7065 7068 7071 7074 7077 7080 7083 7086 7089 7092 7095 7098 7101 7104 7107 7110 7113 7116 7119 7122 7125 7128 7131 7134 7137 7140 7143 7146 7148 7150 7153 7156 7159 7162 7165 7168 7170 7173 7176 7179 7182 7185 7188 7191 7194 7197 7200 7203 7206 7209 7212 7215 7218 7221 7224 7227 7230 7233 7236 7239 7242 7245 7248 7251 7254 7257 7260 7263 7266 7269 7272 7274 7277 7280 7282 7285 7287 7290 7293 7296 7299 7302 7305 7308 7311 7314 7317 7320 7323 7326 7329 7332 7334 7336 7339 7342 7345 7348 7351 7354 7357 7359 7361 7364 7367 7369 7372 7375 7377 7380 7382 7385 7387 7390 7393 7396 7399 7402 7405 7408 7411 7414 7417 7419 7422 7425 7428 7431 7433 7435 7438 7441 7444 7447 7450 7453 7455 7458 7461 7464 7467 7470 7473 7476 7479 7482 7484 7487 7490 7493 7495 7498 7501 7504 7506 7509 7512 7515 7518 7521 7523 7526 7529 7532 7535 7538 7541 7544 7547 7550 7553 7556 7559 7562 7565 7568 7570 7573 7576 7579 7582 7585 7588 7591 7594 7597 7600 7603 7606 7609 7612 7615 7618 7621 7624 7626 7628 7631 7634 7637 7640 7643 7646 7649 7652 7655 7658 7661 7664 7667 7670 7673 7676 7679 7681 7684 7687 7690 7693 7696 7699 7702 7705 7708 7711 7714 7717 7720 7723 7726 7729 7731 7734 7737 7739 7742 7745 7747 7749 7752 7755 7757 7760 7763 7766 7769 7772 7775 7778 7781 7783 7786 7789 7792 7794 7797 7800 7803 7805 7808 7811 7814 7817 7819 7822 7825 7828 7830 7832 7834 7837 7839 7842 7844 7847 7849 7851 7854 7857 7860 7862 7865 7868 7871 7874 7877 7880 7883 7885 7887 7890 7893 7896 7899 7901 7904 7907 7910 7913 7916 7919 7922 7925 7928 7931 7934 7937 7940 7943 7946 7948 7951 7954 7957 7960 7963 7966 7969 7971 7974 7977 7980 7983 7986 7989 7992 7995 7998 8001 8004 8007 8010 8013 8016 8019 8021 8024 8027 8030 8033 8036 8039 8042 8045 8048 8051 8054 8057 8060 8063 8066 8069 8072 8075 8078 8081 8084 8087 8090 8093 8096 8099 8102 8105 8108 8111 8114 8117 8120 8123 8126 8129 8132 8135 8138 8141 8144 8147 8150 8153 8156 8159 8162 8165 8168 8171 8174 8177 8180 8183 8186 8189 8192 8195 8198 8201 8204 8207 8210 8213 8216 8219 8222 8225 8228 8231 8234 8237 8240 8243 8246 8249 8252 8255 8258 8261 8264 8267 8270 8273 8276 8279 8282 8285 8288 8291 8294 8296 8299 8302 8305 8308 8311 8314 8316 8319 8322 8325 8328 8331 8333 8336 8339 8342 8344 8347 8350 8352 8354 8357 8360 8363 8366 8368 8370 8373 8376 8379 8382 8385 8387 8390 8393 8396 8399 8402 8405 8407 8409 8411 8413 8416 8419 8421 8424 8426 8429 8432 8435 8438 8440 8443 8446 8449 8452 8455 8458 8461 8464 8467 8470 8473 8476 8479 8482 8485 8488 8491 8494 8497 8500 8503 8506 8509 8512 8515 8518 8521 8524 8527 8530 8532 8535 8538 8541 8544 8547 8550 8553 8556 8558 8561 8563 8566 8569 8572 8575 8578 8581 8584 8587 8590 8593 8596 8599 8602 8605 8608 8611 8614 8617 8620 8623 8626 8629 8632 8635 8638 8641 8643 8646 8649 8652 8655 8658 8661 8664 8667 8670 8673 8676 8679 8681 8684 8686 8689 8692 8695 8698 8701 8704 8707 8710 8713 8716 8719 8722 8725 8728 8730 8733 8736 8739 8742 8745 8748 8751 8753 8756 8759 8762 8765 8768 8771 8774 8777 8780 8783 8786 8789 8792 8795 8798 8801 8804 8807 8810 8813 8816 8819 8822 8825 8828 8831 8834 8837 8840 8843 8845 8848 8851 8854 8857 8860 8863 8866 8869 8872 8875 8878 8881 8884 8887 8890 8893 8896 8899 8902 8905 8908 8911 8914 8917 8920 8923 8926 8929 8932 8935 8938 8941 8944 8947 8950 8953 8955 8957 8960 8963 8965 8968 8971 8974 8977 8980 8983 8986 8989 8992 8995 8998 9001 9004 9007 9010 9013 9016 9019 9021 9024 9027 9030 9033 9036 9039 9042 9045 9048 9051 9054 9057 9060 9063 9065 9068 9070 9073 9076 9079 9081 9084 9087 9089 9092 9094 9097 9099 9102 9105 9107 9110 9113 9116 9119 9122 9125 9127 9129 9132 9135 9138 9141 9144 9147 9150 9153 9156 9159 9162 9164 9167 9170 9173 9176 9179 9182 9185 9187 9190 9193 9196 9199 9201 9204 9207 9210 9213 9215 9218 9221 9224 9227 9230 9233 9236 9238 9241 9244 9247 9250 9252 9255 9258 9261 9264 9267 9270 9273 9276 9279 9282 9284 9287 9290 9293 9295 9298 9301 9303 9306 9308 9311 9314 9317 9320 9323 9326 9329 9332 9335 9338 9341 9344 9347 9350 9353 9356 9359 9362 9365 9368 9371 9374 9377 9380 9383 9386 9389 9392 9395 9398 9401 9404 9407 9410 9413 9416 9418 9421 9424 9427 9430 9432 9435 9438 9441 9444 9447 9450 9453 9455 9458 9460 9463 9466 9469 9472 9475 9478 9481 9484 9486 9489 9492 9495 9498 9501 9504 9507 9510 9513 9516 9519 9521 9523 9526 9529 9532 9535 9537 9540 9543 9546 9549 9552 9555 9557 9560 9563 9565 9568 9571 9573 9576 9579 9582 9585 9587 9590 9593 9596 9599 9601 9604 9607 9610 9613 9616 9619 9622 9625 9627 9630 9633 9636 9639 9642 9644 9646 9649 9652 9654 9657 9660 9663 9666 9668 9671 9674 9677 9680 9683 9686 9689 9692 9695 9698 9701 9704 9707 9710 9713 9715 9717 9720 9722 9725 9728 9730 9733 9735 9738 9741 9744 9746 9748 9750 9753 9756 9759 9762 9764 9767 9769 9771 9774 9777 9780 9783 9785 9788 9791 9794 9797 9800 9802 9805 9808 9810 9813 9816 9819 9822 9825 9828 9831 9834 9837 9840 9843 9846 9849 9852 9855 9858 9861 9864 9867 9870 9873 9876 9879 9882 9885 9888 9891 9894 9897 9900 9903 9906 9909 9912 9915 9918 9921 9924 9927 9930 9933 9936 9939 9942 9945 9948 9951 9954 9957 9960 9963 9966 9969 9972 9974 9977 9980 9983 9986 9989 9992 9995 9998 10001 10004 10007 10010 10013 10015 10018 10020 10023 10026 10029 10032 10035 10037 10039 10041 10043 10046 10049 10052 10055 10058 10061 10064 10067 10070 10073 10076 10079 10082 10085 10088 10091 10094 10097 10100 10103 10105 10108 10111 10114 10116 10119 10122 10124 10127 10130 10133 10136 10139 10142 10145 10148 10151 10154 10157 10160 10163 10166 10169 10172 10175 10178 10181 10184 10187 10190 10193 10196 10199 10202 10205 10208 10210 10213 10216 10219 10222 10224 10226 10229 10232 10235 10238 10241 10244 10246 10248 10250 10253 10256 10259 10262 10265 10267 10270 10273 10276 10279 10282 10285 10288 10291 10294 10297 10300 10302 10305 10307 10310 10313 10316 10319 10322 10325 10328 10331 10334 10337 10340 10342 10345 10348 10351 10354 10357 10360 10363 10366 10369 10372 10375 10377 10380 10383 10385 10388 10391 10394 10397 10400 10403 10406 10409 10411 10413 10416 10419 10422 10424 10427 10430 10433 10436 10439 10441 10444 10446 10449 10451 10454 10457 10460 10463 10466 10469 10472 10475 10477 10480 10483 10486 10489 10492 10494 10497 10500 10503 10506 10509 10512 10515 10518 10521 10524 10527 10530 10533 10536 10539 10542 10545 10547 10550 10553 10556 10559 10562 10565 10568 10571 10574 10577 10580 10583 10586 10589 10592 10595 10598 10601 10604 10607 10610 10613 10616 10619 10622 10625 10628 10631 10634 10637 10640 10643 10646 10649 10652 10655 10658 10661 10664 10667 10669 10672 10675 10677 10680 10683 10686 10689 10692 10695 10698 10701 10704 10707 10710 10712 10715 10718 10721 10723 10726 10728 10731 10734 10737 10740 10743 10745 10748 10750 10753 10756 10759 10762 10765 10767 10770 10773 10775 10778 10781 10784 10786 10789 10792 10795 10797 10799 10802 10805 10808 10811 10813 10815 10818 10821 10824 10826 10829 10832 10834 10837 10840 10843 10846 10849 10852 10855 10858 10861 10864 10867 10870 10873 10876 10879 10881 10884 10887 10890 10892 10895 10897 10900 10903 10905 10907 10910 10912 10915 10917 10920 10923 10926 10929 10932 10935 10938 10941 10944 10947 10950 10953 10956 10959 10962 10965 10968 10971 10974 10977 10980 10983 10985 10988 10990 10993 10996 10999 11001 11004 11007 11010 11013 11016 11019 11022 11025 11028 11031 11034 11037 11040 11043 11046 11049 11052 11055 11058 11061 11064 11067 11070 11073 11076 11079 11082 11085 11088 11091 11094 11097 11100 11102 11105 11108 11111 11114 11117 11120 11123 11125 11128 11131 11134 11137 11140 11143 11146 11149 11152 11155 11158 11161 11164 11167 11170 11173 11176 11179 11182 11185 11188 11191 11194 11197 11200 11203 11206 11208 11211 11213 11216 11219 11222 11225 11228 11231 11234 11236 11239 11242 11245 11248 11251 11253 11255 11258 11261 11264 11267 11270 11273 11276 11279 11281 11284 11286 11289 11291 11294 11297 11300 11303 11306 11309 11312 11315 11318 11321 11324 11327 11329 11332 11335 11338 11341 11344 11347 11350 11353 11356 11359 11362 11365 11368 11371 11374 11377 11380 11383 11386 11389 11392 11395 11398 11401 11404 11407 11410 11412 11415 11417 11420 11422 11425 11428 11431 11434 11436 11439 11442 11444 11447 11450 11453 11456 11459 11462 11465 11468 11471 11474 11477 11479 11482 11485 11487 11490 11493 11495 11498 11501 11503 11506 11509 11512 11515 11518 11521 11523 11525 11528 11531 11533 11535 11538 11541 11544 11546 11548 11551 11554 11556 11558 11561 11563 11565 11567 11570 11573 11576 11579 11582 11585 11588 11591 11594 11596 11599 11602 11605 11607 11610 11613 11616 11619 11622 11625 11628 11631 11634 11637 11640 11643 11646 11649 11652 11655 11658 11661 11664 11667 11670 11673 11676 11679 11682 11685 11688 11691 11694 11697 11700 11703 11706 11709 11712 11715 11718 11721 11724 11727 11729 11732 11735 11738 11741 11743 11746 11749 11752 11754 11757 11760 11763 11766 11769 11772 11775 11778 11781 11784 11786 11789 11792 11794 11797 11800 11802 11804 11807 11810 11812 11815 11817 11820 11823 11826 11829 11832 11835 11838 11841 11844 11847 11850 11852 11855 11858 11861 11864 11867 11870 11872 11875 11877 11879 11882 11884 11887 11889 11892 11894 11896 11899 11901 11904 11907 11910 11913 11916 11918 11921 11923 11926 11929 11932 11935 11937 11939 11942 11945 11948 11951 11953 11955 11958 11960 11963 11966 11969 11972 11974 11977 11980 11983 11985 11988 11990 11992 11995 11998 12001 12003 12006 12009 12012 12015 12017 12020 12023 12026 12029 12031 12033 12036 12038 12041 12043 12045 12048 12051 12054 12057 12060 12063 12066 12069 12071 12074 12077 12080 12083 12085 12087 12090 12093 12095 12098 12101 12103 12105 12108 12111 12114 12117 12120 12123 12125 12128 12131 12133 12135 12138 12141 12143 12146 12149 12151 12154 12157 12159 12162 12165 12167 12169 12172 12175 12178 12180 12183 12185 12188 12190 12192 12194 12197 12200 12202 12205 12208 12211 12213 12216 12218 12221 12223 12226 12229 12232 12235 12238 12241 12244 12247 12250 12253 12256 12259 12261 12264 12266 12268 12271 12274 12277 12280 12283 12286 12289 12292 12295 12298 12301 12303 12305 12308 12311 12314 12317 12320 12323 12326 12328 12331 12334 12337 12340 12343 12346 12348 12351 12354 12357 12360 12363 12366 12369 12371 12374 12377 12380 12383 12386 12389 12392 12395 12398 12401 12404 12406 12409 12412 12415 12417 12420 12423 12425 12428 12431 12434 12437 12440 12442 12445 12448 12451 12454 12457 12460 12463 12466 12469 12472 12475 12478 12481 12484 12486 12489 12492 12495 12497 12500 12503 12506 12508 12510 12513 12516 12519 12522 12525 12528 12531 12534 12537 12540 12543 12546 12549 12552 12555 12558 12561 12564 12567 12570 12573 12576 12578 12581 12584 12587 12590 12593 12595 12598 12601 12604 12607 12610 12612 12615 12618 12621 12624 12627 12629 12632 12635 12638 12641 12644 12646 12648 12651 12654 12657 12660 12663 12665 12668 12671 12673 12676 12679 12682 12685 12688 12691 12694 12696 12699 12702 12705 12708 12711 12713 12716 12719 12722 12725 12728 12731 12734 12737 12740 12743 12746 12749 12752 12755 12757 12760 12762 12765 12768 12771 12774 12777 12780 12783 12785 12788 12791 12793 12796 12799 12802 12805 12808 12810 12813 12816 12819 12822 12825 12828 12831 12834 12837 12839 12841 12844 12847 12850 12852 12855 12857 12860 12863 12866 12869 12872 12875 12877 12880 12883 12886 12889 12892 12894 12897 12900 12902 12905 12908 12911 12914 12916 12919 12922 12924 12927 12929 12932 12935 12937 12940 12943 12945 12948 12951 12953 12956 12959 12962 12965 12968 12970 12973 12976 12979 12982 12985 12987 12990 12993 12996 12999 13002 13005 13008 13011 13014 13017 13020 13023 13026 13029 13031 13034 13037 13040 13043 13045 13048 13051 13054 13057 13060 13062 13065 13068 13070 13073 13076 13079 13082 13084 13087 13090 13093 13096 13099 13102 13105 13108 13111 13114 13117 13120 13123 13125 13128 13131 13134 13137 13140 13143 13146 13148 13150 13153 13155 13158 13161 13164 13167 13170 13173 13175 13178 13181 13184 13187 13190 13192 13195 13197 13200 13202 13205 13208 13210 13213 13216 13219 13222 13225 13228 13231 13234 13237 13239 13241 13244 13247 13250 13253 13256 13259 13262 13265 13267 13270 13273 13276 13279 13282 13285 13288 13291 13294 13297 13300 13303 13306 13309 13311 13314 13317 13319 13322 13325 13328 13331 13334 13337 13340 13343 13346 13349 13352 13354 13357 13360 13363 13366 13369 13372 13375 13378 13381 13384 13386 13389 13392 13394 13396 13399 13402 13405 13408 13410 13413 13416 13419 13422 13425 13428 13431 13434 13437 13440 13443 13446 13449 13452 13455 13458 13461 13464 13467 13470 13473 13476 13479 13482 13485 13488 13491 13494 13497 13499 13502 13505 13507 13510 13512 13514 13517 13520 13522 13525 13528 13530 13532 13535 13538 13541 13544 13547 13549 13552 13555 13557 13560 13563 13566 13569 13572 13575 13578 13581 13584 13586 13589 13592 13594 13597 13600 13603 13606 13609 13612 13615 13618 13620 13623 13626 13629 13632 13635 13638 13641 13643 13646 13649 13652 13655 13658 13661 13664 13667 13670 13672 13675 13678 13681 13684 13687 13690 13692 13695 13698 13701 13704 13707 13710 13712 13715 13718 13721 13724 13727 13729 13731 13734 13736 13738 13741 13744 13747 13750 13753 13756 13759 13762 13765 13767 13770 13773 13776 13779 13781 13784 13787 13790 13792 13795 13798 13801 13804 13807 13810 13813 13815 13818 13821 13824 13827 13830 13833 13836 13839 13842 13845 13848 13850 13853 13856 13859 13862 13865 13868 13871 13874 13877 13880 13883 13886 13889 13892 13895 13898 13901 13903 13906 13909 13912 13915 13918 13921 13924 13927 13930 13933 13936 13939 13942 13945 13948 13951 13954 13957 13960 13962 13965 13968 13971 13974 13976 13979 13982 13985 13988 13991 13994 13996 13999 14002 14004 14006 14009 14012 14015 14018 14021 14023 14026 14029 14032 14035 14038 14041 14044 14047 14049 14052 14055 14058 14061 14064 14067 14070 14073 14076 14079 14082 14085 14088 14091 14094 14097 14099 14102 14104 14107 14110 14112 14115 14117 14120 14123 14125 14128 14131 14134 14137 14140 14143 14146 14149 14152 14155 14157 14160 14163 14166 14169 14172 14175 14178 14181 14184 14187 14190 14193 14196 14199 14202 14205 14208 14211 14214 14217 14220 14222 14225 14228 14230 14233 14236 14239 14242 14244 14246 14249 14252 14254 14257 14260 14263 14266 14269 14271 14273 14276 14279 14281 14284 14287 14290 14293 14295 14298 14301 14304 14307 14310 14313 14316 14319 14322 14325 14328 14331 14334 14337 14340 14343 14346 14348 14351 14354 14356 14359 14362 14365 14367 14370 14372 14375 14378 14381 14384 14386 14389 14392 14394 14397 14400 14403 14406 14408 14411 14413 14416 14419 14422 14425 14428 14431 14434 14437 14440 14443 14446 14449 14452 14455 14458 14461 14464 14467 14470 14473 14476 14479 14482 14485 14488 14491 14494 14497 14500 14503 14506 14509 14512 14515 14518 14521 14524 14527 14530 14533 14536 14539 14542 14545 14548 14551 14554 14557 14560 14563 14566 14569 14572 14575 14578 14581 14584 14587 14590 14593 14596 14599 14602 14605 14608 14611 14614 14617 14620 14623 14626 14629 14632 14635 14638 14641 14644 14647 14650 14653 14656 14659 14662 14665 14668 14670 14673 14676 14679 14682 14685 14688 14690 14693 14695 14698 14701 14703 14706 14709 14712 14715 14718 14721 14724 14727 14730 14733 14736 14739 14742 14745 14747 14749 14752 14755 14757 14760 14763 14766 14769 14772 14775 14778 14781 14783 14786 14789 14791 14794 14797 14800 14803 14806 14808 14810 14813 14815 14818 14821 14824 14827 14830 14833 14836 14839 14842 14845 14848 14851 14854 14857 14860 14862 14865 14868 14871 14874 14876 14879 14881 14884 14887 14889 14892 14895 14898 14901 14904 14907 14910 14913 14915 14918 14921 14924 14926 14929 14932 14935 14938 14941 14944 14946 14949 14952 14955 14958 14961 14964 14966 14969 14972 14974 14977 14980 14982 14985 14988 14990 14993 14996 14999 15002 15005 15008 15011 15014 15016 15019 15022 15025 15028 15031 15034 15037 15040 15043 15046 15049 15052 15055 15058 15061 15064 15067 15069 15072 15075 15078 15080 15083 15086 15088 15091 15094 15097 15100 15102 15105 15107 15110 15113 15116 15119 15122 15125 15128 15131 15134 15137 15139 15142 15145 15148 15151 15154 15157 15160 15163 15166 15168 15171 15174 15177 15179 15182 15184 15187 15189 15192 15195 15198 15200 15203 15206 15209 15212 15215 15218 15220 15223 15225 15228 15231 15233 15236 15239 15242 15245 15248 15251 15254 15257 15259 15262 15265 15268 15271 15274 15277 15280 15283 15286 15288 15291 15294 15297 15300 15303 15306 15309 15312 15315 15318 15320 15323 15326 15329 15331 15334 15337 15340 15343 15346 15349 15352 15355 15358 15361 15364 15367 15370 15373 15376 15379 15382 15385 15388 15391 15393 15396 15399 15402 15405 15408 15410 15413 15416 15419 15422 15425 15427 15430 15433 15436 15439 15442 15445 15448 15451 15453 15456 15459 15462 15465 15468 15471 15474 15477 15480 15483 15486 15489 15492 15495 15497 15500 15503 15506 15509 15512 15514 15517 15520 15523 15525 15528 15530 15533 15536 15539 15542 15545 15548 15551 15554 15557 15559 15562 15565 15568 15570 15573 15576 15578 15581 15584 15587 15590 15593 15596 15599 15602 15605 15608 15611 15614 15617 15620 15623 15626 15629 15631 15634 15636 15639 15642 15645 15648 15651 15654 15656 15659 15662 15665 15668 15671 15674 15677 15680 15683 15686 15689 15691 15694 15696 15698 15701 15704 15707 15710 15713 15716 15719 15722 15725 15728 15731 15734 15737 15740 15743 15746 15749 15751 15753 15756 15759 15762 15764 15767 15770 15772 15775 15778 15781 15784 15787 15789 15792 15795 15798 15800 15803 15806 15809 15812 15814 15817 15820 15823 15825 15828 15831 15834 15837 15840 15843 15846 15849 15852 15855 15858 15860 15863 15866 15869 15872 15875 15878 15880 15883 15886 15889 15892 15895 15897 15899 15902 15904 15907 15910 15913 15916 15918 15920 15923 15926 15929 15932 15935 15938 15941 15944 15947 15950 15953 15956 15959 15962 15965 15967 15969 15972 15975 15978 15981 15984 15987 15990 15993 15995 15998 16001 16004 16007 16010 16013 16016 16019 16022 16025 16028 16031 16034 16037 16040 16043 16046 16049 16052 16055 16057 16060 16063 16066 16069 16072 16075 16077 16080 16083 16086 16089 16092 16095 16098 16101 16104 16107 16110 16113 16115 16118 16121 16124 16127 16130 16132 16135 16138 16141 16143 16146 16149 16152 16154 16157 16160 16163 16166 16169 16171 16174 16177 16180 16182 16185 16188 16191 16194 16197 16200 16203 16206 16209 16212 16215 16218 16221 16224 16227 16230 16233 16236 16239 16242 16245 16248 16251 16254 16257 16260 16263 16265 16268 16271 16274 16277 16280 16283 16285 16288 16291 16294 16296 16299 16302 16305 16308 16311 16314 16317 16320 16323 16326 16329 16332 16335 16338 16341 16344 16347 16350 16353 16356 16359 16362 16365 16368 16371 16374 16376 16379 16382 16385 16388 16391 16394 16397 16400 16403 16405 16408 16411 16414 16417 16419 16422 16425 16428 16431 16434 16437 16440 16443 16446 16449 16452 16455 16458 16460 16463 16466 16469 16472 16475 16478 16480 16483 16486 16488 16491 16494 16496 16499 16501 16503 16506 16508 16510 16513 16516 16518 16520 16523 16526 16529 16531 16534 16536 16539 16542 16545 16548 16550 16553 16556 16559 16562 16565 16568 16570 16573 16575 16578 16581 16584 16587 16590 16593 16596 16599 16602 16605 16608 16611 16614 16617 16619 16622 16625 16628 16631 16634 16637 16640 16642 16645 16648 16651 16654 16657 16660 16663 16665 16668 16670 16673 16676 16679 16681 16684 16687 16690 16693 16695 16698 16701 16703 16706 16709 16712 16715 16717 16719 16721 16724 16727 16729 16732 16735 16737 16740 16743 16746 16748 16751 16754 16757 16759 16762 16765 16767 16770 16773 16776 16779 16782 16785 16788 16791 16794 16797 16800 16803 16806 16809 16812 16815 16817 16820 16823 16826 16829 16832 16835 16838 16841 16844 16847 16850 16853 16856 16859 16862 16865 16868 16870 16873 16876 16879 16882 16885 16888 16891 16894 16897 16900 16903 16906 16909 16912 16915 16918 16921 16924 16927 16929 16932 16935 16938 16941 16944 16947 16950 16953 16956 16959 16962 16965 16968 16971 16974 16976 16979 16982 16985 16988 16991 16994 16997 17000 17003 17006 17008 17011 17013 17015 17018 17021 17023 17026 17028 17031 17034 17036 17038 17041 17044 17047 17050 17053 17056 17059 17062 17064 17067 17070 17073 17076 17079 17082 17085 17087 17090 17092 17095 17097 17100 17103 17106 17109 17112 17115 17118 17121 17124 17127 17130 17133 17135 17138 17141 17144 17147 17150 17153 17156 17159 17162 17165 17168 17171 17174 17177 17180 17183 17185 17188 17191 17194 17197 17200 17202 17204 17207 17210 17213 17216 17219 17222 17224 17227 17230 17232 17235 17238 17240 17243 17245 17248 17251 17254 17257 17260 17263 17266 17269 17272 17274 17276 17279 17282 17285 17288 17290 17293 17295 17298 17301 17304 17307 17310 17313 17316 17319 17322 17325 17328 17331 17334 17337 17340 17343 17346 17348 17351 17353 17356 17359 17362 17365 17368 17371 17374 17377 17380 17383 17385 17388 17390 17393 17396 17399 17402 17405 17408 17411 17414 17417 17420 17423 17426 17429 17432 17435 17437 17440 17443 17446 17449 17452 17455 17458 17461 17464 17467 17470 17473 17476 17479 17482 17485 17488 17491 17494 17497 17500 17503 17506 17509 17512 17515 17518 17521 17524 17527 17530 17533 17536 17538 17541 17544 17546 17549 17552 17555 17558 17561 17564 17566 17569 17572 17575 17578 17581 17584 17587 17590 17593 17596 17599 17602 17605 17608 17610 17613 17616 17619 17622 17624 17627 17630 17633 17636 17639 17642 17645 17648 17651 17654 17657 17660 17663 17666 17669 17672 17675 17678 17681 17684 17687 17690 17693 17696 17699 17702 17705 17708 17711 17714 17717 17720 17723 17726 17729 17732 17734 17737 17740 17743 17746 17749 17752 17755 17757 17760 17763 17766 17768 17771 17773 17776 17779 17782 17785 17788 17791 17794 17797 17800 17802 17805 17808 17811 17813 17815 17818 17821 17824 17827 17830 17833 17836 17839 17842 17845 17848 17850 17853 17856 17858 17860 17863 17866 17869 17872 17875 17878 17881 17884 17886 17889 17892 17895 17898 17901 17904 17906 17909 17912 17915 17918 17920 17923 17926 17928 17931 17934 17936 17939 17942 17945 17948 17951 17954 17957 17960 17963 17966 17968 17971 17974 17976 17979 17982 17984 17986 17988 17990 17993 17996 17999 18001 18004 18006 18009 18012 18015 18018 18021 18024 18027 18030 18033 18036 18039 18041 18044 18047 18049 18052 18055 18058 18061 18063 18066 18069 18072 18075 18078 18081 18084 18087 18090 18093 18096 18099 18102 18105 18108 18110 18113 18116 18118 18121 18123 18125 18128 18131 18134 18137 18140 18143 18146 18148 18151 18153 18156 18158 18161 18164 18167 18170 18173 18176 18179 18182 18185 18188 18191 18194 18197 18200 18203 18206 18208 18211 18214 18217 18220 18222 18225 18228 18230 18232 18235 18237 18240 18243 18246 18249 18252 18254 18257 18259 18262 18265 18268 18271 18274 18277 18280 18283 18285 18288 18290 18292 18295 18298 18301 18304 18307 18310 18313 18316 18319 18321 18324 18327 18330 18333 18336 18339 18342 18345 18348 18351 18354 18357 18360 18362 18364 18367 18370 18373 18375 18377 18380 18383 18386 18388 18391 18393 18396 18399 18402 18405 18407 18410 18413 18416 18419 18422 18425 18428 18431 18434 18437 18440 18442 18445 18448 18451 18454 18457 18460 18463 18466 18469 18472 18475 18478 18481 18484 18486 18489 18492 18495 18497 18500 18502 18505 18508 18511 18514 18517 18519 18522 18524 18527 18529 18532 18535 18538 18541 18543 18545 18548 18551 18554 18557 18559 18561 18564 18567 18569 18572 18574 18577 18580 18583 18585 18588 18591 18594 18597 18600 18603 18606 18609 18612 18614 18617 18620 18623 18626 18629 18632 18635 18638 18641 18644 18647 18650 18653 18656 18659 18662 18664 18666 18669 18672 18674 18677 18680 18683 18686 18689 18692 18695 18698 18701 18703 18706 18709 18712 18715 18718 18721 18724 18726 18729 18732 18735 18738 18741 18744 18747 18750 18753 18756 18759 18762 18765 18768 18771 18773 18776 18779 18782 18785 18788 18791 18794 18797 18800 18803 18806 18809 18812 18815 18817 18820 18823 18825 18828 18831 18834 18837 18840 18843 18846 18849 18852 18855 18858 18860 18863 18866 18868 18871 18874 18877 18880 18882 18885 18888 18891 18894 18896 18899 18901 18904 18906 18909 18911 18913 18915 18918 18921 18923 18926 18928 18931 18933 18936 18939 18942 18945 18948 18951 18953 18955 18958 18961 18963 18966 18969 18971 18973 18976 18979 18982 18984 18987 18989 18992 18995 18998 19001 19004 19007 19010 19012 19015 19017 19019 19021 19024 19027 19030 19032 19035 19037 19040 19043 19046 19049 19052 19055 19058 19061 19064 19067 19070 19073 19076 19079 19082 19085 19088 19091 19094 19097 19100 19103 19106 19109 19112 19115 19118 19120 19122 19124 19126 19129 19131 19134 19137 19140 19143 19145 19147 19150 19153 19155 19158 19161 19164 19166 19169 19172 19175 19177 19180 19183 19186 19189 19192 19194 19197 19200 19203 19206 19209 19212 19215 19217 19220 19222 19225 19228 19231 19234 19237 19240 19242 19245 19248 19250 19253 19255 19258 19261 19264 19266 19269 19272 19275 19277 19280 19283 19286 19288 19291 19294 19297 19300 19303 19306 19309 19312 19315 19318 19321 19323 19326 19329 19332 19335 19338 19341 19344 19347 19350 19353 19355 19358 19361 19364 19367 19370 19373 19376 19379 19382 19385 19388 19391 19394 19397 19400 19403 19406 19409 19412 19415 19418 19421 19424 19427 19430 19433 19436 19439 19442 19445 19448 19451 19454 19457 19460 19463 19466 19469 19472 19475 19477 19480 19483 19486 19489 19492 19495 19498 19501 19504 19507 19510 19512 19515 19518 19520 19523 19526 19529 19532 19534 19536 19539 19542 19544 19547 19550 19553 19556 19559 19562 19565 19568 19571 19574 19577 19580 19583 19586 19589 19592 19595 19598 19601 19604 19607 19610 19613 19616 19619 19622 19625 19628 19631 19634 19637 19640 19643 19646 19649 19652 19655 19658 19661 19664 19667 19670 19673 19675 19678 19681 19684 19687 19690 19693 19695 19698 19701 19704 19707 19710 19712 19715 19717 19720 19723 19725 19728 19731 19733 19736 19739 19742 19745 19748 19751 19754 19757 19760 19763 19766 19769 19772 19775 19778 19781 19784 19787 19790 19793 19796 19799 19802 19804 19807 19810 19813 19816 19819 19822 19825 19828 19831 19834 19837 19839 19842 19845 19847 19849 19852 19855 19858 19860 19863 19866 19869 19872 19875 19877 19879 19882 19885 19888 19891 19894 19897 19900 19903 19906 19908 19910 19913 19915 19918 19921 19924 19927 19930 19933 19936 19938 19941 19944 19947 19949 19952 19955 19958 19961 19964 19967 19970 19972 19975 19978 19981 19984 19986 19989 19992 19995 19998 20001 20004 20007 20010 20013 20016 20019 20021 20023 20026 20029 20032 20035 20038 20041 20044 20047 20050 20052 20055 20057 20060 20063 20066 20069 20072 20075 20078 20081 20084 20087 20090 20093 20096 20098 20101 20104 20107 20110 20113 20116 20119 20122 20125 20128 20131 20134 20137 20140 20143 20145 20148 20151 20154 20156 20159 20162 20165 20168 20171 20174 20177 20180 20183 20186 20189 20192 20195 20198 20201 20204 20207 20210 20213 20216 20219 20222 20225 20228 20230 20233 20236 20239 20242 20245 20248 20250 20253 20256 20259 20262 20264 20266 20268 20271 20274 20277 20279 20282 20285 20288 20291 20294 20297 20300 20303 20306 20309 20312 20315 20318 20321 20324 20327 20330 20333 20336 20339 20341 20343 20346 20348 20351 20353 20356 20358 20360 20362 20365 20368 20371 20374 20377 20380 20383 20386 20389 20392 20395 20398 20401 20404 20407 20410 20413 20416 20419 20422 20425 20428 20431 20434 20437 20440 20443 20446 20449 20452 20455 20458 20461 20464 20467 20470 20473 20476 20479 20482 20485 20488 20491 20494 20497 20500 20503 20506 20509 20512 20515 20518 20521 20524 20527 20530 20533 20535 20537 20540 20543 20546 20549 20552 20555 20558 20561 20564 20567 20570 20573 20576 20579 20582 20585 20588 20591 20594 20596 20599 20602 20605 20608 20610 20613 20615 20618 20621 20624 20627 20630 20633 20635 20638 20641 20644 20647 20650 20652 20655 20658 20661 20664 20667 20670 20673 20675 20678 20681 20684 20686 20689 20692 20695 20698 20701 20704 20706 20709 20712 20715 20717 20719 20721 20724 20727 20730 20733 20736 20738 20741 20744 20747 20750 20753 20756 20759 20762 20765 20768 20771 20774 20777 20780 20783 20786 20789 20792 20795 20798 20801 20804 20807 20810 20813 20816 20819 20822 20825 20828 20831 20833 20836 20839 20842 20845 20848 20851 20854 20857 20860 20862 20865 20868 20871 20874 20877 20880 20883 20886 20889 20892 20894 20897 20900 20903 20906 20908 20911 20914 20917 20920 20923 20926 20928 20930 20933 20936 20938 20941 20944 20947 20950 20953 20955 20958 20961 20964 20967 20970 20973 20976 20979 20982 20985 20988 20991 20994 20997 21000 21003 21006 21008 21011 21013 21016 21019 21022 21025 21028 21031 21034 21037 21040 21043 21046 21049 21052 21055 21058 21061 21064 21067 21070 21073 21076 21079 21082 21085 21088 21091 21094 21097 21100 21103 21106 21109 21112 21115 21118 21121 21124 21127 21130 21133 21136 21139 21142 21145 21148 21151 21154 21157 21160 21163 21166 21168 21171 21174 21177 21180 21183 21186 21189 21192 21194 21197 21200 21203 21206 21209 21212 21214 21217 21220 21223 21226 21229 21232 21235 21238 21241 21244 21247 21249 21252 21255 21258 21261 21264 21267 21270 21273 21276 21279 21282 21285 21288 21291 21294 21297 21299 21302 21305 21308 21311 21314 21317 21319 21322 21325 21328 21331 21334 21337 21340 21343 21346 21349 21352 21355 21358 21361 21364 21367 21370 21373 21376 21379 21382 21385 21388 21390 21393 21396 21399 21402 21405 21408 21411 21414 21417 21420 21423 21426 21429 21432 21435 21438 21441 21444 21447 21450 21453 21456 21459 21462 21464 21467 21469 21472 21475 21478 21481 21484 21487 21490 21493 21496 21499 21502 21505 21508 21511 21514 21517 21520 21523 21526 21529 21532 21535 21538 21541 21544 21547 21550 21553 21556 21559 21561 21564 21567 21570 21573 21576 21579 21582 21585 21588 21591 21593 21596 21599 21602 21605 21608 21611 21614 21617 21620 21623 21625 21628 21630 21633 21636 21638 21641 21644 21647 21650 21653 21656 21659 21662 21665 21668 21671 21674 21677 21680 21683 21686 21689 21692 21695 21698 21701 21704 21706 21709 21712 21715 21717 21720 21723 21726 21728 21731 21734 21737 21740 21743 21746 21749 21752 21755 21758 21761 21764 21767 21770 21772 21775 21778 21780 21783 21786 21789 21792 21795 21798 21801 21804 21806 21809 21812 21815 21818 21820 21823 21826 21829 21832 21835 21838 21841 21844 21847 21850 21853 21856 21859 21861 21864 21867 21870 21873 21876 21878 21881 21884 21887 21890 21893 21896 21899 21902 21905 21908 21911 21914 21917 21920 21922 21925 21928 21931 21934 21937 21940 21942 21945 21948 21951 21954 21957 21960 21963 21966 21968 21971 21974 21977 21980 21983 21985 21988 21991 21994 21997 22000 22003 22005 22008 22011 22014 22017 22020 22022 22025 22028 22031 22034 22037 22040 22043 22046 22049 22052 22055 22057 22060 22063 22066 22068 22070 22072 22075 22078 22081 22084 22086 22088 22091 22094 22097 22100 22103 22106 22109 22112 22115 22118 22121 22124 22127 22130 22133 22136 22139 22142 22145 22148 22151 22153 22155 22158 22160 22163 22166 22169 22171 22174 22177 22180 22183 22186 22189 22192 22195 22197 22200 22203 22205 22208 22211 22214 22216 22219 22221 22224 22227 22230 22232 22235 22238 22240 22243 22246 22249 22251 22254 22257 22259 22262 22265 22268 22271 22273 22276 22279 22282 22285 22288 22291 22294 22297 22299 22302 22305 22308 22310 22313 22316 22318 22321 22324 22327 22330 22333 22336 22338 22341 22344 22346 22349 22352 22355 22358 22360 22363 22366 22369 22371 22374 22376 22379 22382 22384 22387 22390 22393 22395 22397 22400 22403 22406 22409 22412 22415 22418 22421 22424 22427 22429 22432 22435 22438 22440 22443 22445 22448 22450 22453 22456 22459 22462 22465 22468 22471 22474 22476 22479 22482 22485 22488 22491 22494 22497 22499 22502 22505 22508 22511 22514 22517 22519 22522 22525 22528 22531 22534 22537 22539 22542 22545 22548 22551 22554 22556 22558 22561 22564 22567 22570 22573 22576 22579 22582 22585 22588 22591 22594 22597 22599 22602 22604 22607 22610 22613 22616 22619 22622 22625 22628 22631 22634 22636 22639 22642 22645 22648 22651 22653 22656 22659 22662 22665 22668 22671 22674 22677 22680 22683 22686 22689 22691 22694 22697 22700 22703 22706 22709 22712 22715 22718 22721 22724 22727 22730 22733 22736 22739 22742 22745 22748 22751 22753 22756 22759 22762 22765 22768 22771 22774 22777 22780 22783 22786 22789 22791 22794 22797 22800 22802 22804 22807 22810 22813 22816 22819 22821 22824 22826 22829 22832 22835 22838 22841 22844 22847 22850 22853 22856 22859 22862 22865 22868 22871 22873 22876 22879 22881 22884 22887 22890 22893 22896 22899 22902 22905 22907 22910 22913 22916 22919 22922 22925 22927 22930 22933 22936 22938 22941 22944 22947 22950 22953 22956 22959 22962 22965 22968 22971 22974 22977 22980 22983 22986 22989 22992 22995 22998 23001 23004 23007 23010 23013 23016 23019 23022 23025 23028 23031 23034 23037 23040 23042 23045 23047 23050 23053 23056 23059 23061 23064 23067 23070 23073 23076 23079 23081 23084 23087 23090 23093 23096 23098 23101 23104 23107 23110 23112 23115 23118 23121 23124 23127 23130 23133 23136 23139 23142 23145 23148 23151 23154 23157 23160 23163 23166 23169 23172 23175 23178 23181 23184 23187 23190 23193 23196 23198 23201 23203 23206 23209 23212 23215 23218 23221 23223 23226 23229 23232 23235 23238 23241 23243 23246 23249 23252 23255 23258 23261 23264 23267 23270 23273 23276 23278 23281 23284 23287 23290 23293 23296 23299 23301 23304 23307 23310 23313 23316 23319 23321 23324 23327 23329 23331 23334 23337 23340 23343 23346 23349 23352 23355 23358 23361 23364 23367 23370 23373 23376 23379 23382 23385 23388 23391 23394 23397 23399 23402 23405 23408 23410 23413 23415 23417 23420 23423 23426 23428 23431 23434 23436 23439 23442 23445 23448 23451 23454 23457 23460 23462 23465 23468 23471 23474 23477 23480 23483 23486 23489 23492 23495 23498 23501 23504 23507 23510 23513 23516 23519 23521 23524 23527 23530 23533 23536 23539 23542 23545 23547 23550 23553 23556 23559 23562 23564 23567 23570 23573 23576 23579 23582 23585 23588 23591 23593 23596 23599 23602 23605 23608 23610 23613 23616 23619 23622 23625 23627 23630 23633 23636 23639 23642 23645 23648 23651 23654 23657 23660 23663 23666 23669 23672 23674 23677 23680 23683 23686 23689 23692 23695 23697 23700 23702 23705 23708 23711 23714 23717 23720 23723 23726 23729 23732 23735 23737 23739 23741 23744 23747 23750 23752 23755 23758 23761 23764 23767 23770 23773 23776 23779 23782 23785 23787 23790 23792 23795 23798 23801 23803 23806 23809 23812 23815 23818 23821 23823 23826 23829 23832 23835 23838 23841 23844 23847 23849 23852 23855 23857 23860 23863 23866 23869 23871 23874 23877 23879 23882 23885 23888 23891 23894 23897 23900 23903 23906 23909 23911 23914 23917 23919 23922 23925 23928 23931 23934 23937 23940 23943 23946 23949 23952 23955 23958 23961 23964 23967 23969 23972 23975 23977 23980 23983 23986 23988 23991 23994 23996 23998 24001 24004 24007 24010 24013 24016 24019 24022 24025 24028 24031 24034 24037 24040 24043 24046 24049 24052 24055 24057 24059 24062 24065 24068 24071 24074 24077 24080 24083 24086 24089 24092 24094 24097 24100 24103 24106 24109 24112 24115 24118 24121 24123 24126 24128 24131 24134 24137 24140 24143 24146 24149 24152 24155 24158 24161 24164 24167 24170 24173 24176 24179 24182 24185 24188 24191 24194 24197 24199 24202 24205 24207 24210 24213 24216 24219 24222 24225 24228 24231 24234 24236 24239 24242 24245 24248 24251 24254 24257 24260 24262 24265 24268 24271 24274 24277 24280 24283 24286 24288 24291 24294 24297 24300 24303 24305 24308 24311 24314 24317 24320 24323 24326 24329 24332 24335 24338 24341 24344 24347 24350 24353 24356 24359 24362 24365 24368 24371 24374 24377 24380 24383 24386 24388 24391 24394 24397 24400 24403 24406 24408 24411 24414 24417 24420 24422 24425 24428 24431 24433 24436 24439 24442 24445 24447 24450 24452 24455 24458 24461 24464 24467 24470 24473 24476 24479 24482 24485 24488 24491 24494 24497 24500 24503 24506 24509 24512 24515 24518 24521 24524 24527 24530 24533 24536 24539 24542 24545 24548 24551 24554 24557 24560 24562 24565 24567 24570 24573 24576 24579 24582 24585 24588 24591 24594 24597 24600 24602 24605 24608 24611 24614 24617 24620 24623 24626 24629 24631 24634 24636 24639 24642 24645 24648 24651 24654 24656 24659 24662 24665 24667 24670 24673 24676 24679 24682 24685 24688 24691 24694 24697 24700 24703 24705 24708 24711 24714 24717 24720 24723 24726 24729 24732 24734 24736 24739 24742 24745 24748 24750 24753 24756 24759 24762 24765 24768 24771 24774 24777 24779 24782 24785 24788 24791 24794 24797 24800 24803 24806 24809 24812 24815 24818 24821 24824 24827 24830 24833 24836 24839 24842 24845 24848 24851 24854 24857 24860 24863 24865 24868 24871 24874 24877 24880 24883 24886 24888 24891 24894 24897 24900 24903 24906 24909 24912 24915 24918 24921 24924 24927 24930 24933 24935 24938 24941 24944 24946 24949 24952 24955 24958 24960 24963 24966 24969 24971 24974 24977 24980 24983 24986 24989 24992 24995 24998 25001 25004 25007 25010 25013 25016 25019 25022 25025 25028 25031 25034 25036 25039 25041 25044 25047 25050 25053 25056 25059 25061 25063 25066 25069 25072 25075 25078 25081 25084 25087 25090 25093 25096 25099 25102 25105 25108 25111 25114 25117 25120 25123 25126 25129 25131 25134 25137 25140 25142 25145 25148 25151 25154 25157 25160 25162 25165 25168 25171 25174 25177 25180 25183 25186 25189 25192 25195 25198 25201 25204 25207 25210 25213 25216 25218 25221 25224 25227 25229 25232 25235 25238 25241 25244 25247 25250 25253 25256 25259 25262 25265 25268 25271 25274 25277 25280 25283 25286 25288 25291 25294 25297 25300 25303 25306 25309 25312 25315 25318 25321 25324 25327 25330 25333 25336 25339 25342 25345 25348 25350 25353 25355 25358 25361 25363 25366 25369 25372 25374 25377 25379 25382 25385 25388 25391 25394 25396 25399 25401 25404 25407 25410 25413 25416 25419 25422 25425 25428 25430 25433 25436 25439 25442 25445 25448 25451 25454 25457 25460 25463 25466 25469 25472 25474 25477 25480 25483 25486 25489 25492 25495 25498 25501 25504 25507 25510 25513 25516 25519 25522 25525 25528 25531 25534 25537 25540 25543 25546 25549 25552 25555 25558 25561 25564 25567 25570 25572 25575 25578 25581 25584 25587 25590 25593 25596 25599 25602 25604 25607 25610 25613 25616 25619 25622 25625 25628 25631 25634 25636 25639 25642 25645 25647 25650 25653 25656 25658 25661 25664 25667 25670 25673 25675 25678 25681 25684 25686 25689 25692 25695 25698 25701 25704 25707 25710 25713 25716 25719 25722 25725 25728 25730 25733 25736 25739 25742 25745 25748 25751 25754 25757 25760 25762 25765 25768 25771 25774 25777 25780 25782 25785 25788 25791 25794 25797 25799 25802 25805 25808 25810 25812 25814 25816 25819 25822 25825 25828 25830 25832 25835 25838 25841 25843 25846 25849 25852 25854 25857 25859 25862 25865 25868 25871 25874 25877 25880 25882 25885 25888 25891 25893 25895 25898 25901 25904 25907 25910 25913 25916 25918 25921 25924 25927 25930 25932 25935 25938 25941 25944 25946 25949 25952 25954 25956 25958 25960 25963 25966 25969 25972 25975 25978 25980 25983 25986 25989 25992 25995 25998 26001 26003 26006 26009 26012 26014 26017 26020 26023 26026 26028 26031 26034 26037 26040 26043 26045 26048 26051 26054 26056 26059 26062 26065 26068 26070 26073 26075 26078 26081 26083 26086 26089 26092 26095 26098 26100 26103 26106 26109 26112 26115 26118 26121 26123 26126 26129 26131 26134 26136 26139 26141 26144 26147 26150 26152 26155 26158 26161 26164 26166 26169 26172 26175 26177 26180 26182 26185 26188 26191 26194 26197 26200 26203 26206 26209 26212 26214 26217 26220 26223 26226 26229 26232 26235 26238 26241 26244 26247 26250 26253 26256 26259 26262 26265 26268 26271 26274 26277 26280 26283 26286 26289 26292 26295 26298 26301 26304 26307 26310 26313 26316 26319 26322 26325 26328 26331 26333 26336 26339 26342 26345 26348 26350 26353 26356 26359 26362 26365 26368 26371 26374 26377 26380 26382 26385 26388 26390 26393 26396 26399 26401 26404 26407 26409 26411 26414 26417 26420 26423 26426 26428 26430 26433 26436 26439 26442 26445 26447 26449 26452 26455 26458 26461 26463 26465 26468 26471 26474 26477 26480 26482 26485 26487 26490 26493 26496 26498 26501 26503 26506 26509 26511 26514 26517 26520 26522 26524 26527 26530 26533 26536 26539 26542 26544 26547 26549 26552 26554 26557 26560 26563 26566 26569 26572 26575 26578 26581 26584 26587 26590 26592 26595 26598 26601 26604 26607 26610 26612 26615 26618 26621 26623 26625 26628 26631 26634 26637 26640 26643 26646 26648 26650 26652 26655 26658 26661 26664 26667 26669 26672 26675 26678 26681 26684 26687 26690 26693 26696 26699 26701 26704 26707 26710 26713 26716 26719 26722 26725 26728 26731 26734 26737 26740 26743 26746 26749 26752 26755 26758 26761 26764 26767 26770 26773 26776 26779 26781 26784 26787 26790 26793 26796 26799 26802 26805 26807 26809 26812 26815 26818 26821 26824 26827 26830 26832 26835 26838 26841 26844 26847 26849 26852 26855 26858 26861 26863 26866 26869 26872 26875 26878 26881 26884 26887 26890 26893 26896 26899 26902 26905 26908 26911 26914 26917 26920 26923 26926 26929 26932 26935 26937 26940 26942 26945 26948 26951 26954 26957 26960 26963 26966 26969 26971 26973 26976 26979 26982 26985 26988 26991 26994 26997 27000 27003 27006 27009 27012 27015 27018 27021 27024 27027 27030 27033 27036 27039 27042 27044 27047 27050 27053 27056 27059 27062 27064 27067 27070 27073 27076 27079 27082 27085 27088 27091 27093 27095 27098 27101 27104 27106 27109 27112 27115 27118 27121 27124 27126 27129 27132 27134 27137 27140 27143 27146 27149 27151 27154 27157 27159 27162 27165 27168 27171 27173 27176 27179 27181 27184 27187 27190 27193 27196 27199 27202 27205 27208 27211 27214 27216 27219 27222 27225 27227 27230 27233 27235 27237 27240 27243 27246 27249 27252 27254 27257 27259 27262 27265 27268 27270 27273 27276 27279 27282 27285 27288 27290 27293 27295 27298 27301 27303 27306 27309 27312 27314 27317 27320 27323 27326 27328 27331 27334 27337 27340 27342 27345 27348 27351 27354 27357 27359 27362 27365 27368 27371 27374 27376 27378 27381 27384 27387 27390 27393 27396 27399 27402 27405 27408 27411 27414 27417 27420 27422 27425 27428 27431 27434 27437 27440 27443 27446 27449 27452 27455 27458 27461 27463 27466 27469 27471 27474 27477 27480 27482 27485 27488 27491 27494 27497 27500 27503 27506 27509 27512 27515 27518 27521 27524 27527 27530 27532 27534 27537 27539 27542 27545 27548 27551 27554 27556 27559 27561 27564 27567 27569 27572 27575 27578 27580 27583 27586 27589 27592 27595 27598 27601 27604 27607 27610 27613 27616 27619 27622 27624 27627 27629 27632 27635 27638 27641 27644 27647 27650 27653 27656 27659 27661 27663 27666 27669 27672 27675 27678 27680 27683 27686 27688 27691 27694 27697 27699 27702 27705 27708 27711 27714 27717 27720 27723 27726 27729 27731 27734 27737 27740 27743 27746 27749 27752 27755 27758 27761 27764 27767 27770 27772 27775 27778 27781 27783 27786 27789 27792 27795 27798 27800 27803 27806 27809 27812 27815 27818 27821 27824 27827 27830 27833 27836 27839 27841 27844 27847 27850 27853 27855 27858 27861 27864 27867 27870 27872 27875 27877 27880 27883 27886 27889 27891 27894 27897 27900 27902 27905 27908 27911 27914 27917 27920 27923 27926 27928 27930 27933 27935 27938 27940 27943 27945 27948 27951 27954 27956 27959 27962 27965 27968 27971 27974 27977 27980 27982 27985 27988 27991 27994 27996 27999 28002 28005 28007 28010 28012 28015 28017 28020 28023 28026 28029 28032 28035 28038 28041 28044 28047 28050 28053 28056 28059 28062 28065 28068 28071 28074 28077 28080 28083 28086 28088 28090 28093 28096 28099 28102 28105 28108 28111 28114 28117 28119 28122 28125 28127 28130 28133 28136 28139 28142 28145 28148 28151 28154 28157 28159 28162 28165 28168 28171 28173 28176 28179 28182 28185 28188 28191 28194 28197 28200 28203 28206 28209 28212 28215 28218 28221 28224 28227 28230 28233 28236 28239 28242 28245 28248 28251 28254 28257 28260 28263 28266 28269 28272 28275 28278 28281 28284 28286 28289 28292 28295 28298 28301 28304 28306 28309 28312 28315 28318 28320 28323 28326 28329 28331 28334 28337 28339 28342 28344 28347 28349 28352 28354 28357 28359 28362 28365 28368 28370 28373 28376 28379 28381 28384 28387 28390 28392 28394 28397 28399 28402 28405 28407 28410 28413 28415 28418 28421 28424 28426 28428 28431 28434 28436 28439 28441 28444 28447 28450 28452 28455 28457 28460 28463 28465 28468 28470 28472 28475 28478 28481 28484 28487 28490 28493 28496 28499 28502 28505 28508 28511 28514 28517 28520 28523 28526 28529 28532 28534 28537 28539 28542 28545 28547 28550 28553 28556 28559 28561 28564 28567 28569 28572 28574 28577 28580 28583 28586 28589 28592 28595 28598 28601 28604 28607 28609 28612 28615 28618 28621 28624 28627 28629 28632 28635 28638 28641 28644 28647 28650 28653 28656 28659 28662 28665 28668 28671 28674 28677 28680 28683 28686 28689 28692 28695 28698 28701 28704 28707 28710 28713 28716 28718 28721 28724 28727 28730 28732 28735 28738 28741 28744 28746 28749 28752 28755 28758 28761 28764 28767 28770 28773 28776 28779 28782 28784 28787 28790 28793 28796 28799 28802 28805 28808 28810 28813 28816 28819 28822 28825 28828 28831 28834 28837 28840 28843 28846 28849 28852 28855 28858 28861 28864 28867 28869 28872 28875 28878 28881 28884 28887 28890 28893 28896 28899 28902 28905 28907 28910 28912 28915 28917 28920 28923 28926 28928 28931 28934 28937 28940 28943 28946 28949 28952 28955 28958 28960 28963 28966 28969 28972 28975 28978 28980 28983 28986 28989 28992 28994 28997 29000 29003 29006 29009 29012 29014 29017 29020 29023 29025 29028 29031 29034 29037 29040 29043 29046 29049 29052 29055 29058 29061 29064 29067 29070 29073 29075 29078 29081 29084 29087 29090 29093 29096 29099 29102 29105 29108 29111 29114 29117 29120 29123 29126 29129 29132 29135 29138 29141 29144 29147 29150 29153 29156 29159 29162 29165 29168 29170 29173 29176 29179 29182 29185 29188 29191 29194 29196 29199 29202 29205 29208 29211 29214 29217 29220 29223 29225 29228 29231 29234 29236 29239 29242 29245 29248 29251 29253 29256 29259 29261 29264 29267 29270 29273 29276 29279 29282 29285 29288 29291 29293 29295 29298 29301 29303 29306 29309 29312 29315 29318 29321 29324 29327 29329 29332 29335 29338 29341 29344 29347 29350 29353 29356 29359 29362 29365 29368 29371 29374 29377 29380 29383 29386 29389 29392 29395 29398 29401 29404 29407 29410 29413 29416 29419 29422 29425 29428 29431 29434 29437 29440 29443 29446 29449 29452 29455 29458 29461 29464 29467 29470 29473 29476 29479 29482 29484 29487 29490 29493 29496 29499 29502 29505 29508 29511 29514 29517 29520 29523 29526 29529 29532 29535 29538 29541 29544 29547 29550 29553 29556 29559 29562 29565 29568 29571 29574 29577 29580 29582 29585 29588 29591 29594 29596 29599 29602 29605 29608 29611 29614 29617 29620 29623 29626 29629 29632 29635 29638 29641 29644 29647 29649 29652 29655 29658 29661 29664 29667 29670 29673 29676 29679 29682 29685 29688 29691 29694 29697 29699 29701 29703 29706 29709 29712 29714 29717 29720 29722 29725 29727 29730 29733 29736 29739 29742 29745 29748 29751 29754 29756 29759 29762 29764 29767 29770 29773 29776 29779 29782 29784 29787 29790 29793 29796 29799 29802 29805 29808 29811 29814 29817 29820 29822 29825 29828 29831 29834 29837 29840 29843 29846 29849 29852 29855 29858 29861 29864 29866 29868 29871 29874 29877 29880 29883 29885 29888 29891 29894 29896 29898 29901 29904 29907 29910 29913 29916 29918 29921 29924 29927 29930 29933 29935 29937 29940 29943 29946 29948 29951 29954 29957 29960 29963 29966 29969 29972 29974 29977 29980 29982 29985 29988 29990 29993 29996 29998 30001 30004 30006 30009 30012 30015 30018 30021 30024 30026 30029 30032 30035 30037 30040 30043 30045 30048 30051 30054 30057 30060 30063 30065 30068 30070 30073 30076 30079 30082 30085 30088 30090 30092 30095 30098 30101 30103 30106 30109 30112 30115 30118 30120 30122 30125 30127 30130 30133 30136 30139 30142 30144 30147 30149 30152 30155 30158 30160 30163 30166 30169 30172 30175 30178 30181 30184 30187 30190 30193 30195 30198 30201 30203 30205 30208 30211 30214 30217 30220 30222 30225 30228 30231 30234 30237 30240 30243 30246 30249 30252 30255 30258 30261 30264 30267 30270 30273 30276 30279 30282 30285 30288 30291 30294 30296 30299 30302 30305 30308 30311 30314 30317 30320 30323 30326 30329 30332 30335 30338 30341 30344 30347 30350 30353 30356 30359 30362 30365 30368 30371 30374 30377 30380 30383 30386 30389 30392 30395 30398 30401 30404 30407 30410 30413 30416 30418 30421 30423 30426 30429 30432 30435 30438 30441 30444 30447 30450 30453 30456 30459 30462 30465 30468 30471 30474 30477 30480 30483 30486 30489 30492 30495 30498 30501 30504 30507 30510 30513 30516 30519 30522 30524 30527 30530 30533 30536 30539 30542 30545 30548 30551 30554 30557 30560 30563 30566 30569 30572 30575 30578 30581 30584 30587 30590 30593 30596 30599 30602 30605 30608 30611 30614 30617 30620 30623 30626 30629 30632 30634 30637 30640 30643 30646 30649 30652 30655 30658 30661 30664 30667 30670 30673 30676 30679 30682 30685 30688 30691 30693 30696 30698 30701 30704 30707 30710 30713 30716 30719 30722 30725 30728 30731 30734 30737 30740 30743 30746 30749 30752 30755 30758 30761 30764 30767 30770 30773 30776 30779 30782 30785 30788 30791 30794 30797 30800 30803 30806 30809 30812 30815 30818 30821 30824 30827 30830 30833 30836 30839 30842 30845 30848 30851 30854 30857 30860 30863 30866 30869 30872 30875 30878 30881 30884 30887 30890 30893 30896 30899 30902 30904 30907 30910 30913 30916 30918 30921 30924 30926 30929 30932 30935 30937 30940 30943 30946 30949 30952 30955 30958 30960 30963 30966 30969 30972 30974 30977 30980 30983 30986 30989 30992 30994 30997 30999 31002 
</DataArray>
<DataArray type="UInt32" Name="types" format="ascii">
5 5 3 5 5 5 5 5 5 5 5 3 5 5 5 5 5 5 5 5 5 5 5 3 5 5 5 3 5 3 5 5 5 5 5 5 5 3 5 5 3 5 5 5 5 5 5 5 5 5 5 5 5 5 5 5 5 5 5 5 3 3 5 3 5 5 5 5 5 5 5 5 5 5 5 5 5 5 5 5 5 5 5 5 5 5 3 5 3 5 5 5 5 5 5 5 5 5 5 5 5 5 5 5 5 5 5 5 5 3 3 5 5 5 5 5 5 5 5 5 5 5 5 5 5 5 5 5 5 5 5 5 3 3 5 3 5 5 3 5 5 5 5 5 3 5 3 5 5 5 3 5 3 5 5 5 5 5 5 3 5 5 3 3 5 5 3 5 5 5 5 3 3 5 5 5 3 5 5 5 3 5 5 5 5 5 5 3 5 5 5 3 3 5 5 3 5 5 5 5 5 5 5 3 5 5 5 5 5 3 5 5 5 5 3 5 5 3 5 5 3 5 5 5 5 5 5 5 5 5 3 5 3 5 5 5 3 3 5 3 5 5 5 3 5 5 5 5 3 5 5 5 5 5 5 5 3 5 5 5 5 5 5 5 3 5 5 5 3 3 5 5 5 5 5 5 3 5 5 5 5 5 3 3 3 3 5 5 5 5 5 5 3 5 5 3 5 5 3 3 5 3 5 5 5 3 5 5 5 5 5 3 5 5 3 5 3 5 5 5 3 5 5 5 5 5 5 3 5 5 5 5 5 5 5 5 5 5 5 5 5 5 5 5 3 5 5 5 5 3 5 5 5 5 5 5 5 5 5 5 5 5 5 5 5 5 5 5 5 5 5 5 5 5 5 5 5 5 5 5 5 5 5 5 5 5 5 5 3 5 3 5 5 3 5 5 3 5 5 3 3 5 5 5 5 3 5 5 3 5 3 5 5 3 5 5 5 3 5 5 5 3 5 5 5 5 5 5 5 5 5 5 3 5 5 5 5 5 3 5 5 5 5 5 5 5 5 5 5 5 5 5 5 5 5 5 5 5 5 5 5 5 5 5 5 5 5 5 5 5 5 5 5 5 5 5 5 5 5 5 5 5 5 3 5 5 5 5 5 5 5 5 5 5 5 5 5 5 5 5 5 3 5 5 5 3 5 5 5 5 5 3 5 5 5 3 5 5 5 5 5 5 5 5 3 5 5 5 5 5 5 3 5 5 5 3 5 5 5 5 3 5 5 5 3 5 5 5 5 5 5 5 5 5 5 5 5 5 5 5 5 5 5 5 5 5 5 5 5 5 5 5 5 5 5 5 5 5 5 5 5 5 5 5 5 5 5 5 5 5 5 5 5 5 5 5 5 5 5 5 5 5 5 5 5 5 5 5 5 5 5 3 5 3 5 5 5 5 5 3 5 5 5 5 5 5 5 5 5 5 5 5 5 3 5 5 5 5 5 5 3 5 5 3 5 5 5 3 5 5 5 5 5 5 5 3 5 3 5 5 5 5 5 5 5 5 5 5 5 5 5 5 5 5 5 3 5 5 5 5 5 5 5 5 5 5 5 5 5 5 5 3 5 5 3 5 5 5 5 5 5 5 5 5 5 3 5 3 5 5 5 5 5 3 5 5 5 5 5 5 3 5 5 5 5 5 5 5 5 5 5 3 5 5 5 5 5 5 5 5 5 5 5 5 3 5 5 5 5 5 5 5 5 5 5 5 5 5 5 3 5 5 5 5 5 5 3 5 5 5 5 5 5 5 5 5 5 5 3 5 3 5 3 5 5 5 5 5 5 5 5 5 5 5 3 5 5 3 5 5 5 5 5 5 5 3 5 3 5 3 5 5 3 5 5 5 5 5 5 3 5 5 5 5 5 5 5 5 5 5 5 5 5 5 5 5 5 5 5 5 3 5 5 5 3 5 5 5 5 5 5 5 5 5 5 5 5 5 5 5 5 5 5 5 5 5 5 5 3 3 5 5 5 5 5 5 5 5 5 3 5 5 5 5 5 5 5 5 5 5 3 5 3 5 3 3 5 5 5 5 3 3 5 5 5 5 5 5 5 3 5 5 5 5 5 3 5 5 3 5 5 3 3 5 3 5 5 5 5 5 5 5 5 3 5 5 5 5 3 3 5 5 3 3 5 5 5 3 5 5 5 5 3 5 5 5 5 5 5 5 5 5 5 5 5 5 5 5 5 5 5 5 5 5 5 5 5 5 5 5 5 5 5 5 5 5 5 5 3 5 5 5 5 5 5 5 5 5 5 5 5 5 5 5 5 5 5 5 5 5 5 5 5 5 5 5 5 5 5 5 5 5 5 5 5 5 5 5 5 5 5 5 5 5 5 5 5 5 5 5 5 5 5 5 5 5 5 5 5 5 5 5 5 5 5 5 3 5 5 5 5 5 5 5 5 5 5 5 5 5 5 5 5 5 5 5 5 5 5 5 5 3 5 5 5 5 5 5 5 5 5 3 5 5 5 5 3 5 5 5 5 5 5 5 5 5 5 5 5 5 5 5 5 5 5 5 5 5 5 5 5 5 5 5 5 5 5 5 5 5 5 5 5 5 3 5 5 5 5 5 5 3 5 3 5 3 5 5 5 5 5 3 5 3 5 3 5 5 5 5 3 3 5 3 5 5 5 5 3 5 5 5 5 5 3 3 5 5 5 5 5 5 5 5 5 5 5 5 5 5 5 5 5 5 5 5 5 5 5 5 5 5 5 5 5 5 5 5 5 5 5 5 5 3 5 3 5 5 5 5 3 5 5 5 5 5 5 5 5 5 5 5 5 5 5 5 5 5 5 5 5 5 5 5 5 5 5 5 5 5 5 5 5 5 5 5 5 5 5 5 5 5 5 5 5 5 5 5 5 5 5 5 5 5 5 5 5 5 5 5 5 5 5 5 5 5 5 5 5 5 5 3 5 5 5 5 3 5 5 5 5 5 5 5 5 5 5 5 3 5 5 3 5 5 3 5 3 5 5 5 5 5 5 5 3 5 5 5 5 5 5 5 5 5 5 5 5 5 5 3 5 5 5 5 5 5 5 5 5 5 5 3 5 5 5 5 5 5 5 5 5 3 5 5 5 5 5 5 5 5 5 5 5 5 5 5 5 5 5 5 5 5 5 5 5 5 5 5 5 5 5 5 5 5 5 3 5 5 5 5 5 5 5 3 5 5 3 5 3 5 5 5 3 5 5 5 5 5 5 3 3 5 5 3 3 5 5 5 5 5 5 5 5 5 5 5 5 5 5 5 5 5 5 5 5 5 5 5 5 5 5 3 5 5 3 5 5 5 5 3 5 5 5 5 3 5 5 5 5 5 5 5 5 5 5 3 5 5 5 5 5 3 3 5 5 3 5 5 3 5 5 5 5 3 3 5 5 3 5 5 5 5 5 5 5 5 5 3 5 5 5 5 5 5 3 5 5 3 3 5 5 5 5 3 5 5 5 5 5 5 5 5 5 5 5 5 5 5 5 5 5 5 5 5 5 5 5 5 5 3 5 3 5 5 3 5 5 5 5 5 5 5 5 5 5 5 5 5 5 5 5 3 5 3 5 3 5 5 5 5 5 5 5 5 5 5 5 5 5 3 3 5 5 5 5 5 5 5 5 5 5 5 5 5 5 5 5 5 5 5 5 5 5 5 5 5 5 5 5 5 5 5 5 5 5 5 5 5 3 5 3 5 5 5 3 5 5 5 5 5 5 5 5 5 5 5 5 3 5 5 5 5 5 5 5 5 5 5 3 5 5 5 3 5 5 5 5 5 3 5 3 5 5 5 5 5 3 5 5 5 5 5 5 5 5 5 5 5 5 5 5 5 5 5 5 5 5 5 5 5 5 5 5 5 5 5 5 5 5 3 5 5 3 5 5 5 5 5 5 5 5 5 5 5 5 3 5 5 5 5 5 5 5 5 5 5 5 5 3 5 5 5 5 5 5 5 3 5 5 5 3 5 5 5 3 5 5 3 5 5 5 5 5 5 5 5 5 5 5 5 5 5 5 5 5 3 5 3 3 5 5 5 5 5 5 3 5 3 5 5 5 5 5 5 5 5 5 3 5 5 5 5 5 3 5 5 5 5 5 5 3 5 5 5 5 5 5 5 5 5 3 5 5 5 5 5 3 5 5 5 5 5 5 5 5 3 5 5 5 5 3 5 5 5 5 3 5 3 5 5 3 5 5 5 5 5 5 5 5 5 5 5 3 5 5 5 5 5 5 5 5 5 5 5 5 5 5 5 5 5 5 5 5 5 3 5 3 5 5 5 5 3 5 5 5 5 5 5 5 3 5 5 3 3 5 5 5 5 5 5 5 3 5 3 5 5 5 5 5 5 5 3 5 5 5 5 5 3 5 5 5 5 5 5 5 5 5 5 5 5 5 5 5 5 5 5 5 5 3 5 5 3 5 5 5 5 5 5 5 5 5 5 5 5 5 5 5 5 5 5 5 5 5 5 5 5 5 3 5 5 5 3 5 5 5 5 5 5 3 5 3 3 5 5 5 5 5 3 5 5 5 5 5 5 5 5 5 5 5 5 5 5 3 5 5 3 5 5 5 5 5 5 5 5 5 5 5 5 5 5 5 5 5 5 5 5 5 5 5 5 3 5 5 5 5 5 5 5 5 5 5 3 3 3 5 5 5 5 5 5 5 5 5 5 5 5 5 5 5 5 5 5 5 5 5 5 3 5 5 5 5 5 5 5 5 5 5 5 5 5 5 5 5 5 3 5 5 5 3 5 5 5 5 5 5 3 5 5 5 5 5 3 5 5 5 5 5 5 3 5 5 5 5 5 3 5 5 5 5 5 5 3 5 5 5 5 3 5 5 5 5 5 5 5 5 3 5 5 3 5 5 3 5 5 5 3 5 5 5 5 5 5 5 5 5 3 5 5 5 5 3 5 5 5 5 5 5 3 5 5 5 3 5 5 5 5 5 5 5 5 5 5 5 5 5 5 3 5 3 5 3 5 3 5 5 5 5 5 5 5 5 5 5 3 5 5 5 5 3 5 5 5 3 5 5 5 5 5 3 5 5 5 5 5 5 5 5 5 5 5 5 5 5 5 5 5 5 5 5 5 5 5 5 5 5 5 5 5 5 5 5 5 5 5 5 5 5 5 5 5 5 5 5 5 5 3 5 5 3 5 5 5 5 5 5 5 5 5 5 5 5 5 5 5 5 5 5 3 5 3 5 3 5 5 5 5 5 5 3 5 5 5 5 5 5 5 5 3 5 5 3 3 5 5 5 5 5 5 5 5 5 5 5 5 5 5 5 5 5 5 5 5 5 5 5 5 5 5 5 5 5 5 3 5 5 3 5 5 5 5 5 5 5 5 5 5 5 5 5 5 5 5 5 5 5 5 5 5 5 5 5 5 5 5 5 5 5 5 5 5 5 5 5 5 5 5 5 5 5 5 5 5 5 3 3 5 5 5 5 5 5 5 5 3 5 5 5 3 5 5 5 5 5 5 5 5 5 5 5 5 5 5 5 5 5 5 5 3 5 5 5 5 5 5 5 5 5 5 5 5 5 5 5 5 5 5 5 5 5 5 5 5 5 5 5 5 5 5 5 5 5 5 5 5 5 5 5 5 5 5 5 5 5 5 5 3 3 5 5 5 5 5 5 3 5 5 5 5 5 5 5 5 5 5 5 5 5 5 5 5 5 5 5 5 5 5 5 5 5 5 5 5 5 5 5 5 5 5 3 5 5 3 5 3 5 5 5 5 5 5 5 5 5 5 5 5 5 5 5 3 3 5 5 5 5 5 5 5 3 3 5 5 3 5 5 3 5 3 5 3 5 5 5 5 5 5 5 5 5 5 3 5 5 5 5 3 3 5 5 5 5 5 5 3 5 5 5 5 5 5 5 5 5 3 5 5 5 3 5 5 5 3 5 5 5 5 5 3 5 5 5 5 5 5 5 5 5 5 5 5 5 5 5 3 5 5 5 5 5 5 5 5 5 5 5 5 5 5 5 5 5 5 3 3 5 5 5 5 5 5 5 5 5 5 5 5 5 5 5 5 5 3 5 5 5 5 5 5 5 5 5 5 5 5 5 5 5 5 3 5 5 3 5 5 3 3 5 5 3 5 5 5 5 5 5 5 5 3 5 5 5 3 5 5 5 3 5 5 5 5 3 5 5 5 3 3 3 5 3 5 3 5 3 3 5 5 5 3 5 5 5 5 5 5 5 3 3 5 5 5 5 3 5 5 5 5 5 5 5 5 5 5 5 5 5 5 5 3 5 5 5 5 5 5 5 3 5 5 5 5 5 5 5 5 5 5 5 5 5 5 5 5 3 5 5 5 5 5 5 5 5 5 5 5 5 5 5 5 5 5 5 5 5 5 5 5 5 5 5 5 5 5 5 5 5 5 5 5 5 5 5 5 5 5 5 5 5 5 5 5 5 5 5 5 5 5 5 5 5 5 5 5 5 5 5 5 5 5 5 5 5 5 5 5 5 5 5 5 5 5 5 5 5 5 5 5 5 5 5 5 5 5 5 5 3 5 5 5 5 5 5 3 5 5 5 5 5 3 5 5 5 3 5 5 3 3 5 5 5 5 3 3 5 5 5 5 5 3 5 5 5 5 5 5 3 3 3 3 5 5 3 5 3 5 5 5 5 3 5 5 5 5 5 5 5 5 5 5 5 5 5 5 5 5 5 5 5 5 5 5 5 5 5 5 5 5 5 5 3 5 5 5 5 5 5 5 5 3 5 3 5 5 5 5 5 5 5 5 5 5 5 5 5 5 5 5 5 5 5 5 5 5 5 5 5 5 3 5 5 5 5 5 5 5 5 5 5 5 5 3 5 3 5 5 5 5 5 5 5 5 5 5 5 5 5 5 3 5 5 5 5 5 5 5 3 5 5 5 5 5 5 5 5 5 5 5 5 5 5 5 5 5 5 5 5 5 5 5 5 5 5 5 5 5 5 3 5 5 5 5 5 5 5 5 5 5 5 5 5 5 5 5 5 5 5 5 5 5 5 5 5 5 5 5 5 5 5 5 5 5 5 5 3 3 5 5 3 5 5 5 5 5 5 5 5 5 5 5 5 5 5 5 5 5 5 3 5 5 5 5 5 5 5 5 5 5 5 5 5 5 3 5 3 5 5 5 3 5 5 3 5 3 5 3 5 5 3 5 5 5 5 5 5 3 3 5 5 5 5 5 5 5 5 5 5 5 3 5 5 5 5 5 5 5 3 5 5 5 5 3 5 5 5 5 3 5 5 5 5 5 5 5 3 5 5 5 5 3 5 5 5 5 5 5 5 5 5 5 3 5 5 5 3 5 5 3 5 3 5 5 5 5 5 5 5 5 5 5 5 5 5 5 5 5 5 5 5 5 5 5 5 5 5 5 5 5 5 5 5 5 5 5 5 5 3 5 5 5 5 3 5 5 5 5 5 5 5 3 5 3 5 5 5 5 5 5 5 5 3 5 5 5 5 5 5 5 5 5 5 5 3 3 5 5 5 5 3 5 5 5 5 5 5 3 5 5 3 5 5 3 5 5 5 5 3 5 5 5 5 3 5 5 5 5 5 5 5 5 3 5 5 5 5 5 3 3 5 5 3 5 5 5 5 3 5 5 5 5 5 5 5 5 5 5 5 5 5 5 5 3 3 5 3 5 5 3 5 3 5 5 5 3 3 3 5 5 5 5 3 5 3 3 5 5 5 5 3 5 5 5 5 5 3 5 5 3 5 5 5 5 5 5 5 5 5 5 5 5 5 5 5 5 5 5 5 5 5 5 5 5 5 5 5 5 5 5 5 5 5 5 5 5 5 5 5 5 5 5 5 5 5 5 5 5 5 5 5 5 5 5 3 5 5 5 5 5 5 5 5 5 5 5 5 5 3 5 3 5 5 5 5 5 3 3 3 3 5 5 5 5 5 5 5 5 5 5 5 5 5 5 5 5 5 5 5 5 3 5 5 5 3 5 5 3 5 5 5 5 5 5 5 5 5 5 5 5 5 5 5 5 5 5 5 5 5 5 5 5 5 5 5 5 3 5 5 5 5 3 3 5 5 5 5 5 5 3 3 3 5 5 5 5 5 3 5 5 5 5 5 5 5 5 5 5 5 3 5 3 5 5 5 5 5 5 5 5 5 5 5 3 5 5 5 5 5 5 5 5 5 5 5 3 5 5 3 5 5 5 5 5 5 5 5 3 3 5 5 5 3 5 5 5 5 5 3 5 3 5 3 5 5 5 5 5 5 5 5 3 5 5 5 5 5 3 5 5 5 5 5 5 5 5 5 5 5 5 5 5 5 5 5 3 5 5 5 5 5 5 5 5 5 5 5 5 5 5 5 5 5 5 5 5 5 5 5 5 5 5 5 5 5 5 5 5 5 5 5 5 5 5 5 5 3 5 5 3 5 5 5 5 5 5 5 5 5 5 5 3 5 5 5 3 5 3 5 5 5 5 5 3 5 3 5 5 5 5 5 3 5 5 3 5 5 5 3 5 5 5 3 3 5 5 5 5 3 3 5 5 5 3 5 5 3 5 5 5 5 5 5 5 5 5 5 5 5 5 5 5 3 5 5 5 3 5 3 5 5 3 3 5 3 5 3 5 5 5 5 5 5 5 5 5 5 5 5 5 5 5 5 5 5 5 5 5 5 3 5 3 5 5 5 3 5 5 5 5 5 5 5 5 5 5 5 5 5 5 5 5 5 5 5 5 5 5 5 5 5 5 5 5 5 5 5 5 5 3 5 5 5 5 5 5 5 3 5 5 5 5 5 5 5 5 5 5 5 5 5 5 5 5 5 5 5 5 5 5 5 5 5 5 5 3 5 3 5 5 5 5 5 5 5 3 5 5 5 5 5 3 3 5 5 5 5 5 5 5 5 3 5 3 5 3 5 5 5 5 5 5 5 5 5 5 5 5 3 5 5 5 5 5 5 5 5 5 5 5 5 5 5 5 5 5 5 5 5 5 5 5 5 5 5 5 3 5 3 5 3 5 5 5 5 3 5 5 3 5 5 5 5 5 5 5 5 5 5 5 3 5 5 3 5 5 3 5 5 3 5 5 5 5 5 5 3 3 5 5 3 3 5 5 5 3 3 5 5 3 3 5 3 3 3 5 5 5 5 5 5 5 5 5 3 5 5 5 3 5 5 5 5 5 5 5 5 5 5 5 5 5 5 5 5 5 5 5 5 5 5 5 5 5 5 5 5 5 5 5 5 5 5 5 5 5 5 5 5 3 5 5 5 5 3 5 5 5 3 5 5 5 5 5 5 5 5 5 5 3 5 5 3 5 5 3 3 5 5 3 5 3 5 5 5 5 5 5 5 5 5 5 5 3 5 5 5 5 5 5 3 5 3 3 5 3 5 3 5 3 3 5 3 5 5 5 5 5 3 5 3 5 5 5 5 3 3 5 5 5 5 3 3 5 3 5 5 5 5 3 5 5 5 3 5 3 3 5 5 5 3 5 5 5 5 3 5 5 5 5 3 3 5 3 5 3 3 5 5 5 5 5 5 5 5 3 5 5 5 5 3 3 5 5 3 5 5 3 3 5 5 5 5 5 5 3 5 5 3 3 5 5 3 5 5 3 5 5 3 5 5 3 3 5 5 5 3 5 3 5 3 3 3 5 5 3 5 5 5 3 5 3 5 3 5 5 5 5 5 5 5 5 5 5 5 5 3 5 3 3 5 5 5 5 5 5 5 5 5 5 5 3 3 5 5 5 5 5 5 5 3 5 5 5 5 5 5 3 5 5 5 5 5 5 5 3 5 5 5 5 5 5 5 5 5 5 5 3 5 5 5 3 5 5 3 5 5 5 5 5 3 5 5 5 5 5 5 5 5 5 5 5 5 5 5 3 5 5 5 3 5 5 5 3 3 5 5 5 5 5 5 5 5 5 5 5 5 5 5 5 5 5 5 5 5 5 5 3 5 5 5 5 5 3 5 5 5 5 5 3 5 5 5 5 5 3 5 5 5 5 5 3 3 5 5 5 5 5 3 5 5 3 5 5 5 5 5 5 5 3 5 5 5 5 5 3 5 5 5 5 5 5 5 5 5 5 5 5 5 5 3 5 3 5 5 5 5 5 5 5 3 5 5 3 5 5 5 5 5 3 5 5 5 5 5 5 5 5 5 3 3 5 5 5 3 5 3 5 5 5 5 5 5 3 5 5 5 5 5 3 5 5 3 5 5 5 5 3 5 5 3 5 3 5 5 3 5 5 3 5 5 3 5 5 5 5 5 3 5 5 5 5 5 3 5 5 5 5 5 5 5 5 5 5 5 5 5 5 3 5 5 5 5 3 5 5 5 5 5 3 5 5 3 5 5 5 5 3 5 5 5 5 5 5 5 5 5 5 5 5 5 3 5 5 5 5 5 5 5 3 3 5 3 5 5 5 5 5 5 3 5 5 5 5 5 3 5 3 5 3 5 5 3 5 5 5 5 5 5 5 5 5 3 3 5 5 5 5 5 5 5 5 3 5 5 5 5 5 5 5 5 5 5 5 5 5 5 3 5 5 3 5 5 5 5 5 5 5 5 5 5 5 3 5 5 5 5 5 5 5 5 5 5 3 5 5 3 3 5 5 5 5 3 5 5 5 5 5 5 5 5 5 5 5 5 5 5 5 5 5 5 5 5 5 5 5 5 5 5 5 5 5 3 5 5 3 5 3 3 5 5 3 5 5 3 3 5 5 5 5 5 3 5 5 3 5 5 5 5 5 5 5 5 5 3 5 5 3 5 5 5 5 5 5 5 5 3 5 5 5 5 5 5 5 3 5 5 5 5 5 5 5 5 5 3 5 5 5 5 5 5 3 5 5 5 5 5 5 3 5 5 5 5 5 3 3 5 3 3 5 5 5 5 5 5 5 5 5 3 5 5 5 5 3 5 5 5 3 5 5 5 5 5 5 5 3 5 5 5 5 5 5 5 5 5 5 5 3 5 5 5 5 5 5 5 5 5 5 5 5 5 5 5 5 5 3 5 5 5 5 5 5 5 5 5 5 5 5 5 5 5 5 5 5 5 3 5 5 5 5 3 5 5 5 5 5 5 3 5 5 3 3 5 5 5 5 5 3 5 5 5 5 5 5 5 5 3 5 5 5 5 5 5 5 5 5 5 5 5 5 5 5 5 3 5 3 5 5 3 5 3 5 5 3 5 5 5 5 5 5 5 5 5 5 3 5 5 5 5 5 5 5 5 5 5 5 5 5 5 5 5 5 5 5 5 5 3 5 5 3 5 5 5 5 3 3 5 5 3 5 5 5 5 5 3 3 5 5 3 5 5 5 5 3 5 5 5 5 5 5 5 5 5 5 5 5 5 5 5 5 5 3 5 5 3 5 5 5 3 5 3 5 5 5 5 3 5 5 3 5 5 5 5 3 5 3 5 5 5 5 5 5 5 5 5 5 5 5 5 5 5 5 5 5 5 5 5 5 5 5 5 5 5 5 5 5 5 5 5 5 5 5 5 5 5 5 5 5 5 5 5 5 5 5 5 5 5 5 5 5 5 5 5 5 5 5 5 5 5 5 5 5 5 5 5 5 5 5 5 5 5 5 5 5 5 5 5 5 5 5 5 3 5 5 5 5 5 5 3 5 3 5 5 3 5 5 5 5 5 5 5 5 5 5 5 5 5 5 3 3 5 5 3 5 5 5 5 5 5 5 5 3 5 5 3 5 5 5 5 5 3 3 5 3 5 5 5 5 5 5 5 5 5 5 5 5 5 5 5 3 5 5 5 5 3 5 3 5 5 3 5 5 5 5 5 5 5 5 3 5 5 5 3 5 5 5 5 5 5 3 5 5 5 5 5 5 3 5 5 3 5 5 3 5 5 3 5 5 5 5 5 5 5 5 3 5 5 5 5 5 5 5 5 5 5 5 5 5 5 5 5 5 3 5 5 5 3 5 5 3 5 5 5 5 3 5 3 5 5 5 5 5 5 5 5 5 5 3 5 5 5 5 5 5 5 5 5 3 5 5 5 3 5 3 5 3 5 5 5 3 5 5 5 5 5 5 3 5 3 5 5 3 5 5 5 5 5 5 5 5 3 5 5 5 5 5 5 5 5 5 3 5 5 5 5 5 5 5 5 5 5 3 5 5 5 3 5 5 5 5 5 5 5 5 5 5 5 5 5 5 5 5 5 5 5 5 3 5 5 5 5 5 3 5 5 5 5 5 3 5 5 5 5 5 5 5 5 3 5 5 5 5 5 5 5 5 5 5 5 5 5 5 3 5 5 5 5 5 3 5 5 5 3 5 3 5 5 5 5 5 5 5 5 5 3 5 5 5 3 5 5 3 5 5 5 5 5 5 5 5 5 5 5 5 5 5 5 5 5 3 5 3 5 5 5 5 5 5 3 5 5 5 5 5 5 5 5 5 5 5 3 5 3 3 5 5 5 5 5 5 5 5 5 5 5 5 5 5 5 5 5 3 3 5 5 5 3 5 5 3 5 5 5 5 5 3 5 5 5 3 5 5 5 5 3 5 5 5 3 5 5 5 5 5 5 5 5 5 5 5 3 5 5 5 5 5 5 3 5 5 5 5 5 3 3 5 3 5 5 5 5 3 3 5 5 5 5 5 5 5 5 5 5 5 5 5 5 5 3 3 5 5 5 5 5 5 5 5 3 5 5 5 5 5 5 5 5 5 5 5 5 5 5 5 5 5 5 5 5 3 5 5 5 5 5 5 3 5 5 5 5 5 5 5 5 5 5 5 5 3 5 5 5 5 5 3 5 5 5 3 5 5 5 3 5 5 5 5 5 3 5 5 5 3 5 5 5 5 5 5 5 5 5 5 5 5 5 5 5 5 5 5 5 5 5 5 5 5 5 5 5 3 5 5 5 5 5 5 3 5 5 5 3 5 5 5 5 5 5 5 5 5 5 5 5 5 5 5 5 5 5 5 5 5 5 5 5 5 5 3 5 5 5 5 5 5 5 5 5 3 5 5 5 5 3 5 5 5 5 5 5 5 5 5 5 5 5 5 3 5 5 5 5 5 5 3 5 5 3 5 5 3 5 3 3 5 3 3 5 5 3 3 5 5 5 3 5 3 5 5 5 5 3 5 5 5 5 5 5 3 5 3 5 5 5 5 5 5 5 5 5 5 5 5 5 5 3 5 5 5 5 5 5 5 3 5 5 5 5 5 5 5 3 5 3 5 5 5 3 5 5 5 5 3 5 5 3 5 5 5 5 3 3 3 5 5 3 5 5 3 5 5 5 3 5 5 5 3 5 5 3 5 5 5 5 5 5 5 5 5 5 5 5 5 5 5 5 3 5 5 5 5 5 5 5 5 5 5 5 5 5 5 5 5 5 3 5 5 5 5 5 5 5 5 5 5 5 5 5 5 5 5 5 5 5 3 5 5 5 5 5 5 5 5 5 5 5 5 5 5 5 3 5 5 5 5 5 5 5 5 5 5 3 5 3 3 5 5 3 5 3 5 5 3 3 5 5 5 5 5 5 5 5 3 5 5 5 5 5 5 5 3 5 3 5 3 5 5 5 5 5 5 5 5 5 5 5 5 3 5 5 5 5 5 5 5 5 5 5 5 5 5 5 5 5 3 5 5 5 5 5 3 3 5 5 5 5 5 5 3 5 5 3 5 5 3 5 3 5 5 5 5 5 5 5 5 5 3 3 5 5 5 5 3 5 3 5 5 5 5 5 5 5 5 5 5 5 5 5 5 5 5 5 3 5 3 5 5 5 5 5 5 5 5 5 5 3 5 3 5 5 5 5 5 5 5 5 5 5 5 5 5 5 5 3 5 5 5 5 5 5 5 5 5 5 5 5 5 5 5 5 5 5 5 5 5 5 5 5 5 5 5 5 5 5 5 5 5 3 5 5 3 5 5 5 5 5 5 3 5 5 5 5 5 5 5 5 5 5 5 5 5 5 3 5 5 5 5 3 5 5 5 5 5 5 5 5 5 5 5 5 5 5 5 5 5 5 5 5 5 5 5 5 5 5 5 5 5 5 5 5 5 5 5 5 3 5 5 5 5 5 5 5 3 5 5 5 3 5 3 5 5 5 5 5 5 5 5 5 3 5 5 5 3 3 5 5 5 5 5 5 5 5 5 5 5 3 5 5 3 3 5 5 5 5 5 5 5 5 3 5 5 5 5 5 5 3 5 5 5 5 3 5 5 3 5 5 3 5 5 5 5 5 5 5 5 5 5 3 5 5 3 5 5 3 3 3 3 5 5 5 3 5 3 5 5 5 5 5 5 5 5 5 5 5 3 5 5 3 5 5 5 5 3 5 5 5 5 5 5 5 5 5 5 5 5 5 5 5 3 5 5 3 5 3 3 5 5 5 5 5 5 5 3 5 3 5 3 5 5 5 5 5 5 5 5 5 5 5 5 5 5 5 5 3 5 5 5 5 3 5 5 3 3 5 3 5 5 5 5 5 3 5 3 5 5 5 5 5 5 5 5 3 5 3 3 5 5 5 5 5 5 5 5 5 3 5 5 5 5 5 5 5 5 5 5 5 5 5 3 3 5 5 5 3 3 5 5 5 3 5 3 5 5 5 5 3 5 5 5 5 5 5 5 5 5 5 5 3 5 5 5 5 5 5 5 5 5 5 5 5 5 5 3 5 5 5 3 5 3 5 5 5 5 5 3 5 3 5 3 5 5 5 5 3 3 5 5 5 5 3 3 5 5 3 5 3 5 5 5 3 5 5 5 5 5 5 5 5 5 3 5 5 5 5 5 5 5 5 5 5 5 5 5 5 5 5 3 3 5 5 3 5 5 5 5 5 5 5 5 5 3 5 5 5 5 5 5 5 3 5 5 5 5 5 5 5 5 5 5 5 5 5 5 5 3 5 5 5 5 5 5 5 5 5 5 5 5 5 5 3 5 5 3 5 5 5 5 5 5 5 5 5 5 5 3 5 5 3 5 5 5 5 3 5 5 5 5 3 5 3 5 3 5 3 3 3 5 5 3 5 3 5 3 5 5 5 5 5 5 3 3 5 5 3 5 5 3 3 5 5 5 3 5 3 5 5 5 5 5 5 5 3 5 3 3 3 5 5 5 3 5 3 5 5 5 5 5 5 5 5 5 5 5 5 5 5 5 5 5 5 5 5 5 5 5 5 5 5 5 3 3 3 3 5 3 5 5 5 5 3 3 5 5 3 5 5 5 3 5 5 5 3 5 5 5 5 5 3 5 5 5 5 5 5 5 3 5 3 5 5 5 5 5 5 3 5 5 3 5 3 5 5 5 3 5 5 5 3 5 5 5 3 5 5 5 5 5 5 5 5 5 5 5 3 5 5 5 5 5 5 5 5 5 5 3 5 5 5 5 5 5 5 5 5 5 5 5 5 5 5 5 5 5 5 5 5 5 5 5 5 5 5 5 5 5 5 5 5 5 5 5 5 5 5 5 3 5 5 5 5 5 5 5 5 5 5 5 3 5 5 3 5 5 5 5 3 3 5 5 3 5 5 5 5 5 5 5 5 5 5 5 5 5 5 5 5 5 5 5 5 5 5 5 5 5 5 5 5 5 5 5 5 5 5 5 5 5 5 5 5 5 5 5 3 5 5 5 5 5 5 3 5 5 5 5 5 3 5 3 5 5 3 5 5 3 5 5 5 5 5 5 5 5 5 5 5 5 5 5 5 5 5 5 5 5 5 5 5 3 5 5 5 5 5 5 5 5 5 5 5 3 5 5 3 3 5 5 5 3 5 5 5 5 5 3 3 5 5 5 5 5 5 5 5 5 3 3 5 3 5 5 5 5 5 5 5 3 5 5 5 3 5 5 5 5 5 5 5 3 5 5 5 5 3 5 5 5 5 5 5 5 5 5 5 5 3 3 5 5 5 5 5 5 5 5 5 3 5 3 5 5 5 5 5 5 5 5 5 5 5 5 5 3 5 5 5 5 5 5 5 5 5 5 5 5 5 5 5 3 5 5 5 3 5 5 5 5 5 5 5 5 5 5 5 5 5 5 5 5 5 5 5 5 5 5 5 5 3 5 5 5 5 5 5 3 5 5 5 5 3 3 3 5 5 5 3 5 5 5 5 5 5 5 5 5 5 5 5 5 5 5 5 5 5 5 5 3 3 5 3 5 3 5 3 3 3 5 5 5 5 5 5 5 5 5 5 5 5 5 5 5 5 5 5 5 5 5 5 5 5 5 5 5 5 5 5 5 5 5 5 5 5 5 5 5 5 5 5 5 5 5 5 5 5 5 5 5 5 5 5 5 5 5 3 3 5 5 5 5 5 5 5 5 5 5 5 5 5 5 5 5 5 5 5 3 5 5 5 5 3 5 3 5 5 5 5 5 5 3 5 5 5 5 5 3 5 5 5 5 5 5 5 3 5 5 5 3 5 5 5 5 5 5 3 5 5 5 3 3 3 5 5 5 5 5 3 5 5 5 5 5 5 5 5 5 5 5 5 5 5 5 5 5 5 5 5 5 5 5 5 5 5 5 5 5 5 5 3 5 5 5 5 5 5 5 5 5 3 5 5 5 5 5 5 5 5 5 5 3 5 5 5 5 3 5 5 5 5 5 5 3 3 5 5 3 5 5 5 5 5 3 5 5 5 5 5 5 5 5 5 5 5 5 5 5 5 5 5 3 5 3 5 5 5 5 5 5 5 5 5 5 5 5 5 5 5 5 5 5 5 5 5 5 5 5 5 5 5 5 5 5 5 5 5 5 5 5 5 5 5 5 5 5 5 5 5 5 5 5 5 5 5 3 5 5 5 5 5 5 5 5 3 5 5 5 5 5 5 3 5 5 5 5 5 5 5 5 5 5 5 3 5 5 5 5 5 5 5 5 5 5 5 5 5 5 5 5 3 5 5 5 5 5 5 3 5 5 5 5 5 5 5 5 5 5 5 5 5 5 5 5 5 5 5 5 5 5 5 3 5 5 5 5 5 5 5 5 5 5 5 5 5 5 5 5 5 5 5 5 5 5 5 5 3 5 3 5 5 5 5 5 5 5 5 5 5 5 5 5 5 5 5 5 5 5 5 5 5 5 5 5 5 5 5 5 5 3 5 5 5 5 5 5 5 5 5 5 3 5 5 5 5 5 5 5 5 5 5 3 5 3 5 5 3 5 5 5 5 5 5 5 5 5 5 5 5 5 5 5 5 5 5 5 5 5 5 3 5 5 5 3 5 5 5 3 5 5 5 5 5 5 5 5 5 5 5 5 5 5 3 5 5 3 5 5 5 5 5 5 5 5 3 5 5 5 5 3 5 5 5 5 5 5 5 5 5 5 5 5 5 3 5 5 5 5 5 3 5 5 5 5 5 5 5 5 5 5 5 5 5 5 3 5 5 5 5 5 5 3 5 5 5 5 5 5 5 5 3 5 5 5 5 5 3 5 5 5 5 5 5 3 5 5 5 5 5 3 5 5 5 5 5 5 5 5 5 5 5 3 5 5 5 3 3 3 5 5 5 5 3 3 5 5 5 5 5 5 5 5 5 5 5 5 5 5 5 5 5 5 5 5 5 3 3 5 3 5 5 5 3 5 5 5 5 5 5 5 5 3 5 5 3 5 5 5 3 5 3 5 5 5 3 5 5 3 5 5 5 3 5 5 3 5 5 5 5 3 5 5 5 5 5 5 5 5 3 5 5 5 3 5 5 3 5 5 5 5 5 5 3 5 5 3 5 5 5 5 3 5 5 5 3 5 3 5 5 3 5 5 5 3 3 5 5 5 5 5 5 5 5 5 5 3 5 5 5 3 5 3 5 3 5 5 5 5 5 5 5 5 3 5 5 5 5 5 5 5 3 5 5 5 5 5 5 3 5 5 5 5 5 5 3 5 5 5 5 5 3 3 5 5 5 5 5 5 5 5 5 5 5 5 5 3 5 3 5 5 5 5 5 5 5 5 5 5 3 5 5 5 5 5 3 5 5 5 5 5 5 5 5 5 5 5 5 3 5 5 5 5 5 5 5 5 5 5 5 5 5 5 5 5 5 5 5 5 3 5 5 5 5 5 5 5 5 5 5 5 5 3 5 5 5 3 3 5 5 5 5 5 3 5 3 5 5 5 5 5 5 5 5 5 5 5 5 5 5 5 3 5 5 3 5 5 5 5 5 5 5 5 3 5 5 5 5 5 5 3 5 5 5 3 5 5 5 5 5 5 5 5 5 5 5 5 5 5 5 5 5 5 5 5 5 5 5 5 5 5 5 5 5 5 5 5 5 5 3 5 3 5 5 5 5 3 5 5 5 5 5 5 3 5 5 5 5 5 3 5 5 5 5 3 5 5 5 5 5 5 5 5 5 5 5 5 5 5 5 5 5 5 5 5 5 5 5 5 5 5 5 5 3 5 3 5 5 5 5 5 5 3 5 5 5 5 5 5 3 5 5 5 5 5 5 5 5 5 5 5 3 5 5 5 5 5 5 5 3 5 5 5 5 5 5 3 5 5 3 3 5 5 5 5 5 5 5 5 5 5 5 5 5 5 5 5 5 5 5 5 5 5 3 5 5 5 3 5 3 3 5 5 5 3 5 5 3 5 5 5 5 5 5 5 5 3 5 5 5 5 5 5 5 5 5 5 5 5 5 5 5 5 5 5 5 3 5 5 5 5 5 5 5 5 3 5 5 5 5 5 3 5 5 5 5 5 5 5 5 5 3 5 5 5 5 5 3 5 5 5 5 5 3 5 5 5 5 5 5 5 5 5 5 5 5 5 5 5 3 5 5 5 5 5 5 5 3 5 3 5 5 5 5 5 5 5 5 5 5 5 3 3 3 5 5 5 3 5 5 5 5 5 5 5 5 5 5 5 3 5 3 5 5 5 3 5 5 5 5 5 5 3 5 5 5 5 5 5 5 5 3 5 5 3 5 5 5 5 3 5 5 3 5 5 5 5 5 5 5 5 5 5 3 5 5 3 5 5 5 5 5 5 5 5 5 5 5 5 5 5 5 5 3 5 5 3 5 5 5 3 5 5 3 3 5 5 5 5 5 5 5 5 5 5 5 5 5 5 5 5 5 5 5 3 3 5 5 5 5 5 5 5 5 5 5 5 3 5 5 5 5 5 5 5 5 5 3 5 3 5 5 5 5 5 5 5 5 5 5 5 5 5 5 5 5 5 5 5 5 5 5 5 3 5 5 3 5 5 5 5 5 5 5 5 5 3 5 5 5 5 5 5 5 5 3 5 5 5 5 5 5 5 5 3 5 5 5 5 5 3 5 5 5 5 5 5 5 5 5 5 5 5 5 5 5 5 5 5 5 5 5 5 5 5 5 5 5 3 5 5 5 5 5 5 3 5 5 5 5 3 5 5 5 3 5 5 5 5 3 5 3 5 5 5 5 5 5 5 5 5 5 5 5 5 5 5 5 5 5 5 5 5 5 5 5 5 5 5 5 5 5 5 5 5 5 5 5 3 5 3 5 5 5 5 5 5 5 5 5 5 5 3 5 5 5 5 5 5 5 5 5 3 5 3 5 5 5 5 5 5 3 5 5 5 3 5 5 5 5 5 5 5 5 5 5 5 5 3 5 5 5 5 5 5 5 5 5 3 3 5 5 5 5 3 5 5 5 5 5 5 5 5 5 3 5 5 5 5 5 5 5 5 5 5 5 5 5 5 5 5 5 5 5 5 5 5 5 5 5 5 5 5 3 5 5 5 5 5 5 5 3 5 5 5 5 5 5 5 5 5 5 5 5 5 5 5 3 5 5 5 3 5 5 5 5 3 5 5 5 3 5 5 5 5 5 5 5 5 5 5 5 5 5 5 5 5 5 5 5 5 5 3 5 3 5 5 5 5 5 5 3 3 5 5 5 5 5 5 5 5 5 5 5 5 5 5 5 5 5 5 5 5 5 5 3 5 5 5 3 5 5 5 5 5 5 3 5 5 5 5 5 5 5 5 5 5 5 5 5 5 5 5 5 5 3 5 5 5 3 5 5 5 5 5 5 5 5 5 5 5 5 5 5 5 5 5 5 5 3 5 5 5 5 5 5 5 5 5 5 5 5 5 5 5 5 5 5 5 5 3 5 3 5 5 3 5 5 5 3 5 3 5 5 5 5 5 3 5 3 5 5 5 5 5 5 5 5 5 3 5 5 5 5 5 5 5 5 5 5 5 5 5 5 3 5 5 5 5 5 5 5 5 5 5 5 5 5 5 5 5 5 5 5 5 5 5 5 5 5 5 5 5 5 5 5 5 3 5 5 5 5 5 5 5 5 5 5 3 5 5 5 5 5 5 5 5 5 5 3 5 5 5 3 5 5 5 3 5 5 5 5 5 3 5 5 5 3 5 5 5 5 5 5 5 5 5 5 5 5 5 5 3 5 5 5 5 5 5 5 5 5 5 3 5 5 5 5 5 5 3 5 5 5 5 5 3 5 5 5 3 3 3 3 5 5 5 5 3 3 5 5 5 3 5 5 5 3 5 3 5 5 5 5 5 5 5 3 5 5 5 3 3 5 5 5 5 5 5 5 3 5 5 5 5 3 5 5 5 5 3 5 5 3 3 3 3 5 5 5 5 5 5 3 5 5 5 5 5 5 5 3 5 5 5 3 5 5 5 5 3 5 5 5 5 5 3 5 5 5 3 5 5 5 5 3 5 3 5 5 3 5 5 5 5 5 3 5 5 5 5 5 5 5 3 5 5 3 5 3 5 3 5 5 5 3 5 5 5 5 3 5 5 5 3 5 3 5 5 5 5 5 5 5 5 5 5 3 5 5 5 5 5 5 5 5 5 5 5 5 5 5 5 5 5 5 5 5 5 5 5 5 5 5 5 5 5 5 5 5 5 5 5 5 5 5 5 3 5 5 5 5 5 3 5 5 5 5 5 5 5 5 5 5 3 5 5 3 5 5 5 3 5 5 3 3 5 5 5 5 5 3 3 5 5 5 5 5 3 3 5 5 5 5 3 3 5 5 5 5 5 3 5 3 5 5 5 3 5 3 5 5 3 5 5 5 3 3 5 5 5 5 5 5 3 5 3 5 3 5 5 5 5 5 5 5 5 5 5 5 5 3 5 5 5 5 5 5 3 5 5 5 3 3 5 5 5 5 5 5 5 3 3 3 5 5 5 5 5 3 5 5 5 5 5 5 5 5 5 5 3 5 5 5 5 5 5 5 5 5 5 5 5 5 5 5 5 5 5 5 5 5 5 5 5 5 5 3 5 5 5 5 5 5 5 5 3 3 5 5 5 5 5 5 5 3 5 5 5 5 5 3 5 5 5 5 3 5 5 5 5 5 5 5 5 5 5 5 5 5 5 5 5 5 5 5 5 5 5 5 5 3 5 3 5 5 5 5 5 5 5 5 5 3 3 5 5 5 5 5 5 5 5 5 5 5 5 5 5 5 5 5 5 5 5 5 5 5 3 5 5 5 5 5 5 3 5 5 5 5 5 5 5 5 5 3 3 5 5 5 3 5 5 5 5 5 5 3 5 5 3 5 5 5 5 5 3 5 5 3 5 5 5 5 3 5 5 3 5 5 5 5 5 5 5 5 5 5 5 3 5 5 5 3 5 5 3 3 5 5 5 5 5 3 5 3 5 5 5 3 5 5 5 5 5 5 3 5 3 5 5 3 5 5 5 3 5 5 5 5 3 5 5 5 5 3 5 5 5 5 5 3 5 5 5 5 5 3 3 5 5 5 5 5 5 5 5 5 5 5 5 5 5 3 5 5 5 5 5 5 5 5 5 5 5 5 5 3 5 5 3 5 5 5 3 5 5 5 5 5 5 5 5 5 5 5 5 5 5 5 5 3 3 5 3 5 5 5 5 5 3 5 3 5 5 3 5 5 5 3 5 5 5 5 5 5 5 5 5 5 5 5 5 5 3 5 3 5 5 5 5 5 5 5 5 5 5 3 3 5 5 5 5 5 3 5 5 3 5 5 5 3 5 5 5 5 5 5 5 5 5 5 3 5 5 5 5 5 5 5 5 5 5 5 5 5 3 5 5 5 3 5 5 5 5 5 3 5 5 5 5 5 5 5 5 5 5 5 5 5 3 5 5 5 5 3 5 5 5 5 5 3 5 3 5 5 5 5 3 5 5 5 3 5 5 5 5 5 5 5 5 3 3 5 3 5 3 5 3 5 5 5 3 5 5 5 5 5 5 5 5 3 5 5 5 5 3 5 5 5 3 5 3 5 3 5 5 5 5 5 5 5 5 5 5 5 5 5 5 5 5 5 5 5 5 5 5 5 3 3 5 5 5 5 5 5 5 5 5 3 5 5 3 5 5 5 5 5 5 5 5 5 5 3 5 5 5 5 3 5 5 5 5 5 5 5 5 5 5 5 5 5 5 5 5 5 5 5 5 5 5 5 5 5 5 5 5 5 5 5 5 5 5 5 5 5 3 5 5 5 5 5 5 3 5 5 5 5 3 5 5 5 3 5 5 3 5 3 5 3 5 3 5 3 5 5 5 3 5 5 5 3 5 5 5 3 3 5 3 5 5 3 5 5 3 5 5 5 3 3 5 5 3 5 3 5 5 5 3 5 3 5 5 3 5 3 3 5 5 5 5 5 5 5 5 5 5 5 5 5 5 5 5 5 5 5 5 3 5 3 5 5 3 5 5 5 5 3 5 5 3 5 3 5 5 5 5 5 5 5 5 5 5 5 3 5 5 5 5 5 5 3 5 5 5 5 5 5 5 5 5 5 5 5 5 5 5 5 5 5 5 5 5 5 5 5 5 5 5 5 5 3 5 5 5 5 3 5 5 5 5 3 5 5 5 5 5 5 5 5 5 5 5 5 3 5 5 5 5 5 5 5 5 3 5 5 5 5 5 5 5 5 5 5 5 5 5 5 5 5 5 5 5 3 5 5 5 5 5 5 5 5 5 5 5 5 3 5 3 5 3 5 5 5 3 5 5 5 5 5 5 5 5 5 5 3 5 5 5 5 5 5 3 5 5 5 5 3 5 5 5 5 5 5 3 5 5 5 3 5 5 5 5 5 5 5 5 5 5 5 5 5 5 5 5 3 5 5 5 5 5 5 5 5 5 5 5 5 5 5 5 5 5 5 5 5 5 5 5 5 5 5 5 5 5 5 5 3 5 5 5 5 5 5 5 5 3 5 5 5 5 5 5 5 5 5 3 5 5 5 3 5 5 5 5 5 3 5 5 3 5 5 5 5 5 5 5 5 5 5 3 3 5 5 3 5 5 5 5 5 5 5 5 3 5 5 5 5 5 5 5 5 5 5 5 5 5 5 5 5 5 5 5 5 5 5 5 5 5 5 5 5 5 5 5 5 5 5 5 5 5 5 5 5 5 5 5 5 5 5 5 5 5 5 5 3 5 5 5 5 5 5 5 5 5 5 5 5 5 5 5 5 5 5 5 5 5 5 5 5 5 5 5 5 5 5 5 5 3 5 5 5 5 3 5 5 5 5 5 5 5 5 5 5 5 5 5 5 5 5 5 3 5 5 5 5 5 5 5 5 5 5 5 5 5 5 5 5 3 3 3 5 5 5 3 5 5 3 5 3 5 5 5 5 5 5 5 5 5 3 5 5 3 5 5 5 5 5 5 3 5 5 5 5 5 5 5 5 5 5 5 5 3 5 5 5 5 5 5 5 5 5 5 5 5 5 5 3 3 5 5 5 5 5 3 5 5 5 3 3 5 5 5 5 5 5 3 5 5 5 5 5 3 3 5 5 5 3 5 5 5 5 5 5 5 5 3 5 5 3 5 5 3 5 5 3 5 5 3 5 5 5 5 5 5 3 5 5 5 3 5 5 3 5 5 5 5 5 5 3 5 3 5 5 5 5 5 5 3 3 5 5 5 3 5 5 5 5 5 3 3 5 3 5 5 5 5 5 3 5 3 5 5 5 3 5 5 5 5 5 5 5 5 5 5 5 3 5 5 3 3 5 5 5 5 5 3 5 5 5 5 5 5 5 5 5 5 5 5 5 5 5 5 5 5 5 5 5 5 5 5 3 5 5 5 5 5 5 5 5 5 5 5 5 5 5 5 5 5 5 5 5 5 5 5 5 5 5 5 5 5 5 5 5 5 5 5 5 5 5 5 5 3 5 3 5 5 5 5 5 5 5 5 5 5 5 5 5 5 5 5 5 5 5 5 5 5 5 5 5 5 5 5 5 5 5 5 5 3 5 5 5 5 5 5 5 5 5 5 5 5 5 5 5 5 5 5 5 5 5 5 5 5 5 5 5 5 5 5 5 5 5 5 5 5 3 5 5 5 5 5 5 5 5 5 5 5 5 5 5 5 5 5 5 5 3 5 3 5 5 5 5 5 5 5 5 5 5 5 5 5 5 5 5 5 5 5 5 5 5 5 5 5 5 5 5 5 5 5 5 5 5 5 5 5 5 5 5 5 5 5 5 5 5 5 5 5 5 5 5 5 5 5 5 5 5 5 5 5 5 5 5 5 5 5 5 3 5 5 5 5 3 5 5 3 5 5 5 3 5 5 5 5 5 5 5 3 5 5 5 5 3 5 5 5 5 5 5 3 5 3 5 
</DataArray>
</Cells>
<PointData Scalars="" Vectors="displacement," Tensors="">
<DataArray type="Float64" Name="displacement" NumberOfComponents="3" format="ascii">
-0.044997837897039539 1.2787205382243423e-09 0 -0.044009342506918188 7.1659768723303531e-05 0 -0.044999879266606181 -8.999835297835494e-08 0 -0.044997837897039539 1.2787205382243423e-09 0 -0.042693042672562541 4.3618381881005986e-05 0 -0.040679389165518796 1.9948197641955771e-07 0 -0.043923883969836375 0.00013639024259460322 0 -0.043449812144044954 0.00027129935245941172 0 -0.042852070602677546 0.00020976025918644699 0 -0.044009342506918188 7.1659768723303531e-05 0 -0.042233753451769593 0.00043466392581552798 0 -0.042852070602677546 0.00020976025918644699 0 -0.044009342506918188 7.1659768723303531e-05 0 -0.04304998531674898 8.9119882865300857e-05 0 -0.044997837897039539 1.2787205382243423e-09 0 -0.042693042672562541 4.3618381881005986e-05 0 -0.044009342506918188 7.1659768723303531e-05 0 -0.042693042672562541 4.3618381881005986e-05 0 -0.044009342506918188 7.1659768723303531e-05 0 -0.04304998531674898 8.9119882865300857e-05 0 -0.042693042672562541 4.3618381881005986e-05 0 -0.042930255507630265 -3.4018054492796226e-05 0 -0.04304998531674898 8.9119882865300857e-05 0 -0.042693042672562541 4.3618381881005986e-05 0 -0.042930255507630265 -3.4018054492796226e-05 0 -0.043039338341055347 -0.0002477908250656225 0 -0.039820654040408077 -6.0139576593015299e-05 0 -0.040679389165518796 1.9948197641955771e-07 0 -0.037578114761082422 9.2670940508273572e-08 0 -0.042693042672562541 4.3618381881005986e-05 0 -0.039820654040408077 -6.0139576593015299e-05 0 -0.040679389165518796 1.9948197641955771e-07 0 -0.042356308559641148 -0.00011168455090122231 0 -0.041796924589484967 -0.00025801295886650704 0 -0.04304998531674898 8.9119882865300857e-05 0 -0.042567922113345057 -0.00028781534449822473 0 -0.042176491261714799 0.00034294266460831451 0 -0.042852070602677546 0.00020976025918644699 0 -0.04304998531674898 8.9119882865300857e-05 0 -0.042176491261714799 0.00034294266460831451 0 -0.042930255507630265 -3.4018054492796226e-05 0 -0.04304998531674898 8.9119882865300857e-05 0 -0.042567922113345057 -0.00028781534449822473 0 -0.042567922113345057 -0.00028781534449822473 0 -0.043039338341055347 -0.0002477908250656225 0 -0.042578793311404552 -0.00067822302456293094 0 -0.042930255507630265 -3.4018054492796226e-05 0 -0.042567922113345057 -0.00028781534449822473 0 -0.043039338341055347 -0.0002477908250656225 0 -0.042567922113345057 -0.00028781534449822473 0 -0.042578793311404552 -0.00067822302456293094 0 -0.04213269527378511 -0.00063834487896474116 0 -0.041435719733275485 -0.00029684330327192415 0 -0.04022669784111859 0.00028230517193305623 0 -0.04026902616156209 -0.00088657588096490358 0 -0.039609149901127967 -0.00048020716680462997 0 -0.04022669784111859 0.00028230517193305623 0 -0.04026902616156209 -0.00088657588096490358 0 -0.039609149901127967 -0.00048020716680462997 0 -0.039224831620168689 -0.00097132502109231592 0 -0.04026902616156209 -0.00088657588096490358 0 -0.041435719733275485 -0.00029684330327192415 0 -0.041634365729690967 -0.0011142449483979829 0 -0.04026902616156209 -0.00088657588096490358 0 -0.042567922113345057 -0.00028781534449822473 0 -0.041435719733275485 -0.00029684330327192415 0 -0.041634365729690967 -0.0011142449483979829 0 -0.042403947531987035 -0.00040426276624714035 0 -0.042065599641609358 -0.00063001361754609587 0 -0.042567922113345057 -0.00028781534449822473 0 -0.041435719733275485 -0.00029684330327192415 0 -0.042176491261714799 0.00034294266460831451 0 -0.041435719733275485 -0.00029684330327192415 0 -0.042176491261714799 0.00034294266460831451 0 -0.04022669784111859 0.00028230517193305623 0 -0.042176491261714799 0.00034294266460831451 0 -0.042398004557742619 0.00033950847080844955 0 -0.042522845248724496 0.00059730543690555569 0 -0.042031829617695866 0.0004097661820942508 0 -0.041354349456552461 0.00036164706950735575 0 -0.042398004557742619 0.00033950847080844955 0 -0.042522845248724496 0.00059730543690555569 0 -0.042787708601280047 4.6850212578490401e-05 0 -0.043449812144044954 0.00027129935245941172 0 -0.043871855322819904 0.00011594852062446638 0 -0.042398004557742619 0.00033950847080844955 0 -0.042233753451769593 0.00043466392581552798 0 -0.042787708601280047 4.6850212578490401e-05 0 -0.044009342506918188 7.1659768723303531e-05 0 -0.044582118609931651 0.0002325531945046037 0 -0.044999879266606181 -8.999835297835494e-08 0 -0.044582118609931651 0.0002325531945046037 0 -0.044999879266606181 -8.999835297835494e-08 0 -0.044947139118123564 0.00014074152999007337 0 -0.042852070602677546 0.00020976025918644699 0 -0.042176491261714799 0.00034294266460831451 0 -0.042233753451769593 0.00043466392581552798 0 -0.042176491261714799 0.00034294266460831451 0 -0.042398004557742619 0.00033950847080844955 0 -0.042233753451769593 0.00043466392581552798 0 -0.044999879266606181 -8.999835297835494e-08 0 -0.04496274716948117 8.2096611131243194e-05 0 -0.044947139118123564 0.00014074152999007337 0 -0.044999879266606181 -8.999835297835494e-08 0 -0.04496274716948117 8.2096611131243194e-05 0 -0.044999736463409573 1.5024217502788279e-07 0 -0.044354916437914456 4.2528648319296933e-05 0 -0.043871855322819904 0.00011594852062446638 0 -0.04496274716948117 8.2096611131243194e-05 0 -0.044999736463409573 1.5024217502788279e-07 0 -0.04478182804549817 0.00012161045554285678 0 -0.044999736463409573 1.5024217502788279e-07 0 -0.04478182804549817 0.00012161045554285678 0 -0.045004886937987425 4.1054237282487438e-05 0 -0.044354916437914456 4.2528648319296933e-05 0 -0.044760539697495903 0.00010928130252624841 0 -0.04478182804549817 0.00012161045554285678 0 -0.044349649332504619 0.00060848897434489342 0 -0.044642423350859342 0.00068863690061149745 0 -0.04478182804549817 0.00012161045554285678 0 -0.044642423350859342 0.00068863690061149745 0 -0.044897703571269737 0.00054014386162300578 0 -0.04478182804549817 0.00012161045554285678 0 -0.044070712070925507 0.00040150667486578873 0 -0.044349649332504619 0.00060848897434489342 0 -0.043732953973888544 -2.4951110358899569e-05 0 -0.04478182804549817 0.00012161045554285678 0 -0.044070712070925507 0.00040150667486578873 0 -0.043732953973888544 -2.4951110358899569e-05 0 -0.044070712070925507 0.00040150667486578873 0 -0.043619285293316594 0.00058285273610787476 0 -0.044008621901177436 0.0007383818346742868 0 -0.044275489095868481 0.00083045913424651719 0 -0.043749671891295493 0.0010730288651742345 0 -0.044008621901177436 0.0007383818346742868 0 -0.043619285293316594 0.00058285273610787476 0 -0.043749671891295493 0.0010730288651742345 0 -0.044070712070925507 0.00040150667486578873 0 -0.044008621901177436 0.0007383818346742868 0 -0.043619285293316594 0.00058285273610787476 0 -0.044008621901177436 0.0007383818346742868 0 -0.044275489095868481 0.00083045913424651719 0 -0.044349649332504619 0.00060848897434489342 0 -0.044070712070925507 0.00040150667486578873 0 -0.044008621901177436 0.0007383818346742868 0 -0.044349649332504619 0.00060848897434489342 0 -0.044275489095868481 0.00083045913424651719 0 -0.044349649332504619 0.00060848897434489342 0 -0.044642423350859342 0.00068863690061149745 0 -0.044275489095868481 0.00083045913424651719 0 -0.044642423350859342 0.00068863690061149745 0 -0.044578074208593381 0.0010518320170824365 0 -0.042522845248724496 0.00059730543690555569 0 -0.042787708601280047 4.6850212578490401e-05 0 -0.043127826862691745 0.00041652544085605858 0 -0.042522845248724496 0.00059730543690555569 0 -0.043127826862691745 0.00041652544085605858 0 -0.043093297532098007 0.00084453462878052046 0 -0.043732953973888544 -2.4951110358899569e-05 0 -0.043127826862691745 0.00041652544085605858 0 -0.043619285293316594 0.00058285273610787476 0 -0.043732953973888544 -2.4951110358899569e-05 0 -0.042787708601280047 4.6850212578490401e-05 0 -0.043127826862691745 0.00041652544085605858 0 -0.03834565935974172 -0.00080167640057418285 0 -0.038768300521527785 -0.00034395873026095848 0 -0.037972438802154201 -0.00095426168287163465 0 -0.043619285293316594 0.00058285273610787476 0 -0.043093297532098007 0.00084453462878052046 0 -0.043749671891295493 0.0010730288651742345 0 -0.043127826862691745 0.00041652544085605858 0 -0.043619285293316594 0.00058285273610787476 0 -0.043093297532098007 0.00084453462878052046 0 -0.041141797788392664 0.00033346495375369077 0 -0.039880791170391477 -0.00040337069763881776 0 -0.038253692184014865 -0.00080983422748682023 0 -0.039880791170391477 -0.00040337069763881776 0 -0.03834565935974172 -0.00080167640057418285 0 -0.038768300521527785 -0.00034395873026095848 0 -0.038624588270811881 -0.0010555585307268373 0 -0.041354349456552461 0.00036164706950735575 0 -0.041141797788392664 0.00033346495375369077 0 -0.039609149901127967 -0.00048020716680462997 0 -0.04022669784111859 0.00028230517193305623 0 -0.038768300521527785 -0.00034395873026095848 0 -0.039609149901127967 -0.00048020716680462997 0 -0.038768300521527785 -0.00034395873026095848 0 -0.039224831620168689 -0.00097132502109231592 0 -0.039224831620168689 -0.00097132502109231592 0 -0.038845098404791632 -0.0013265621082681398 0 -0.03931432107651902 -0.0015662190087368801 0 -0.038845098404791632 -0.0013265621082681398 0 -0.038624588270811881 -0.0010555585307268373 0 -0.038451639644217363 -0.0013518831767897145 0 -0.038768300521527785 -0.00034395873026095848 0 -0.039224831620168689 -0.00097132502109231592 0 -0.038624588270811881 -0.0010555585307268373 0 -0.039224831620168689 -0.00097132502109231592 0 -0.038845098404791632 -0.0013265621082681398 0 -0.038624588270811881 -0.0010555585307268373 0 -0.03834565935974172 -0.00080167640057418285 0 -0.038624588270811881 -0.0010555585307268373 0 -0.038292067981031144 -0.0011467163594982245 0 -0.038169421315180543 -0.00097895560715850977 0 -0.038292067981031144 -0.0011467163594982245 0 -0.038143341906613594 -0.0012033638086471903 0 -0.03834565935974172 -0.00080167640057418285 0 -0.038169421315180543 -0.00097895560715850977 0 -0.038292067981031144 -0.0011467163594982245 0 -0.038624588270811881 -0.0010555585307268373 0 -0.038292067981031144 -0.0011467163594982245 0 -0.038451639644217363 -0.0013518831767897145 0 -0.038292067981031144 -0.0011467163594982245 0 -0.038451639644217363 -0.0013518831767897145 0 -0.038110520271790127 -0.0013246082788696777 0 -0.038292067981031144 -0.0011467163594982245 0 -0.038110520271790127 -0.0013246082788696777 0 -0.038143341906613594 -0.0012033638086471903 0 -0.038451639644217363 -0.0013518831767897145 0 -0.038110520271790127 -0.0013246082788696777 0 -0.03819498273406275 -0.0014230556277268576 0 -0.038702985545022418 -0.0014809629270412746 0 -0.038610552599819763 -0.0015690471613277344 0 -0.03819498273406275 -0.0014230556277268576 0 -0.038451639644217363 -0.0013518831767897145 0 -0.038702985545022418 -0.0014809629270412746 0 -0.03819498273406275 -0.0014230556277268576 0 -0.038702985545022418 -0.0014809629270412746 0 -0.038610552599819763 -0.0015690471613277344 0 -0.03931432107651902 -0.0015662190087368801 0 -0.038845098404791632 -0.0013265621082681398 0 -0.038702985545022418 -0.0014809629270412746 0 -0.03931432107651902 -0.0015662190087368801 0 -0.038845098404791632 -0.0013265621082681398 0 -0.038451639644217363 -0.0013518831767897145 0 -0.038702985545022418 -0.0014809629270412746 0 -0.038213945837751402 -0.0012829018135714768 0 -0.038196709498791101 -0.0012410171937511647 0 -0.038283703409799343 -0.0012336699719337639 0 -0.038213945837751402 -0.0012829018135714768 0 -0.038138410675709368 -0.0012308074993083154 0 -0.038196709498791101 -0.0012410171937511647 0 -0.038169421315180543 -0.00097895560715850977 0 -0.038138410675709368 -0.0012308074993083154 0 -0.038143341906613594 -0.0012033638086471903 0 -0.044275489095868481 0.00083045913424651719 0 -0.043749671891295493 0.0010730288651742345 0 -0.044578074208593381 0.0010518320170824365 0 -0.039880791170391477 -0.00040337069763881776 0 -0.037569274708887171 -0.0014682179533190278 0 -0.038067864455212319 -0.0012073737355337518 0 -0.038213945837751402 -0.0012829018135714768 0 -0.038138410675709368 -0.0012308074993083154 0 -0.039880791170391477 -0.00040337069763881776 0 -0.041733938324698731 2.7268045510847986e-06 0 -0.038138410675709368 -0.0012308074993083154 0 -0.038143341906613594 -0.0012033638086471903 0 -0.038122359842141185 -0.0012450953188436055 0 -0.038110520271790127 -0.0013246082788696777 0 -0.038143341906613594 -0.0012033638086471903 0 -0.038122359842141185 -0.0012450953188436055 0 -0.038110520271790127 -0.0013246082788696777 0 -0.038114330853100495 -0.0012265642600097651 0 -0.038122359842141185 -0.0012450953188436055 0 -0.038138410675709368 -0.0012308074993083154 0 -0.038122359842141185 -0.0012450953188436055 0 -0.038196709498791101 -0.0012410171937511647 0 -0.038122359842141185 -0.0012450953188436055 0 -0.038180154675239115 -0.0012181666099010204 0 -0.038196709498791101 -0.0012410171937511647 0 -0.038114330853100495 -0.0012265642600097651 0 -0.038122359842141185 -0.0012450953188436055 0 -0.038180154675239115 -0.0012181666099010204 0 -0.038180154675239115 -0.0012181666099010204 0 -0.038196709498791101 -0.0012410171937511647 0 -0.038263543030854136 -0.0011956926966590422 0 -0.038180154675239115 -0.0012181666099010204 0 -0.03817379398491106 -0.001153692269567607 0 -0.038263543030854136 -0.0011956926966590422 0 -0.038196709498791101 -0.0012410171937511647 0 -0.038283703409799343 -0.0012336699719337639 0 -0.038263543030854136 -0.0011956926966590422 0 -0.03817379398491106 -0.001153692269567607 0 -0.038033863112860625 -0.0011672309123049482 0 -0.038119067196228588 -0.00076790050710180376 0 -0.03817379398491106 -0.001153692269567607 0 -0.038119067196228588 -0.00076790050710180376 0 -0.03832236223268437 -0.0011065797452562752 0 -0.03817379398491106 -0.001153692269567607 0 -0.038263543030854136 -0.0011956926966590422 0 -0.03832236223268437 -0.0011065797452562752 0 -0.038114330853100495 -0.0012265642600097651 0 -0.038180154675239115 -0.0012181666099010204 0 -0.03817379398491106 -0.001153692269567607 0 -0.038110520271790127 -0.0013246082788696777 0 -0.038033863112860625 -0.0011672309123049482 0 -0.037941200017122298 -0.0012714567932947971 0 -0.038114330853100495 -0.0012265642600097651 0 -0.03817379398491106 -0.001153692269567607 0 -0.038033863112860625 -0.0011672309123049482 0 -0.038110520271790127 -0.0013246082788696777 0 -0.038114330853100495 -0.0012265642600097651 0 -0.038033863112860625 -0.0011672309123049482 0 -0.038033863112860625 -0.0011672309123049482 0 -0.037886253608483009 -0.00099772881688780287 0 -0.037941200017122298 -0.0012714567932947971 0 -0.037886253608483009 -0.00099772881688780287 0 -0.038119067196228588 -0.00076790050710180376 0 -0.037758280204447506 -0.00055130877444824645 0 -0.038033863112860625 -0.0011672309123049482 0 -0.037886253608483009 -0.00099772881688780287 0 -0.038119067196228588 -0.00076790050710180376 0 -0.038119067196228588 -0.00076790050710180376 0 -0.037818631615063103 -0.00058422942135029137 0 -0.037987185751387313 -0.00070269825600338329 0 -0.038116274420289739 -0.00074459629083511612 0 -0.03806676066122127 -0.00081327932091450849 0 -0.037202172764336877 -0.0016210180731056243 0 -0.037571815668739426 -0.0010167889789878667 0 -0.038610552599819763 -0.0015690471613277344 0 -0.03819498273406275 -0.0014230556277268576 0 -0.037399120554092745 -0.0010806197712624637 0 -0.03819498273406275 -0.0014230556277268576 0 -0.037941200017122298 -0.0012714567932947971 0 -0.037399120554092745 -0.0010806197712624637 0 -0.038110520271790127 -0.0013246082788696777 0 -0.03819498273406275 -0.0014230556277268576 0 -0.037941200017122298 -0.0012714567932947971 0 -0.037886253608483009 -0.00099772881688780287 0 -0.037941200017122298 -0.0012714567932947971 0 -0.037399120554092745 -0.0010806197712624637 0 -0.037886253608483009 -0.00099772881688780287 0 -0.037399120554092745 -0.0010806197712624637 0 -0.037758280204447506 -0.00055130877444824645 0 -0.036177209447763703 -0.0016485085697111844 0 -0.037399120554092745 -0.0010806197712624637 0 -0.036024141562292097 -0.0010187203024639763 0 -0.037399120554092745 -0.0010806197712624637 0 -0.036024141562292097 -0.0010187203024639763 0 -0.036489081288422306 -0.00035169014867736278 0 -0.036024141562292097 -0.0010187203024639763 0 -0.035278808163241762 -0.0010947420529433594 0 -0.035274854576978425 -0.00067635731887203039 0 -0.036177209447763703 -0.0016485085697111844 0 -0.036024141562292097 -0.0010187203024639763 0 -0.035278808163241762 -0.0010947420529433594 0 -0.036177209447763703 -0.0016485085697111844 0 -0.035278808163241762 -0.0010947420529433594 0 -0.035418531471620711 -0.0016376193422707717 0 -0.035278808163241762 -0.0010947420529433594 0 -0.0349985368489436 -0.0014396972562372074 0 -0.035418531471620711 -0.0016376193422707717 0 -0.035278808163241762 -0.0010947420529433594 0 -0.034760022958135066 -0.00059389744225369419 0 -0.035274854576978425 -0.00067635731887203039 0 -0.035278808163241762 -0.0010947420529433594 0 -0.034760022958135066 -0.00059389744225369419 0 -0.03472685538302802 -0.00067464285876564414 0 -0.034760022958135066 -0.00059389744225369419 0 -0.034341808589222929 -0.00044411806702534265 0 -0.03472685538302802 -0.00067464285876564414 0 -0.034341808589222929 -0.00044411806702534265 0 -0.035500135416147036 -1.4111875978396252e-06 0 -0.033422129485829739 -1.1877928452015056e-06 0 -0.034341808589222929 -0.00044411806702534265 0 -0.035500135416147036 -1.4111875978396252e-06 0 -0.03472685538302802 -0.00067464285876564414 0 -0.035500135416147036 -1.4111875978396252e-06 0 -0.036005830449332497 -9.9689946769294406e-05 0 -0.037572677137469715 1.9567710498773927e-06 0 -0.035500135416147036 -1.4111875978396252e-06 0 -0.036005830449332497 -9.9689946769294406e-05 0 -0.03472685538302802 -0.00067464285876564414 0 -0.036005830449332497 -9.9689946769294406e-05 0 -0.03472685538302802 -0.00067464285876564414 0 -0.035879804579917032 0.00053963812000847955 0 -0.035278808163241762 -0.0010947420529433594 0 -0.03472685538302802 -0.00067464285876564414 0 -0.0349985368489436 -0.0014396972562372074 0 -0.03472685538302802 -0.00067464285876564414 0 -0.0349985368489436 -0.0014396972562372074 0 -0.034413641737244857 -0.0019555372569700939 0 -0.033987239663515662 -0.00097715200547986137 0 -0.038059521644534362 -0.00039672422019322351 0 -0.03874500597075034 -0.001554010723018345 0 -0.038059521644534362 -0.00039672422019322351 0 -0.0349985368489436 -0.0014396972562372074 0 -0.035094326742819246 -0.0019837506673362607 0 -0.034413641737244857 -0.0019555372569700939 0 -0.038059521644534362 -0.00039672422019322351 0 -0.037575069218094011 1.3469609323519087e-07 0 -0.036005830449332497 -9.9689946769294406e-05 0 -0.035879804579917032 0.00053963812000847955 0 -0.037572677137469715 1.9567710498773927e-06 0 -0.039820654040408077 -6.0139576593015299e-05 0 -0.038339894816887446 9.1336614029577476e-05 0 -0.037578114761082422 9.2670940508273572e-08 0 -0.041796924589484967 -0.00025801295886650704 0 -0.038059521644534362 -0.00039672422019322351 0 -0.043039338341055347 -0.0002477908250656225 0 -0.042847444118795014 -0.0011629880601445892 0 -0.042578793311404552 -0.00067822302456293094 0 -0.042302508355316799 -0.001130689405189381 0 -0.042847444118795014 -0.0011629880601445892 0 -0.042578793311404552 -0.00067822302456293094 0 -0.042302508355316799 -0.001130689405189381 0 -0.042578793311404552 -0.00067822302456293094 0 -0.04213269527378511 -0.00063834487896474116 0 -0.041634365729690967 -0.0011142449483979829 0 -0.04026902616156209 -0.00088657588096490358 0 -0.040504573597083544 -0.0019019626128986746 0 -0.042302508355316799 -0.001130689405189381 0 -0.04213269527378511 -0.00063834487896474116 0 -0.041708860147573891 -0.0010985716549208964 0 -0.042065599641609358 -0.00063001361754609587 0 -0.038964084414186979 -0.0017720038428683414 0 -0.039224831620168689 -0.00097132502109231592 0 -0.04026902616156209 -0.00088657588096490358 0 -0.03931432107651902 -0.0015662190087368801 0 -0.039650620619663852 -0.0016939716980108948 0 -0.038964084414186979 -0.0017720038428683414 0 -0.04026902616156209 -0.00088657588096490358 0 -0.03931432107651902 -0.0015662190087368801 0 -0.040504573597083544 -0.0019019626128986746 0 -0.038610552599819763 -0.0015690471613277344 0 -0.03931432107651902 -0.0015662190087368801 0 -0.039448980505133673 -0.0015867814095745093 0 -0.036177209447763703 -0.0016485085697111844 0 -0.035597960029693433 -0.002045715240161998 0 -0.035418531471620711 -0.0016376193422707717 0 -0.037202172764336877 -0.0016210180731056243 0 -0.038964084414186979 -0.0017720038428683414 0 -0.035094326742819246 -0.0019837506673362607 0 -0.035597960029693433 -0.002045715240161998 0 -0.035418531471620711 -0.0016376193422707717 0 -0.03874500597075034 -0.001554010723018345 0 -0.038964084414186979 -0.0017720038428683414 0 -0.0349985368489436 -0.0014396972562372074 0 -0.035094326742819246 -0.0019837506673362607 0 -0.035418531471620711 -0.0016376193422707717 0 -0.041815343053603002 -0.0019738769996071612 0 -0.042370824367196275 -0.0011611220216991463 0 -0.041304017664363805 -0.0008691518269451857 0 -0.041815343053603002 -0.0019738769996071612 0 -0.042370824367196275 -0.0011611220216991463 0 -0.042470150902140305 -0.0020995961513455802 0 -0.042370824367196275 -0.0011611220216991463 0 -0.042470150902140305 -0.0020995961513455802 0 -0.043988762657656423 -0.0005746664495268033 0 -0.042370824367196275 -0.0011611220216991463 0 -0.042365996467831221 -0.00027712864367350146 0 -0.043988762657656423 -0.0005746664495268033 0 -0.042370824367196275 -0.0011611220216991463 0 -0.041304017664363805 -0.0008691518269451857 0 -0.042365996467831221 -0.00027712864367350146 0 -0.041158392140513589 -0.0016704623403786193 0 -0.038355717131033251 -0.00070766345671480874 0 -0.041304017664363805 -0.0008691518269451857 0 -0.040521014527165541 -0.0023501002441499814 0 -0.039423711623665515 -0.00016937752039884775 0 -0.041815343053603002 -0.0019738769996071612 0 -0.041304017664363805 -0.0008691518269451857 0 -0.040521014527165541 -0.0023501002441499814 0 -0.041158392140513589 -0.0016704623403786193 0 -0.043757216608284771 -0.0006588693778765461 0 -0.04140499341935313 -0.0019728171722486745 0 -0.041158392140513589 -0.0016704623403786193 0 -0.040680437269012 -0.002280797217679216 0 -0.041153367594900993 -0.0031556769583841867 0 -0.041391918537501703 -0.0027407290607735463 0 -0.041815343053603002 -0.0019738769996071612 0 -0.040683713665000232 -0.0022897413225871576 0 -0.041391918537501703 -0.0027407290607735463 0 -0.041158392140513589 -0.0016704623403786193 0 -0.041362314265947442 -0.0022696415043058516 0 -0.044439397259579475 -0.000436183750512442 0 -0.044540377044699028 -0.00030602301933806462 0 -0.044369491125731297 -0.00029543544352261423 0 -0.04493130352036661 -0.00033815860742365941 0 -0.044697208030693575 -0.00048270702799337869 0 -0.044781700775009543 -0.0002908001966950851 0 -0.041153367594900993 -0.0031556769583841867 0 -0.041391918537501703 -0.0027407290607735463 0 -0.042470150902140305 -0.0020995961513455802 0 -0.041815343053603002 -0.0019738769996071612 0 -0.041391918537501703 -0.0027407290607735463 0 -0.042470150902140305 -0.0020995961513455802 0 -0.043757216608284771 -0.0006588693778765461 0 -0.043409385602046498 -0.0013770413384257814 0 -0.043757216608284771 -0.0006588693778765461 0 -0.045001136583273503 -6.9326491289426669e-05 0 -0.044781700775009543 -0.0002908001966950851 0 -0.044909308138511357 -0.00016200993852227418 0 -0.044820924496783709 -0.00018811328970073067 0 -0.04493130352036661 -0.00033815860742365941 0 -0.044781700775009543 -0.0002908001966950851 0 -0.044909308138511357 -0.00016200993852227418 0 -0.044992305285739206 -5.8524099402676439e-06 0 -0.044999985769245285 -2.0987049719158126e-09 0 -0.044995756496678793 -3.7230352537665221e-06 0 -0.045001136583273503 -6.9326491289426669e-05 0 -0.044999943475887705 6.377558186222334e-09 0 -0.044995756496678793 -3.7230352537665221e-06 0 -0.044999995516718405 -3.248895078295858e-09 0 -0.045000362770857019 -4.221350709178495e-06 0 -0.044999985769245285 -2.0987049719158126e-09 0 -0.044995756496678793 -3.7230352537665221e-06 0 -0.044999995516718405 -3.248895078295858e-09 0 -0.044986025112834845 -1.7842518142174331e-05 0 -0.044992305285739206 -5.8524099402676439e-06 0 -0.044995756496678793 -3.7230352537665221e-06 0 -0.043757216608284771 -0.0006588693778765461 0 -0.045028587747845503 7.3367402848436159e-05 0 -0.044986025112834845 -1.7842518142174331e-05 0 -0.044995756496678793 -3.7230352537665221e-06 0 -0.045000362770857019 -4.221350709178495e-06 0 -0.044540377044699028 -0.00030602301933806462 0 -0.044369491125731297 -0.00029543544352261423 0 -0.044698775122530905 -7.7436803382590402e-05 0 -0.044540377044699028 -0.00030602301933806462 0 -0.044698775122530905 -7.7436803382590402e-05 0 -0.044760944430206284 -0.00031933595940651459 0 -0.044698775122530905 -7.7436803382590402e-05 0 -0.04490137620149838 -0.00011268026195974177 0 -0.044760944430206284 -0.00031933595940651459 0 -0.044999995516718405 -3.248895078295858e-09 0 -0.045000362770857019 -4.221350709178495e-06 0 -0.045000005948643632 3.6278038506086035e-10 0 -0.044698775122530905 -7.7436803382590402e-05 0 -0.044999573928895711 9.2773192814790229e-08 0 -0.04490137620149838 -0.00011268026195974177 0 -0.045028587747845503 7.3367402848436159e-05 0 -0.044999672715759997 -2.2712229703370011e-07 0 -0.044999573928895711 9.2773192814790229e-08 0 -0.04490137620149838 -0.00011268026195974177 0 -0.044986330637765623 -7.4826336558975193e-05 0 -0.04490137620149838 -0.00011268026195974177 0 -0.044760944430206284 -0.00031933595940651459 0 -0.044963561986899103 -0.00020031890914570309 0 -0.040961138504003868 -7.8206724357557635e-05 0 -0.04093782555230905 -6.8526151642966333e-05 0 -0.040954552898547693 -5.8658727696808973e-05 0 -0.043247151843847025 -9.6697147852772895e-06 0 -0.042700351247730028 -0.00020670226077756132 0 -0.041158392140513589 -0.0016704623403786193 0 -0.043247151843847025 -9.6697147852772895e-06 0 -0.044439397259579475 -0.000436183750512442 0 -0.044540377044699028 -0.00030602301933806462 0 -0.044760944430206284 -0.00031933595940651459 0 -0.038569650284247463 -0.002881446582885909 0 -0.036534099365492116 -0.0016327039258177095 0 -0.037749621039156842 -0.0011411686877627507 0 -0.041158392140513589 -0.0016704623403786193 0 -0.038345280056417887 -0.00077546953260665961 0 -0.040976967699021025 -9.0988239120109974e-05 0 -0.040961138504003868 -7.8206724357557635e-05 0 -0.040947559007209103 -6.3625550966358882e-05 0 -0.040961138504003868 -7.8206724357557635e-05 0 -0.040947559007209103 -6.3625550966358882e-05 0 -0.04093782555230905 -6.8526151642966333e-05 0 -0.040947559007209103 -6.3625550966358882e-05 0 -0.04093782555230905 -6.8526151642966333e-05 0 -0.040919843916094864 -3.6092612683459454e-05 0 -0.044999736463409573 1.5024217502788279e-07 0 -0.045000180802179442 2.2935280315355993e-09 0 -0.045004886937987425 4.1054237282487438e-05 0 -0.04093782555230905 -6.8526151642966333e-05 0 -0.040931321338688528 -8.1141762913517314e-05 0 -0.040926762081400413 -6.1837977793561204e-05 0 -0.04093782555230905 -6.8526151642966333e-05 0 -0.040926762081400413 -6.1837977793561204e-05 0 -0.040919843916094864 -3.6092612683459454e-05 0 -0.040931321338688528 -8.1141762913517314e-05 0 -0.040926762081400413 -6.1837977793561204e-05 0 -0.040896489593468512 -3.9969756244856494e-05 0 -0.040892975673965389 -6.0505610106042805e-05 0 -0.040948407467068848 -0.00019663347147790526 0 -0.040931321338688528 -8.1141762913517314e-05 0 -0.040824291207249459 -4.5478313347087536e-05 0 -0.040896489593468512 -3.9969756244856494e-05 0 -0.040931321338688528 -8.1141762913517314e-05 0 -0.040969629154496173 -5.8784008841414253e-05 0 -0.041006360453950196 -7.792122654002143e-05 0 -0.040931321338688528 -8.1141762913517314e-05 0 -0.041006360453950196 -7.792122654002143e-05 0 -0.040973835299454905 -0.00013020065649659021 0 -0.040969629154496173 -5.8784008841414253e-05 0 -0.040999015051980107 -2.8087826453279768e-05 0 -0.041006360453950196 -7.792122654002143e-05 0 -0.040969629154496173 -5.8784008841414253e-05 0 -0.040954552898547693 -5.8658727696808973e-05 0 -0.040999015051980107 -2.8087826453279768e-05 0 -0.043923283566962915 0.00013722066134485596 0 -0.043235852688572961 0.0003707644292297341 0 -0.04093782555230905 -6.8526151642966333e-05 0 -0.040931321338688528 -8.1141762913517314e-05 0 -0.040954552898547693 -5.8658727696808973e-05 0 -0.040931321338688528 -8.1141762913517314e-05 0 -0.040969629154496173 -5.8784008841414253e-05 0 -0.040954552898547693 -5.8658727696808973e-05 0 -0.044963561986899103 -0.00020031890914570309 0 -0.044986330637765623 -7.4826336558975193e-05 0 -0.045068057946884753 -0.00012962434958458229 0 -0.04490137620149838 -0.00011268026195974177 0 -0.044963561986899103 -0.00020031890914570309 0 -0.044986330637765623 -7.4826336558975193e-05 0 -0.042700351247730028 -0.00020670226077756132 0 -0.043923283566962915 0.00013722066134485596 0 -0.044999573928895711 9.2773192814790229e-08 0 -0.044986330637765623 -7.4826336558975193e-05 0 -0.045000305512874039 -1.0304783630991505e-07 0 -0.044986330637765623 -7.4826336558975193e-05 0 -0.045000305512874039 -1.0304783630991505e-07 0 -0.045068057946884753 -0.00012962434958458229 0 -0.045000736328597218 -6.1094072708049871e-07 0 -0.043923283566962915 0.00013722066134485596 0 -0.045000180802179442 2.2935280315355993e-09 0 -0.045004903224455717 3.6144112672046536e-05 0 -0.045004886937987425 4.1054237282487438e-05 0 -0.045326228246631683 0.00011050527548562325 0 -0.045004886937987425 4.1054237282487438e-05 0 -0.045034378086668894 0.00030105916578086034 0 -0.043923283566962915 0.00013722066134485596 0 -0.045418648814047627 0.00014084068513834158 0 -0.04478182804549817 0.00012161045554285678 0 -0.045004886937987425 4.1054237282487438e-05 0 -0.045034378086668894 0.00030105916578086034 0 -0.04478182804549817 0.00012161045554285678 0 -0.045034378086668894 0.00030105916578086034 0 -0.044897703571269737 0.00054014386162300578 0 -0.045034378086668894 0.00030105916578086034 0 -0.045248695237395296 0.00056463374175228268 0 -0.044897703571269737 0.00054014386162300578 0 -0.045326228246631683 0.00011050527548562325 0 -0.045034378086668894 0.00030105916578086034 0 -0.045248695237395296 0.00056463374175228268 0 -0.045248695237395296 0.00056463374175228268 0 -0.044902181766321492 0.00082517886501040627 0 -0.044897703571269737 0.00054014386162300578 0 -0.044642423350859342 0.00068863690061149745 0 -0.044902181766321492 0.00082517886501040627 0 -0.044897703571269737 0.00054014386162300578 0 -0.044642423350859342 0.00068863690061149745 0 -0.044578074208593381 0.0010518320170824365 0 -0.044902181766321492 0.00082517886501040627 0 -0.038213945837751402 -0.0012829018135714768 0 -0.038341157226327159 -0.001241510600333489 0 -0.038283703409799343 -0.0012336699719337639 0 -0.044578074208593381 0.0010518320170824365 0 -0.044902181766321492 0.00082517886501040627 0 -0.045113335628962789 0.0010737899903146106 0 -0.041733938324698731 2.7268045510847986e-06 0 -0.041226899511821513 -0.0003982048234828167 0 -0.038213945837751402 -0.0012829018135714768 0 -0.038440942152796712 -0.0012787006643907712 0 -0.038341157226327159 -0.001241510600333489 0 -0.043235852688572961 0.0003707644292297341 0 -0.041226899511821513 -0.0003982048234828167 0 -0.041006360453950196 -7.792122654002143e-05 0 -0.041025893141640117 -0.00016557028020013355 0 -0.040973835299454905 -0.00013020065649659021 0 -0.045248695237395296 0.00056463374175228268 0 -0.044902181766321492 0.00082517886501040627 0 -0.045113335628962789 0.0010737899903146106 0 -0.041007996022748905 -0.00016913694425958032 0 -0.041025893141640117 -0.00016557028020013355 0 -0.040973835299454905 -0.00013020065649659021 0 -0.039705496057744406 -8.7842000953542262e-05 0 -0.041226899511821513 -0.0003982048234828167 0 -0.038580303094966503 -0.00013818553305600109 0 -0.037701787437851041 -0.00017637694196000309 0 -0.038440942152796712 -0.0012787006643907712 0 -0.038404568351837691 -0.0012098937313569302 0 -0.038341157226327159 -0.001241510600333489 0 -0.041226899511821513 -0.0003982048234828167 0 -0.038580303094966503 -0.00013818553305600109 0 -0.040167558865901183 -0.00060117440685745354 0 -0.039745825658139146 -0.0006946164532278719 0 -0.039499843264140071 0.00013190384207227638 0 -0.037553417532212807 0.00037007838240801858 0 -0.037462657313187202 0.00014836223642599263 0 -0.037684558502476082 -9.1251947471000038e-05 0 -0.037361995952263229 0.00058292881408098104 0 -0.037553417532212807 0.00037007838240801858 0 -0.037311330373516909 0.00029105545911131198 0 -0.039705496057744406 -8.7842000953542262e-05 0 -0.038580303094966503 -0.00013818553305600109 0 -0.037311330373516909 0.00029105545911131198 0 -0.037302058294813471 2.249473073187101e-05 0 -0.037133151259762187 0.0001533263100023677 0 -0.037311330373516909 0.00029105545911131198 0 -0.037462657313187202 0.00014836223642599263 0 -0.037302058294813471 2.249473073187101e-05 0 -0.037553417532212807 0.00037007838240801858 0 -0.037311330373516909 0.00029105545911131198 0 -0.037462657313187202 0.00014836223642599263 0 -0.038404568351837691 -0.0012098937313569302 0 -0.038327133576689598 -0.0011991702586076878 0 -0.03832236223268437 -0.0011065797452562752 0 -0.038580303094966503 -0.00013818553305600109 0 -0.03806676066122127 -0.00081327932091450849 0 -0.038404568351837691 -0.0012098937313569302 0 -0.038327133576689598 -0.0011991702586076878 0 -0.038341157226327159 -0.001241510600333489 0 -0.038327133576689598 -0.0011991702586076878 0 -0.038341157226327159 -0.001241510600333489 0 -0.038283703409799343 -0.0012336699719337639 0 -0.038327133576689598 -0.0011991702586076878 0 -0.038283703409799343 -0.0012336699719337639 0 -0.038263543030854136 -0.0011956926966590422 0 -0.038327133576689598 -0.0011991702586076878 0 -0.038263543030854136 -0.0011956926966590422 0 -0.03832236223268437 -0.0011065797452562752 0 -0.03774733888252281 -0.00023210474652663783 0 -0.037788610728286431 -0.00040011907368495809 0 -0.037896507928556054 -0.00040081788675630866 0 -0.037788610728286431 -0.00040011907368495809 0 -0.037896507928556054 -0.00040081788675630866 0 -0.037818631615063103 -0.00058422942135029137 0 -0.037818631615063103 -0.00058422942135029137 0 -0.037409030962917464 -0.00037910598381698613 0 -0.03779185821414998 -0.00084632431860560183 0 -0.037701787437851041 -0.00017637694196000309 0 -0.037821672667534917 -0.00057490718995769382 0 -0.038119067196228588 -0.00076790050710180376 0 -0.037896507928556054 -0.00040081788675630866 0 -0.037818631615063103 -0.00058422942135029137 0 -0.037684558502476082 -9.1251947471000038e-05 0 -0.037818631615063103 -0.00058422942135029137 0 -0.037409030962917464 -0.00037910598381698613 0 -0.037409030962917464 -0.00037910598381698613 0 -0.03700610949859378 -0.00060645753545590241 0 -0.03779185821414998 -0.00084632431860560183 0 -0.037684558502476082 -9.1251947471000038e-05 0 -0.037409030962917464 -0.00037910598381698613 0 -0.037302058294813471 2.249473073187101e-05 0 -0.037462657313187202 0.00014836223642599263 0 -0.037684558502476082 -9.1251947471000038e-05 0 -0.037302058294813471 2.249473073187101e-05 0 -0.037302058294813471 2.249473073187101e-05 0 -0.036855615427188161 -7.674830963186357e-05 0 -0.037133151259762187 0.0001533263100023677 0 -0.037409030962917464 -0.00037910598381698613 0 -0.037302058294813471 2.249473073187101e-05 0 -0.036855615427188161 -7.674830963186357e-05 0 -0.035482139580686932 0.00085297271727468107 0 -0.032116029855171334 0.00075800506276150516 0 -0.033843030784495964 0.0017468013292500572 0 -0.03333006248537855 0.0032532610108199087 0 -0.034644578106084283 0.0027411943540639151 0 -0.037409030962917464 -0.00037910598381698613 0 -0.036855615427188161 -7.674830963186357e-05 0 -0.03700610949859378 -0.00060645753545590241 0 -0.024658137998140567 0.0010519953897668657 0 -0.024966302696558848 0.0011493018402824245 0 -0.024607864408519541 0.0012289429996230022 0 -0.032116029855171334 0.00075800506276150516 0 -0.026528168607015543 0.0014679698894533516 0 -0.032116029855171334 0.00075800506276150516 0 -0.029778868349103357 0.0018404714189571008 0 -0.024658137998140567 0.0010519953897668657 0 -0.024966302696558848 0.0011493018402824245 0 -0.025298592849771869 0.00076177865932073035 0 -0.024966302696558848 0.0011493018402824245 0 -0.025298592849771869 0.00076177865932073035 0 -0.025606663803905423 0.0012933578511824424 0 -0.033843030784495964 0.0017468013292500572 0 -0.034644578106084283 0.0027411943540639151 0 -0.034950588677037271 0.0015699771290080542 0 -0.033843030784495964 0.0017468013292500572 0 -0.034950588677037271 0.0015699771290080542 0 -0.034635206461026274 0.00091074270426290188 0 -0.034635206461026274 0.00091074270426290188 0 -0.0345776541094912 0.00023553959527909286 0 -0.035445420638845149 0.0008059464937080769 0 -0.033843030784495964 0.0017468013292500572 0 -0.034635206461026274 0.00091074270426290188 0 -0.034367580570414093 0.00019016454841149408 0 -0.035482139580686932 0.00085297271727468107 0 -0.036396808308051518 0.00029812914675014302 0 -0.034950588677037271 0.0015699771290080542 0 -0.034635206461026274 0.00091074270426290188 0 -0.035445420638845149 0.0008059464937080769 0 -0.0345776541094912 0.00023553959527909286 0 -0.034559399690511285 -0.00039146231626038786 0 -0.035801566367904214 -0.00012768796654795785 0 -0.034369004545857881 0.00018826124447422364 0 -0.0345776541094912 0.00023553959527909286 0 -0.034559399690511285 -0.00039146231626038786 0 -0.034635206461026274 0.00091074270426290188 0 -0.034367580570414093 0.00019016454841149408 0 -0.0345776541094912 0.00023553959527909286 0 -0.03773594202044514 0.00041697925969772496 0 -0.03757465628682935 0.00038176364884877129 0 -0.037794749254504802 0.00023971336133018733 0 -0.036396808308051518 0.00029812914675014302 0 -0.038270247789351376 0.0002689652825196384 0 -0.036396808308051518 0.00029812914675014302 0 -0.038392167485536158 8.8469172610391064e-06 0 -0.036396808308051518 0.00029812914675014302 0 -0.035936501182227583 0.00022071500531557008 0 -0.039705496057744406 -8.7842000953542262e-05 0 -0.038270247789351376 0.0002689652825196384 0 -0.036855615427188161 -7.674830963186357e-05 0 -0.037133151259762187 0.0001533263100023677 0 -0.037062195593850898 0.00037463682101303552 0 -0.036855615427188161 -7.674830963186357e-05 0 -0.036701857976998382 0.00044717391657742456 0 -0.037062195593850898 0.00037463682101303552 0 -0.037361995952263229 0.00058292881408098104 0 -0.037062195593850898 0.00037463682101303552 0 -0.036896875862814364 0.00048039611117154567 0 -0.037311330373516909 0.00029105545911131198 0 -0.037133151259762187 0.0001533263100023677 0 -0.037062195593850898 0.00037463682101303552 0 -0.037361995952263229 0.00058292881408098104 0 -0.037311330373516909 0.00029105545911131198 0 -0.037062195593850898 0.00037463682101303552 0 -0.036701857976998382 0.00044717391657742456 0 -0.037062195593850898 0.00037463682101303552 0 -0.036884999070842833 0.00048689228038239124 0 -0.037239855238244787 0.00063385195314966428 0 -0.038270247789351376 0.0002689652825196384 0 -0.04085757323074761 4.7637033510828374e-05 0 -0.040824291207249459 -4.5478313347087536e-05 0 -0.040896489593468512 -3.9969756244856494e-05 0 -0.04074144947115025 2.6858612897404838e-05 0 -0.04085757323074761 4.7637033510828374e-05 0 -0.040824291207249459 -4.5478313347087536e-05 0 -0.039705496057744406 -8.7842000953542262e-05 0 -0.040948407467068848 -0.00019663347147790526 0 -0.040926762081400413 -6.1837977793561204e-05 0 -0.040896489593468512 -3.9969756244856494e-05 0 -0.040919843916094864 -3.6092612683459454e-05 0 -0.040896489593468512 -3.9969756244856494e-05 0 -0.040919843916094864 -3.6092612683459454e-05 0 -0.04091013439888519 5.9328308306060025e-06 0 -0.039419986731859091 -0.00037278101114050522 0 -0.038392167485536158 8.8469172610391064e-06 0 -0.038270247789351376 0.0002689652825196384 0 -0.038392167485536158 8.8469172610391064e-06 0 -0.04085757323074761 4.7637033510828374e-05 0 -0.040896489593468512 -3.9969756244856494e-05 0 -0.04091013439888519 5.9328308306060025e-06 0 -0.038345280056417887 -0.00077546953260665961 0 -0.038392167485536158 8.8469172610391064e-06 0 -0.040947559007209103 -6.3625550966358882e-05 0 -0.040919843916094864 -3.6092612683459454e-05 0 -0.040911223999574496 -2.3440817384781969e-05 0 -0.036534099365492116 -0.0016327039258177095 0 -0.034559399690511285 -0.00039146231626038786 0 -0.035801566367904214 -0.00012768796654795785 0 -0.039423711623665515 -0.00016937752039884775 0 -0.038073838164760544 0.0021029499121596107 0 -0.040233115266411386 0.0016196631119558779 0 -0.038355717131033251 -0.00070766345671480874 0 -0.038255241929132919 0.0012716122512312518 0 -0.036534099365492116 -0.0016327039258177095 0 -0.035801566367904214 -0.00012768796654795785 0 -0.037749621039156842 -0.0011411686877627507 0 -0.035801566367904214 -0.00012768796654795785 0 -0.037749621039156842 -0.0011411686877627507 0 -0.036877733067177919 0.00055684358609447916 0 -0.035801566367904214 -0.00012768796654795785 0 -0.036877733067177919 0.00055684358609447916 0 -0.035445420638845149 0.0008059464937080769 0 -0.0345776541094912 0.00023553959527909286 0 -0.035801566367904214 -0.00012768796654795785 0 -0.035445420638845149 0.0008059464937080769 0 -0.034644578106084283 0.0027411943540639151 0 -0.034950588677037271 0.0015699771290080542 0 -0.035994744521537794 0.0022232302576781684 0 -0.038255241929132919 0.0012716122512312518 0 -0.028943845914295802 0.0020280459124852636 0 -0.036877733067177919 0.00055684358609447916 0 -0.035445420638845149 0.0008059464937080769 0 -0.035994744521537794 0.0022232302576781684 0 -0.034950588677037271 0.0015699771290080542 0 -0.035445420638845149 0.0008059464937080769 0 -0.035994744521537794 0.0022232302576781684 0 -0.028943845914295802 0.0020280459124852636 0 -0.020530824965105988 0.00048067062433283667 0 -0.025298592849771869 0.00076177865932073035 0 -0.026040562943898896 0.00047172762245582193 0 -0.025606663803905423 0.0012933578511824424 0 -0.029778868349103357 0.0018404714189571008 0 -0.028943845914295802 0.0020280459124852636 0 -0.016528415550790463 -0.00069879126489622197 0 -0.016743610089172956 -0.00038531096822199697 0 -0.016368311142273401 -0.00031319465066786527 0 -0.016528415550790463 -0.00069879126489622197 0 -0.016743610089172956 -0.00038531096822199697 0 -0.016968060544196611 -0.0010085855682029803 0 -0.038073838164760544 0.0021029499121596107 0 -0.036710333320420403 0.0046306298109862381 0 -0.039686467463768534 0.0034346678776780164 0 -0.028943845914295802 0.0020280459124852636 0 -0.027854798798575133 0.0012805271727211476 0 -0.016743610089172956 -0.00038531096822199697 0 -0.016968060544196611 -0.0010085855682029803 0 -0.017197094144107736 -0.00062735678222776469 0 -0.017197094144107736 -0.00062735678222776469 0 -0.017610708636515489 -0.00091414108903232084 0 -0.017682159174654686 -0.00053179677728854122 0 -0.017197094144107736 -0.00062735678222776469 0 -0.017308542079826204 -0.00011016221468192486 0 -0.017682159174654686 -0.00053179677728854122 0 -0.016968060544196611 -0.0010085855682029803 0 -0.017197094144107736 -0.00062735678222776469 0 -0.017531667380049659 -0.0013884375900239416 0 -0.017197094144107736 -0.00062735678222776469 0 -0.017531667380049659 -0.0013884375900239416 0 -0.017610708636515489 -0.00091414108903232084 0 -0.04244074314158449 0.0021097809062136552 0 -0.040233115266411386 0.0016196631119558779 0 -0.041419206684120913 0.00065212174963569225 0 -0.027854798798575133 0.0012805271727211476 0 -0.030062361442693621 0.00032499708562390059 0 -0.039686467463768534 0.0034346678776780164 0 -0.04244074314158449 0.0021097809062136552 0 -0.040233115266411386 0.0016196631119558779 0 -0.038073838164760544 0.0021029499121596107 0 -0.039686467463768534 0.0034346678776780164 0 -0.040233115266411386 0.0016196631119558779 0 -0.041304017664363805 -0.0008691518269451857 0 -0.039423711623665515 -0.00016937752039884775 0 -0.041419206684120913 0.00065212174963569225 0 -0.039423711623665515 -0.00016937752039884775 0 -0.040233115266411386 0.0016196631119558779 0 -0.041419206684120913 0.00065212174963569225 0 -0.04244074314158449 0.0021097809062136552 0 -0.041419206684120913 0.00065212174963569225 0 -0.043379393325757735 0.00034467350356138615 0 -0.042365996467831221 -0.00027712864367350146 0 -0.041419206684120913 0.00065212174963569225 0 -0.043379393325757735 0.00034467350356138615 0 -0.041304017664363805 -0.0008691518269451857 0 -0.042365996467831221 -0.00027712864367350146 0 -0.041419206684120913 0.00065212174963569225 0 -0.016656038209600831 0.00095778457812821874 0 -0.016931018573609215 0.00054361932885860762 0 -0.017193980697267328 0.00070620429732281892 0 -0.016656038209600831 0.00095778457812821874 0 -0.016513014974657458 0.00074737417440604926 0 -0.016325228308222594 0.0010275896978510989 0 -0.016931018573609215 0.00054361932885860762 0 -0.016878693703775476 0.00010377485937385241 0 -0.016513014974657458 0.00074737417440604926 0 -0.016656038209600831 0.00095778457812821874 0 -0.016931018573609215 0.00054361932885860762 0 -0.016513014974657458 0.00074737417440604926 0 -0.016931018573609215 0.00054361932885860762 0 -0.017308542079826204 -0.00011016221468192486 0 -0.016878693703775476 0.00010377485937385241 0 -0.016931018573609215 0.00054361932885860762 0 -0.017308542079826204 -0.00011016221468192486 0 -0.017352805701626634 0.00032079290523000383 0 -0.017197094144107736 -0.00062735678222776469 0 -0.017308542079826204 -0.00011016221468192486 0 -0.016878693703775476 0.00010377485937385241 0 -0.016743610089172956 -0.00038531096822199697 0 -0.017197094144107736 -0.00062735678222776469 0 -0.016878693703775476 0.00010377485937385241 0 -0.016878693703775476 0.00010377485937385241 0 -0.016401553671859696 0.00054837225523978166 0 -0.016513014974657458 0.00074737417440604926 0 -0.017107198290953519 0.00011684087227562456 0 -0.015985284846632974 0.00027368165363445999 0 -0.016743610089172956 -0.00038531096822199697 0 -0.016878693703775476 0.00010377485937385241 0 -0.016577689377356195 -1.8453439484074988e-05 0 -0.016577689377356195 -1.8453439484074988e-05 0 -0.016368311142273401 -0.00031319465066786527 0 -0.016252339976780831 -1.1662148627298915e-05 0 -0.016743610089172956 -0.00038531096822199697 0 -0.016577689377356195 -1.8453439484074988e-05 0 -0.016368311142273401 -0.00031319465066786527 0 -0.016401553671859696 0.00054837225523978166 0 -0.016373478095798807 0.00081455970273140298 0 -0.016356650658632232 0.00086879523893219435 0 -0.015985284846632974 0.00027368165363445999 0 -0.018673706919578276 0.00053205736053535261 0 -0.016401553671859696 0.00054837225523978166 0 -0.016356650658632232 0.00086879523893219435 0 -0.016344641768992869 0.00088790285298572999 0 -0.016346831739493344 0.00094479197174158103 0 -0.01636130865763244 0.0010421363090937499 0 -0.016357994340598193 0.00095196221649284339 0 -0.016373478095798807 0.00081455970273140298 0 -0.016357994340598193 0.00095196221649284339 0 -0.016356650658632232 0.00086879523893219435 0 -0.016373478095798807 0.00081455970273140298 0 -0.016346831739493344 0.00094479197174158103 0 -0.016357994340598193 0.00095196221649284339 0 -0.016401553671859696 0.00054837225523978166 0 -0.016373478095798807 0.00081455970273140298 0 -0.016513014974657458 0.00074737417440604926 0 -0.016373478095798807 0.00081455970273140298 0 -0.016513014974657458 0.00074737417440604926 0 -0.016346831739493344 0.00094479197174158103 0 -0.016513014974657458 0.00074737417440604926 0 -0.016346831739493344 0.00094479197174158103 0 -0.016325228308222594 0.0010275896978510989 0 -0.016346831739493344 0.00094479197174158103 0 -0.016312382585643933 0.0010501794052312202 0 -0.016325228308222594 0.0010275896978510989 0 -0.016346831739493344 0.00094479197174158103 0 -0.01636130865763244 0.0010421363090937499 0 -0.016312382585643933 0.0010501794052312202 0 -0.01636130865763244 0.0010421363090937499 0 -0.016407019319172388 0.0011157648618177226 0 -0.016428750078468196 0.0011066959266868004 0 -0.01636130865763244 0.0010421363090937499 0 -0.016407019319172388 0.0011157648618177226 0 -0.016312382585643933 0.0010501794052312202 0 -0.016407019319172388 0.0011157648618177226 0 -0.016533263640988657 0.0012230677281787363 0 -0.016543974033813278 0.0011912552731750178 0 -0.016407019319172388 0.0011157648618177226 0 -0.016533263640988657 0.0012230677281787363 0 -0.016428750078468196 0.0011066959266868004 0 -0.016428750078468196 0.0011066959266868004 0 -0.016485143400021812 0.0011306905415557592 0 -0.016420479378474566 0.0010696024890004061 0 -0.016533263640988657 0.0012230677281787363 0 -0.016428750078468196 0.0011066959266868004 0 -0.016485143400021812 0.0011306905415557592 0 -0.016533263640988657 0.0012230677281787363 0 -0.016485143400021812 0.0011306905415557592 0 -0.016523352866949819 0.0011685973200034319 0 -0.016489206481911989 0.0011311810390174208 0 -0.01650900809751955 0.0011471321174204732 0 -0.01653101478058968 0.0011469982649767898 0 -0.016523352866949819 0.0011685973200034319 0 -0.01650900809751955 0.0011471321174204732 0 -0.01653101478058968 0.0011469982649767898 0 -0.016485143400021812 0.0011306905415557592 0 -0.016523352866949819 0.0011685973200034319 0 -0.01650900809751955 0.0011471321174204732 0 -0.016485143400021812 0.0011306905415557592 0 -0.016489206481911989 0.0011311810390174208 0 -0.01650900809751955 0.0011471321174204732 0 -0.016485143400021812 0.0011306905415557592 0 -0.016455439756763158 0.001098816587383049 0 -0.016420479378474566 0.0010696024890004061 0 -0.016455439756763158 0.001098816587383049 0 -0.016411304826717842 0.0010548890174026486 0 -0.016420479378474566 0.0010696024890004061 0 -0.016485143400021812 0.0011306905415557592 0 -0.016489206481911989 0.0011311810390174208 0 -0.016455439756763158 0.001098816587383049 0 -0.016489206481911989 0.0011311810390174208 0 -0.016455439756763158 0.001098816587383049 0 -0.016463014392898587 0.0011244901714497243 0 -0.016455439756763158 0.001098816587383049 0 -0.016411304826717842 0.0010548890174026486 0 -0.016463014392898587 0.0011244901714497243 0 -0.016411304826717842 0.0010548890174026486 0 -0.016423547913521557 0.0010772038468040751 0 -0.016463014392898587 0.0011244901714497243 0 -0.016411304826717842 0.0010548890174026486 0 -0.016373036541728652 0.00099637790203778291 0 -0.016372031114638693 0.00099317782918342226 0 -0.016373036541728652 0.00099637790203778291 0 -0.016420479378474566 0.0010696024890004061 0 -0.016384146898450185 0.0010344141667259549 0 -0.016411304826717842 0.0010548890174026486 0 -0.016373036541728652 0.00099637790203778291 0 -0.016420479378474566 0.0010696024890004061 0 -0.016428750078468196 0.0011066959266868004 0 -0.016420479378474566 0.0010696024890004061 0 -0.016384146898450185 0.0010344141667259549 0 -0.01636130865763244 0.0010421363090937499 0 -0.016428750078468196 0.0011066959266868004 0 -0.016384146898450185 0.0010344141667259549 0 -0.01636130865763244 0.0010421363090937499 0 -0.016384146898450185 0.0010344141667259549 0 -0.016357994340598193 0.00095196221649284339 0 -0.016373036541728652 0.00099637790203778291 0 -0.016356650658632232 0.00086879523893219435 0 -0.016372031114638693 0.00099317782918342226 0 -0.016373036541728652 0.00099637790203778291 0 -0.016357994340598193 0.00095196221649284339 0 -0.016356650658632232 0.00086879523893219435 0 -0.016373036541728652 0.00099637790203778291 0 -0.016384146898450185 0.0010344141667259549 0 -0.016357994340598193 0.00095196221649284339 0 -0.016356650658632232 0.00086879523893219435 0 -0.016372031114638693 0.00099317782918342226 0 -0.016344641768992869 0.00088790285298572999 0 -0.016411304826717842 0.0010548890174026486 0 -0.016423547913521557 0.0010772038468040751 0 -0.016372031114638693 0.00099317782918342226 0 -0.016423547913521557 0.0010772038468040751 0 -0.016372031114638693 0.00099317782918342226 0 -0.016427124607222714 0.0011687954962216684 0 -0.017166002839729255 0.0014829379258169549 0 -0.018673706919578276 0.00053205736053535261 0 -0.016372031114638693 0.00099317782918342226 0 -0.016427124607222714 0.0011687954962216684 0 -0.016007731804281326 0.0015699126224177744 0 -0.020530824965105988 0.00048067062433283667 0 -0.018673706919578276 0.00053205736053535261 0 -0.024966302696558848 0.0011493018402824245 0 -0.025606663803905423 0.0012933578511824424 0 -0.024813610476526578 0.0017050511989700062 0 -0.025606663803905423 0.0012933578511824424 0 -0.025164309987675687 0.0021707013096625644 0 -0.024813610476526578 0.0017050511989700062 0 -0.026528168607015543 0.0014679698894533516 0 -0.02175455057903063 0.0026856380239543565 0 -0.024434605741530727 0.0012583221488576888 0 -0.024813610476526578 0.0017050511989700062 0 -0.024069466931722353 0.00227647172788059 0 -0.024966302696558848 0.0011493018402824245 0 -0.024434605741530727 0.0012583221488576888 0 -0.024813610476526578 0.0017050511989700062 0 -0.024617274491174214 0.0014419181485210524 0 -0.026528168607015543 0.0014679698894533516 0 -0.016427124607222714 0.0011687954962216684 0 -0.018440658655474094 0.0010746085083511053 0 -0.018309970729870763 0.0014717201863455264 0 -0.025164309987675687 0.0021707013096625644 0 -0.024813610476526578 0.0017050511989700062 0 -0.024069466931722353 0.00227647172788059 0 -0.018673706919578276 0.00053205736053535261 0 -0.02175455057903063 0.0026856380239543565 0 -0.016136185003841067 0.0010165007057207846 0 -0.01851437148174841 0.0024833815519079146 0 -0.016427124607222714 0.0011687954962216684 0 -0.016463014392898587 0.0011244901714497243 0 -0.01653101478058968 0.0011469982649767898 0 -0.016427124607222714 0.0011687954962216684 0 -0.016007731804281326 0.0015699126224177744 0 -0.018309970729870763 0.0014717201863455264 0 -0.016423547913521557 0.0010772038468040751 0 -0.016427124607222714 0.0011687954962216684 0 -0.016463014392898587 0.0011244901714497243 0 -0.016489206481911989 0.0011311810390174208 0 -0.016463014392898587 0.0011244901714497243 0 -0.01653101478058968 0.0011469982649767898 0 -0.02175455057903063 0.0026856380239543565 0 -0.021359116768160283 0.0037152190845674339 0 -0.020634239780925014 0.0035264042099967239 0 -0.020648199008686897 0.0034871099992683052 0 -0.020419027420299884 0.0035318138135877852 0 -0.024463910836535738 0.0036238066191293253 0 -0.023249066356162661 0.0030253705467712007 0 -0.021938464027357885 0.003771791248545881 0 -0.01851437148174841 0.0024833815519079146 0 -0.02175455057903063 0.0026856380239543565 0 -0.025190875625349062 0.0014503957105901854 0 -0.023249066356162661 0.0030253705467712007 0 -0.022660816710564122 0.0020742550540654415 0 -0.026528168607015543 0.0014679698894533516 0 -0.029226156049952896 0.00075992581190142234 0 -0.029428284746177775 0.0011326455830191161 0 -0.029413323948895419 0.0011695092605972593 0 -0.029240922739072063 0.0012156252939558455 0 -0.025190875625349062 0.0014503957105901854 0 -0.024463910836535738 0.0036238066191293253 0 -0.023249066356162661 0.0030253705467712007 0 -0.032116029855171334 0.00075800506276150516 0 -0.029226156049952896 0.00075992581190142234 0 -0.037818631615063103 -0.00058422942135029137 0 -0.03779185821414998 -0.00084632431860560183 0 -0.037987185751387313 -0.00070269825600338329 0 -0.023249066356162661 0.0030253705467712007 0 -0.022660816710564122 0.0020742550540654415 0 -0.022281699166626288 0.0029117683706294905 0 -0.022660816710564122 0.0020742550540654415 0 -0.021856308466818436 0.0024715972716996592 0 -0.022281699166626288 0.0029117683706294905 0 -0.029226156049952896 0.00075992581190142234 0 -0.021871957788461981 0.0030065314469219962 0 -0.021805872673936001 0.0031142334677189206 0 -0.022281699166626288 0.0029117683706294905 0 -0.021938464027357885 0.003771791248545881 0 -0.020634239780925014 0.0035264042099967239 0 -0.020419027420299884 0.0035318138135877852 0 -0.020365212346310269 0.0035742820744440826 0 -0.021805872673936001 0.0031142334677189206 0 -0.021938464027357885 0.003771791248545881 0 -0.021252094211027056 0.0031607700630816417 0 -0.01851437148174841 0.0024833815519079146 0 -0.019074135294072227 0.0037074443269129826 0 -0.021856308466818436 0.0024715972716996592 0 -0.021805872673936001 0.0031142334677189206 0 -0.022281699166626288 0.0029117683706294905 0 -0.023249066356162661 0.0030253705467712007 0 -0.022281699166626288 0.0029117683706294905 0 -0.021938464027357885 0.003771791248545881 0 -0.017477958710741464 0.0029555232796140266 0 -0.016953197872643273 0.0031184828618996963 0 -0.017834907351055487 0.0035470597901515253 0 -0.016107264382122607 0.0035968251258449149 0 -0.016953197872643273 0.0031184828618996963 0 -0.017834907351055487 0.0035470597901515253 0 -0.017477958710741464 0.0029555232796140266 0 -0.017834907351055487 0.0035470597901515253 0 -0.017982463090112501 0.0028093854285876152 0 -0.017477958710741464 0.0029555232796140266 0 -0.016999484332278336 0.002657457358487146 0 -0.017571438927850923 0.0023950641298439101 0 -0.017477958710741464 0.0029555232796140266 0 -0.017571438927850923 0.0023950641298439101 0 -0.017982463090112501 0.0028093854285876152 0 -0.017477958710741464 0.0029555232796140266 0 -0.016999484332278336 0.002657457358487146 0 -0.016953197872643273 0.0031184828618996963 0 -0.016523352866949819 0.0011685973200034319 0 -0.01653101478058968 0.0011469982649767898 0 -0.016553424350055565 0.0012291425505153231 0 -0.016107264382122607 0.0035968251258449149 0 -0.016953197872643273 0.0031184828618996963 0 -0.016391108019345565 0.00262049421428826 0 -0.01851437148174841 0.0024833815519079146 0 -0.016483939594386626 0.0020062818750666051 0 -0.016533263640988657 0.0012230677281787363 0 -0.016523352866949819 0.0011685973200034319 0 -0.016553424350055565 0.0012291425505153231 0 -0.016999484332278336 0.002657457358487146 0 -0.016953197872643273 0.0031184828618996963 0 -0.016391108019345565 0.00262049421428826 0 -0.016999484332278336 0.002657457358487146 0 -0.016391108019345565 0.00262049421428826 0 -0.016788896040457059 0.0014909429201038749 0 -0.016533263640988657 0.0012230677281787363 0 -0.016788896040457059 0.0014909429201038749 0 -0.016543974033813278 0.0011912552731750178 0 -0.016533263640988657 0.0012230677281787363 0 -0.016553424350055565 0.0012291425505153231 0 -0.016788896040457059 0.0014909429201038749 0 -0.016483939594386626 0.0020062818750666051 0 -0.016733250404595734 0.0014800972720416877 0 -0.016999484332278336 0.002657457358487146 0 -0.016788896040457059 0.0014909429201038749 0 -0.017571438927850923 0.0023950641298439101 0 -0.016788896040457059 0.0014909429201038749 0 -0.017571438927850923 0.0023950641298439101 0 -0.017785807743567524 0.0017848669169128677 0 -0.016788896040457059 0.0014909429201038749 0 -0.017616418147003116 0.0012458633385252242 0 -0.016900871030374402 0.00106213830585166 0 -0.016788896040457059 0.0014909429201038749 0 -0.017616418147003116 0.0012458633385252242 0 -0.017785807743567524 0.0017848669169128677 0 -0.016788896040457059 0.0014909429201038749 0 -0.016900871030374402 0.00106213830585166 0 -0.016543974033813278 0.0011912552731750178 0 -0.016900871030374402 0.00106213830585166 0 -0.016552874090143478 0.00097138431869898218 0 -0.016543974033813278 0.0011912552731750178 0 -0.016900871030374402 0.00106213830585166 0 -0.016779071096011913 0.00071660527333923378 0 -0.016552874090143478 0.00097138431869898218 0 -0.017616418147003116 0.0012458633385252242 0 -0.016900871030374402 0.00106213830585166 0 -0.017654121319525293 0.0007270306162008701 0 -0.016900871030374402 0.00106213830585166 0 -0.016779071096011913 0.00071660527333923378 0 -0.017654121319525293 0.0007270306162008701 0 -0.016779071096011913 0.00071660527333923378 0 -0.017138922629002594 0.00025680744654187819 0 -0.017654121319525293 0.0007270306162008701 0 -0.017138922629002594 0.00025680744654187819 0 -0.017659774246648684 -0.00046290603027157075 0 -0.016658592354904196 6.066154982377949e-05 0 -0.017138922629002594 0.00025680744654187819 0 -0.016587415988999238 0.00045763821164243449 0 -0.016658592354904196 6.066154982377949e-05 0 -0.016587415988999238 0.00045763821164243449 0 -0.01640145538435684 0.00032829167442118809 0 -0.016658592354904196 6.066154982377949e-05 0 -0.016779071096011913 0.00071660527333923378 0 -0.017138922629002594 0.00025680744654187819 0 -0.016587415988999238 0.00045763821164243449 0 -0.016779071096011913 0.00071660527333923378 0 -0.016587415988999238 0.00045763821164243449 0 -0.016388860520491346 0.00084961852153501408 0 -0.016587415988999238 0.00045763821164243449 0 -0.01634044982920712 0.0005805181996517485 0 -0.016388860520491346 0.00084961852153501408 0 -0.016587415988999238 0.00045763821164243449 0 -0.01640145538435684 0.00032829167442118809 0 -0.01634044982920712 0.0005805181996517485 0 -0.01640145538435684 0.00032829167442118809 0 -0.01634044982920712 0.0005805181996517485 0 -0.016271448799019837 0.00040788991188858242 0 -0.01634044982920712 0.0005805181996517485 0 -0.016256273123255206 0.00083614788637447217 0 -0.016227523971958851 0.00064541556167448057 0 -0.01634044982920712 0.0005805181996517485 0 -0.016227523971958851 0.00064541556167448057 0 -0.016271448799019837 0.00040788991188858242 0 -0.01634044982920712 0.0005805181996517485 0 -0.016256273123255206 0.00083614788637447217 0 -0.016388860520491346 0.00084961852153501408 0 -0.016388860520491346 0.00084961852153501408 0 -0.016373345142600998 0.001050557409558867 0 -0.016241635101350967 0.0010433231428056628 0 -0.016256273123255206 0.00083614788637447217 0 -0.016388860520491346 0.00084961852153501408 0 -0.016241635101350967 0.0010433231428056628 0 -0.016779071096011913 0.00071660527333923378 0 -0.016552874090143478 0.00097138431869898218 0 -0.016388860520491346 0.00084961852153501408 0 -0.016552874090143478 0.00097138431869898218 0 -0.016388860520491346 0.00084961852153501408 0 -0.016373345142600998 0.001050557409558867 0 -0.016552874090143478 0.00097138431869898218 0 -0.016543974033813278 0.0011912552731750178 0 -0.016373345142600998 0.001050557409558867 0 -0.016407019319172388 0.0011157648618177226 0 -0.016543974033813278 0.0011912552731750178 0 -0.016373345142600998 0.001050557409558867 0 -0.016407019319172388 0.0011157648618177226 0 -0.016373345142600998 0.001050557409558867 0 -0.016312382585643933 0.0010501794052312202 0 -0.016373345142600998 0.001050557409558867 0 -0.016312382585643933 0.0010501794052312202 0 -0.016241635101350967 0.0010433231428056628 0 -0.016312382585643933 0.0010501794052312202 0 -0.016325228308222594 0.0010275896978510989 0 -0.016241635101350967 0.0010433231428056628 0 -0.016325228308222594 0.0010275896978510989 0 -0.016229475741724852 0.0011009296175055381 0 -0.016359209456427073 0.0011045617205183752 0 -0.016325228308222594 0.0010275896978510989 0 -0.016229475741724852 0.0011009296175055381 0 -0.016241635101350967 0.0010433231428056628 0 -0.016229475741724852 0.0011009296175055381 0 -0.01615306210187438 0.0010590895322291013 0 -0.016132277613452081 0.0012122719110449806 0 -0.016229475741724852 0.0011009296175055381 0 -0.016241635101350967 0.0010433231428056628 0 -0.01615306210187438 0.0010590895322291013 0 -0.016256273123255206 0.00083614788637447217 0 -0.016131355117105044 0.00089496645008251138 0 -0.01615306210187438 0.0010590895322291013 0 -0.016256273123255206 0.00083614788637447217 0 -0.016241635101350967 0.0010433231428056628 0 -0.01615306210187438 0.0010590895322291013 0 -0.016256273123255206 0.00083614788637447217 0 -0.016131355117105044 0.00089496645008251138 0 -0.016227523971958851 0.00064541556167448057 0 -0.016131355117105044 0.00089496645008251138 0 -0.016227523971958851 0.00064541556167448057 0 -0.016122331406947941 0.00066949661441719171 0 -0.016131355117105044 0.00089496645008251138 0 -0.01601933749623043 0.001149342213581132 0 -0.015931312307799404 0.00091174829337245782 0 -0.016131355117105044 0.00089496645008251138 0 -0.015931312307799404 0.00091174829337245782 0 -0.016122331406947941 0.00066949661441719171 0 -0.01601933749623043 0.001149342213581132 0 -0.01615306210187438 0.0010590895322291013 0 -0.016132277613452081 0.0012122719110449806 0 -0.016131355117105044 0.00089496645008251138 0 -0.01601933749623043 0.001149342213581132 0 -0.01615306210187438 0.0010590895322291013 0 -0.01601933749623043 0.001149342213581132 0 -0.016132277613452081 0.0012122719110449806 0 -0.015741421413764951 0.0014968272216490913 0 -0.01601933749623043 0.001149342213581132 0 -0.015741421413764951 0.0014968272216490913 0 -0.015931312307799404 0.00091174829337245782 0 -0.015611153964953522 0.0015089693303867275 0 -0.01493265168190863 0.0014136656311115577 0 -0.016132277613452081 0.0012122719110449806 0 -0.015741421413764951 0.0014968272216490913 0 -0.016532432197551395 0.0012476458686633413 0 -0.015741421413764951 0.0014968272216490913 0 -0.016532432197551395 0.0012476458686633413 0 -0.016807827298998143 0.0015125367507057544 0 -0.016229475741724852 0.0011009296175055381 0 -0.016132277613452081 0.0012122719110449806 0 -0.016359209456427073 0.0011045617205183752 0 -0.016132277613452081 0.0012122719110449806 0 -0.016532432197551395 0.0012476458686633413 0 -0.016359209456427073 0.0011045617205183752 0 -0.016656038209600831 0.00095778457812821874 0 -0.016325228308222594 0.0010275896978510989 0 -0.016359209456427073 0.0011045617205183752 0 -0.016656038209600831 0.00095778457812821874 0 -0.016532432197551395 0.0012476458686633413 0 -0.017057144480510916 0.0010876421879764903 0 -0.016656038209600831 0.00095778457812821874 0 -0.016532432197551395 0.0012476458686633413 0 -0.016359209456427073 0.0011045617205183752 0 -0.023968579943881331 0.001800076534533995 0 -0.025075198846522678 0.0033688340830124899 0 -0.022219840739016661 0.0038602616572236798 0 -0.022257268636777579 0.0016600587250921676 0 -0.022219840739016661 0.0038602616572236798 0 -0.020849283280579459 0.0029880515257569703 0 -0.022257268636777579 0.0016600587250921676 0 -0.023968579943881331 0.001800076534533995 0 -0.022219840739016661 0.0038602616572236798 0 -0.022257268636777579 0.0016600587250921676 0 -0.023968579943881331 0.001800076534533995 0 -0.02410452251529557 0.00047937710298324684 0 -0.023968579943881331 0.001800076534533995 0 -0.02652114253476243 0.00080695158829919265 0 -0.02410452251529557 0.00047937710298324684 0 -0.02652114253476243 0.00080695158829919265 0 -0.02878379965534824 1.5459919187120212e-06 0 -0.026082709664223422 0.00012743613234626814 0 -0.02652114253476243 0.00080695158829919265 0 -0.02878379965534824 1.5459919187120212e-06 0 -0.030025222473426871 0.00040522907091777247 0 -0.02878379965534824 1.5459919187120212e-06 0 -0.030025222473426871 0.00040522907091777247 0 -0.031343344977788581 3.0243040661412107e-06 0 -0.023968579943881331 0.001800076534533995 0 -0.02652114253476243 0.00080695158829919265 0 -0.025075198846522678 0.0033688340830124899 0 -0.02652114253476243 0.00080695158829919265 0 -0.030025222473426871 0.00040522907091777247 0 -0.025075198846522678 0.0033688340830124899 0 -0.030001029074459704 0.00072401571082329351 0 -0.029229500720675355 0.0020380245087111963 0 -0.030025222473426871 0.00040522907091777247 0 -0.033388114091700415 0.00104907640975714 0 -0.031925362945950879 0.0001212964496481006 0 -0.033388114091700415 0.00104907640975714 0 -0.03271010009994009 -0.00047539583886405264 0 -0.034418446357345242 0.00020360202109386319 0 -0.033388114091700415 0.00104907640975714 0 -0.031925362945950879 0.0001212964496481006 0 -0.03271010009994009 -0.00047539583886405264 0 -0.03134755391691494 1.5021970653288892e-09 0 -0.033511532926231213 -0.00023989821261597861 0 -0.031343344977788581 3.0243040661412107e-06 0 -0.031925362945950879 0.0001212964496481006 0 -0.03271010009994009 -0.00047539583886405264 0 -0.030025222473426871 0.00040522907091777247 0 -0.031343344977788581 3.0243040661412107e-06 0 -0.031925362945950879 0.0001212964496481006 0 -0.031351191413718379 2.0102812938139998e-06 0 -0.033422129485829739 -1.1877928452015056e-06 0 -0.03427860108448734 7.7716050683558342e-05 0 -0.034341808589222929 -0.00044411806702534265 0 -0.033422129485829739 -1.1877928452015056e-06 0 -0.03427860108448734 7.7716050683558342e-05 0 -0.034760022958135066 -0.00059389744225369419 0 -0.034341808589222929 -0.00044411806702534265 0 -0.03427860108448734 7.7716050683558342e-05 0 -0.033511532926231213 -0.00023989821261597861 0 -0.035080495654161686 -0.00064610316491292769 0 -0.03271010009994009 -0.00047539583886405264 0 -0.034418446357345242 0.00020360202109386319 0 -0.035274854576978425 -0.00067635731887203039 0 -0.034760022958135066 -0.00059389744225369419 0 -0.03427860108448734 7.7716050683558342e-05 0 -0.035274854576978425 -0.00067635731887203039 0 -0.033388114091700415 0.00104907640975714 0 -0.034418446357345242 0.00020360202109386319 0 -0.035641698153585991 0.00074779414029422521 0 -0.029229500720675355 0.0020380245087111963 0 -0.028953888212794123 0.0022927514884261762 0 -0.034418446357345242 0.00020360202109386319 0 -0.035641698153585991 0.00074779414029422521 0 -0.035274854576978425 -0.00067635731887203039 0 -0.035641698153585991 0.00074779414029422521 0 -0.035274854576978425 -0.00067635731887203039 0 -0.036489081288422306 -0.00035169014867736278 0 -0.036024141562292097 -0.0010187203024639763 0 -0.035274854576978425 -0.00067635731887203039 0 -0.036489081288422306 -0.00035169014867736278 0 -0.037399120554092745 -0.0010806197712624637 0 -0.036489081288422306 -0.00035169014867736278 0 -0.037758280204447506 -0.00055130877444824645 0 -0.036489081288422306 -0.00035169014867736278 0 -0.037758280204447506 -0.00055130877444824645 0 -0.03724793068009493 0.0002180893462123227 0 -0.020233690833160518 0.0037915633009282124 0 -0.020849283280579459 0.0029880515257569703 0 -0.020274817395242922 0.0033279114668595725 0 -0.020233690833160518 0.0037915633009282124 0 -0.020087669985950952 0.0034725197778945299 0 -0.019944090050701895 0.0034513323669775279 0 -0.020233690833160518 0.0037915633009282124 0 -0.019944090050701895 0.0034513323669775279 0 -0.020274817395242922 0.0033279114668595725 0 -0.028953888212794123 0.0022927514884261762 0 -0.028719083655019212 0.0019815944021833788 0 -0.035641698153585991 0.00074779414029422521 0 -0.036489081288422306 -0.00035169014867736278 0 -0.03724793068009493 0.0002180893462123227 0 -0.022219840739016661 0.0038602616572236798 0 -0.020233690833160518 0.0037915633009282124 0 -0.020849283280579459 0.0029880515257569703 0 -0.038119067196228588 -0.00076790050710180376 0 -0.037987185751387313 -0.00070269825600338329 0 -0.038076125209994822 -0.00049033277936270144 0 -0.021856308466818436 0.0024715972716996592 0 -0.020407845664122189 0.0029670339997362851 0 -0.021252094211027056 0.0031607700630816417 0 -0.03779185821414998 -0.00084632431860560183 0 -0.037987185751387313 -0.00070269825600338329 0 -0.038076125209994822 -0.00049033277936270144 0 -0.022591112201553337 0.0020171477952475834 0 -0.021856308466818436 0.0024715972716996592 0 -0.020407845664122189 0.0029670339997362851 0 -0.029226156049952896 0.00075992581190142234 0 -0.029474256860701219 0.0012121919091100752 0 -0.038119067196228588 -0.00076790050710180376 0 -0.037758280204447506 -0.00055130877444824645 0 -0.038076125209994822 -0.00049033277936270144 0 -0.037758280204447506 -0.00055130877444824645 0 -0.03724793068009493 0.0002180893462123227 0 -0.038076125209994822 -0.00049033277936270144 0 -0.020087669985950952 0.0034725197778945299 0 -0.020365212346310269 0.0035742820744440826 0 -0.019944090050701895 0.0034513323669775279 0 -0.028719083655019212 0.0019815944021833788 0 -0.029474256860701219 0.0012121919091100752 0 -0.020233690833160518 0.0037915633009282124 0 -0.020407845664122189 0.0029670339997362851 0 -0.020087669985950952 0.0034725197778945299 0 -0.020407845664122189 0.0029670339997362851 0 -0.020087669985950952 0.0034725197778945299 0 -0.020907709355067628 0.0033164434105349304 0 -0.021938464027357885 0.003771791248545881 0 -0.020087669985950952 0.0034725197778945299 0 -0.020907709355067628 0.0033164434105349304 0 -0.020419027420299884 0.0035318138135877852 0 -0.020087669985950952 0.0034725197778945299 0 -0.020365212346310269 0.0035742820744440826 0 -0.021359116768160283 0.0037152190845674339 0 -0.020098842451539874 0.0035032376719626628 0 -0.020407845664122189 0.0029670339997362851 0 -0.020907709355067628 0.0033164434105349304 0 -0.021252094211027056 0.0031607700630816417 0 -0.021938464027357885 0.003771791248545881 0 -0.020907709355067628 0.0033164434105349304 0 -0.021252094211027056 0.0031607700630816417 0 -0.021856308466818436 0.0024715972716996592 0 -0.021805872673936001 0.0031142334677189206 0 -0.021252094211027056 0.0031607700630816417 0 -0.019074135294072227 0.0037074443269129826 0 -0.019934417519464568 0.003419429637902933 0 -0.017834907351055487 0.0035470597901515253 0 -0.018763101686922145 0.0028470630629806024 0 -0.019944090050701895 0.0034513323669775279 0 -0.017834907351055487 0.0035470597901515253 0 -0.017982463090112501 0.0028093854285876152 0 -0.018763101686922145 0.0028470630629806024 0 -0.017982463090112501 0.0028093854285876152 0 -0.018763101686922145 0.0028470630629806024 0 -0.018248601469011739 0.0022917257598754582 0 -0.018763101686922145 0.0028470630629806024 0 -0.019944090050701895 0.0034513323669775279 0 -0.019613709524159847 0.0023745396626650194 0 -0.019613709524159847 0.0023745396626650194 0 -0.018891351634690981 0.0021958558125851273 0 -0.019254389426018686 0.001563193114778684 0 -0.018891351634690981 0.0021958558125851273 0 -0.018404452256086813 0.0016980283511301465 0 -0.019254389426018686 0.001563193114778684 0 -0.018763101686922145 0.0028470630629806024 0 -0.019613709524159847 0.0023745396626650194 0 -0.018891351634690981 0.0021958558125851273 0 -0.018763101686922145 0.0028470630629806024 0 -0.018891351634690981 0.0021958558125851273 0 -0.018248601469011739 0.0022917257598754582 0 -0.018891351634690981 0.0021958558125851273 0 -0.018248601469011739 0.0022917257598754582 0 -0.018404452256086813 0.0016980283511301465 0 -0.017785807743567524 0.0017848669169128677 0 -0.018248601469011739 0.0022917257598754582 0 -0.018404452256086813 0.0016980283511301465 0 -0.017571438927850923 0.0023950641298439101 0 -0.017785807743567524 0.0017848669169128677 0 -0.018248601469011739 0.0022917257598754582 0 -0.017571438927850923 0.0023950641298439101 0 -0.017982463090112501 0.0028093854285876152 0 -0.018248601469011739 0.0022917257598754582 0 -0.020849283280579459 0.0029880515257569703 0 -0.020160186340896388 0.0028789048037805858 0 -0.020449349503389735 0.0019037993871898248 0 -0.020849283280579459 0.0029880515257569703 0 -0.020274817395242922 0.0033279114668595725 0 -0.020160186340896388 0.0028789048037805858 0 -0.019944090050701895 0.0034513323669775279 0 -0.019613709524159847 0.0023745396626650194 0 -0.020160186340896388 0.0028789048037805858 0 -0.019944090050701895 0.0034513323669775279 0 -0.020274817395242922 0.0033279114668595725 0 -0.020160186340896388 0.0028789048037805858 0 -0.019613709524159847 0.0023745396626650194 0 -0.020449349503389735 0.0019037993871898248 0 -0.019254389426018686 0.001563193114778684 0 -0.019613709524159847 0.0023745396626650194 0 -0.020160186340896388 0.0028789048037805858 0 -0.020449349503389735 0.0019037993871898248 0 -0.022257268636777579 0.0016600587250921676 0 -0.020449349503389735 0.0019037993871898248 0 -0.021225030876692998 0.00098271292068827384 0 -0.022257268636777579 0.0016600587250921676 0 -0.020849283280579459 0.0029880515257569703 0 -0.020449349503389735 0.0019037993871898248 0 -0.020449349503389735 0.0019037993871898248 0 -0.021225030876692998 0.00098271292068827384 0 -0.020073260627736334 0.00097530702474244021 0 -0.020449349503389735 0.0019037993871898248 0 -0.020073260627736334 0.00097530702474244021 0 -0.019254389426018686 0.001563193114778684 0 -0.020073260627736334 0.00097530702474244021 0 -0.02086938626435491 0.00029215183506234408 0 -0.019452057648808127 0.00014323602889120134 0 -0.020073260627736334 0.00097530702474244021 0 -0.018860409887932951 0.0007415839861207561 0 -0.019452057648808127 0.00014323602889120134 0 -0.021225030876692998 0.00098271292068827384 0 -0.020073260627736334 0.00097530702474244021 0 -0.02086938626435491 0.00029215183506234408 0 -0.017616418147003116 0.0012458633385252242 0 -0.018404452256086813 0.0016980283511301465 0 -0.018339725142953386 0.0011734295193759953 0 -0.017616418147003116 0.0012458633385252242 0 -0.017785807743567524 0.0017848669169128677 0 -0.018404452256086813 0.0016980283511301465 0 -0.020073260627736334 0.00097530702474244021 0 -0.019254389426018686 0.001563193114778684 0 -0.018860409887932951 0.0007415839861207561 0 -0.018339725142953386 0.0011734295193759953 0 -0.019254389426018686 0.001563193114778684 0 -0.018860409887932951 0.0007415839861207561 0 -0.018404452256086813 0.0016980283511301465 0 -0.018339725142953386 0.0011734295193759953 0 -0.019254389426018686 0.001563193114778684 0 -0.017616418147003116 0.0012458633385252242 0 -0.018339725142953386 0.0011734295193759953 0 -0.017654121319525293 0.0007270306162008701 0 -0.018339725142953386 0.0011734295193759953 0 -0.018860409887932951 0.0007415839861207561 0 -0.017654121319525293 0.0007270306162008701 0 -0.018860409887932951 0.0007415839861207561 0 -0.017654121319525293 0.0007270306162008701 0 -0.018154437599171611 0.00010575716073841636 0 -0.017138922629002594 0.00025680744654187819 0 -0.017654121319525293 0.0007270306162008701 0 -0.018154437599171611 0.00010575716073841636 0 -0.018860409887932951 0.0007415839861207561 0 -0.018154437599171611 0.00010575716073841636 0 -0.019452057648808127 0.00014323602889120134 0 -0.018154437599171611 0.00010575716073841636 0 -0.019452057648808127 0.00014323602889120134 0 -0.018569310273043954 -0.00049287820586506141 0 -0.018154437599171611 0.00010575716073841636 0 -0.018569310273043954 -0.00049287820586506141 0 -0.017659774246648684 -0.00046290603027157075 0 -0.017138922629002594 0.00025680744654187819 0 -0.018154437599171611 0.00010575716073841636 0 -0.017659774246648684 -0.00046290603027157075 0 -0.02086938626435491 0.00029215183506234408 0 -0.019918979618153129 -0.00040849387209618119 0 -0.021735757895346489 -0.00020877328437129492 0 -0.02086938626435491 0.00029215183506234408 0 -0.019452057648808127 0.00014323602889120134 0 -0.019918979618153129 -0.00040849387209618119 0 -0.019452057648808127 0.00014323602889120134 0 -0.019918979618153129 -0.00040849387209618119 0 -0.018569310273043954 -0.00049287820586506141 0 -0.019918979618153129 -0.00040849387209618119 0 -0.021735757895346489 -0.00020877328437129492 0 -0.021451762153526927 -0.00068869426911701774 0 -0.021735757895346489 -0.00020877328437129492 0 -0.023535234127423619 -0.00025153152012148986 0 -0.021451762153526927 -0.00068869426911701774 0 -0.021735757895346489 -0.00020877328437129492 0 -0.022471504579216681 0.0002597476452871609 0 -0.023535234127423619 -0.00025153152012148986 0 -0.021225030876692998 0.00098271292068827384 0 -0.02086938626435491 0.00029215183506234408 0 -0.022471504579216681 0.0002597476452871609 0 -0.02086938626435491 0.00029215183506234408 0 -0.021735757895346489 -0.00020877328437129492 0 -0.022471504579216681 0.0002597476452871609 0 -0.022471504579216681 0.0002597476452871609 0 -0.02410452251529557 0.00047937710298324684 0 -0.023535234127423619 -0.00025153152012148986 0 -0.022257268636777579 0.0016600587250921676 0 -0.022471504579216681 0.0002597476452871609 0 -0.02410452251529557 0.00047937710298324684 0 -0.022257268636777579 0.0016600587250921676 0 -0.021225030876692998 0.00098271292068827384 0 -0.022471504579216681 0.0002597476452871609 0 -0.02878379965534824 1.5459919187120212e-06 0 -0.026082709664223422 0.00012743613234626814 0 -0.0262203368105281 -5.0004093822225629e-07 0 -0.02652114253476243 0.00080695158829919265 0 -0.02410452251529557 0.00047937710298324684 0 -0.026082709664223422 0.00012743613234626814 0 -0.02410452251529557 0.00047937710298324684 0 -0.026082709664223422 0.00012743613234626814 0 -0.023535234127423619 -0.00025153152012148986 0 -0.026082709664223422 0.00012743613234626814 0 -0.0262203368105281 -5.0004093822225629e-07 0 -0.023535234127423619 -0.00025153152012148986 0 -0.0262203368105281 -5.0004093822225629e-07 0 -0.023535234127423619 -0.00025153152012148986 0 -0.023659162072420369 -7.085914585830309e-07 0 -0.023535234127423619 -0.00025153152012148986 0 -0.022119220744613581 -0.00042096133545226348 0 -0.021451762153526927 -0.00068869426911701774 0 -0.023535234127423619 -0.00025153152012148986 0 -0.023659162072420369 -7.085914585830309e-07 0 -0.022119220744613581 -0.00042096133545226348 0 -0.021096931202963205 -8.3637880269301602e-07 0 -0.022119220744613581 -0.00042096133545226348 0 -0.020656412551995466 -0.00073710078875585487 0 -0.023659162072420369 -7.085914585830309e-07 0 -0.021096931202963205 -8.3637880269301602e-07 0 -0.022119220744613581 -0.00042096133545226348 0 -0.022119220744613581 -0.00042096133545226348 0 -0.020656412551995466 -0.00073710078875585487 0 -0.021451762153526927 -0.00068869426911701774 0 -0.021096931202963205 -8.3637880269301602e-07 0 -0.020656412551995466 -0.00073710078875585487 0 -0.018534282647902939 -1.6165122868145395e-06 0 -0.019918979618153129 -0.00040849387209618119 0 -0.021451762153526927 -0.00068869426911701774 0 -0.020365867818963181 -0.00089457732009727098 0 -0.021451762153526927 -0.00068869426911701774 0 -0.020758130091630984 -0.0010197479853996411 0 -0.020365867818963181 -0.00089457732009727098 0 -0.020656412551995466 -0.00073710078875585487 0 -0.021451762153526927 -0.00068869426911701774 0 -0.020758130091630984 -0.0010197479853996411 0 -0.020758130091630984 -0.0010197479853996411 0 -0.020104641760476362 -0.0016726898683015606 0 -0.020365867818963181 -0.00089457732009727098 0 -0.020656412551995466 -0.00073710078875585487 0 -0.02063729294249474 -0.00070885808817314699 0 -0.019375477475213152 0.00018427894678732255 0 -0.020758130091630984 -0.0010197479853996411 0 -0.02063729294249474 -0.00070885808817314699 0 -0.020104641760476362 -0.0016726898683015606 0 -0.016158318197401263 9.998233594838549e-05 0 -0.016370615808569064 -0.00098246399029503222 0 -0.020656412551995466 -0.00073710078875585487 0 -0.020758130091630984 -0.0010197479853996411 0 -0.02063729294249474 -0.00070885808817314699 0 -0.016158318197401263 9.998233594838549e-05 0 -0.01612171721681618 0.00065283636053340951 0 -0.011696904586616839 0.0009984931992098431 0 -0.012795422426755531 0.0014108796915577053 0 -0.011663269212511373 0.00098854682756789754 0 -0.011696904586616839 0.0009984931992098431 0 -0.012109740397182702 0.0009693074126820413 0 -0.012591486519399399 -0.00052559573888242889 0 -0.011696904586616839 0.0009984931992098431 0 -0.011663269212511373 0.00098854682756789754 0 -0.012109740397182702 0.0009693074126820413 0 -0.020656412551995466 -0.00073710078875585487 0 -0.018534282647902939 -1.6165122868145395e-06 0 -0.019375477475213152 0.00018427894678732255 0 -0.018534282647902939 -1.6165122868145395e-06 0 -0.019375477475213152 0.00018427894678732255 0 -0.015976191733347272 2.775905569175527e-06 0 -0.01612171721681618 0.00065283636053340951 0 -0.015972170027986624 2.0158905848580084e-07 0 -0.012795422426755531 0.0014108796915577053 0 -0.015966455007268142 3.6092738748281164e-06 0 -0.013110642419582912 4.7556710113395518e-05 0 -0.015966455007268142 3.6092738748281164e-06 0 -0.013110642419582912 4.7556710113395518e-05 0 -0.01350702250567108 -1.734589034318105e-06 0 -0.012795422426755531 0.0014108796915577053 0 -0.013110642419582912 4.7556710113395518e-05 0 -0.011822461781933327 0.00047271086632629856 0 -0.012795422426755531 0.0014108796915577053 0 -0.011663269212511373 0.00098854682756789754 0 -0.011822461781933327 0.00047271086632629856 0 -0.011663269212511373 0.00098854682756789754 0 -0.01171830407879855 0.0010364268324954758 0 -0.012109740397182702 0.0009693074126820413 0 -0.011663269212511373 0.00098854682756789754 0 -0.011411015971517512 0.00074358618900683012 0 -0.011822461781933327 0.00047271086632629856 0 -0.011663269212511373 0.00098854682756789754 0 -0.011411015971517512 0.00074358618900683012 0 -0.01171830407879855 0.0010364268324954758 0 -0.011411015971517512 0.00074358618900683012 0 -0.011068674586521884 0.00022910464896096265 0 -0.011822461781933327 0.00047271086632629856 0 -0.011411015971517512 0.00074358618900683012 0 -0.011068674586521884 0.00022910464896096265 0 -0.011114457502941658 0.00067124426505548753 0 -0.013110642419582912 4.7556710113395518e-05 0 -0.011822461781933327 0.00047271086632629856 0 -0.011627979603195466 -0.00029562967997846454 0 -0.011068674586521884 0.00022910464896096265 0 -0.011822461781933327 0.00047271086632629856 0 -0.011627979603195466 -0.00029562967997846454 0 -0.011068674586521884 0.00022910464896096265 0 -0.011627979603195466 -0.00029562967997846454 0 -0.010100573758232418 -0.00053009021092319773 0 -0.010100573758232418 -0.00053009021092319773 0 -0.0077437688209922532 -0.0011916263826434572 0 -0.0087841454932392656 -0.00099164410331578959 0 -0.0099162882848046318 -0.00050489593912305102 0 -0.0093136190243709761 -0.00084886711945624373 0 -0.011627979603195466 -0.00029562967997846454 0 -0.010100573758232418 -0.00053009021092319773 0 -0.010957849691242524 -0.00071346349919567916 0 -0.011627979603195466 -0.00029562967997846454 0 -0.011017649458512477 -0.00053880473295187805 0 -0.010957849691242524 -0.00071346349919567916 0 -0.013110642419582912 4.7556710113395518e-05 0 -0.011627979603195466 -0.00029562967997846454 0 -0.01350702250567108 -1.734589034318105e-06 0 -0.011627979603195466 -0.00029562967997846454 0 -0.01350702250567108 -1.734589034318105e-06 0 -0.011017649458512477 -0.00053880473295187805 0 -0.01350702250567108 -1.734589034318105e-06 0 -0.011017649458512477 -0.00053880473295187805 0 -0.011041787237836659 -4.1652293944351523e-07 0 -0.010247460137809281 -0.0010875863998686464 0 -0.010400844618607479 -0.0011278337212298924 0 -0.010289517401126293 -0.0012101138095287681 0 -0.0091137429874734166 -0.00080191553525109328 0 -0.011912577102320871 -0.00028259906328356981 0 -0.0082583209788444634 -0.00050343130730265331 0 -0.0086143956650675674 -0.00017976227377447608 0 -0.0082109648342353972 -3.1313070563045661e-06 0 -0.010247460137809281 -0.0010875863998686464 0 -0.010400844618607479 -0.0011278337212298924 0 -0.010331930642094625 -0.0010251345069254908 0 -0.01239503149192682 -0.00065905402293085964 0 -0.011912577102320871 -0.00028259906328356981 0 -0.010400844618607479 -0.0011278337212298924 0 -0.010331930642094625 -0.0010251345069254908 0 -0.010426546077616092 -0.0010247998553325546 0 -0.010426546077616092 -0.0010247998553325546 0 -0.010470868839867885 -0.00098781784699652738 0 -0.010376853795557087 -0.00092482140806177343 0 -0.010331930642094625 -0.0010251345069254908 0 -0.010426546077616092 -0.0010247998553325546 0 -0.010376853795557087 -0.00092482140806177343 0 -0.0091137429874734166 -0.00080191553525109328 0 -0.0092706204868765411 -0.0008874641153628558 0 -0.010331930642094625 -0.0010251345069254908 0 -0.010195347539757958 -0.00094195070740754074 0 -0.010376853795557087 -0.00092482140806177343 0 -0.0082583209788444634 -0.00050343130730265331 0 -0.0084898388044315314 -0.00068522031742342246 0 -0.0082781957336549705 -0.00087999494454233231 0 -0.010247460137809281 -0.0010875863998686464 0 -0.010331930642094625 -0.0010251345069254908 0 -0.010195347539757958 -0.00094195070740754074 0 -0.0090802953025384114 -0.00067898565235773381 0 -0.010100573758232418 -0.00053009021092319773 0 -0.0087841454932392656 -0.00099164410331578959 0 -0.011068674586521884 0.00022910464896096265 0 -0.010100573758232418 -0.00053009021092319773 0 -0.010374318957326592 2.2486120213551053e-05 0 -0.0090802953025384114 -0.00067898565235773381 0 -0.010100573758232418 -0.00053009021092319773 0 -0.010374318957326592 2.2486120213551053e-05 0 -0.0090802953025384114 -0.00067898565235773381 0 -0.010374318957326592 2.2486120213551053e-05 0 -0.010061197426246048 0.00020146519886523356 0 -0.0087900655696041066 -0.00069712271458610296 0 -0.0092384954348305112 -0.00011270632516503956 0 -0.0082583209788444634 -0.00050343130730265331 0 -0.0084898388044315314 -0.00068522031742342246 0 -0.0086143956650675674 -0.00017976227377447608 0 -0.0092384954348305112 -0.00011270632516503956 0 -0.011552623129042946 0.00094475399757714296 0 -0.010061197426246048 0.00020146519886523356 0 -0.011204036746466908 0.00083762885443688072 0 -0.011337204780663673 0.0011038873766389627 0 -0.0086143956650675674 -0.00017976227377447608 0 -0.0086875952785802155 0.00039400692624782515 0 -0.0082109648342353972 -3.1313070563045661e-06 0 -0.010061197426246048 0.00020146519886523356 0 -0.011204036746466908 0.00083762885443688072 0 -0.011114457502941658 0.00067124426505548753 0 -0.011068674586521884 0.00022910464896096265 0 -0.010374318957326592 2.2486120213551053e-05 0 -0.011114457502941658 0.00067124426505548753 0 -0.010374318957326592 2.2486120213551053e-05 0 -0.010061197426246048 0.00020146519886523356 0 -0.011114457502941658 0.00067124426505548753 0 -0.011411015971517512 0.00074358618900683012 0 -0.011114457502941658 0.00067124426505548753 0 -0.01171830407879855 0.0010364268324954758 0 -0.011204036746466908 0.00083762885443688072 0 -0.011114457502941658 0.00067124426505548753 0 -0.011689316777075099 0.0010704524842529144 0 -0.011114457502941658 0.00067124426505548753 0 -0.011689316777075099 0.0010704524842529144 0 -0.01171830407879855 0.0010364268324954758 0 -0.011689316777075099 0.0010704524842529144 0 -0.012136089622318469 0.0011379108225762374 0 -0.01171830407879855 0.0010364268324954758 0 -0.011689316777075099 0.0010704524842529144 0 -0.012136089622318469 0.0011379108225762374 0 -0.011878988342360716 0.0012693828057095875 0 -0.012136089622318469 0.0011379108225762374 0 -0.01171830407879855 0.0010364268324954758 0 -0.012109740397182702 0.0009693074126820413 0 -0.015133801481828678 0.00073754716654719061 0 -0.014934629737695078 0.00061682263571851933 0 -0.014883120867675608 0.00047837093242684942 0 -0.015133801481828678 0.00073754716654719061 0 -0.014957434761977197 0.00072379279419602005 0 -0.014934629737695078 0.00061682263571851933 0 -0.011204036746466908 0.00083762885443688072 0 -0.011566772910128545 0.0010758749960671624 0 -0.011337204780663673 0.0011038873766389627 0 -0.011204036746466908 0.00083762885443688072 0 -0.011689316777075099 0.0010704524842529144 0 -0.011566772910128545 0.0010758749960671624 0 -0.011689316777075099 0.0010704524842529144 0 -0.011566772910128545 0.0010758749960671624 0 -0.011878988342360716 0.0012693828057095875 0 -0.011566772910128545 0.0010758749960671624 0 -0.011337204780663673 0.0011038873766389627 0 -0.011878988342360716 0.0012693828057095875 0 -0.011552623129042946 0.00094475399757714296 0 -0.011659311619298033 0.0010540803084304327 0 -0.011695876466687091 0.0013884773366244986 0 -0.011878988342360716 0.0012693828057095875 0 -0.012589164868476622 0.0011227033752318726 0 -0.012136089622318469 0.0011379108225762374 0 -0.011878988342360716 0.0012693828057095875 0 -0.012589164868476622 0.0011227033752318726 0 -0.014957434761977197 0.00072379279419602005 0 -0.014942742203945515 0.00072884830811018953 0 -0.014859062143281834 0.00074772714473536638 0 -0.015133801481828678 0.00073754716654719061 0 -0.014957434761977197 0.00072379279419602005 0 -0.014859062143281834 0.00074772714473536638 0 -0.014957434761977197 0.00072379279419602005 0 -0.014942742203945515 0.00072884830811018953 0 -0.014883113117794741 0.00065340709350137651 0 -0.014942742203945515 0.00072884830811018953 0 -0.014883113117794741 0.00065340709350137651 0 -0.01474243689057575 0.0006611610992234546 0 -0.014957434761977197 0.00072379279419602005 0 -0.014883113117794741 0.00065340709350137651 0 -0.014934629737695078 0.00061682263571851933 0 -0.01474243689057575 0.0006611610992234546 0 -0.014511953467504054 0.00067194300123146983 0 -0.014722388246955936 0.00090695924604935216 0 -0.014883113117794741 0.00065340709350137651 0 -0.01474243689057575 0.0006611610992234546 0 -0.014804074778146787 0.00052909446588343483 0 -0.01474243689057575 0.0006611610992234546 0 -0.014804074778146787 0.00052909446588343483 0 -0.014583622485430367 0.00045261285434052597 0 -0.014804074778146787 0.00052909446588343483 0 -0.014761075429879077 0.00034834341890448687 0 -0.014583622485430367 0.00045261285434052597 0 -0.014804074778146787 0.00052909446588343483 0 -0.014934629737695078 0.00061682263571851933 0 -0.014883120867675608 0.00047837093242684942 0 -0.014883113117794741 0.00065340709350137651 0 -0.014804074778146787 0.00052909446588343483 0 -0.014934629737695078 0.00061682263571851933 0 -0.014804074778146787 0.00052909446588343483 0 -0.014883120867675608 0.00047837093242684942 0 -0.014761075429879077 0.00034834341890448687 0 -0.015133801481828678 0.00073754716654719061 0 -0.014883120867675608 0.00047837093242684942 0 -0.014785720361247734 0.00015618439864028904 0 -0.011552623129042946 0.00094475399757714296 0 -0.011912577102320871 -0.00028259906328356981 0 -0.014883120867675608 0.00047837093242684942 0 -0.014761075429879077 0.00034834341890448687 0 -0.014785720361247734 0.00015618439864028904 0 -0.014761075429879077 0.00034834341890448687 0 -0.014808280913305908 0.00010882737011243193 0 -0.014459312527813118 0.0001668809040636734 0 -0.012942932406336937 -2.5607105436542435e-05 0 -0.011912577102320871 -0.00028259906328356981 0 -0.014292602648238317 -0.00040453404923214312 0 -0.014459312527813118 0.0001668809040636734 0 -0.013948830295194793 5.8178364292563527e-05 0 -0.014459312527813118 0.0001668809040636734 0 -0.014340228775428721 0.00041524249466521945 0 -0.013948830295194793 5.8178364292563527e-05 0 -0.014292602648238317 -0.00040453404923214312 0 -0.014808280913305908 0.00010882737011243193 0 -0.014459312527813118 0.0001668809040636734 0 -0.014761075429879077 0.00034834341890448687 0 -0.014459312527813118 0.0001668809040636734 0 -0.014583622485430367 0.00045261285434052597 0 -0.014459312527813118 0.0001668809040636734 0 -0.014340228775428721 0.00041524249466521945 0 -0.014583622485430367 0.00045261285434052597 0 -0.014340228775428721 0.00041524249466521945 0 -0.014511953467504054 0.00067194300123146983 0 -0.014231858271243404 0.00086175008995834697 0 -0.014340228775428721 0.00041524249466521945 0 -0.014583622485430367 0.00045261285434052597 0 -0.014511953467504054 0.00067194300123146983 0 -0.01474243689057575 0.0006611610992234546 0 -0.014583622485430367 0.00045261285434052597 0 -0.014511953467504054 0.00067194300123146983 0 -0.014511953467504054 0.00067194300123146983 0 -0.014231858271243404 0.00086175008995834697 0 -0.014722388246955936 0.00090695924604935216 0 -0.018387845012586189 0.00088516934188919414 0 -0.01732643274862665 0.00065067805829659836 0 -0.01777567029236652 -0.00099634036254065577 0 -0.016339714209897466 -0.00049956063597153739 0 -0.015993797842480898 0.00081210531796928039 0 -0.014942742203945515 0.00072884830811018953 0 -0.01474243689057575 0.0006611610992234546 0 -0.014722388246955936 0.00090695924604935216 0 -0.015993797842480898 0.00081210531796928039 0 -0.015224317085650875 0.00065081042014027439 0 -0.01732643274862665 0.00065067805829659836 0 -0.0168984613056802 -0.00042431138570745743 0 -0.01520588873931865 0.00067790889607517377 0 -0.014722388246955936 0.00090695924604935216 0 -0.015008408071560434 0.0007359657079522399 0 -0.01520588873931865 0.00067790889607517377 0 -0.014942742203945515 0.00072884830811018953 0 -0.014722388246955936 0.00090695924604935216 0 -0.015008408071560434 0.0007359657079522399 0 -0.0168984613056802 -0.00042431138570745743 0 -0.01777567029236652 -0.00099634036254065577 0 -0.01742945501972247 -0.0015084766939249537 0 -0.01732643274862665 0.00065067805829659836 0 -0.0168984613056802 -0.00042431138570745743 0 -0.01777567029236652 -0.00099634036254065577 0 -0.016339714209897466 -0.00049956063597153739 0 -0.017709115811432957 -0.0005877024916345606 0 -0.012109740397182702 0.0009693074126820413 0 -0.012925878454244104 0.00050253512740544668 0 -0.012591486519399399 -0.00052559573888242889 0 -0.012136089622318469 0.0011379108225762374 0 -0.012109740397182702 0.0009693074126820413 0 -0.012634402002316169 0.0010065847574375372 0 -0.012109740397182702 0.0009693074126820413 0 -0.012634402002316169 0.0010065847574375372 0 -0.012925878454244104 0.00050253512740544668 0 -0.012136089622318469 0.0011379108225762374 0 -0.012589164868476622 0.0011227033752318726 0 -0.012634402002316169 0.0010065847574375372 0 -0.012925878454244104 0.00050253512740544668 0 -0.013257060025279882 0.00075703466439213665 0 -0.013854316759252885 0.00013951593186111122 0 -0.012634402002316169 0.0010065847574375372 0 -0.012925878454244104 0.00050253512740544668 0 -0.013257060025279882 0.00075703466439213665 0 -0.011552623129042946 0.00094475399757714296 0 -0.014372234332470441 0.00050569069575301124 0 -0.011695876466687091 0.0013884773366244986 0 -0.012589164868476622 0.0011227033752318726 0 -0.014357488761491871 0.00067929161598853627 0 -0.015133801481828678 0.00073754716654719061 0 -0.014357488761491871 0.00067929161598853627 0 -0.014859062143281834 0.00074772714473536638 0 -0.013257060025279882 0.00075703466439213665 0 -0.014357488761491871 0.00067929161598853627 0 -0.013854316759252885 0.00013951593186111122 0 -0.012589164868476622 0.0011227033752318726 0 -0.013257060025279882 0.00075703466439213665 0 -0.014357488761491871 0.00067929161598853627 0 -0.012589164868476622 0.0011227033752318726 0 -0.012634402002316169 0.0010065847574375372 0 -0.013257060025279882 0.00075703466439213665 0 -0.014859062143281834 0.00074772714473536638 0 -0.015008408071560434 0.0007359657079522399 0 -0.01494271610730487 0.00074846601719474437 0 -0.014942742203945515 0.00072884830811018953 0 -0.014859062143281834 0.00074772714473536638 0 -0.015008408071560434 0.0007359657079522399 0 -0.014357488761491871 0.00067929161598853627 0 -0.014859062143281834 0.00074772714473536638 0 -0.01494271610730487 0.00074846601719474437 0 -0.015008408071560434 0.0007359657079522399 0 -0.01494271610730487 0.00074846601719474437 0 -0.01520588873931865 0.00067790889607517377 0 -0.014357488761491871 0.00067929161598853627 0 -0.01494271610730487 0.00074846601719474437 0 -0.01520588873931865 0.00067790889607517377 0 -0.016370615808569064 -0.00098246399029503222 0 -0.01722437007593022 -0.0014589424753348801 0 -0.015754199571496846 -0.00050534962370876843 0 -0.013854316759252885 0.00013951593186111122 0 -0.012591486519399399 -0.00052559573888242889 0 -0.015754199571496846 -0.00050534962370876843 0 -0.012591486519399399 -0.00052559573888242889 0 -0.01742945501972247 -0.0015084766939249537 0 -0.0168984613056802 -0.00042431138570745743 0 -0.01520588873931865 0.00067790889607517377 0 -0.015754199571496846 -0.00050534962370876843 0 -0.014357488761491871 0.00067929161598853627 0 -0.01520588873931865 0.00067790889607517377 0 -0.015754199571496846 -0.00050534962370876843 0 -0.0168984613056802 -0.00042431138570745743 0 -0.015754199571496846 -0.00050534962370876843 0 -0.01742945501972247 -0.0015084766939249537 0 -0.014357488761491871 0.00067929161598853627 0 -0.015754199571496846 -0.00050534962370876843 0 -0.013854316759252885 0.00013951593186111122 0 -0.012925878454244104 0.00050253512740544668 0 -0.013854316759252885 0.00013951593186111122 0 -0.012591486519399399 -0.00052559573888242889 0 -0.020104641760476362 -0.0016726898683015606 0 -0.019275628223865228 -0.0009898930813399614 0 -0.020365867818963181 -0.00089457732009727098 0 -0.020104641760476362 -0.0016726898683015606 0 -0.019275628223865228 -0.0009898930813399614 0 -0.01742945501972247 -0.0015084766939249537 0 -0.019918979618153129 -0.00040849387209618119 0 -0.019275628223865228 -0.0009898930813399614 0 -0.018569310273043954 -0.00049287820586506141 0 -0.019275628223865228 -0.0009898930813399614 0 -0.01742945501972247 -0.0015084766939249537 0 -0.018569310273043954 -0.00049287820586506141 0 -0.019918979618153129 -0.00040849387209618119 0 -0.019275628223865228 -0.0009898930813399614 0 -0.020365867818963181 -0.00089457732009727098 0 -0.017709115811432957 -0.0005877024916345606 0 -0.017581664026571374 -0.00047788610845219689 0 -0.017183425826570162 -0.00038440693186269969 0 -0.017659774246648684 -0.00046290603027157075 0 -0.016802801748487972 -0.0001794695418070592 0 -0.01777567029236652 -0.00099634036254065577 0 -0.01742945501972247 -0.0015084766939249537 0 -0.017659774246648684 -0.00046290603027157075 0 -0.01742945501972247 -0.0015084766939249537 0 -0.018569310273043954 -0.00049287820586506141 0 -0.017659774246648684 -0.00046290603027157075 0 -0.017659774246648684 -0.00046290603027157075 0 -0.016802801748487972 -0.0001794695418070592 0 -0.016658592354904196 6.066154982377949e-05 0 -0.016802801748487972 -0.0001794695418070592 0 -0.01586073432890563 8.6658516808721397e-05 0 -0.016658592354904196 6.066154982377949e-05 0 -0.01586073432890563 8.6658516808721397e-05 0 -0.016658592354904196 6.066154982377949e-05 0 -0.016195549668863145 0.00017774993609938927 0 -0.01640145538435684 0.00032829167442118809 0 -0.016658592354904196 6.066154982377949e-05 0 -0.016195549668863145 0.00017774993609938927 0 -0.01640145538435684 0.00032829167442118809 0 -0.016195549668863145 0.00017774993609938927 0 -0.016271448799019837 0.00040788991188858242 0 -0.016227523971958851 0.00064541556167448057 0 -0.016271448799019837 0.00040788991188858242 0 -0.016212622733745363 0.00046966366033056745 0 -0.016195549668863145 0.00017774993609938927 0 -0.016271448799019837 0.00040788991188858242 0 -0.016246472817588769 0.00032808286057177865 0 -0.016271448799019837 0.00040788991188858242 0 -0.016246472817588769 0.00032808286057177865 0 -0.016212622733745363 0.00046966366033056745 0 -0.016246472817588769 0.00032808286057177865 0 -0.016251263825484516 0.00030667822378499651 0 -0.016200053525594393 0.00034485346012585105 0 -0.016195549668863145 0.00017774993609938927 0 -0.016246472817588769 0.00032808286057177865 0 -0.016251263825484516 0.00030667822378499651 0 -0.01586073432890563 8.6658516808721397e-05 0 -0.016195549668863145 0.00017774993609938927 0 -0.016251263825484516 0.00030667822378499651 0 -0.015833442840618724 0.00015000287885438403 0 -0.014629624501060933 0.00040245302792511658 0 -0.01586073432890563 8.6658516808721397e-05 0 -0.013239491874176553 0.00051826729001810154 0 -0.014340017032816428 -0.00069911877284496238 0 -0.014340017032816428 -0.00069911877284496238 0 -0.012649684794777044 -0.0012161477540180439 0 -0.012464502200339664 -0.00028457981187345163 0 -0.013239491874176553 0.00051826729001810154 0 -0.014340017032816428 -0.00069911877284496238 0 -0.012464502200339664 -0.00028457981187345163 0 -0.014340017032816428 -0.00069911877284496238 0 -0.012649684794777044 -0.0012161477540180439 0 -0.013941032596405209 -0.0021492521108773194 0 -0.014340017032816428 -0.00069911877284496238 0 -0.015829751962057284 -0.0019332189468902576 0 -0.013941032596405209 -0.0021492521108773194 0 -0.014340017032816428 -0.00069911877284496238 0 -0.016378709778145432 -0.00072268970151328376 0 -0.015829751962057284 -0.0019332189468902576 0 -0.016339714209897466 -0.00049956063597153739 0 -0.015284606764456069 -0.0019487437846401102 0 -0.017034193633882051 -0.0015211672552882252 0 -0.016378709778145432 -0.00072268970151328376 0 -0.015829751962057284 -0.0019332189468902576 0 -0.017034193633882051 -0.0015211672552882252 0 -0.017183425826570162 -0.00038440693186269969 0 -0.016378709778145432 -0.00072268970151328376 0 -0.017183425826570162 -0.00038440693186269969 0 -0.016802801748487972 -0.0001794695418070592 0 -0.016378709778145432 -0.00072268970151328376 0 -0.01586073432890563 8.6658516808721397e-05 0 -0.014340017032816428 -0.00069911877284496238 0 -0.016378709778145432 -0.00072268970151328376 0 -0.016802801748487972 -0.0001794695418070592 0 -0.01586073432890563 8.6658516808721397e-05 0 -0.016378709778145432 -0.00072268970151328376 0 -0.01378502785294318 -1.9748582241731165e-05 0 -0.015121172841832566 0.00065832639190285163 0 -0.01495263167136408 -0.00032450855190098649 0 -0.01378502785294318 -1.9748582241731165e-05 0 -0.015121172841832566 0.00065832639190285163 0 -0.013237771014755201 0.0011410840126419625 0 -0.015741421413764951 0.0014968272216490913 0 -0.015121172841832566 0.00065832639190285163 0 -0.013237771014755201 0.0011410840126419625 0 -0.015121172841832566 0.00065832639190285163 0 -0.015843099352474358 0.00033351192127870576 0 -0.015931312307799404 0.00091174829337245782 0 -0.015741421413764951 0.0014968272216490913 0 -0.015121172841832566 0.00065832639190285163 0 -0.015931312307799404 0.00091174829337245782 0 -0.01495263167136408 -0.00032450855190098649 0 -0.016038932792012274 -0.00031286152842113763 0 -0.015843099352474358 0.00033351192127870576 0 -0.01539359110290466 -0.00032413308752037576 0 -0.015113017815030312 -0.00038514149597654941 0 -0.015121172841832566 0.00065832639190285163 0 -0.01495263167136408 -0.00032450855190098649 0 -0.015843099352474358 0.00033351192127870576 0 -0.015113017815030312 -0.00038514149597654941 0 -0.015585042508795419 0.00016722050925580681 0 -0.015914541941011513 0.00020510880070420643 0 -0.015998596737496075 0.00033001917885781557 0 -0.015843099352474358 0.00033351192127870576 0 -0.015113017815030312 -0.00038514149597654941 0 -0.01429384770880447 9.3553912299783641e-05 0 -0.015914541941011513 0.00020510880070420643 0 -0.016074030354877721 0.00022647195545063184 0 -0.015998596737496075 0.00033001917885781557 0 -0.015998596737496075 0.00033001917885781557 0 -0.01602843527249732 0.00052987570863585807 0 -0.016122875625057417 0.00042510582698903547 0 -0.016074030354877721 0.00022647195545063184 0 -0.015998596737496075 0.00033001917885781557 0 -0.016122875625057417 0.00042510582698903547 0 -0.015998596737496075 0.00033001917885781557 0 -0.015843099352474358 0.00033351192127870576 0 -0.01602843527249732 0.00052987570863585807 0 -0.015843099352474358 0.00033351192127870576 0 -0.015931312307799404 0.00091174829337245782 0 -0.01602843527249732 0.00052987570863585807 0 -0.015931312307799404 0.00091174829337245782 0 -0.01602843527249732 0.00052987570863585807 0 -0.016122331406947941 0.00066949661441719171 0 -0.01602843527249732 0.00052987570863585807 0 -0.016122331406947941 0.00066949661441719171 0 -0.016122875625057417 0.00042510582698903547 0 -0.016122331406947941 0.00066949661441719171 0 -0.016212622733745363 0.00046966366033056745 0 -0.016122875625057417 0.00042510582698903547 0 -0.016227523971958851 0.00064541556167448057 0 -0.016122331406947941 0.00066949661441719171 0 -0.016212622733745363 0.00046966366033056745 0 -0.016251263825484516 0.00030667822378499651 0 -0.016129816317663179 0.00030314812615675203 0 -0.016200053525594393 0.00034485346012585105 0 -0.016246472817588769 0.00032808286057177865 0 -0.016212622733745363 0.00046966366033056745 0 -0.016200053525594393 0.00034485346012585105 0 -0.014629624501060933 0.00040245302792511658 0 -0.01429384770880447 9.3553912299783641e-05 0 -0.016212622733745363 0.00046966366033056745 0 -0.016200053525594393 0.00034485346012585105 0 -0.016122875625057417 0.00042510582698903547 0 -0.016074030354877721 0.00022647195545063184 0 -0.016200053525594393 0.00034485346012585105 0 -0.016122875625057417 0.00042510582698903547 0 -0.01429384770880447 9.3553912299783641e-05 0 -0.016479074998674643 0.00065931638700180339 0 -0.013239491874176553 0.00051826729001810154 0 -0.011325079590051888 0.00044501910398609627 0 -0.012464502200339664 -0.00028457981187345163 0 -0.012649684794777044 -0.0012161477540180439 0 -0.012464502200339664 -0.00028457981187345163 0 -0.011624680235870695 -0.00049036354001730329 0 -0.011325079590051888 0.00044501910398609627 0 -0.012464502200339664 -0.00028457981187345163 0 -0.011624680235870695 -0.00049036354001730329 0 -0.012649684794777044 -0.0012161477540180439 0 -0.011624680235870695 -0.00049036354001730329 0 -0.011170982082122848 -0.0013563838342458636 0 -0.012649684794777044 -0.0012161477540180439 0 -0.011170982082122848 -0.0013563838342458636 0 -0.012300058615117786 -0.0021220997270036254 0 -0.010688562905700775 -0.0022985184748837172 0 -0.010585318799564159 -0.0022501908485459817 0 -0.010646415506191767 -0.0021159069471378611 0 -0.010688562905700775 -0.0022985184748837172 0 -0.010585318799564159 -0.0022501908485459817 0 -0.010525607471766013 -0.0023763366822238613 0 -0.010787436986069489 -0.0018116520729843414 0 -0.012907168190144844 -0.00062490058389153187 0 -0.011624680235870695 -0.00049036354001730329 0 -0.011170982082122848 -0.0013563838342458636 0 -0.010725869088981708 2.2542599472847002e-05 0 -0.01429384770880447 9.3553912299783641e-05 0 -0.012907168190144844 -0.00062490058389153187 0 -0.011325079590051888 0.00044501910398609627 0 -0.011624680235870695 -0.00049036354001730329 0 -0.010725869088981708 2.2542599472847002e-05 0 -0.015113017815030312 -0.00038514149597654941 0 -0.012907168190144844 -0.00062490058389153187 0 -0.013901734620903257 -4.6344508438552513e-05 0 -0.01418145663173696 -4.2421270453650685e-05 0 -0.013946314794120479 -0.00019906540797314505 0 -0.016095110555439197 -0.0003428368071109523 0 -0.016231110339666493 -0.000728483657888769 0 -0.015504126084008597 -0.00073458699068403076 0 -0.012907168190144844 -0.00062490058389153187 0 -0.012727916727035077 -0.0019922234769690146 0 -0.016231110339666493 -0.000728483657888769 0 -0.015504126084008597 -0.00073458699068403076 0 -0.014917702395672089 -0.0015876685042868447 0 -0.01495263167136408 -0.00032450855190098649 0 -0.015504126084008597 -0.00073458699068403076 0 -0.014917702395672089 -0.0015876685042868447 0 -0.01495263167136408 -0.00032450855190098649 0 -0.016095110555439197 -0.0003428368071109523 0 -0.015504126084008597 -0.00073458699068403076 0 -0.010585318799564159 -0.0022501908485459817 0 -0.010646415506191767 -0.0021159069471378611 0 -0.010454310149817082 -0.0022812593651171894 0 -0.010525607471766013 -0.0023763366822238613 0 -0.010454310149817082 -0.0022812593651171894 0 -0.010377615792757339 -0.0025065941803228001 0 -0.010585318799564159 -0.0022501908485459817 0 -0.010525607471766013 -0.0023763366822238613 0 -0.010454310149817082 -0.0022812593651171894 0 -0.012727916727035077 -0.0019922234769690146 0 -0.011797365323062444 -0.0024306230997015155 0 -0.010454310149817082 -0.0022812593651171894 0 -0.010377615792757339 -0.0025065941803228001 0 -0.010352769377865313 -0.0025797091348363889 0 -0.014917702395672089 -0.0015876685042868447 0 -0.013466219909703654 -0.00098005455835543042 0 -0.01320954795741836 -0.0024283451952336133 0 -0.01495263167136408 -0.00032450855190098649 0 -0.014917702395672089 -0.0015876685042868447 0 -0.013466219909703654 -0.00098005455835543042 0 -0.01378502785294318 -1.9748582241731165e-05 0 -0.01495263167136408 -0.00032450855190098649 0 -0.013466219909703654 -0.00098005455835543042 0 -0.01030138950701681 -0.0025668631307717476 0 -0.010176497300770016 -0.0026431677101007816 0 -0.010319319734155214 -0.0025920984911998834 0 -0.01030138950701681 -0.0025668631307717476 0 -0.010199413005246826 -0.0026663837139632328 0 -0.010176497300770016 -0.0026431677101007816 0 -0.01030138950701681 -0.0025668631307717476 0 -0.010346072009349431 -0.0025963717324497537 0 -0.010199413005246826 -0.0026663837139632328 0 -0.01030138950701681 -0.0025668631307717476 0 -0.010394262187013215 -0.002559637407459933 0 -0.010319319734155214 -0.0025920984911998834 0 -0.01030138950701681 -0.0025668631307717476 0 -0.010377615792757339 -0.0025065941803228001 0 -0.010394262187013215 -0.002559637407459933 0 -0.01030138950701681 -0.0025668631307717476 0 -0.010377615792757339 -0.0025065941803228001 0 -0.010425403655596436 -0.002497520893931716 0 -0.010377615792757339 -0.0025065941803228001 0 -0.010394262187013215 -0.002559637407459933 0 -0.010352769377865313 -0.0025797091348363889 0 -0.010525607471766013 -0.0023763366822238613 0 -0.010377615792757339 -0.0025065941803228001 0 -0.010425403655596436 -0.002497520893931716 0 -0.010525607471766013 -0.0023763366822238613 0 -0.010425403655596436 -0.002497520893931716 0 -0.010623764170242236 -0.0023927791461224139 0 -0.010425403655596436 -0.002497520893931716 0 -0.010346072009349431 -0.0025963717324497537 0 -0.010582167041259465 -0.0025594840558281809 0 -0.01030138950701681 -0.0025668631307717476 0 -0.010425403655596436 -0.002497520893931716 0 -0.010346072009349431 -0.0025963717324497537 0 -0.010582167041259465 -0.0025594840558281809 0 -0.010623764170242236 -0.0023927791461224139 0 -0.010857789691497725 -0.0023930465102176982 0 -0.010582167041259465 -0.0025594840558281809 0 -0.010857789691497725 -0.0023930465102176982 0 -0.011306219394715919 -0.0027881703055384105 0 -0.010425403655596436 -0.002497520893931716 0 -0.010582167041259465 -0.0025594840558281809 0 -0.010623764170242236 -0.0023927791461224139 0 -0.010688562905700775 -0.0022985184748837172 0 -0.010623764170242236 -0.0023927791461224139 0 -0.010857789691497725 -0.0023930465102176982 0 -0.010688562905700775 -0.0022985184748837172 0 -0.010525607471766013 -0.0023763366822238613 0 -0.010623764170242236 -0.0023927791461224139 0 -0.010787436986069489 -0.0018116520729843414 0 -0.01119001587874228 -0.0024414683090654477 0 -0.011501892039305748 -0.0024320705872350767 0 -0.012300058615117786 -0.0021220997270036254 0 -0.012177728188070669 -0.0027971239439056562 0 -0.011170982082122848 -0.0013563838342458636 0 -0.011501892039305748 -0.0024320705872350767 0 -0.012300058615117786 -0.0021220997270036254 0 -0.011501892039305748 -0.0024320705872350767 0 -0.011306219394715919 -0.0027881703055384105 0 -0.012177728188070669 -0.0027971239439056562 0 -0.01119001587874228 -0.0024414683090654477 0 -0.011305670051442233 -0.0027956879624650602 0 -0.011306219394715919 -0.0027881703055384105 0 -0.011180135057415082 -0.0029238737219978109 0 -0.010711142233546769 -0.0028420922343031247 0 -0.011306219394715919 -0.0027881703055384105 0 -0.011180135057415082 -0.0029238737219978109 0 -0.011627911475466967 -0.0028798015677435301 0 -0.011180135057415082 -0.0029238737219978109 0 -0.010739171699162997 -0.0030193502868670024 0 -0.010711142233546769 -0.0028420922343031247 0 -0.011180135057415082 -0.0029238737219978109 0 -0.010739171699162997 -0.0030193502868670024 0 -0.011249094480183812 -0.0031284940795147436 0 -0.010198615164650725 -0.0029045591867180825 0 -0.010711142233546769 -0.0028420922343031247 0 -0.010313027358371734 -0.0027221647955250365 0 -0.010739171699162997 -0.0030193502868670024 0 -0.010198615164650725 -0.0029045591867180825 0 -0.010711142233546769 -0.0028420922343031247 0 -0.010582167041259465 -0.0025594840558281809 0 -0.010711142233546769 -0.0028420922343031247 0 -0.010313027358371734 -0.0027221647955250365 0 -0.010582167041259465 -0.0025594840558281809 0 -0.011306219394715919 -0.0027881703055384105 0 -0.010711142233546769 -0.0028420922343031247 0 -0.010313027358371734 -0.0027221647955250365 0 -0.010051788417837148 -0.0027900487722899718 0 -0.010199413005246826 -0.0026663837139632328 0 -0.010346072009349431 -0.0025963717324497537 0 -0.010582167041259465 -0.0025594840558281809 0 -0.010313027358371734 -0.0027221647955250365 0 -0.010346072009349431 -0.0025963717324497537 0 -0.010313027358371734 -0.0027221647955250365 0 -0.010199413005246826 -0.0026663837139632328 0 -0.010198615164650725 -0.0029045591867180825 0 -0.010313027358371734 -0.0027221647955250365 0 -0.010051788417837148 -0.0027900487722899718 0 -0.010198615164650725 -0.0029045591867180825 0 -0.010051788417837148 -0.0027900487722899718 0 -0.0098336653394433416 -0.0028804233019210932 0 -0.010051788417837148 -0.0027900487722899718 0 -0.0098366368153766873 -0.0027769082586483933 0 -0.010066790834925014 -0.0027132978254603571 0 -0.010051788417837148 -0.0027900487722899718 0 -0.0098366368153766873 -0.0027769082586483933 0 -0.0098336653394433416 -0.0028804233019210932 0 -0.0098366368153766873 -0.0027769082586483933 0 -0.010066790834925014 -0.0027132978254603571 0 -0.010027847598260045 -0.0026966216572890159 0 -0.010051788417837148 -0.0027900487722899718 0 -0.010066790834925014 -0.0027132978254603571 0 -0.010199413005246826 -0.0026663837139632328 0 -0.010066790834925014 -0.0027132978254603571 0 -0.010199413005246826 -0.0026663837139632328 0 -0.010176497300770016 -0.0026431677101007816 0 -0.014354099652777612 -0.0028823488896848872 0 -0.015033078923094722 -0.0025638939588375365 0 -0.014857138823517283 -0.0036223389016040945 0 -0.015562880067348428 -0.0031194044359669345 0 -0.015033078923094722 -0.0025638939588375365 0 -0.014857138823517283 -0.0036223389016040945 0 -0.0158881810942781 -0.001588877987961299 0 -0.015033078923094722 -0.0025638939588375365 0 -0.014832888983928276 -0.001876959747691756 0 -0.0158881810942781 -0.001588877987961299 0 -0.015562880067348428 -0.0031194044359669345 0 -0.015033078923094722 -0.0025638939588375365 0 -0.014340228775428721 0.00041524249466521945 0 -0.014231858271243404 0.00086175008995834697 0 -0.013948830295194793 5.8178364292563527e-05 0 -0.016339714209897466 -0.00049956063597153739 0 -0.014804892413678623 -0.0016624449608000646 0 -0.015284606764456069 -0.0019487437846401102 0 -0.014102914733997987 -0.0021310951825283184 0 -0.014354099652777612 -0.0028823488896848872 0 -0.015033078923094722 -0.0025638939588375365 0 -0.014832888983928276 -0.001876959747691756 0 -0.014354099652777612 -0.0028823488896848872 0 -0.014832888983928276 -0.001876959747691756 0 -0.013941032596405209 -0.0021492521108773194 0 -0.013941032596405209 -0.0021492521108773194 0 -0.012300058615117786 -0.0021220997270036254 0 -0.012177728188070669 -0.0027971239439056562 0 -0.012649684794777044 -0.0012161477540180439 0 -0.013941032596405209 -0.0021492521108773194 0 -0.012300058615117786 -0.0021220997270036254 0 -0.013941032596405209 -0.0021492521108773194 0 -0.012177728188070669 -0.0027971239439056562 0 -0.013541772615128799 -0.0029929937350226111 0 -0.014354099652777612 -0.0028823488896848872 0 -0.013941032596405209 -0.0021492521108773194 0 -0.013541772615128799 -0.0029929937350226111 0 -0.012177728188070669 -0.0027971239439056562 0 -0.013541772615128799 -0.0029929937350226111 0 -0.013763232424231308 -0.004121238461179318 0 -0.014354099652777612 -0.0028823488896848872 0 -0.013541772615128799 -0.0029929937350226111 0 -0.013763232424231308 -0.004121238461179318 0 -0.012177728188070669 -0.0027971239439056562 0 -0.011724771465845734 -0.0028708326600700869 0 -0.011627911475466967 -0.0028798015677435301 0 -0.012074183306975347 -0.0027172616509089113 0 -0.012974591525152445 -0.0037315910664198443 0 -0.011724771465845734 -0.0028708326600700869 0 -0.011627911475466967 -0.0028798015677435301 0 -0.011614314668240882 -0.002976065936501199 0 -0.011306219394715919 -0.0027881703055384105 0 -0.012177728188070669 -0.0027971239439056562 0 -0.011627911475466967 -0.0028798015677435301 0 -0.011180135057415082 -0.0029238737219978109 0 -0.011627911475466967 -0.0028798015677435301 0 -0.011435870928959809 -0.0029975254771216113 0 -0.011627911475466967 -0.0028798015677435301 0 -0.011435870928959809 -0.0029975254771216113 0 -0.011614314668240882 -0.002976065936501199 0 -0.011435870928959809 -0.0029975254771216113 0 -0.011614314668240882 -0.002976065936501199 0 -0.011529726947826233 -0.0031622389264466294 0 -0.011435870928959809 -0.0029975254771216113 0 -0.011249094480183812 -0.0031284940795147436 0 -0.011529726947826233 -0.0031622389264466294 0 -0.011180135057415082 -0.0029238737219978109 0 -0.011435870928959809 -0.0029975254771216113 0 -0.011249094480183812 -0.0031284940795147436 0 -0.011724771465845734 -0.0028708326600700869 0 -0.011614314668240882 -0.002976065936501199 0 -0.011779745511738103 -0.0030989888551754864 0 -0.011614314668240882 -0.002976065936501199 0 -0.011779745511738103 -0.0030989888551754864 0 -0.011529726947826233 -0.0031622389264466294 0 -0.013763232424231308 -0.004121238461179318 0 -0.014797431959396333 -0.0050301178707144057 0 -0.014671936674931741 -0.0043765845054777302 0 -0.012974591525152445 -0.0037315910664198443 0 -0.012422406735947411 -0.0028549502639183739 0 -0.011724771465845734 -0.0028708326600700869 0 -0.011779745511738103 -0.0030989888551754864 0 -0.011982735549205465 -0.0030945912188472288 0 -0.011944809204727532 -0.0031620828777886288 0 -0.011179684963988272 -0.0028814251437039354 0 -0.011779745511738103 -0.0030989888551754864 0 -0.011982735549205465 -0.0030945912188472288 0 -0.011916232685385752 -0.0031494193756897038 0 -0.012422406735947411 -0.0028549502639183739 0 -0.011179684963988272 -0.0028814251437039354 0 -0.012422406735947411 -0.0028549502639183739 0 -0.012725401600603616 -0.0020735161702826067 0 -0.014797431959396333 -0.0050301178707144057 0 -0.014671936674931741 -0.0043765845054777302 0 -0.015189619395900144 -0.0047179412725356024 0 -0.014671936674931741 -0.0043765845054777302 0 -0.014857138823517283 -0.0036223389016040945 0 -0.015189619395900144 -0.0047179412725356024 0 -0.014354099652777612 -0.0028823488896848872 0 -0.013763232424231308 -0.004121238461179318 0 -0.014857138823517283 -0.0036223389016040945 0 -0.013763232424231308 -0.004121238461179318 0 -0.014671936674931741 -0.0043765845054777302 0 -0.014857138823517283 -0.0036223389016040945 0 -0.014804892413678623 -0.0016624449608000646 0 -0.012725401600603616 -0.0020735161702826067 0 -0.01239503149192682 -0.00065905402293085964 0 -0.012725401600603616 -0.0020735161702826067 0 -0.015562880067348428 -0.0031194044359669345 0 -0.014857138823517283 -0.0036223389016040945 0 -0.015189619395900144 -0.0047179412725356024 0 -0.014292602648238317 -0.00040453404923214312 0 -0.013948830295194793 5.8178364292563527e-05 0 -0.013680700591332006 -0.00093354741236888368 0 -0.010400844618607479 -0.0011278337212298924 0 -0.010426546077616092 -0.0010247998553325546 0 -0.010543745762647119 -0.0010414135347913017 0 -0.010543745762647119 -0.0010414135347913017 0 -0.010554052703330522 -0.0010133500531991028 0 -0.010470868839867885 -0.00098781784699652738 0 -0.010554052703330522 -0.0010133500531991028 0 -0.010510615928150245 -0.00096969268020516593 0 -0.010544856281699617 -0.00092537056197748496 0 -0.010623803551920196 -0.00099669068862963351 0 -0.010554052703330522 -0.0010133500531991028 0 -0.010544856281699617 -0.00092537056197748496 0 -0.010554052703330522 -0.0010133500531991028 0 -0.010510615928150245 -0.00096969268020516593 0 -0.010470868839867885 -0.00098781784699652738 0 -0.012725401600603616 -0.0020735161702826067 0 -0.012441342012951124 -0.0017523501591308109 0 -0.010623803551920196 -0.00099669068862963351 0 -0.010548555500175494 -0.0010589110550496314 0 -0.010554052703330522 -0.0010133500531991028 0 -0.010426546077616092 -0.0010247998553325546 0 -0.010543745762647119 -0.0010414135347913017 0 -0.010470868839867885 -0.00098781784699652738 0 -0.010510615928150245 -0.00096969268020516593 0 -0.010470868839867885 -0.00098781784699652738 0 -0.010467139885499977 -0.00094078584257353685 0 -0.010467139885499977 -0.00094078584257353685 0 -0.010499355237432624 -0.00090996929223123753 0 -0.010376853795557087 -0.00092482140806177343 0 -0.010470868839867885 -0.00098781784699652738 0 -0.010467139885499977 -0.00094078584257353685 0 -0.010376853795557087 -0.00092482140806177343 0 -0.010498437155223882 -0.0013380562610756088 0 -0.0097665493029327043 -0.0017779160927480745 0 -0.010510615928150245 -0.00096969268020516593 0 -0.010467139885499977 -0.00094078584257353685 0 -0.010544856281699617 -0.00092537056197748496 0 -0.010467139885499977 -0.00094078584257353685 0 -0.010518102696449528 -0.00093259942267359848 0 -0.010499355237432624 -0.00090996929223123753 0 -0.0097665493029327043 -0.0017779160927480745 0 -0.0087435129531274539 -0.0019242673503214521 0 -0.0092232679723200112 -0.0022424238934502052 0 -0.0090050119019432946 -0.0020244655236254204 0 -0.0094679096646055044 -0.0021991445040649093 0 -0.0074871792490030882 -0.0025157056797888416 0 -0.0075603070111186993 -0.0024407718695104198 0 -0.0075858308091741825 -0.0025529441270394715 0 -0.0087435129531274539 -0.0019242673503214521 0 -0.0092354017855521449 -0.0021917501622362541 0 -0.0097665493029327043 -0.0017779160927480745 0 -0.0092354017855521449 -0.0021917501622362541 0 -0.0074871792490030882 -0.0025157056797888416 0 -0.0075603070111186993 -0.0024407718695104198 0 -0.0074952873056259852 -0.0023045286756611691 0 -0.0087435129531274539 -0.0019242673503214521 0 -0.0071216391865432209 -0.0022062474700553585 0 -0.0074952873056259852 -0.0023045286756611691 0 -0.0073813436667237208 -0.0020991243307241711 0 -0.0072923325752642385 -0.0022301895051884527 0 -0.0074952873056259852 -0.0023045286756611691 0 -0.0073813436667237208 -0.0020991243307241711 0 -0.0076155794335288352 -0.0022099971927579424 0 -0.0074871792490030882 -0.0025157056797888416 0 -0.0074952873056259852 -0.0023045286756611691 0 -0.0072923325752642385 -0.0022301895051884527 0 -0.0075603070111186993 -0.0024407718695104198 0 -0.0074952873056259852 -0.0023045286756611691 0 -0.0076613051400424657 -0.0023871023463305986 0 -0.0076155794335288352 -0.0022099971927579424 0 -0.0077928638938428562 -0.0023994806848869252 0 -0.0078703795837209382 -0.0022920736477682942 0 -0.0074952873056259852 -0.0023045286756611691 0 -0.0076155794335288352 -0.0022099971927579424 0 -0.0076613051400424657 -0.0023871023463305986 0 -0.0076155794335288352 -0.0022099971927579424 0 -0.0076613051400424657 -0.0023871023463305986 0 -0.0077928638938428562 -0.0023994806848869252 0 -0.0076613051400424657 -0.0023871023463305986 0 -0.007804650016923524 -0.0025448201679199615 0 -0.0077928638938428562 -0.0023994806848869252 0 -0.0092354017855521449 -0.0021917501622362541 0 -0.0091972358727076733 -0.0029793783235138298 0 -0.0098888324494235159 -0.0025933009388786317 0 -0.0098132827184632867 -0.0025687596742077516 0 -0.0097468024048247195 -0.0026279099241985921 0 -0.0076613051400424657 -0.0023871023463305986 0 -0.0075858308091741825 -0.0025529441270394715 0 -0.007804650016923524 -0.0025448201679199615 0 -0.0075603070111186993 -0.0024407718695104198 0 -0.0076613051400424657 -0.0023871023463305986 0 -0.0075858308091741825 -0.0025529441270394715 0 -0.010983971293354728 -0.0029657798272815193 0 -0.010550518223887778 -0.0020803037366685863 0 -0.011577467826697278 -0.0024658746629732001 0 -0.0092354017855521449 -0.0021917501622362541 0 -0.011179684963988272 -0.0028814251437039354 0 -0.012422406735947411 -0.0028549502639183739 0 -0.0097665493029327043 -0.0017779160927480745 0 -0.010983971293354728 -0.0029657798272815193 0 -0.0101616623779673 -0.0021494562662728667 0 -0.010550518223887778 -0.0020803037366685863 0 -0.011779745511738103 -0.0030989888551754864 0 -0.011993834058199829 -0.0031776294171615353 0 -0.011857907870956433 -0.0033030917826511394 0 -0.011179684963988272 -0.0028814251437039354 0 -0.0091972358727076733 -0.0029793783235138298 0 -0.0091972358727076733 -0.0029793783235138298 0 -0.0098725501724824961 -0.003357558804794891 0 -0.0072830084596943135 -0.0033547546620327868 0 -0.0083658951583827947 -0.0032235677514752788 0 -0.0077125821217098297 -0.0030041865232925966 0 -0.011779745511738103 -0.0030989888551754864 0 -0.011857907870956433 -0.0033030917826511394 0 -0.011529726947826233 -0.0031622389264466294 0 -0.007804650016923524 -0.0025448201679199615 0 -0.0077928638938428562 -0.0023994806848869252 0 -0.0079622584338205297 -0.0024933779692226975 0 -0.0091972358727076733 -0.0029793783235138298 0 -0.0077384000359082446 -0.0028959950528117712 0 -0.011857907870956433 -0.0033030917826511394 0 -0.011529726947826233 -0.0031622389264466294 0 -0.01120201649171941 -0.0034609268150209258 0 -0.011249094480183812 -0.0031284940795147436 0 -0.011529726947826233 -0.0031622389264466294 0 -0.01120201649171941 -0.0034609268150209258 0 -0.0083658951583827947 -0.0032235677514752788 0 -0.0081800281704395694 -0.0025525656427366483 0 -0.0077125821217098297 -0.0030041865232925966 0 -0.0083658951583827947 -0.0032235677514752788 0 -0.0081800281704395694 -0.0025525656427366483 0 -0.0087596455629603432 -0.0027035097890086312 0 -0.0081816826087715185 -0.0025205296728985477 0 -0.0077384000359082446 -0.0028959950528117712 0 -0.0081800281704395694 -0.0025525656427366483 0 -0.0079622584338205297 -0.0024933779692226975 0 -0.0078703795837209382 -0.0022920736477682942 0 -0.0077928638938428562 -0.0023994806848869252 0 -0.0079622584338205297 -0.0024933779692226975 0 -0.0078703795837209382 -0.0022920736477682942 0 -0.0078703795837209382 -0.0022920736477682942 0 -0.0078624574819620534 -0.0020568365957118308 0 -0.007670239210349125 -0.0020281740716127789 0 -0.0078703795837209382 -0.0022920736477682942 0 -0.0078624574819620534 -0.0020568365957118308 0 -0.0080976738303968274 -0.0022160431452933308 0 -0.0078624574819620534 -0.0020568365957118308 0 -0.0080976738303968274 -0.0022160431452933308 0 -0.0080049576043945605 -0.0019286542514001023 0 -0.0078624574819620534 -0.0020568365957118308 0 -0.0077273196525924955 -0.0018104699638924115 0 -0.007670239210349125 -0.0020281740716127789 0 -0.0081800281704395694 -0.0025525656427366483 0 -0.0078703795837209382 -0.0022920736477682942 0 -0.0080976738303968274 -0.0022160431452933308 0 -0.0081800281704395694 -0.0025525656427366483 0 -0.0080976738303968274 -0.0022160431452933308 0 -0.0085349049235749937 -0.0023626183769017094 0 -0.0080976738303968274 -0.0022160431452933308 0 -0.0083339459690100152 -0.0021000970895797377 0 -0.0080049576043945605 -0.0019286542514001023 0 -0.0080976738303968274 -0.0022160431452933308 0 -0.0083339459690100152 -0.0021000970895797377 0 -0.0085349049235749937 -0.0023626183769017094 0 -0.0083339459690100152 -0.0021000970895797377 0 -0.0080049576043945605 -0.0019286542514001023 0 -0.0083118531776507718 -0.0018689626744449895 0 -0.0080049576043945605 -0.0019286542514001023 0 -0.0083118531776507718 -0.0018689626744449895 0 -0.0080223953839402753 -0.0017117232327442887 0 -0.0078624574819620534 -0.0020568365957118308 0 -0.0080049576043945605 -0.0019286542514001023 0 -0.0077273196525924955 -0.0018104699638924115 0 -0.0080049576043945605 -0.0019286542514001023 0 -0.007868710559153556 -0.0017408077143111658 0 -0.0080223953839402753 -0.0017117232327442887 0 -0.0080049576043945605 -0.0019286542514001023 0 -0.007868710559153556 -0.0017408077143111658 0 -0.0077273196525924955 -0.0018104699638924115 0 -0.007868710559153556 -0.0017408077143111658 0 -0.0077273196525924955 -0.0018104699638924115 0 -0.0077358534057537769 -0.0015687637180394386 0 -0.0077273196525924955 -0.0018104699638924115 0 -0.0074970264436881777 -0.0018099662376769212 0 -0.007547436491421383 -0.0015751276917223248 0 -0.0077273196525924955 -0.0018104699638924115 0 -0.0074970264436881777 -0.0018099662376769212 0 -0.007670239210349125 -0.0020281740716127789 0 -0.0074970264436881777 -0.0018099662376769212 0 -0.0073276727771929362 -0.0014583814706392564 0 -0.0072649533878023599 -0.0015119439338982215 0 -0.0074970264436881777 -0.0018099662376769212 0 -0.0073341642390827898 -0.0018626838923411892 0 -0.0072649533878023599 -0.0015119439338982215 0 -0.0074970264436881777 -0.0018099662376769212 0 -0.0073341642390827898 -0.0018626838923411892 0 -0.0074825117564638003 -0.0019897366334469292 0 -0.0073813436667237208 -0.0020991243307241711 0 -0.0076155794335288352 -0.0022099971927579424 0 -0.0074825117564638003 -0.0019897366334469292 0 -0.0073813436667237208 -0.0020991243307241711 0 -0.0073341642390827898 -0.0018626838923411892 0 -0.0074825117564638003 -0.0019897366334469292 0 -0.0076155794335288352 -0.0022099971927579424 0 -0.0078703795837209382 -0.0022920736477682942 0 -0.007670239210349125 -0.0020281740716127789 0 -0.0076155794335288352 -0.0022099971927579424 0 -0.0074825117564638003 -0.0019897366334469292 0 -0.007670239210349125 -0.0020281740716127789 0 -0.0074970264436881777 -0.0018099662376769212 0 -0.0074825117564638003 -0.0019897366334469292 0 -0.007670239210349125 -0.0020281740716127789 0 -0.0096214488919060884 -0.0027074361774559693 0 -0.0096262431174393027 -0.0027306488763061956 0 -0.0095178780833381042 -0.0025613257644206727 0 -0.0096214488919060884 -0.0027074361774559693 0 -0.0098336653394433416 -0.0028804233019210932 0 -0.0096262431174393027 -0.0027306488763061956 0 -0.0098366368153766873 -0.0027769082586483933 0 -0.0096214488919060884 -0.0027074361774559693 0 -0.0098336653394433416 -0.0028804233019210932 0 -0.010198615164650725 -0.0029045591867180825 0 -0.0098336653394433416 -0.0028804233019210932 0 -0.0097532012114395425 -0.0030907921500464394 0 -0.0096262431174393027 -0.0027306488763061956 0 -0.0097532012114395425 -0.0030907921500464394 0 -0.0093826292888395148 -0.0024835344702313598 0 -0.0098336653394433416 -0.0028804233019210932 0 -0.0096262431174393027 -0.0027306488763061956 0 -0.0097532012114395425 -0.0030907921500464394 0 -0.0097532012114395425 -0.0030907921500464394 0 -0.0087596455629603432 -0.0027035097890086312 0 -0.009039516370619307 -0.0024602546582093692 0 -0.0097532012114395425 -0.0030907921500464394 0 -0.009039516370619307 -0.0024602546582093692 0 -0.0093826292888395148 -0.0024835344702313598 0 -0.010739171699162997 -0.0030193502868670024 0 -0.010198615164650725 -0.0029045591867180825 0 -0.0097532012114395425 -0.0030907921500464394 0 -0.0098725501724824961 -0.003357558804794891 0 -0.0097657046410578839 -0.003117646601412141 0 -0.010739171699162997 -0.0030193502868670024 0 -0.01120201649171941 -0.0034609268150209258 0 -0.0097532012114395425 -0.0030907921500464394 0 -0.010739171699162997 -0.0030193502868670024 0 -0.011249094480183812 -0.0031284940795147436 0 -0.01120201649171941 -0.0034609268150209258 0 -0.0083658951583827947 -0.0032235677514752788 0 -0.0097532012114395425 -0.0030907921500464394 0 -0.0087596455629603432 -0.0027035097890086312 0 -0.0081800281704395694 -0.0025525656427366483 0 -0.0087596455629603432 -0.0027035097890086312 0 -0.0085349049235749937 -0.0023626183769017094 0 -0.0087596455629603432 -0.0027035097890086312 0 -0.0085349049235749937 -0.0023626183769017094 0 -0.009039516370619307 -0.0024602546582093692 0 -0.0085349049235749937 -0.0023626183769017094 0 -0.0087498958132771823 -0.0021285391013739267 0 -0.009039516370619307 -0.0024602546582093692 0 -0.0083339459690100152 -0.0021000970895797377 0 -0.0085349049235749937 -0.0023626183769017094 0 -0.0087498958132771823 -0.0021285391013739267 0 -0.0083339459690100152 -0.0021000970895797377 0 -0.0083118531776507718 -0.0018689626744449895 0 -0.0087498958132771823 -0.0021285391013739267 0 -0.0083118531776507718 -0.0018689626744449895 0 -0.0086227964717653059 -0.0018800903394805373 0 -0.0087498958132771823 -0.0021285391013739267 0 -0.0087498958132771823 -0.0021285391013739267 0 -0.0089544100111245348 -0.0019719023247016612 0 -0.0090759935705861487 -0.0022176004773859048 0 -0.0086227964717653059 -0.0018800903394805373 0 -0.0087498958132771823 -0.0021285391013739267 0 -0.0089544100111245348 -0.0019719023247016612 0 -0.0090759935705861487 -0.0022176004773859048 0 -0.009039516370619307 -0.0024602546582093692 0 -0.0093826292888395148 -0.0024835344702313598 0 -0.0087498958132771823 -0.0021285391013739267 0 -0.0090759935705861487 -0.0022176004773859048 0 -0.009039516370619307 -0.0024602546582093692 0 -0.0096262431174393027 -0.0027306488763061956 0 -0.0093826292888395148 -0.0024835344702313598 0 -0.009457712913422376 -0.0024402755780265697 0 -0.0089544100111245348 -0.0019719023247016612 0 -0.0090759935705861487 -0.0022176004773859048 0 -0.0093023902200964122 -0.0021513191036829581 0 -0.0090759935705861487 -0.0022176004773859048 0 -0.0093826292888395148 -0.0024835344702313598 0 -0.0093023902200964122 -0.0021513191036829581 0 -0.0093826292888395148 -0.0024835344702313598 0 -0.0093023902200964122 -0.0021513191036829581 0 -0.009457712913422376 -0.0024402755780265697 0 -0.0093023902200964122 -0.0021513191036829581 0 -0.0094791472171535072 -0.0024167107314012411 0 -0.009457712913422376 -0.0024402755780265697 0 -0.0093023902200964122 -0.0021513191036829581 0 -0.0094437983489621471 -0.0021840377477584908 0 -0.0094791472171535072 -0.0024167107314012411 0 -0.0096262431174393027 -0.0027306488763061956 0 -0.009457712913422376 -0.0024402755780265697 0 -0.0095178780833381042 -0.0025613257644206727 0 -0.0094791472171535072 -0.0024167107314012411 0 -0.009457712913422376 -0.0024402755780265697 0 -0.0095178780833381042 -0.0025613257644206727 0 -0.0093369456540722366 -0.0014696177492434723 0 -0.0092926474110775776 -0.0011787521470772086 0 -0.0096087785768034541 -0.0016025485218584279 0 -0.0093369456540722366 -0.0014696177492434723 0 -0.0091492646602567979 -0.0013803884613879855 0 -0.0092926474110775776 -0.0011787521470772086 0 -0.0093369456540722366 -0.0014696177492434723 0 -0.0093010153374081406 -0.0017172512805806641 0 -0.0091492646602567979 -0.0013803884613879855 0 -0.0093369456540722366 -0.0014696177492434723 0 -0.0093010153374081406 -0.0017172512805806641 0 -0.0096087785768034541 -0.0016025485218584279 0 -0.0094705541343864091 -0.0019553593448072048 0 -0.0093010153374081406 -0.0017172512805806641 0 -0.0096087785768034541 -0.0016025485218584279 0 -0.0094437983489621471 -0.0021840377477584908 0 -0.0094705541343864091 -0.0019553593448072048 0 -0.0093274227106025093 -0.0019864574312754711 0 -0.0093023902200964122 -0.0021513191036829581 0 -0.0094437983489621471 -0.0021840377477584908 0 -0.0093274227106025093 -0.0019864574312754711 0 -0.0094705541343864091 -0.0019553593448072048 0 -0.0093274227106025093 -0.0019864574312754711 0 -0.0093010153374081406 -0.0017172512805806641 0 -0.0089544100111245348 -0.0019719023247016612 0 -0.0093023902200964122 -0.0021513191036829581 0 -0.0090990963875966554 -0.0018293693192570578 0 -0.0093274227106025093 -0.0019864574312754711 0 -0.0093010153374081406 -0.0017172512805806641 0 -0.0090990963875966554 -0.0018293693192570578 0 -0.0093010153374081406 -0.0017172512805806641 0 -0.0090990963875966554 -0.0018293693192570578 0 -0.0090570598272010742 -0.0015778908436844589 0 -0.0093023902200964122 -0.0021513191036829581 0 -0.0093274227106025093 -0.0019864574312754711 0 -0.0090990963875966554 -0.0018293693192570578 0 -0.0090990963875966554 -0.0018293693192570578 0 -0.0089127914329385511 -0.0016119377461608147 0 -0.0090570598272010742 -0.0015778908436844589 0 -0.0090990963875966554 -0.0018293693192570578 0 -0.0089127914329385511 -0.0016119377461608147 0 -0.0088783309418272935 -0.0017485131821230058 0 -0.0090570598272010742 -0.0015778908436844589 0 -0.0091492646602567979 -0.0013803884613879855 0 -0.0088495273680531325 -0.001372228402386206 0 -0.0089127914329385511 -0.0016119377461608147 0 -0.0090570598272010742 -0.0015778908436844589 0 -0.0088495273680531325 -0.001372228402386206 0 -0.0093010153374081406 -0.0017172512805806641 0 -0.0090570598272010742 -0.0015778908436844589 0 -0.0091492646602567979 -0.0013803884613879855 0 -0.0091492646602567979 -0.0013803884613879855 0 -0.0088495273680531325 -0.001372228402386206 0 -0.0089194485447145391 -0.0011675271694284021 0 -0.0088495273680531325 -0.001372228402386206 0 -0.0085696329746133403 -0.0012253192651703246 0 -0.0087203661720256717 -0.0010609477693304861 0 -0.0088495273680531325 -0.001372228402386206 0 -0.0085696329746133403 -0.0012253192651703246 0 -0.0086738140767349623 -0.0015242771105152646 0 -0.0085696329746133403 -0.0012253192651703246 0 -0.0086738140767349623 -0.0015242771105152646 0 -0.0084061336911790494 -0.0013414821171950026 0 -0.0089127914329385511 -0.0016119377461608147 0 -0.0088495273680531325 -0.001372228402386206 0 -0.0086738140767349623 -0.0015242771105152646 0 -0.0089127914329385511 -0.0016119377461608147 0 -0.0086738140767349623 -0.0015242771105152646 0 -0.0088783309418272935 -0.0017485131821230058 0 -0.0089544100111245348 -0.0019719023247016612 0 -0.0090990963875966554 -0.0018293693192570578 0 -0.0088783309418272935 -0.0017485131821230058 0 -0.0089544100111245348 -0.0019719023247016612 0 -0.0088783309418272935 -0.0017485131821230058 0 -0.0086682974979029274 -0.0017394887110222716 0 -0.0086227964717653059 -0.0018800903394805373 0 -0.0089544100111245348 -0.0019719023247016612 0 -0.0086682974979029274 -0.0017394887110222716 0 -0.0086738140767349623 -0.0015242771105152646 0 -0.0088783309418272935 -0.0017485131821230058 0 -0.0086682974979029274 -0.0017394887110222716 0 -0.0086738140767349623 -0.0015242771105152646 0 -0.0086682974979029274 -0.0017394887110222716 0 -0.0084828496477577769 -0.001551194225170658 0 -0.0086682974979029274 -0.0017394887110222716 0 -0.0084828496477577769 -0.001551194225170658 0 -0.0084116351372278565 -0.0016981470383460357 0 -0.0086227964717653059 -0.0018800903394805373 0 -0.0086682974979029274 -0.0017394887110222716 0 -0.0084116351372278565 -0.0016981470383460357 0 -0.0083118531776507718 -0.0018689626744449895 0 -0.0084116351372278565 -0.0016981470383460357 0 -0.008199167875623985 -0.0016528358477027759 0 -0.0083118531776507718 -0.0018689626744449895 0 -0.0086227964717653059 -0.0018800903394805373 0 -0.0084116351372278565 -0.0016981470383460357 0 -0.0084828496477577769 -0.001551194225170658 0 -0.0084116351372278565 -0.0016981470383460357 0 -0.0082651402603349591 -0.0014533840465373077 0 -0.0084116351372278565 -0.0016981470383460357 0 -0.0082651402603349591 -0.0014533840465373077 0 -0.008199167875623985 -0.0016528358477027759 0 -0.0086738140767349623 -0.0015242771105152646 0 -0.0084828496477577769 -0.001551194225170658 0 -0.0084061336911790494 -0.0013414821171950026 0 -0.0084828496477577769 -0.001551194225170658 0 -0.0082651402603349591 -0.0014533840465373077 0 -0.0084061336911790494 -0.0013414821171950026 0 -0.0085696329746133403 -0.0012253192651703246 0 -0.0084061336911790494 -0.0013414821171950026 0 -0.0082856946567186514 -0.0010573231648684351 0 -0.0084061336911790494 -0.0013414821171950026 0 -0.0082130379502267491 -0.0011893256909663572 0 -0.0082856946567186514 -0.0010573231648684351 0 -0.0082651402603349591 -0.0014533840465373077 0 -0.0084061336911790494 -0.0013414821171950026 0 -0.0082130379502267491 -0.0011893256909663572 0 -0.0082651402603349591 -0.0014533840465373077 0 -0.0082130379502267491 -0.0011893256909663572 0 -0.0081044740132252876 -0.0012622708676543915 0 -0.0082130379502267491 -0.0011893256909663572 0 -0.0082856946567186514 -0.0010573231648684351 0 -0.0080139991899989757 -0.00094687963324920532 0 -0.0082130379502267491 -0.0011893256909663572 0 -0.0080139991899989757 -0.00094687963324920532 0 -0.0080134331715853054 -0.0010873445982666843 0 -0.0082856946567186514 -0.0010573231648684351 0 -0.0080944669979667663 -0.00087742401432645801 0 -0.0083105542677019209 -0.0007561074031142861 0 -0.0080944669979667663 -0.00087742401432645801 0 -0.0080139991899989757 -0.00094687963324920532 0 -0.0077950541481704941 -0.00069232264832725786 0 -0.0082856946567186514 -0.0010573231648684351 0 -0.0080944669979667663 -0.00087742401432645801 0 -0.0080139991899989757 -0.00094687963324920532 0 -0.0077950541481704941 -0.00069232264832725786 0 -0.005743886565553716 -0.0011180782739098232 0 -0.0064920490320908592 -0.0020225098698001395 0 -0.0072076358154943383 -0.00085291660405391475 0 -0.0084943498256169862 -0.00049764410328232756 0 -0.0077950541481704941 -0.00069232264832725786 0 -0.0083105542677019209 -0.0007561074031142861 0 -0.0085090239034248324 -0.00039145330282950658 0 -0.0077950541481704941 -0.00069232264832725786 0 -0.0080892848566356725 -0.00092816489707140467 0 -0.0064920490320908592 -0.0020225098698001395 0 -0.0080944669979667663 -0.00087742401432645801 0 -0.0077950541481704941 -0.00069232264832725786 0 -0.0083105542677019209 -0.0007561074031142861 0 -0.0083105542677019209 -0.0007561074031142861 0 -0.0085090239034248324 -0.00039145330282950658 0 -0.0086438138626623862 -0.00072876276984215388 0 -0.0085090239034248324 -0.00039145330282950658 0 -0.008714745090907779 -0.00047943225868230541 0 -0.0089268110482403004 -0.0001786227370460834 0 -0.0085090239034248324 -0.00039145330282950658 0 -0.008714745090907779 -0.00047943225868230541 0 -0.0086438138626623862 -0.00072876276984215388 0 -0.008714745090907779 -0.00047943225868230541 0 -0.0086438138626623862 -0.00072876276984215388 0 -0.0088419817985799527 -0.0006496501109993191 0 -0.0086438138626623862 -0.00072876276984215388 0 -0.0084883980740979963 -0.0009578886209331203 0 -0.0087203661720256717 -0.0010609477693304861 0 -0.0086438138626623862 -0.00072876276984215388 0 -0.0087203661720256717 -0.0010609477693304861 0 -0.0088687402211986392 -0.00089401752160402884 0 -0.0082856946567186514 -0.0010573231648684351 0 -0.0083105542677019209 -0.0007561074031142861 0 -0.0084883980740979963 -0.0009578886209331203 0 -0.0083105542677019209 -0.0007561074031142861 0 -0.0086438138626623862 -0.00072876276984215388 0 -0.0084883980740979963 -0.0009578886209331203 0 -0.0085696329746133403 -0.0012253192651703246 0 -0.0082856946567186514 -0.0010573231648684351 0 -0.0084883980740979963 -0.0009578886209331203 0 -0.0085696329746133403 -0.0012253192651703246 0 -0.0084883980740979963 -0.0009578886209331203 0 -0.0087203661720256717 -0.0010609477693304861 0 -0.0089194485447145391 -0.0011675271694284021 0 -0.0090810289878119742 -0.0010380421269238511 0 -0.0088687402211986392 -0.00089401752160402884 0 -0.0088495273680531325 -0.001372228402386206 0 -0.0087203661720256717 -0.0010609477693304861 0 -0.0089194485447145391 -0.0011675271694284021 0 -0.0087203661720256717 -0.0010609477693304861 0 -0.0089194485447145391 -0.0011675271694284021 0 -0.0088687402211986392 -0.00089401752160402884 0 -0.0091492646602567979 -0.0013803884613879855 0 -0.0090810289878119742 -0.0010380421269238511 0 -0.0092926474110775776 -0.0011787521470772086 0 -0.0091492646602567979 -0.0013803884613879855 0 -0.0089194485447145391 -0.0011675271694284021 0 -0.0090810289878119742 -0.0010380421269238511 0 -0.0090810289878119742 -0.0010380421269238511 0 -0.0088687402211986392 -0.00089401752160402884 0 -0.0089978465987227297 -0.00075429022501901678 0 -0.0090810289878119742 -0.0010380421269238511 0 -0.0089978465987227297 -0.00075429022501901678 0 -0.0093024912363654025 -0.00083630498064596619 0 -0.0088687402211986392 -0.00089401752160402884 0 -0.0088419817985799527 -0.0006496501109993191 0 -0.0089978465987227297 -0.00075429022501901678 0 -0.0086438138626623862 -0.00072876276984215388 0 -0.0088687402211986392 -0.00089401752160402884 0 -0.0088419817985799527 -0.0006496501109993191 0 -0.0088419817985799527 -0.0006496501109993191 0 -0.0089354526812420124 -0.00052470415782784115 0 -0.0089978465987227297 -0.00075429022501901678 0 -0.008714745090907779 -0.00047943225868230541 0 -0.0088419817985799527 -0.0006496501109993191 0 -0.0089354526812420124 -0.00052470415782784115 0 -0.0024945723933525931 0.0025216700323744397 0 0.0024301993596691439 0.0011888807564504628 0 -0.0089354526812420124 -0.00052470415782784115 0 -0.0093024912363654025 -0.00083630498064596619 0 -0.0089268110482403004 -0.0001786227370460834 0 -0.008714745090907779 -0.00047943225868230541 0 -0.0089354526812420124 -0.00052470415782784115 0 -0.0089268110482403004 -0.0001786227370460834 0 -0.0089354526812420124 -0.00052470415782784115 0 -0.0089978465987227297 -0.00075429022501901678 0 -0.0093024912363654025 -0.00083630498064596619 0 0.0058791387412756857 0.0046880843572744951 0 0.0058224520299971884 0.0060106126463646669 0 0.004364785987279917 0.0035989418646520267 0 0.0058791387412756857 0.0046880843572744951 0 0.0066977569336970876 0.0044805095022340518 0 0.0062019991897986218 0.0038077270519280976 0 0.0058791387412756857 0.0046880843572744951 0 0.0060265179091656641 0.0054479797082671736 0 0.0066977569336970876 0.0044805095022340518 0 0.0058791387412756857 0.0046880843572744951 0 0.0058224520299971884 0.0060106126463646669 0 0.0060265179091656641 0.0054479797082671736 0 -0.0093024912363654025 -0.00083630498064596619 0 -0.0092926474110775776 -0.0011787521470772086 0 -0.0096087785768034541 -0.0016025485218584279 0 0.0051196826947444698 0.0058512421786823428 0 0.0058224520299971884 0.0060106126463646669 0 0.0023660551463483767 0.0039661773508305829 0 -0.0024945723933525931 0.0025216700323744397 0 -0.0034945402871826774 0.0013657824253744712 0 0.0051196826947444698 0.0058512421786823428 0 0.0058224520299971884 0.0060106126463646669 0 0.0060265179091656641 0.0054479797082671736 0 -0.0090810289878119742 -0.0010380421269238511 0 -0.0093024912363654025 -0.00083630498064596619 0 -0.0092926474110775776 -0.0011787521470772086 0 -0.0074221532378817021 -0.0013341178133534528 0 -0.0076097205530814881 -0.0013756695794437689 0 -0.0074841001513954305 -0.0011780224545974759 0 -0.0074221532378817021 -0.0013341178133534528 0 -0.0073793635927755221 -0.0011719472661067994 0 -0.0074841001513954305 -0.0011780224545974759 0 -0.0037826291997467513 0.00038562771927722219 0 0.0009020149029727 0.00092814270027782723 0 -0.0074221532378817021 -0.0013341178133534528 0 -0.0072474110609100206 -0.0012842092343122217 0 -0.0073276727771929362 -0.0014583814706392564 0 -0.0074221532378817021 -0.0013341178133534528 0 -0.0072474110609100206 -0.0012842092343122217 0 -0.0073793635927755221 -0.0011719472661067994 0 0.00040302395532824736 0.001736341123910674 0 0.00074540372429059826 0.0015460159352742085 0 0.00032498216021206977 0.0016365193019958564 0 -0.0074970264436881777 -0.0018099662376769212 0 -0.0073276727771929362 -0.0014583814706392564 0 -0.007547436491421383 -0.0015751276917223248 0 -0.0074221532378817021 -0.0013341178133534528 0 -0.0073276727771929362 -0.0014583814706392564 0 -0.007547436491421383 -0.0015751276917223248 0 -0.0074221532378817021 -0.0013341178133534528 0 -0.0076097205530814881 -0.0013756695794437689 0 -0.007547436491421383 -0.0015751276917223248 0 -0.0076097205530814881 -0.0013756695794437689 0 -0.007547436491421383 -0.0015751276917223248 0 -0.0077358534057537769 -0.0015687637180394386 0 -0.0077273196525924955 -0.0018104699638924115 0 -0.007547436491421383 -0.0015751276917223248 0 -0.0077358534057537769 -0.0015687637180394386 0 -0.007868710559153556 -0.0017408077143111658 0 -0.0079033137185322531 -0.0015500589076705136 0 -0.0080223953839402753 -0.0017117232327442887 0 -0.007868710559153556 -0.0017408077143111658 0 -0.0077358534057537769 -0.0015687637180394386 0 -0.0079033137185322531 -0.0015500589076705136 0 -0.0077358534057537769 -0.0015687637180394386 0 -0.0079033137185322531 -0.0015500589076705136 0 -0.0078201034836721684 -0.0013740463224970172 0 -0.0076097205530814881 -0.0013756695794437689 0 -0.0077358534057537769 -0.0015687637180394386 0 -0.0078201034836721684 -0.0013740463224970172 0 -0.0083118531776507718 -0.0018689626744449895 0 -0.008199167875623985 -0.0016528358477027759 0 -0.0080223953839402753 -0.0017117232327442887 0 -0.008199167875623985 -0.0016528358477027759 0 -0.0080223953839402753 -0.0017117232327442887 0 -0.0080573662084676562 -0.0014854719737349578 0 -0.0079033137185322531 -0.0015500589076705136 0 -0.0080223953839402753 -0.0017117232327442887 0 -0.0080573662084676562 -0.0014854719737349578 0 -0.0079033137185322531 -0.0015500589076705136 0 -0.0080573662084676562 -0.0014854719737349578 0 -0.0078201034836721684 -0.0013740463224970172 0 -0.0082651402603349591 -0.0014533840465373077 0 -0.008199167875623985 -0.0016528358477027759 0 -0.0080573662084676562 -0.0014854719737349578 0 -0.0080573662084676562 -0.0014854719737349578 0 -0.0079726350064443265 -0.0013226162468790402 0 -0.0081044740132252876 -0.0012622708676543915 0 -0.0082651402603349591 -0.0014533840465373077 0 -0.0080573662084676562 -0.0014854719737349578 0 -0.0081044740132252876 -0.0012622708676543915 0 -0.0080573662084676562 -0.0014854719737349578 0 -0.0079726350064443265 -0.0013226162468790402 0 -0.0078201034836721684 -0.0013740463224970172 0 -0.0079726350064443265 -0.0013226162468790402 0 -0.0078991868241559023 -0.0011744184359161441 0 -0.0078201034836721684 -0.0013740463224970172 0 -0.0079726350064443265 -0.0013226162468790402 0 -0.0078991868241559023 -0.0011744184359161441 0 -0.0081044740132252876 -0.0012622708676543915 0 -0.0082130379502267491 -0.0011893256909663572 0 -0.0081044740132252876 -0.0012622708676543915 0 -0.0080134331715853054 -0.0010873445982666843 0 -0.0078991868241559023 -0.0011744184359161441 0 -0.0081044740132252876 -0.0012622708676543915 0 -0.0080134331715853054 -0.0010873445982666843 0 -0.0076097205530814881 -0.0013756695794437689 0 -0.0078201034836721684 -0.0013740463224970172 0 -0.0077075279465888295 -0.0011952739270310038 0 -0.0078991868241559023 -0.0011744184359161441 0 -0.0078201034836721684 -0.0013740463224970172 0 -0.0077075279465888295 -0.0011952739270310038 0 -0.0076097205530814881 -0.0013756695794437689 0 -0.0077075279465888295 -0.0011952739270310038 0 -0.0074841001513954305 -0.0011780224545974759 0 -0.0077075279465888295 -0.0011952739270310038 0 -0.0076853822975407283 -0.00086739253064565679 0 -0.0074841001513954305 -0.0011780224545974759 0 -0.0077075279465888295 -0.0011952739270310038 0 -0.0078062804063496983 -0.0010583328660017273 0 -0.0076853822975407283 -0.00086739253064565679 0 -0.0078991868241559023 -0.0011744184359161441 0 -0.0077075279465888295 -0.0011952739270310038 0 -0.0078062804063496983 -0.0010583328660017273 0 -0.0078062804063496983 -0.0010583328660017273 0 -0.0076853822975407283 -0.00086739253064565679 0 -0.0079264915326719611 -0.00099613842965015501 0 -0.0076853822975407283 -0.00086739253064565679 0 -0.0079264915326719611 -0.00099613842965015501 0 -0.007972243765683111 -0.00087959866003208811 0 -0.0080139991899989757 -0.00094687963324920532 0 -0.0080134331715853054 -0.0010873445982666843 0 -0.0079264915326719611 -0.00099613842965015501 0 -0.0078991868241559023 -0.0011744184359161441 0 -0.0078062804063496983 -0.0010583328660017273 0 -0.0079264915326719611 -0.00099613842965015501 0 -0.0078991868241559023 -0.0011744184359161441 0 -0.0080134331715853054 -0.0010873445982666843 0 -0.0079264915326719611 -0.00099613842965015501 0 -0.0080139991899989757 -0.00094687963324920532 0 -0.0077950541481704941 -0.00069232264832725786 0 -0.007972243765683111 -0.00087959866003208811 0 -0.0080139991899989757 -0.00094687963324920532 0 -0.0079264915326719611 -0.00099613842965015501 0 -0.007972243765683111 -0.00087959866003208811 0 0.0021811924415807093 0.0016354025606391332 0 0.0015974978312261435 0.0017123303897396622 0 -0.0076853822975407283 -0.00086739253064565679 0 -0.007972243765683111 -0.00087959866003208811 0 -0.0080892848566356725 -0.00092816489707140467 0 -0.0077950541481704941 -0.00069232264832725786 0 -0.007972243765683111 -0.00087959866003208811 0 -0.0080892848566356725 -0.00092816489707140467 0 0.011614279726705531 0.0041873158131290654 0 0.010917066757575587 0.0044717373538667067 0 0.011478066109394437 0.0046352536194601219 0 0.011614279726705531 0.0041873158131290654 0 0.011478066109394437 0.0046352536194601219 0 0.01187628573182564 0.0046748560916458591 0 0.011614279726705531 0.0041873158131290654 0 0.01222271173454847 0.0045279395776984983 0 0.01187628573182564 0.0046748560916458591 0 0.011614279726705531 0.0041873158131290654 0 0.01222271173454847 0.0045279395776984983 0 0.012159651844307761 0.0038986069636934026 0 0.0021811924415807093 0.0016354025606391332 0 0.0009020149029727 0.00092814270027782723 0 -0.0076853822975407283 -0.00086739253064565679 0 -0.0071947767674926605 -0.0010887331177237896 0 -0.0074841001513954305 -0.0011780224545974759 0 0.0009020149029727 0.00092814270027782723 0 -0.0083258044639705209 -0.0015404095294106349 0 0.012159651844307761 0.0038986069636934026 0 0.012473419334480752 0.0043246791464610001 0 0.01274704680432113 0.0040735081463178459 0 0.0009020149029727 0.00092814270027782723 0 0.0057879400394434963 0.0033982087927328596 0 0.01222271173454847 0.0045279395776984983 0 0.012159651844307761 0.0038986069636934026 0 0.012473419334480752 0.0043246791464610001 0 0.00074540372429059826 0.0015460159352742085 0 0.00035596645850773854 0.0014440763771227678 0 0.00032498216021206977 0.0016365193019958564 0 0.012473419334480752 0.0043246791464610001 0 0.01274704680432113 0.0040735081463178459 0 0.012768881837760546 0.0047967730217630322 0 0.01222271173454847 0.0045279395776984983 0 0.012473419334480752 0.0043246791464610001 0 0.012768881837760546 0.0047967730217630322 0 0.0053180889176984393 0.0035331061166346055 0 0.0058462038420683468 0.0036857845708695492 0 0.0059089105550061069 0.0029392680763125779 0 0.0057879400394434963 0.0033982087927328596 0 0.0096353270271537176 0.0039435619059379114 0 0.0053180889176984393 0.0035331061166346055 0 0.0059089105550061069 0.0029392680763125779 0 0.0052366750545442412 0.0028219651515948305 0 0.0025009405919265855 0.0023923296856397541 0 0.00069396763927323762 0.0016103565235655139 0 0.0053180889176984393 0.0035331061166346055 0 0.0047937082843363885 0.0033768523483219976 0 0.0052366750545442412 0.0028219651515948305 0 -0.0038513324866611262 0.00063513934075468874 0 0.00069396763927323762 0.0016103565235655139 0 1.9019405132469424e-05 0.0013563034961234827 0 -0.00011884668396434282 0.0015809271442260842 0 -0.00028332892154444282 0.001274446369887737 0 1.9019405132469424e-05 0.0013563034961234827 0 -0.00011884668396434282 0.0015809271442260842 0 0.00013671773464354049 0.0015363028825782811 0 -0.00011884668396434282 0.0015809271442260842 0 0.00013671773464354049 0.0015363028825782811 0 0.00014759955624157474 0.0016915156862260931 0 1.9019405132469424e-05 0.0013563034961234827 0 0.0003532760219214187 0.0014462464899244944 0 0.00013671773464354049 0.0015363028825782811 0 0.0025009405919265855 0.0023923296856397541 0 0.0057879400394434963 0.0033982087927328596 0 0.0057879400394434963 0.0033982087927328596 0 0.0026293683243960616 0.0015892769917820488 0 0.0003532760219214187 0.0014462464899244944 0 0.00013671773464354049 0.0015363028825782811 0 0.00032498216021206977 0.0016365193019958564 0 -0.0037826291997467513 0.00038562771927722219 0 -0.0050422644759790776 -0.00016006208862728911 0 -0.0072474110609100206 -0.0012842092343122217 0 -0.0073276727771929362 -0.0014583814706392564 0 -0.0071185909493416888 -0.0013703258250526166 0 0.00040302395532824736 0.001736341123910674 0 0.00032498216021206977 0.0016365193019958564 0 0.00014759955624157474 0.0016915156862260931 0 0.00040302395532824736 0.001736341123910674 0 4.3688978695636915e-05 0.0019069596385995406 0 0.00014759955624157474 0.0016915156862260931 0 0.00013671773464354049 0.0015363028825782811 0 0.00032498216021206977 0.0016365193019958564 0 0.00014759955624157474 0.0016915156862260931 0 -0.0038513324866611262 0.00063513934075468874 0 -0.0050422644759790776 -0.00016006208862728911 0 -0.0072175293701262615 -4.6230007980454274e-06 0 -0.0074437013944853971 -0.00046962708499524329 0 -0.0070146402149667058 -0.00042406919909693274 0 -0.00011884668396434282 0.0015809271442260842 0 4.3688978695636915e-05 0.0019069596385995406 0 0.00014759955624157474 0.0016915156862260931 0 -0.0071087629276938031 -0.001112279885630922 0 -0.0068891587031410535 -0.00095504744740348762 0 -0.0070573536192970014 -0.0013803091697552798 0 -0.0074437013944853971 -0.00046962708499524329 0 -0.006987193048108244 -0.00063591050598484794 0 -0.0070146402149667058 -0.00042406919909693274 0 -0.0074437013944853971 -0.00046962708499524329 0 -0.0068640321014631512 -0.00091415405366126903 0 -0.006987193048108244 -0.00063591050598484794 0 -0.0050422644759790776 -0.00016006208862728911 0 -0.0077273792102290143 -0.00098933157575606867 0 -0.0050422644759790776 -0.00016006208862728911 0 -0.0077982223278896881 -0.0020628446285886866 0 -0.0071087629276938031 -0.001112279885630922 0 -0.0072649533878023599 -0.0015119439338982215 0 -0.0070573536192970014 -0.0013803091697552798 0 -0.0073276727771929362 -0.0014583814706392564 0 -0.0071185909493416888 -0.0013703258250526166 0 -0.0072649533878023599 -0.0015119439338982215 0 -0.0065706835538575916 -0.00054628268506446613 0 -0.0064925328256120202 -0.00060689281399081143 0 -0.006275815842636632 -0.0004664453993528776 0 -0.0065706835538575916 -0.00054628268506446613 0 -0.0064925328256120202 -0.00060689281399081143 0 -0.0066324189849161332 -0.00066296801277472746 0 -0.0065706835538575916 -0.00054628268506446613 0 -0.0066324189849161332 -0.00066296801277472746 0 -0.0067421582012766835 -0.00071625133880437312 0 -0.0063074114694238832 -0.00057435767466250832 0 -0.0064925328256120202 -0.00060689281399081143 0 -0.006275815842636632 -0.0004664453993528776 0 -0.0064925328256120202 -0.00060689281399081143 0 -0.0065096132423204467 -0.00065404584942248636 0 -0.0067036775293689357 -0.00073224135995994327 0 -0.0065096132423204467 -0.00065404584942248636 0 -0.0063062421240216307 -0.00060683550865673285 0 -0.0067261696297529587 -0.00071307947600834378 0 -0.0065096132423204467 -0.00065404584942248636 0 -0.0067036775293689357 -0.00073224135995994327 0 -0.0067261696297529587 -0.00071307947600834378 0 -0.0063074114694238832 -0.00057435767466250832 0 -0.0064925328256120202 -0.00060689281399081143 0 -0.0065096132423204467 -0.00065404584942248636 0 -0.0064925328256120202 -0.00060689281399081143 0 -0.0067036775293689357 -0.00073224135995994327 0 -0.0066324189849161332 -0.00066296801277472746 0 -0.0067036775293689357 -0.00073224135995994327 0 -0.0066324189849161332 -0.00066296801277472746 0 -0.0067421582012766835 -0.00071625133880437312 0 -0.0067036775293689357 -0.00073224135995994327 0 -0.0068201660941661132 -0.0008146055772776296 0 -0.0067421582012766835 -0.00071625133880437312 0 -0.0068640321014631512 -0.00091415405366126903 0 -0.0068160422448625534 -0.0007462680054645081 0 -0.006987193048108244 -0.00063591050598484794 0 -0.0071087629276938031 -0.001112279885630922 0 -0.0068891587031410535 -0.00095504744740348762 0 -0.0068640321014631512 -0.00091415405366126903 0 -0.0068201660941661132 -0.0008146055772776296 0 -0.0068640321014631512 -0.00091415405366126903 0 -0.0068160422448625534 -0.0007462680054645081 0 -0.0068201660941661132 -0.0008146055772776296 0 -0.0068160422448625534 -0.0007462680054645081 0 -0.0067421582012766835 -0.00071625133880437312 0 -0.006987193048108244 -0.00063591050598484794 0 -0.0067873346224184188 -0.00057758424009807599 0 -0.0070146402149667058 -0.00042406919909693274 0 -0.0065706835538575916 -0.00054628268506446613 0 -0.0067421582012766835 -0.00071625133880437312 0 -0.0067873346224184188 -0.00057758424009807599 0 -0.0068160422448625534 -0.0007462680054645081 0 -0.0067421582012766835 -0.00071625133880437312 0 -0.0067873346224184188 -0.00057758424009807599 0 -0.0068160422448625534 -0.0007462680054645081 0 -0.006987193048108244 -0.00063591050598484794 0 -0.0067873346224184188 -0.00057758424009807599 0 -0.0067873346224184188 -0.00057758424009807599 0 -0.0066903394759815944 -0.00029699735068075247 0 -0.0070146402149667058 -0.00042406919909693274 0 -0.0065706835538575916 -0.00054628268506446613 0 -0.0067873346224184188 -0.00057758424009807599 0 -0.0066903394759815944 -0.00029699735068075247 0 -0.0072175293701262615 -4.6230007980454274e-06 0 -0.0066903394759815944 -0.00029699735068075247 0 -0.0070146402149667058 -0.00042406919909693274 0 -0.0066903394759815944 -0.00029699735068075247 0 -0.0063005726751629134 -0.00013655729322754729 0 -0.0065578341825990854 0.0001804124167242727 0 -0.0066903394759815944 -0.00029699735068075247 0 -0.0063005726751629134 -0.00013655729322754729 0 -0.0063913590671178175 -0.00035630831696797878 0 -0.0065706835538575916 -0.00054628268506446613 0 -0.0063913590671178175 -0.00035630831696797878 0 -0.006275815842636632 -0.0004664453993528776 0 -0.0065706835538575916 -0.00054628268506446613 0 -0.0066903394759815944 -0.00029699735068075247 0 -0.0063913590671178175 -0.00035630831696797878 0 -0.006275815842636632 -0.0004664453993528776 0 -0.0061338303036936759 -0.00029918818281182285 0 -0.0058793429461647447 -0.00035239911705663634 0 -0.0063913590671178175 -0.00035630831696797878 0 -0.006275815842636632 -0.0004664453993528776 0 -0.0061338303036936759 -0.00029918818281182285 0 -0.0063005726751629134 -0.00013655729322754729 0 -0.0061338303036936759 -0.00029918818281182285 0 -0.0058601874364447425 -0.00013313849823524059 0 -0.0063005726751629134 -0.00013655729322754729 0 -0.0063913590671178175 -0.00035630831696797878 0 -0.0061338303036936759 -0.00029918818281182285 0 -0.0059749507132955118 0.00020050730015547629 0 -0.0065578341825990854 0.0001804124167242727 0 -0.0061288733702209025 0.00086906429304590548 0 -0.0063005726751629134 -0.00013655729322754729 0 -0.0059749507132955118 0.00020050730015547629 0 -0.0058601874364447425 -0.00013313849823524059 0 -0.0063005726751629134 -0.00013655729322754729 0 -0.0059749507132955118 0.00020050730015547629 0 -0.0065578341825990854 0.0001804124167242727 0 -0.0072175293701262615 -4.6230007980454274e-06 0 -0.0065578341825990854 0.0001804124167242727 0 -0.0068898895478357036 0.00060213698107061567 0 -0.0072175293701262615 -4.6230007980454274e-06 0 -0.0066903394759815944 -0.00029699735068075247 0 -0.0065578341825990854 0.0001804124167242727 0 0.00069396763927323762 0.0016103565235655139 0 -0.0015207333852349219 0.0014234078134670093 0 -0.0065578341825990854 0.0001804124167242727 0 -0.0068898895478357036 0.00060213698107061567 0 -0.0061288733702209025 0.00086906429304590548 0 0.00069396763927323762 0.0016103565235655139 0 0.0049015762331637222 0.0023441678823627691 0 0.0047937082843363885 0.0033768523483219976 0 0.0052366750545442412 0.0028219651515948305 0 0.0044743600642793034 0.0028002805122066582 0 0.0052453063083916004 0.0024042194366284326 0 0.0037720264007859603 0.0020442814025209677 0 0.0044140852007929481 0.00090582751311601105 0 -0.0059749507132955118 0.00020050730015547629 0 -0.0061288733702209025 0.00086906429304590548 0 -0.0054486736191619372 0.00048578296222945278 0 -0.0061288733702209025 0.00086906429304590548 0 -0.0054486736191619372 0.00048578296222945278 0 -0.0049422066079358382 0.0011891223892969115 0 -0.0015207333852349219 0.0014234078134670093 0 -0.0020659870837954897 0.0014728557480904105 0 0.0037720264007859603 0.0020442814025209677 0 0.00072416453842459843 0.0019389306890218881 0 0.0029899036647067015 0.00057237641273669008 0 -0.0054486736191619372 0.00048578296222945278 0 -0.0049422066079358382 0.0011891223892969115 0 -0.0046716049962869065 0.00025170501897577274 0 -0.0049422066079358382 0.0011891223892969115 0 -0.0037806292727279533 0.0005873655931903102 0 -0.0025364498700179389 0.0010894374673880406 0 -0.0037806292727279533 0.0005873655931903102 0 -0.0028880743677512908 0.00052454558061276366 0 -0.0025364498700179389 0.0010894374673880406 0 -0.0037806292727279533 0.0005873655931903102 0 -0.0039346181232396754 7.5867108656984083e-05 0 -0.0028880743677512908 0.00052454558061276366 0 -0.0037806292727279533 0.0005873655931903102 0 -0.0046716049962869065 0.00025170501897577274 0 -0.0039346181232396754 7.5867108656984083e-05 0 -0.0049422066079358382 0.0011891223892969115 0 -0.0037806292727279533 0.0005873655931903102 0 -0.0046716049962869065 0.00025170501897577274 0 -0.0046716049962869065 0.00025170501897577274 0 -0.0039346181232396754 7.5867108656984083e-05 0 -0.0048845383991379665 -0.00017611773871874638 0 -0.0039346181232396754 7.5867108656984083e-05 0 -0.004362277786525713 -0.00015422644634444582 0 -0.0048845383991379665 -0.00017611773871874638 0 -0.0046716049962869065 0.00025170501897577274 0 -0.0048845383991379665 -0.00017611773871874638 0 -0.0053781294991234038 3.9505153877191691e-05 0 -0.0048845383991379665 -0.00017611773871874638 0 -0.0053781294991234038 3.9505153877191691e-05 0 -0.0054219318995842435 -0.00025608965941684636 0 -0.0059749507132955118 0.00020050730015547629 0 -0.0053781294991234038 3.9505153877191691e-05 0 -0.0058601874364447425 -0.00013313849823524059 0 -0.0053781294991234038 3.9505153877191691e-05 0 -0.0058601874364447425 -0.00013313849823524059 0 -0.0054219318995842435 -0.00025608965941684636 0 -0.0059749507132955118 0.00020050730015547629 0 -0.0054486736191619372 0.00048578296222945278 0 -0.0053781294991234038 3.9505153877191691e-05 0 -0.0054486736191619372 0.00048578296222945278 0 -0.0046716049962869065 0.00025170501897577274 0 -0.0053781294991234038 3.9505153877191691e-05 0 -0.0011827190696655253 -8.6338728235822589e-07 0 -0.0027585073991658617 0.00020215846465171451 0 -0.0019633676346805917 0.00033428350933194803 0 -0.0027585073991658617 0.00020215846465171451 0 -0.0019633676346805917 0.00033428350933194803 0 -0.0028880743677512908 0.00052454558061276366 0 -0.0019633676346805917 0.00033428350933194803 0 -0.0028880743677512908 0.00052454558061276366 0 -0.0025364498700179389 0.0010894374673880406 0 -0.0039346181232396754 7.5867108656984083e-05 0 -0.0027585073991658617 0.00020215846465171451 0 -0.0028880743677512908 0.00052454558061276366 0 -0.0039346181232396754 7.5867108656984083e-05 0 -0.0027585073991658617 0.00020215846465171451 0 -0.0034868998610102014 -0.00014901789223233669 0 -0.004362277786525713 -0.00015422644634444582 0 -0.0034868998610102014 -0.00014901789223233669 0 -0.0044114023488294393 -0.00026717447327052933 0 -0.0039346181232396754 7.5867108656984083e-05 0 -0.004362277786525713 -0.00015422644634444582 0 -0.0034868998610102014 -0.00014901789223233669 0 -0.0011827190696655253 -8.6338728235822589e-07 0 -0.0027585073991658617 0.00020215846465171451 0 -0.0034868998610102014 -0.00014901789223233669 0 -0.0011827190696655253 -8.6338728235822589e-07 0 -0.0034868998610102014 -0.00014901789223233669 0 -0.0036476900395941668 -5.1686173763799378e-07 0 -0.0036476900395941668 -5.1686173763799378e-07 0 -0.004542691695943458 -0.00027014407463369727 0 -0.0051643355957488452 -0.00023247435150364334 0 -0.0034868998610102014 -0.00014901789223233669 0 -0.0036476900395941668 -5.1686173763799378e-07 0 -0.004542691695943458 -0.00027014407463369727 0 -0.0034868998610102014 -0.00014901789223233669 0 -0.004542691695943458 -0.00027014407463369727 0 -0.0044114023488294393 -0.00026717447327052933 0 -0.004542691695943458 -0.00027014407463369727 0 -0.0044114023488294393 -0.00026717447327052933 0 -0.0049711562372759784 -0.00036360921824154781 0 -0.004542691695943458 -0.00027014407463369727 0 -0.0052241357463911741 -0.00038305327079324092 0 -0.0049711562372759784 -0.00036360921824154781 0 -0.0052241357463911741 -0.00038305327079324092 0 -0.0055977615461666784 -0.00033250833981274806 0 -0.0056368336078779753 -0.00043528904647347145 0 -0.0052241357463911741 -0.00038305327079324092 0 -0.0055977615461666784 -0.00033250833981274806 0 -0.0051643355957488452 -0.00023247435150364334 0 -0.004542691695943458 -0.00027014407463369727 0 -0.0052241357463911741 -0.00038305327079324092 0 -0.0051643355957488452 -0.00023247435150364334 0 -0.0036476900395941668 -5.1686173763799378e-07 0 -0.0051643355957488452 -0.00023247435150364334 0 -0.0061123021363986094 -1.2191576815532834e-07 0 -0.0055977615461666784 -0.00033250833981274806 0 -0.0051643355957488452 -0.00023247435150364334 0 -0.0063343684678358707 -3.3930547544760863e-05 0 -0.0056789704909005218 -0.00037722885207022342 0 -0.0054766942706078936 -0.00040292526045989849 0 -0.0059410108609988087 -0.00048893303019363621 0 -0.0056789704909005218 -0.00037722885207022342 0 -0.0058793429461647447 -0.00035239911705663634 0 -0.0054219318995842435 -0.00025608965941684636 0 -0.0056789704909005218 -0.00037722885207022342 0 -0.0054219318995842435 -0.00025608965941684636 0 -0.0054766942706078936 -0.00040292526045989849 0 -0.0056789704909005218 -0.00037722885207022342 0 -0.0058793429461647447 -0.00035239911705663634 0 -0.0059410108609988087 -0.00048893303019363621 0 -0.006275815842636632 -0.0004664453993528776 0 -0.0058793429461647447 -0.00035239911705663634 0 -0.0059410108609988087 -0.00048893303019363621 0 -0.0058793429461647447 -0.00035239911705663634 0 -0.0058601874364447425 -0.00013313849823524059 0 -0.0054219318995842435 -0.00025608965941684636 0 -0.0061338303036936759 -0.00029918818281182285 0 -0.0058793429461647447 -0.00035239911705663634 0 -0.0058601874364447425 -0.00013313849823524059 0 -0.0048845383991379665 -0.00017611773871874638 0 -0.0054219318995842435 -0.00025608965941684636 0 -0.0054766942706078936 -0.00040292526045989849 0 -0.004362277786525713 -0.00015422644634444582 0 -0.0044114023488294393 -0.00026717447327052933 0 -0.0049711562372759784 -0.00036360921824154781 0 -0.004362277786525713 -0.00015422644634444582 0 -0.0048845383991379665 -0.00017611773871874638 0 -0.0049711562372759784 -0.00036360921824154781 0 -0.0048845383991379665 -0.00017611773871874638 0 -0.0049711562372759784 -0.00036360921824154781 0 -0.0054766942706078936 -0.00040292526045989849 0 -0.0054766942706078936 -0.00040292526045989849 0 -0.0054568680165895103 -0.00044057712400513938 0 -0.0058520513885350258 -0.0005082137437148938 0 -0.0049711562372759784 -0.00036360921824154781 0 -0.0054766942706078936 -0.00040292526045989849 0 -0.0054568680165895103 -0.00044057712400513938 0 -0.0052241357463911741 -0.00038305327079324092 0 -0.0049711562372759784 -0.00036360921824154781 0 -0.0054568680165895103 -0.00044057712400513938 0 -0.0054568680165895103 -0.00044057712400513938 0 -0.0056368336078779753 -0.00043528904647347145 0 -0.0058520513885350258 -0.0005082137437148938 0 -0.0052241357463911741 -0.00038305327079324092 0 -0.0054568680165895103 -0.00044057712400513938 0 -0.0056368336078779753 -0.00043528904647347145 0 -0.0056368336078779753 -0.00043528904647347145 0 -0.0058520513885350258 -0.0005082137437148938 0 -0.0061157853960900552 -0.00050012806926992017 0 -0.0058520513885350258 -0.0005082137437148938 0 -0.0059410108609988087 -0.00048893303019363621 0 -0.0063062421240216307 -0.00060683550865673285 0 -0.0054766942706078936 -0.00040292526045989849 0 -0.0058520513885350258 -0.0005082137437148938 0 -0.0059410108609988087 -0.00048893303019363621 0 -0.0063074114694238832 -0.00057435767466250832 0 -0.006275815842636632 -0.0004664453993528776 0 -0.0059410108609988087 -0.00048893303019363621 0 -0.0063074114694238832 -0.00057435767466250832 0 -0.0065096132423204467 -0.00065404584942248636 0 -0.0063062421240216307 -0.00060683550865673285 0 -0.0063074114694238832 -0.00057435767466250832 0 -0.0059410108609988087 -0.00048893303019363621 0 -0.0063062421240216307 -0.00060683550865673285 0 -0.0063062421240216307 -0.00060683550865673285 0 -0.0066631631980963099 -0.00066749527389792988 0 -0.0067261696297529587 -0.00071307947600834378 0 -0.0066631631980963099 -0.00066749527389792988 0 -0.0067261696297529587 -0.00071307947600834378 0 -0.007067051993811831 -0.00076891805792563917 0 -0.0058520513885350258 -0.0005082137437148938 0 -0.0063062421240216307 -0.00060683550865673285 0 -0.0061157853960900552 -0.00050012806926992017 0 -0.0063062421240216307 -0.00060683550865673285 0 -0.0066631631980963099 -0.00066749527389792988 0 -0.0061157853960900552 -0.00050012806926992017 0 -0.0061157853960900552 -0.00050012806926992017 0 -0.0058918388350806643 -0.0003828248662552311 0 -0.0062166133860035149 -0.00071463773965228198 0 -0.0056368336078779753 -0.00043528904647347145 0 -0.0061157853960900552 -0.00050012806926992017 0 -0.0058918388350806643 -0.0003828248662552311 0 -0.0061157853960900552 -0.00050012806926992017 0 -0.007042094023191627 -0.00078793997230334708 0 -0.0062166133860035149 -0.00071463773965228198 0 -0.0066631631980963099 -0.00066749527389792988 0 -0.007042094023191627 -0.00078793997230334708 0 -0.007067051993811831 -0.00076891805792563917 0 -0.0066631631980963099 -0.00066749527389792988 0 -0.0061157853960900552 -0.00050012806926992017 0 -0.007042094023191627 -0.00078793997230334708 0 -0.0061123021363986094 -1.2191576815532834e-07 0 -0.0063343684678358707 -3.3930547544760863e-05 0 -0.0085774774143831233 -3.1425685827328919e-07 0 -0.0051643355957488452 -0.00023247435150364334 0 -0.0061123021363986094 -1.2191576815532834e-07 0 -0.0063343684678358707 -3.3930547544760863e-05 0 -0.0063343684678358707 -3.3930547544760863e-05 0 -0.0058918388350806643 -0.0003828248662552311 0 -0.0062166133860035149 -0.00071463773965228198 0 -0.0055977615461666784 -0.00033250833981274806 0 -0.0063343684678358707 -3.3930547544760863e-05 0 -0.0058918388350806643 -0.0003828248662552311 0 -0.0055977615461666784 -0.00033250833981274806 0 -0.0056368336078779753 -0.00043528904647347145 0 -0.0058918388350806643 -0.0003828248662552311 0 -0.006602295743180147 -0.00010294675079383445 0 -0.0079580280140700219 -0.00046210541669439598 0 -0.0063343684678358707 -3.3930547544760863e-05 0 -0.0097087039805601929 -4.6039382258785841e-05 0 -0.0085774774143831233 -3.1425685827328919e-07 0 -0.0097087039805601929 -4.6039382258785841e-05 0 -0.0085774774143831233 -3.1425685827328919e-07 0 -0.011017649458512477 -0.00053880473295187805 0 -0.0085774774143831233 -3.1425685827328919e-07 0 -0.011017649458512477 -0.00053880473295187805 0 -0.011041787237836659 -4.1652293944351523e-07 0 -0.007042094023191627 -0.00078793997230334708 0 -0.0077437688209922532 -0.0011916263826434572 0 -0.0079816876828918068 -0.00096312215171742265 0 -0.0079580280140700219 -0.00046210541669439598 0 -0.0093136190243709761 -0.00084886711945624373 0 -0.007042094023191627 -0.00078793997230334708 0 -0.0062166133860035149 -0.00071463773965228198 0 -0.0077437688209922532 -0.0011916263826434572 0 -0.0097087039805601929 -4.6039382258785841e-05 0 -0.011017649458512477 -0.00053880473295187805 0 -0.010957849691242524 -0.00071346349919567916 0 -0.0077437688209922532 -0.0011916263826434572 0 -0.0087841454932392656 -0.00099164410331578959 0 -0.0079816876828918068 -0.00096312215171742265 0 -0.0087841454932392656 -0.00099164410331578959 0 -0.0079816876828918068 -0.00096312215171742265 0 -0.008198189168477631 -0.0010103777178805432 0 -0.007042094023191627 -0.00078793997230334708 0 -0.0079816876828918068 -0.00096312215171742265 0 -0.0076207589412509626 -0.00089120091849991022 0 -0.0079816876828918068 -0.00096312215171742265 0 -0.0078829147216166549 -0.00095318624064285196 0 -0.008198189168477631 -0.0010103777178805432 0 -0.0079816876828918068 -0.00096312215171742265 0 -0.0078829147216166549 -0.00095318624064285196 0 -0.0076207589412509626 -0.00089120091849991022 0 -0.0080429200922181674 -0.00099612958239236014 0 -0.0081087459398007447 -0.001009431264459624 0 -0.0075201829302565006 -0.00084266234630663809 0 -0.0080429200922181674 -0.00099612958239236014 0 -0.0078829147216166549 -0.00095318624064285196 0 -0.008198189168477631 -0.0010103777178805432 0 -0.0080429200922181674 -0.00099612958239236014 0 -0.008198189168477631 -0.0010103777178805432 0 -0.0083071224481518057 -0.0009980374294275428 0 -0.0080429200922181674 -0.00099612958239236014 0 -0.0081536517277096959 -0.0010341095041910755 0 -0.0083071224481518057 -0.0009980374294275428 0 -0.0082313598394775905 -0.0010478805896843805 0 -0.0084529815178183594 -0.0011262248865003019 0 -0.0081536517277096959 -0.0010341095041910755 0 -0.0083071224481518057 -0.0009980374294275428 0 -0.0082781957336549705 -0.00087999494454233231 0 -0.0090802953025384114 -0.00067898565235773381 0 -0.0087841454932392656 -0.00099164410331578959 0 -0.0083071224481518057 -0.0009980374294275428 0 -0.0087900655696041066 -0.00069712271458610296 0 -0.0084163696156710453 -0.0010196548955100908 0 -0.0087841454932392656 -0.00099164410331578959 0 -0.008198189168477631 -0.0010103777178805432 0 -0.0083071224481518057 -0.0009980374294275428 0 -0.0084898388044315314 -0.00068522031742342246 0 -0.0083071224481518057 -0.0009980374294275428 0 -0.0082781957336549705 -0.00087999494454233231 0 -0.0084529815178183594 -0.0011262248865003019 0 -0.0092706204868765411 -0.0008874641153628558 0 -0.010149583705761715 -0.00077626643192934739 0 -0.010195347539757958 -0.00094195070740754074 0 -0.010332537264232717 -0.00084159586561780725 0 -0.0087435129531274539 -0.0019242673503214521 0 -0.0088224748704831355 -0.0016027843653880565 0 -0.0075401020106197359 -0.0024472748461280627 0 -0.007193392651647328 -0.0023229438144129642 0 -0.0072923325752642385 -0.0022301895051884527 0 -0.010499355237432624 -0.00090996929223123753 0 -0.010376853795557087 -0.00092482140806177343 0 -0.010332537264232717 -0.00084159586561780725 0 -0.010195347539757958 -0.00094195070740754074 0 -0.010376853795557087 -0.00092482140806177343 0 -0.010332537264232717 -0.00084159586561780725 0 -0.007193392651647328 -0.0023229438144129642 0 -0.0072923325752642385 -0.0022301895051884527 0 -0.0071292250904246481 -0.002149783080041893 0 -0.0071292250904246481 -0.002149783080041893 0 -0.0072380302885553327 -0.002036324101680339 0 -0.0070636255297957416 -0.0020032080007350559 0 -0.0072923325752642385 -0.0022301895051884527 0 -0.0071292250904246481 -0.002149783080041893 0 -0.0072380302885553327 -0.002036324101680339 0 -0.0073813436667237208 -0.0020991243307241711 0 -0.0072923325752642385 -0.0022301895051884527 0 -0.0072380302885553327 -0.002036324101680339 0 -0.0084529815178183594 -0.0011262248865003019 0 -0.0088224748704831355 -0.0016027843653880565 0 -0.0068217891392636214 -0.0021694725924371779 0 -0.007193392651647328 -0.0023229438144129642 0 -0.0071292250904246481 -0.002149783080041893 0 -0.0068217891392636214 -0.0021694725924371779 0 -0.0071292250904246481 -0.002149783080041893 0 -0.0070636255297957416 -0.0020032080007350559 0 -0.0068217891392636214 -0.0021694725924371779 0 -0.0070636255297957416 -0.0020032080007350559 0 -0.0069377364757379732 -0.0018825936336289474 0 -0.0068217891392636214 -0.0021694725924371779 0 -0.0069377364757379732 -0.0018825936336289474 0 -0.0067628200690085152 -0.001692993067789629 0 -0.0069377364757379732 -0.0018825936336289474 0 -0.0071237724965191032 -0.0017475668531797277 0 -0.0067628200690085152 -0.001692993067789629 0 -0.0070636255297957416 -0.0020032080007350559 0 -0.0069377364757379732 -0.0018825936336289474 0 -0.0071237724965191032 -0.0017475668531797277 0 -0.0073341642390827898 -0.0018626838923411892 0 -0.0072380302885553327 -0.002036324101680339 0 -0.0071237724965191032 -0.0017475668531797277 0 -0.0073813436667237208 -0.0020991243307241711 0 -0.0073341642390827898 -0.0018626838923411892 0 -0.0072380302885553327 -0.002036324101680339 0 -0.0072380302885553327 -0.002036324101680339 0 -0.0070636255297957416 -0.0020032080007350559 0 -0.0071237724965191032 -0.0017475668531797277 0 -0.0073341642390827898 -0.0018626838923411892 0 -0.0071237724965191032 -0.0017475668531797277 0 -0.0072649533878023599 -0.0015119439338982215 0 -0.0071237724965191032 -0.0017475668531797277 0 -0.0072649533878023599 -0.0015119439338982215 0 -0.0070573536192970014 -0.0013803091697552798 0 -0.0071237724965191032 -0.0017475668531797277 0 -0.0070573536192970014 -0.0013803091697552798 0 -0.0067628200690085152 -0.001692993067789629 0 -0.0068891587031410535 -0.00095504744740348762 0 -0.0068640321014631512 -0.00091415405366126903 0 -0.0075201829302565006 -0.00084266234630663809 0 -0.0068640321014631512 -0.00091415405366126903 0 -0.0070395856264128236 -0.00081008008011730734 0 -0.0075201829302565006 -0.00084266234630663809 0 -0.0069547363168669073 -0.0009992513320606594 0 -0.0070908168291520446 -0.0013850643450926347 0 -0.0068891587031410535 -0.00095504744740348762 0 -0.0070573536192970014 -0.0013803091697552798 0 -0.0067628200690085152 -0.001692993067789629 0 -0.0070395856264128236 -0.00081008008011730734 0 -0.0073465277376781827 -0.00082769175698298647 0 -0.0075201829302565006 -0.00084266234630663809 0 -0.0068201660941661132 -0.0008146055772776296 0 -0.0068640321014631512 -0.00091415405366126903 0 -0.0070395856264128236 -0.00081008008011730734 0 -0.0067036775293689357 -0.00073224135995994327 0 -0.0068201660941661132 -0.0008146055772776296 0 -0.0070395856264128236 -0.00081008008011730734 0 -0.0067036775293689357 -0.00073224135995994327 0 -0.0070395856264128236 -0.00081008008011730734 0 -0.0067261696297529587 -0.00071307947600834378 0 -0.0070395856264128236 -0.00081008008011730734 0 -0.0067261696297529587 -0.00071307947600834378 0 -0.007067051993811831 -0.00076891805792563917 0 -0.0070395856264128236 -0.00081008008011730734 0 -0.007067051993811831 -0.00076891805792563917 0 -0.0073465277376781827 -0.00082769175698298647 0 -0.007042094023191627 -0.00078793997230334708 0 -0.007067051993811831 -0.00076891805792563917 0 -0.0076207589412509626 -0.00089120091849991022 0 -0.007067051993811831 -0.00076891805792563917 0 -0.0073465277376781827 -0.00082769175698298647 0 -0.0076207589412509626 -0.00089120091849991022 0 -0.0078829147216166549 -0.00095318624064285196 0 -0.0076207589412509626 -0.00089120091849991022 0 -0.0075201829302565006 -0.00084266234630663809 0 -0.0073465277376781827 -0.00082769175698298647 0 -0.0076207589412509626 -0.00089120091849991022 0 -0.0075201829302565006 -0.00084266234630663809 0 -0.0084529815178183594 -0.0011262248865003019 0 -0.0070908168291520446 -0.0013850643450926347 0 -0.0080429200922181674 -0.00099612958239236014 0 -0.0078829147216166549 -0.00095318624064285196 0 -0.0075201829302565006 -0.00084266234630663809 0 0.0073835578654202491 0.0023275840116402965 0 0.0077797872886802401 0.0021824895521839671 0 0.0075110993481377272 0.0017896804339750066 0 0.0073835578654202491 0.0023275840116402965 0 0.0077797872886802401 0.0021824895521839671 0 0.0077066576626281654 0.0026101227212717926 0 0.0077797872886802401 0.0021824895521839671 0 0.008219272222239558 0.0019077769658789325 0 0.0081970735393152392 0.0024208873282729271 0 0.0077797872886802401 0.0021824895521839671 0 0.0077066576626281654 0.0026101227212717926 0 0.0081970735393152392 0.0024208873282729271 0 0.008219272222239558 0.0019077769658789325 0 0.0089401553018778352 0.0016323251250902743 0 0.0078293125453861231 0.0011297969710457097 0 0.008219272222239558 0.0019077769658789325 0 0.0075110993481377272 0.0017896804339750066 0 0.0078293125453861231 0.0011297969710457097 0 0.0077797872886802401 0.0021824895521839671 0 0.008219272222239558 0.0019077769658789325 0 0.0075110993481377272 0.0017896804339750066 0 0.0073835578654202491 0.0023275840116402965 0 0.0075110993481377272 0.0017896804339750066 0 0.0070126072369832574 0.0019993807780578575 0 0.0067575991646292525 0.0014874996745178654 0 0.010034795888347638 0.0022824653058176997 0 0.0075110993481377272 0.0017896804339750066 0 0.0070126072369832574 0.0019993807780578575 0 0.0068192152322289886 0.0012937636871997293 0 0.0070126072369832574 0.0019993807780578575 0 0.006862068734393603 0.00203609679777498 0 0.0069658470611263928 0.0019158363793094475 0 0.006862068734393603 0.00203609679777498 0 0.0067013350165611718 0.0019687953746740966 0 0.0067225993119289012 0.0021281582948824026 0 0.0070126072369832574 0.0019993807780578575 0 0.006862068734393603 0.00203609679777498 0 0.0068319419807238114 0.0022676351990992029 0 0.006862068734393603 0.00203609679777498 0 0.0068319419807238114 0.0022676351990992029 0 0.0067225993119289012 0.0021281582948824026 0 0.0068319419807238114 0.0022676351990992029 0 0.0066676425071146373 0.0023473397643056617 0 0.0067225993119289012 0.0021281582948824026 0 0.0068319419807238114 0.0022676351990992029 0 0.0067390412955815509 0.0025305018795338942 0 0.0068472498148637161 0.0025079319746910958 0 0.0068319419807238114 0.0022676351990992029 0 0.0067390412955815509 0.0025305018795338942 0 0.0066676425071146373 0.0023473397643056617 0 0.0070126072369832574 0.0019993807780578575 0 0.0068319419807238114 0.0022676351990992029 0 0.007018903760841696 0.0024919752075526027 0 0.0073835578654202491 0.0023275840116402965 0 0.0070126072369832574 0.0019993807780578575 0 0.007018903760841696 0.0024919752075526027 0 0.0068319419807238114 0.0022676351990992029 0 0.007018903760841696 0.0024919752075526027 0 0.0068472498148637161 0.0025079319746910958 0 0.007018903760841696 0.0024919752075526027 0 0.0069384371781360601 0.0028667009677362516 0 0.0072498828259306303 0.0027506717740176877 0 0.007018903760841696 0.0024919752075526027 0 0.0068050965997278126 0.0027228701879199839 0 0.0069384371781360601 0.0028667009677362516 0 0.007018903760841696 0.0024919752075526027 0 0.0068472498148637161 0.0025079319746910958 0 0.0068050965997278126 0.0027228701879199839 0 0.0067390412955815509 0.0025305018795338942 0 0.0068472498148637161 0.0025079319746910958 0 0.0068050965997278126 0.0027228701879199839 0 0.0067390412955815509 0.0025305018795338942 0 0.0068050965997278126 0.0027228701879199839 0 0.0066783604920867372 0.0026946168142994815 0 0.0068050965997278126 0.0027228701879199839 0 0.0066850442704071223 0.002815305660780123 0 0.0067982732627251997 0.0029502859868501263 0 0.0068050965997278126 0.0027228701879199839 0 0.0066783604920867372 0.0026946168142994815 0 0.0066850442704071223 0.002815305660780123 0 0.0068050965997278126 0.0027228701879199839 0 0.0069384371781360601 0.0028667009677362516 0 0.0067982732627251997 0.0029502859868501263 0 0.0069384371781360601 0.0028667009677362516 0 0.0069441767878460712 0.0031218191614198806 0 0.0067982732627251997 0.0029502859868501263 0 0.0072498828259306303 0.0027506717740176877 0 0.0073826324063898212 0.003017122032099731 0 0.0069441767878460712 0.0031218191614198806 0 0.0069384371781360601 0.0028667009677362516 0 0.0072498828259306303 0.0027506717740176877 0 0.0069441767878460712 0.0031218191614198806 0 0.0073835578654202491 0.0023275840116402965 0 0.0072498828259306303 0.0027506717740176877 0 0.0077066576626281654 0.0026101227212717926 0 0.0073835578654202491 0.0023275840116402965 0 0.007018903760841696 0.0024919752075526027 0 0.0072498828259306303 0.0027506717740176877 0 0.0072498828259306303 0.0027506717740176877 0 0.0077066576626281654 0.0026101227212717926 0 0.0073826324063898212 0.003017122032099731 0 0.0077066576626281654 0.0026101227212717926 0 0.0079150823328435673 0.002908833330781178 0 0.0081970735393152392 0.0024208873282729271 0 0.0077066576626281654 0.0026101227212717926 0 0.0073826324063898212 0.003017122032099731 0 0.0079150823328435673 0.002908833330781178 0 0.0073826324063898212 0.003017122032099731 0 0.0079150823328435673 0.002908833330781178 0 0.0076550067126080279 0.0032376020768595166 0 0.0079150823328435673 0.002908833330781178 0 0.008226180538400114 0.0031939912121944527 0 0.0076550067126080279 0.0032376020768595166 0 0.0079150823328435673 0.002908833330781178 0 0.0083318947762957667 0.0028528250886374275 0 0.008226180538400114 0.0031939912121944527 0 0.0084096240896632153 0.0029807812463137056 0 0.0083318947762957667 0.0028528250886374275 0 0.008226180538400114 0.0031939912121944527 0 0.0084096240896632153 0.0029807812463137056 0 0.0087126030093104059 0.0031529465893935212 0 0.008226180538400114 0.0031939912121944527 0 0.0084096240896632153 0.0029807812463137056 0 0.0085003967115122037 0.0027880415262342825 0 0.0087126030093104059 0.0031529465893935212 0 0.0091328887935973047 0.0026987110558071344 0 0.0083451837631828944 0.0028813404866765988 0 0.009197818725716813 0.0027881661475974437 0 0.0087294332160426681 0.0024278170540891308 0 0.0083318947762957667 0.0028528250886374275 0 0.009197818725716813 0.0027881661475974437 0 0.0087294332160426681 0.0024278170540891308 0 0.0091843213290446445 0.0021702119391577017 0 0.009197818725716813 0.0027881661475974437 0 0.0095293992541605355 0.0023448227552676773 0 0.0091843213290446445 0.0021702119391577017 0 0.0084096240896632153 0.0029807812463137056 0 0.0085003967115122037 0.0027880415262342825 0 0.0083318947762957667 0.0028528250886374275 0 0.0079150823328435673 0.002908833330781178 0 0.0083318947762957667 0.0028528250886374275 0 0.0081970735393152392 0.0024208873282729271 0 0.0087294332160426681 0.0024278170540891308 0 0.0083318947762957667 0.0028528250886374275 0 0.0081970735393152392 0.0024208873282729271 0 0.0038824720389665584 0.0036031406219819814 0 0.0047522526960485862 0.0032255641023132874 0 0.0040987025704552447 0.0028313479822678228 0 0.0068280807426680254 0.0031294171816290579 0 0.0073966650670310805 0.003359779759248894 0 0.0038824720389665584 0.0036031406219819814 0 0.0047522526960485862 0.0032255641023132874 0 0.0045385891441529873 0.0042566134562249357 0 0.0085003967115122037 0.0027880415262342825 0 0.0087126030093104059 0.0031529465893935212 0 0.0087758048308785985 0.0027112314745679866 0 0.0091328887935973047 0.0026987110558071344 0 0.0073966650670310805 0.003359779759248894 0 0.009197818725716813 0.0027881661475974437 0 0.0097846171600457169 0.0026270230238332731 0 0.0095293992541605355 0.0023448227552676773 0 0.0073966650670310805 0.003359779759248894 0 0.0046778412800684652 0.0040538865035955858 0 0.0038824720389665584 0.0036031406219819814 0 0.0045385891441529873 0.0042566134562249357 0 0.003595526928959189 0.0045320427953000697 0 0.0065069142914650421 0.0042417115557206592 0 0.007267721445796696 0.0040189090117608234 0 0.0062527775819328285 0.0034464606978893927 0 0.007471706722851832 0.0030948574917581866 0 0.007267721445796696 0.0040189090117608234 0 0.0062527775819328285 0.0034464606978893927 0 0.0073966650670310805 0.003359779759248894 0 0.008604834508997336 0.0027839938017578652 0 0.0097846171600457169 0.0026270230238332731 0 0.0098974324502789941 0.0020493015045098418 0 0.0095293992541605355 0.0023448227552676773 0 0.0098974324502789941 0.0020493015045098418 0 0.0095293992541605355 0.0023448227552676773 0 0.0095674389159923056 0.0020447175338930944 0 0.0095293992541605355 0.0023448227552676773 0 0.0095674389159923056 0.0020447175338930944 0 0.0091843213290446445 0.0021702119391577017 0 0.0095674389159923056 0.0020447175338930944 0 0.0095952221471329469 0.0017381575560124745 0 0.0093871597889515334 0.0018934507450913492 0 0.0098974324502789941 0.0020493015045098418 0 0.0095674389159923056 0.0020447175338930944 0 0.0095952221471329469 0.0017381575560124745 0 0.0098974324502789941 0.0020493015045098418 0 0.0095952221471329469 0.0017381575560124745 0 0.0099777629526594316 0.0016028589601924294 0 0.0094307329085370154 0.0023607658838890695 0 0.0093995022926993063 0.0017604473959835728 0 0.0095750460990744034 0.0016251501122038691 0 0.0094307329085370154 0.0023607658838890695 0 0.0095952221471329469 0.0017381575560124745 0 0.0096671752242294962 0.0014816024335690175 0 0.0094327124383747126 0.0016237314807653305 0 0.0095952221471329469 0.0017381575560124745 0 0.0096260209861214318 0.001509612984451225 0 0.0099777629526594316 0.0016028589601924294 0 0.0094307329085370154 0.0023607658838890695 0 0.0077846445226381761 0.0039942759999719007 0 0.008604834508997336 0.0027839938017578652 0 0.0077846445226381761 0.0039942759999719007 0 0.0065069142914650421 0.0042417115557206592 0 0.007267721445796696 0.0040189090117608234 0 0.0070648004404038414 0.0049451149800506132 0 0.0065069142914650421 0.0042417115557206592 0 0.0070648004404038414 0.0049451149800506132 0 0.0054417165024814853 0.0045555789292827699 0 0.008219272222239558 0.0019077769658789325 0 0.0087703084878700908 0.0020565973751482751 0 0.0081970735393152392 0.0024208873282729271 0 0.0087294332160426681 0.0024278170540891308 0 0.0087703084878700908 0.0020565973751482751 0 0.0081970735393152392 0.0024208873282729271 0 0.0087294332160426681 0.0024278170540891308 0 0.0087703084878700908 0.0020565973751482751 0 0.0091843213290446445 0.0021702119391577017 0 0.0091843213290446445 0.0021702119391577017 0 0.0093871597889515334 0.0018934507450913492 0 0.0091831198013038288 0.0017928395713724407 0 0.0095674389159923056 0.0020447175338930944 0 0.0091843213290446445 0.0021702119391577017 0 0.0093871597889515334 0.0018934507450913492 0 0.0087703084878700908 0.0020565973751482751 0 0.0091843213290446445 0.0021702119391577017 0 0.0091831198013038288 0.0017928395713724407 0 0.0091831198013038288 0.0017928395713724407 0 0.0094327124383747126 0.0016237314807653305 0 0.0092834343853445168 0.0015091698742159859 0 0.0093871597889515334 0.0018934507450913492 0 0.0091831198013038288 0.0017928395713724407 0 0.0094327124383747126 0.0016237314807653305 0 0.0095952221471329469 0.0017381575560124745 0 0.0093871597889515334 0.0018934507450913492 0 0.0094327124383747126 0.0016237314807653305 0 0.0094327124383747126 0.0016237314807653305 0 0.0092834343853445168 0.0015091698742159859 0 0.0094882631723023601 0.0013833301135676439 0 0.0096671752242294962 0.0014816024335690175 0 0.0094327124383747126 0.0016237314807653305 0 0.0094882631723023601 0.0013833301135676439 0 0.0091831198013038288 0.0017928395713724407 0 0.0092834343853445168 0.0015091698742159859 0 0.0089401553018778352 0.0016323251250902743 0 0.008219272222239558 0.0019077769658789325 0 0.0087703084878700908 0.0020565973751482751 0 0.0089401553018778352 0.0016323251250902743 0 0.0087703084878700908 0.0020565973751482751 0 0.0091831198013038288 0.0017928395713724407 0 0.0089401553018778352 0.0016323251250902743 0 0.0089401553018778352 0.0016323251250902743 0 0.0095255101316558694 0.0011230687709985027 0 0.0078293125453861231 0.0011297969710457097 0 0.0092834343853445168 0.0015091698742159859 0 0.0089401553018778352 0.0016323251250902743 0 0.0095255101316558694 0.0011230687709985027 0 0.0092834343853445168 0.0015091698742159859 0 0.0095255101316558694 0.0011230687709985027 0 0.0094882631723023601 0.0013833301135676439 0 0.0095255101316558694 0.0011230687709985027 0 0.0094882631723023601 0.0013833301135676439 0 0.0095996471548833225 0.0013921524654147356 0 0.0094932492243851915 0.0013381647437601394 0 0.0094882631723023601 0.0013833301135676439 0 0.0095996471548833225 0.0013921524654147356 0 0.0095255101316558694 0.0011230687709985027 0 0.0095996471548833225 0.0013921524654147356 0 0.0099575099540714015 0.0016269902840169762 0 0.0095996471548833225 0.0013921524654147356 0 0.0099575099540714015 0.0016269902840169762 0 0.0099280068171927662 0.0019805925027210859 0 0.0095996471548833225 0.0013921524654147356 0 0.0094933120317614202 0.001567886228911888 0 0.0099280068171927662 0.0019805925027210859 0 0.0099575099540714015 0.0016269902840169762 0 0.010411297871187603 0.001613578534745352 0 0.010453893188976502 0.0020401422228579712 0 0.0095255101316558694 0.0011230687709985027 0 0.0099575099540714015 0.0016269902840169762 0 0.010411297871187603 0.001613578534745352 0 0.0077846445226381761 0.0039942759999719007 0 0.0077974552643743046 0.0048812958310151386 0 0.0079252654083772443 0.0041141820882874764 0 0.0078309741553284351 0.004611246130255528 0 0.0080312706346430604 0.0044368296241117967 0 0.0078045138371151696 0.0048192307311845555 0 0.0077724012119856105 0.0049628891210210264 0 0.0076572772780247166 0.0049111773596781615 0 0.0094307329085370154 0.0023607658838890695 0 0.0087315934786905032 0.0032892633318026211 0 0.0082431057724678437 0.0041887629232078404 0 0.0080312706346430604 0.0044368296241117967 0 0.0081181295800915876 0.0048181221889753659 0 0.0094932492243851915 0.0013381647437601394 0 0.0095996471548833225 0.0013921524654147356 0 0.0094933120317614202 0.001567886228911888 0 0.0082431057724678437 0.0041887629232078404 0 0.0079252654083772443 0.0041141820882874764 0 0.0080312706346430604 0.0044368296241117967 0 0.0078309741553284351 0.004611246130255528 0 0.0080312706346430604 0.0044368296241117967 0 0.0081181295800915876 0.0048181221889753659 0 0.0077974552643743046 0.0048812958310151386 0 0.0077839833312617224 0.0049899690589565119 0 0.0077724012119856105 0.0049628891210210264 0 0.0077829169357009689 0.0050481637396231818 0 0.0076933008529173228 0.0050049164685745436 0 0.0078309741553284351 0.004611246130255528 0 0.0081181295800915876 0.0048181221889753659 0 0.0077829169357009689 0.0050481637396231818 0 0.0081181295800915876 0.0048181221889753659 0 0.0077829169357009689 0.0050481637396231818 0 0.0079858124406925971 0.0052169970241218973 0 0.0077829169357009689 0.0050481637396231818 0 0.0079858124406925971 0.0052169970241218973 0 0.0077513324582592236 0.0051962955310799154 0 0.0087315934786905032 0.0032892633318026211 0 0.0088261417836060264 0.0037250067365340398 0 0.0094933120317614202 0.001567886228911888 0 0.0096008652812340309 0.0023360503048870137 0 0.0099280068171927662 0.0019805925027210859 0 0.0096008652812340309 0.0023360503048870137 0 0.0099280068171927662 0.0019805925027210859 0 0.010270909967498255 0.0028184741178964457 0 0.0079858124406925971 0.0052169970241218973 0 0.0077513324582592236 0.0051962955310799154 0 0.0078184265682077064 0.0053189915719907147 0 0.010453893188976502 0.0020401422228579712 0 0.0099280068171927662 0.0019805925027210859 0 0.010567111841252527 0.0024928717750886233 0 0.0099575099540714015 0.0016269902840169762 0 0.010453893188976502 0.0020401422228579712 0 0.0099280068171927662 0.0019805925027210859 0 0.0099280068171927662 0.0019805925027210859 0 0.010567111841252527 0.0024928717750886233 0 0.010270909967498255 0.0028184741178964457 0 0.010453893188976502 0.0020401422228579712 0 0.010567111841252527 0.0024928717750886233 0 0.011096067105554143 0.0025905540317635142 0 0.010453893188976502 0.0020401422228579712 0 0.011165110758519668 0.0020441563983508312 0 0.011096067105554143 0.0025905540317635142 0 0.011587685836422605 0.0026242967159621363 0 0.011165110758519668 0.0020441563983508312 0 0.011096067105554143 0.0025905540317635142 0 0.011587685836422605 0.0026242967159621363 0 0.011165110758519668 0.0020441563983508312 0 0.011962440989514543 0.002327824066215684 0 0.01186248104129164 0.0024880511448713738 0 0.011205750722525139 0.0025938146972429572 0 0.010411297871187603 0.001613578534745352 0 0.010453893188976502 0.0020401422228579712 0 0.011165110758519668 0.0020441563983508312 0 0.010411297871187603 0.001613578534745352 0 0.011165110758519668 0.0020441563983508312 0 0.011028646898734666 0.00098746216711693567 0 0.011165110758519668 0.0020441563983508312 0 0.011028646898734666 0.00098746216711693567 0 0.011632134217965771 0.0016168088898808599 0 0.011028646898734666 0.00098746216711693567 0 0.011930063938060948 0.001004175344982871 0 0.011632134217965771 0.0016168088898808599 0 0.0075110993481377272 0.0017896804339750066 0 0.0078293125453861231 0.0011297969710457097 0 0.0068192152322289886 0.0012937636871997293 0 0.0092830758876569063 0.00092788698480411147 0 0.010034795888347638 0.0022824653058176997 0 0.0095825012511210044 0.0011439764472116647 0 0.0092830758876569063 0.00092788698480411147 0 0.0095255101316558694 0.0011230687709985027 0 0.010411297871187603 0.001613578534745352 0 0.011028646898734666 0.00098746216711693567 0 0.006862068734393603 0.00203609679777498 0 0.0069658470611263928 0.0019158363793094475 0 0.0067013350165611718 0.0019687953746740966 0 0.010034795888347638 0.0022824653058176997 0 0.010702917725813355 0.0031853785684215546 0 0.014626270664064902 0.0046273119051199402 0 0.014596492172905522 0.0042120809273821554 0 0.014259671727324737 0.0046789703632252105 0 0.011930063938060948 0.001004175344982871 0 0.011632134217965771 0.0016168088898808599 0 0.012152815839716679 0.0018578227345465706 0 0.010034795888347638 0.0022824653058176997 0 0.013829903725418686 0.0032277877749552529 0 0.014596492172905522 0.0042120809273821554 0 0.014549832867553791 0.0036177646139673274 0 0.014305986343117097 0.0040354732958683172 0 0.011632134217965771 0.0016168088898808599 0 0.012152815839716679 0.0018578227345465706 0 0.011962440989514543 0.002327824066215684 0 0.011165110758519668 0.0020441563983508312 0 0.011632134217965771 0.0016168088898808599 0 0.011962440989514543 0.002327824066215684 0 0.011587685836422605 0.0026242967159621363 0 0.011962440989514543 0.002327824066215684 0 0.012363350128403314 0.0026448174883569155 0 0.01186248104129164 0.0024880511448713738 0 0.013476776847338997 0.0030377267537268866 0 0.013829903725418686 0.0032277877749552529 0 0.013476776847338997 0.0030377267537268866 0 0.012152815839716679 0.0018578227345465706 0 0.011962440989514543 0.002327824066215684 0 0.012363350128403314 0.0026448174883569155 0 0.014549832867553791 0.0036177646139673274 0 0.014305986343117097 0.0040354732958683172 0 0.014068003696365072 0.0035071686316514071 0 0.013476776847338997 0.0030377267537268866 0 0.014271694974866045 0.0035048922637006684 0 0.014596492172905522 0.0042120809273821554 0 0.014305986343117097 0.0040354732958683172 0 0.014101134838923913 0.0043904037018588759 0 0.014305986343117097 0.0040354732958683172 0 0.013930346756593073 0.0041443343586125975 0 0.014101134838923913 0.0043904037018588759 0 0.013930346756593073 0.0041443343586125975 0 0.013745384081732951 0.004428611895708541 0 0.014101134838923913 0.0043904037018588759 0 0.014305986343117097 0.0040354732958683172 0 0.013930346756593073 0.0041443343586125975 0 0.014068003696365072 0.0035071686316514071 0 0.013930346756593073 0.0041443343586125975 0 0.014068003696365072 0.0035071686316514071 0 0.013949619863298464 0.0036383492562317107 0 0.013930346756593073 0.0041443343586125975 0 0.013529048410883633 0.0045455395452354223 0 0.013949619863298464 0.0036383492562317107 0 0.013529048410883633 0.0045455395452354223 0 0.013949619863298464 0.0036383492562317107 0 0.013393304449991837 0.0036083254744278589 0 0.013529048410883633 0.0045455395452354223 0 0.011351562089865319 0.0046653714846632034 0 0.013393304449991837 0.0036083254744278589 0 0.013529048410883633 0.0045455395452354223 0 0.014576091566407164 0.006945511187404948 0 0.012144945056282564 0.0055857449322165012 0 0.013365762615401655 0.0043647124997872322 0 0.014804735840571581 0.0061338396517325623 0 0.013930346756593073 0.0041443343586125975 0 0.013529048410883633 0.0045455395452354223 0 0.013745384081732951 0.004428611895708541 0 0.014576091566407164 0.006945511187404948 0 0.013217929544391846 0.0081590164763278225 0 0.014319747765954346 0.0083176301733538897 0 0.014576091566407164 0.006945511187404948 0 0.012144945056282564 0.0055857449322165012 0 0.012260900510697932 0.0072833678483355865 0 0.014576091566407164 0.006945511187404948 0 0.013217929544391846 0.0081590164763278225 0 0.012260900510697932 0.0072833678483355865 0 0.0051854706238967903 0.0079621133164872911 0 0.0075028775609577497 0.007862654666946493 0 0.0045810783260613981 0.0065970991898644171 0 0.013217929544391846 0.0081590164763278225 0 0.012260900510697932 0.0072833678483355865 0 0.012338560624750822 0.0092722228374486435 0 0.0098122243598072895 0.0085050756592002126 0 0.0076119745274110997 0.0077943638120811769 0 0.013217929544391846 0.0081590164763278225 0 0.013957951142695612 0.0091259161787228902 0 0.012338560624750822 0.0092722228374486435 0 0.013217929544391846 0.0081590164763278225 0 0.014319747765954346 0.0083176301733538897 0 0.013957951142695612 0.0091259161787228902 0 0.0098122243598072895 0.0085050756592002126 0 0.0098829061229068101 0.0057179031504361582 0 0.014804735840571581 0.0061338396517325623 0 0.0098829061229068101 0.0057179031504361582 0 0.0051854706238967903 0.0079621133164872911 0 0.0029675640355361732 0.0080403971587343134 0 0.0045810783260613981 0.0065970991898644171 0 0.014576091566407164 0.006945511187404948 0 0.014319747765954346 0.0083176301733538897 0 0.015508421310116732 0.00902846888480042 0 0.014319747765954346 0.0083176301733538897 0 0.013957951142695612 0.0091259161787228902 0 0.015508421310116732 0.00902846888480042 0 0.013880841356109248 0.0047167120887228724 0 0.014259671727324737 0.0046789703632252105 0 0.014101134838923913 0.0043904037018588759 0 0.0098829061229068101 0.0057179031504361582 0 0.010702917725813355 0.0031853785684215546 0 0.0064527303470876722 0.0020389968614773508 0 0.0067013350165611718 0.0019687953746740966 0 0.0066084553095172617 0.0021147652402916206 0 0.014596492172905522 0.0042120809273821554 0 0.014259671727324737 0.0046789703632252105 0 0.014101134838923913 0.0043904037018588759 0 0.013745384081732951 0.004428611895708541 0 0.013880841356109248 0.0047167120887228724 0 0.014101134838923913 0.0043904037018588759 0 0.0051196826947444698 0.0058512421786823428 0 0.0064163369323201941 0.0058015217809143519 0 0.0073389626759761467 0.0067617395576537011 0 0.0073036415495608426 0.0054446451842991876 0 0.0064163369323201941 0.0058015217809143519 0 0.0073389626759761467 0.0067617395576537011 0 0.0051196826947444698 0.0058512421786823428 0 0.0064163369323201941 0.0058015217809143519 0 0.0060265179091656641 0.0054479797082671736 0 0.0073036415495608426 0.0054446451842991876 0 0.0064163369323201941 0.0058015217809143519 0 0.0060265179091656641 0.0054479797082671736 0 0.0073036415495608426 0.0054446451842991876 0 0.0060265179091656641 0.0054479797082671736 0 0.0066977569336970876 0.0044805095022340518 0 0.0066977569336970876 0.0044805095022340518 0 0.0080252444014735184 0.0044776652585306574 0 0.0072082068852403645 0.0037827630110372447 0 0.0073036415495608426 0.0054446451842991876 0 0.0066977569336970876 0.0044805095022340518 0 0.0080252444014735184 0.0044776652585306574 0 0.0073036415495608426 0.0054446451842991876 0 0.0092999869673970614 0.0047124778849208238 0 0.0080252444014735184 0.0044776652585306574 0 0.0092999869673970614 0.0047124778849208238 0 0.0080252444014735184 0.0044776652585306574 0 0.0084558642616539056 0.0034173841361803759 0 0.0073036415495608426 0.0054446451842991876 0 0.0092999869673970614 0.0047124778849208238 0 0.0089049030321508189 0.0061890182189297581 0 0.0092999869673970614 0.0047124778849208238 0 0.0089049030321508189 0.0061890182189297581 0 0.010076197772905075 0.0054442118481851792 0 0.0073036415495608426 0.0054446451842991876 0 0.0089049030321508189 0.0061890182189297581 0 0.0073389626759761467 0.0067617395576537011 0 0.0089049030321508189 0.0061890182189297581 0 0.010076197772905075 0.0054442118481851792 0 0.010748360411660071 0.0062255456797181089 0 0.0089049030321508189 0.0061890182189297581 0 0.010748360411660071 0.0062255456797181089 0 0.0098757809380310303 0.0071971235713908788 0 0.010076197772905075 0.0054442118481851792 0 0.010748360411660071 0.0062255456797181089 0 0.011351562089865319 0.0046653714846632034 0 0.0092999869673970614 0.0047124778849208238 0 0.010076197772905075 0.0054442118481851792 0 0.011351562089865319 0.0046653714846632034 0 0.0092999869673970614 0.0047124778849208238 0 0.011351562089865319 0.0046653714846632034 0 0.010443639311786329 0.0035117200785496753 0 0.013529048410883633 0.0045455395452354223 0 0.011351562089865319 0.0046653714846632034 0 0.012144945056282564 0.0055857449322165012 0 0.010748360411660071 0.0062255456797181089 0 0.011351562089865319 0.0046653714846632034 0 0.012144945056282564 0.0055857449322165012 0 0.010748360411660071 0.0062255456797181089 0 0.012144945056282564 0.0055857449322165012 0 0.012260900510697932 0.0072833678483355865 0 0.012260900510697932 0.0072833678483355865 0 0.011075855283145168 0.0075415425942267451 0 0.012338560624750822 0.0092722228374486435 0 0.010748360411660071 0.0062255456797181089 0 0.012260900510697932 0.0072833678483355865 0 0.011075855283145168 0.0075415425942267451 0 0.0076119745274110997 0.0077943638120811769 0 0.0054304669765740518 0.0071208792196260154 0 0.0053495531791379102 0.0071263447104896963 0 0.006517619371483211 0.0076505606970483208 0 0.0063828381843029115 0.0070747588020556428 0 0.0076119745274110997 0.0077943638120811769 0 0.0087328260943222279 0.0081611364373172686 0 0.011075855283145168 0.0075415425942267451 0 0.012338560624750822 0.0092722228374486435 0 0.010505038496713276 0.0085927151293548089 0 0.006517619371483211 0.0076505606970483208 0 0.0071075337822775848 0.0073350391405911548 0 0.0082023013387118836 0.0076971640088392534 0 0.0087328260943222279 0.0081611364373172686 0 0.0080730390350506071 0.0077227580585782097 0 0.006517619371483211 0.0076505606970483208 0 0.0063828381843029115 0.0070747588020556428 0 0.0071075337822775848 0.0073350391405911548 0 0.0063828381843029115 0.0070747588020556428 0 0.0071075337822775848 0.0073350391405911548 0 0.0069724094926745719 0.0068217507693813725 0 0.0071075337822775848 0.0073350391405911548 0 0.0074696051230892027 0.0072294402584028644 0 0.0069724094926745719 0.0068217507693813725 0 0.010505038496713276 0.0085927151293548089 0 0.0098757809380310303 0.0071971235713908788 0 0.0082023013387118836 0.0076971640088392534 0 0.011075855283145168 0.0075415425942267451 0 0.010505038496713276 0.0085927151293548089 0 0.0098757809380310303 0.0071971235713908788 0 0.010748360411660071 0.0062255456797181089 0 0.011075855283145168 0.0075415425942267451 0 0.0098757809380310303 0.0071971235713908788 0 0.0089049030321508189 0.0061890182189297581 0 0.0098757809380310303 0.0071971235713908788 0 0.0082023013387118836 0.0076971640088392534 0 0.0089049030321508189 0.0061890182189297581 0 0.0082023013387118836 0.0076971640088392534 0 0.0073389626759761467 0.0067617395576537011 0 0.0077373898996092203 0.0074829640990690177 0 0.0082023013387118836 0.0076971640088392534 0 0.0073389626759761467 0.0067617395576537011 0 0.0077373898996092203 0.0074829640990690177 0 0.0082023013387118836 0.0076971640088392534 0 0.007770364688579846 0.0074180723996980277 0 0.007770364688579846 0.0074180723996980277 0 0.0076784009535672635 0.0078687118767066643 0 0.0080340045634361978 0.0061546409327750129 0 0.0071075337822775848 0.0073350391405911548 0 0.0082023013387118836 0.0076971640088392534 0 0.0074696051230892027 0.0072294402584028644 0 0.0082023013387118836 0.0076971640088392534 0 0.0074696051230892027 0.0072294402584028644 0 0.007770364688579846 0.0074180723996980277 0 0.0074696051230892027 0.0072294402584028644 0 0.007770364688579846 0.0074180723996980277 0 0.0074680302804801093 0.0066580036700689014 0 0.0077373898996092203 0.0074829640990690177 0 0.007770364688579846 0.0074180723996980277 0 0.0076784009535672635 0.0078687118767066643 0 -0.0094437983489621471 -0.0021840377477584908 0 -0.0094705541343864091 -0.0019553593448072048 0 -0.0095560937544718529 -0.0024612080667303629 0 -0.0034945402871826774 0.0013657824253744712 0 -0.0063595998938122782 -0.00088817960033182658 0 -0.0094705541343864091 -0.0019553593448072048 0 -0.0096087785768034541 -0.0016025485218584279 0 -0.0095560937544718529 -0.0024612080667303629 0 0.0034303272399916944 0.0052977245422875666 0 0.00076454831387521031 0.0026613514873397564 0 -0.0005618667726727866 0.0033110436972294721 0 0.0023660551463483767 0.0039661773508305829 0 -0.0032984876118831927 0.00030700195709501083 0 0.0048266853766652735 0.0057078092880516445 0 0.0034303272399916944 0.0052977245422875666 0 0.0051196826947444698 0.0058512421786823428 0 -0.0005618667726727866 0.0033110436972294721 0 0.0023660551463483767 0.0039661773508305829 0 0.0077373898996092203 0.0074829640990690177 0 0.0076784009535672635 0.0078687118767066643 0 0.0073389626759761467 0.0067617395576537011 0 0.0051196826947444698 0.0058512421786823428 0 0.0076784009535672635 0.0078687118767066643 0 0.0073389626759761467 0.0067617395576537011 0 -0.0093735304532495314 -0.0024897277806378631 0 -0.0095560937544718529 -0.0024612080667303629 0 -0.008551641344927096 -0.0023554468014587208 0 -0.0095178780833381042 -0.0025613257644206727 0 -0.0093735304532495314 -0.0024897277806378631 0 -0.009331025259591362 -0.0025165717776537695 0 -0.0093735304532495314 -0.0024897277806378631 0 -0.008551641344927096 -0.0023554468014587208 0 -0.009331025259591362 -0.0025165717776537695 0 -0.0094791472171535072 -0.0024167107314012411 0 -0.0095178780833381042 -0.0025613257644206727 0 -0.0093735304532495314 -0.0024897277806378631 0 -0.0005618667726727866 0.0033110436972294721 0 -0.0032984876118831927 0.00030700195709501083 0 -0.0066110158809270176 -0.00058284347295203365 0 -0.0094437983489621471 -0.0021840377477584908 0 -0.0094791472171535072 -0.0024167107314012411 0 -0.0095560937544718529 -0.0024612080667303629 0 -0.0094791472171535072 -0.0024167107314012411 0 -0.0093735304532495314 -0.0024897277806378631 0 -0.0095560937544718529 -0.0024612080667303629 0 0.007770364688579846 0.0074180723996980277 0 0.0080340045634361978 0.0061546409327750129 0 0.0074680302804801093 0.0066580036700689014 0 0.0080340045634361978 0.0061546409327750129 0 0.0074680302804801093 0.0066580036700689014 0 0.0073006862595218413 0.0055942964666618883 0 -0.0032984876118831927 0.00030700195709501083 0 -0.0066110158809270176 -0.00058284347295203365 0 -0.008551641344927096 -0.0023554468014587208 0 -0.0063595998938122782 -0.00088817960033182658 0 -0.0081969615368862134 -0.0021671427597348635 0 0.00076454831387521031 0.0026613514873397564 0 -0.0019151713127975698 0.00042885150606120282 0 -0.0066110158809270176 -0.00058284347295203365 0 -0.008551641344927096 -0.0023554468014587208 0 -0.0098442525833406097 -0.0028712619395714605 0 0.0080340045634361978 0.0061546409327750129 0 0.0073006862595218413 0.0055942964666618883 0 0.0070494459660601803 0.003711565773709573 0 0.0073006862595218413 0.0055942964666618883 0 0.0069139693544045802 0.0047952811050164914 0 0.0070494459660601803 0.003711565773709573 0 0.0069139693544045802 0.0047952811050164914 0 0.0061528751034388568 0.0049288913612251708 0 0.0060522724423953608 0.0042361094319193146 0 0.0069139693544045802 0.0047952811050164914 0 0.0061528751034388568 0.0049288913612251708 0 0.0065562586881546137 0.0055852877336450375 0 0.0061528751034388568 0.0049288913612251708 0 0.0065562586881546137 0.0055852877336450375 0 0.0057513606970032854 0.0056285582396903896 0 0.0073006862595218413 0.0055942964666618883 0 0.0069139693544045802 0.0047952811050164914 0 0.0065562586881546137 0.0055852877336450375 0 0.0074680302804801093 0.0066580036700689014 0 0.0073006862595218413 0.0055942964666618883 0 0.0069440637473871586 0.0061789085566024051 0 0.0073006862595218413 0.0055942964666618883 0 0.0065562586881546137 0.0055852877336450375 0 0.0069440637473871586 0.0061789085566024051 0 0.0074696051230892027 0.0072294402584028644 0 0.0074680302804801093 0.0066580036700689014 0 0.0069724094926745719 0.0068217507693813725 0 0.0074680302804801093 0.0066580036700689014 0 0.0069440637473871586 0.0061789085566024051 0 0.0069724094926745719 0.0068217507693813725 0 0.0063828381843029115 0.0070747588020556428 0 0.0069724094926745719 0.0068217507693813725 0 0.0062947895210217182 0.0063124737073695387 0 0.0069440637473871586 0.0061789085566024051 0 0.0069724094926745719 0.0068217507693813725 0 0.0062947895210217182 0.0063124737073695387 0 0.0065562586881546137 0.0055852877336450375 0 0.0062947895210217182 0.0063124737073695387 0 0.0057513606970032854 0.0056285582396903896 0 0.0065562586881546137 0.0055852877336450375 0 0.0069440637473871586 0.0061789085566024051 0 0.0062947895210217182 0.0063124737073695387 0 0.0048983993287830315 0.0071336820126578103 0 0.0063828381843029115 0.0070747588020556428 0 0.0056559387958382626 0.0064213391235095644 0 0.0062947895210217182 0.0063124737073695387 0 0.0056559387958382626 0.0064213391235095644 0 0.0057513606970032854 0.0056285582396903896 0 0.0063828381843029115 0.0070747588020556428 0 0.0062947895210217182 0.0063124737073695387 0 0.0056559387958382626 0.0064213391235095644 0 0.0048983993287830315 0.0071336820126578103 0 0.0056559387958382626 0.0064213391235095644 0 0.0049246197072279696 0.0060052704263982709 0 0.0056559387958382626 0.0064213391235095644 0 0.0049246197072279696 0.0060052704263982709 0 0.0057513606970032854 0.0056285582396903896 0 0.004988752006684285 0.005216156121194011 0 0.0057513606970032854 0.0056285582396903896 0 0.0054164997359391438 0.0045378232884793653 0 0.0049246197072279696 0.0060052704263982709 0 0.004988752006684285 0.005216156121194011 0 0.0057513606970032854 0.0056285582396903896 0 0.0061528751034388568 0.0049288913612251708 0 0.0054164997359391438 0.0045378232884793653 0 0.0060522724423953608 0.0042361094319193146 0 0.0061528751034388568 0.0049288913612251708 0 0.0057513606970032854 0.0056285582396903896 0 0.0054164997359391438 0.0045378232884793653 0 0.004988752006684285 0.005216156121194011 0 0.0054164997359391438 0.0045378232884793653 0 0.0046592562081538696 0.0045629599331472393 0 0.0054164997359391438 0.0045378232884793653 0 0.0050731334229659744 0.0038047852811011924 0 0.0046592562081538696 0.0045629599331472393 0 0.005832072295726457 0.0035060483958973595 0 0.0050731334229659744 0.0038047852811011924 0 0.0060522724423953608 0.0042361094319193146 0 0.0054164997359391438 0.0045378232884793653 0 0.0050731334229659744 0.0038047852811011924 0 0.0060522724423953608 0.0042361094319193146 0 0.005832072295726457 0.0035060483958973595 0 0.0050731334229659744 0.0038047852811011924 0 0.0052597332924472513 0.0031308479482636846 0 0.0050731334229659744 0.0038047852811011924 0 0.0052597332924472513 0.0031308479482636846 0 0.0045232023919429048 0.0030780842162449885 0 0.0052597332924472513 0.0031308479482636846 0 0.00512862307148428 0.0024752669767176649 0 0.0045232023919429048 0.0030780842162449885 0 0.00512862307148428 0.0024752669767176649 0 0.0043444279324167711 0.0021901362217780804 0 0.0048815783475016986 0.0018400160377661581 0 0.00512862307148428 0.0024752669767176649 0 0.0053921047089736949 0.0020903424886500603 0 0.0048815783475016986 0.0018400160377661581 0 0.0053921047089736949 0.0020903424886500603 0 0.0057461542190927421 0.0027979725831062115 0 0.0060085903193342052 0.0020377950267846628 0 0.00512862307148428 0.0024752669767176649 0 0.0053921047089736949 0.0020903424886500603 0 0.0057461542190927421 0.0027979725831062115 0 0.0052597332924472513 0.0031308479482636846 0 0.00512862307148428 0.0024752669767176649 0 0.0057461542190927421 0.0027979725831062115 0 0.005832072295726457 0.0035060483958973595 0 0.0052597332924472513 0.0031308479482636846 0 0.0057461542190927421 0.0027979725831062115 0 -0.0019151713127975698 0.00042885150606120282 0 -0.010689770672885016 -0.0032154590259732304 0 -0.01027702557839884 -0.0023146640661990494 0 -0.010367108918137264 -0.0026599397508837736 0 -0.010488010420999363 -0.0027084436749102575 0 -0.0019151713127975698 0.00042885150606120282 0 -0.0022209544484290567 -0.00024089872294618864 0 0.0057461542190927421 0.0027979725831062115 0 0.0069725558186605942 0.0038659304278194084 0 0.0060085903193342052 0.0020377950267846628 0 0.005832072295726457 0.0035060483958973595 0 0.0057461542190927421 0.0027979725831062115 0 0.0069725558186605942 0.0038659304278194084 0 0.005832072295726457 0.0035060483958973595 0 0.0060522724423953608 0.0042361094319193146 0 0.0069725558186605942 0.0038659304278194084 0 0.004259229138117689 0.0045880369644833241 0 -0.0019151713127975698 0.00042885150606120282 0 0.0069139693544045802 0.0047952811050164914 0 0.0060522724423953608 0.0042361094319193146 0 0.0069725558186605942 0.0038659304278194084 0 -0.008551641344927096 -0.0023554468014587208 0 -0.0098442525833406097 -0.0028712619395714605 0 -0.0093445417133490825 -0.0027562809780778685 0 -0.008551641344927096 -0.0023554468014587208 0 -0.0093445417133490825 -0.0027562809780778685 0 -0.009331025259591362 -0.0025165717776537695 0 -0.0096642065788999764 -0.0028372621883839214 0 -0.0095483525741395237 -0.0027347132077253943 0 -0.0097693122153615034 -0.002766444653524173 0 -0.0093445417133490825 -0.0027562809780778685 0 -0.0096642065788999764 -0.0028372621883839214 0 -0.0095483525741395237 -0.0027347132077253943 0 -0.0098442525833406097 -0.0028712619395714605 0 -0.0093445417133490825 -0.0027562809780778685 0 -0.0096642065788999764 -0.0028372621883839214 0 -0.0098366368153766873 -0.0027769082586483933 0 -0.0096214488919060884 -0.0027074361774559693 0 -0.0095483525741395237 -0.0027347132077253943 0 -0.0098366368153766873 -0.0027769082586483933 0 -0.0095483525741395237 -0.0027347132077253943 0 -0.0097693122153615034 -0.002766444653524173 0 -0.0096214488919060884 -0.0027074361774559693 0 -0.0095178780833381042 -0.0025613257644206727 0 -0.009331025259591362 -0.0025165717776537695 0 -0.0096214488919060884 -0.0027074361774559693 0 -0.0095483525741395237 -0.0027347132077253943 0 -0.009331025259591362 -0.0025165717776537695 0 -0.0093445417133490825 -0.0027562809780778685 0 -0.0095483525741395237 -0.0027347132077253943 0 -0.009331025259591362 -0.0025165717776537695 0 0.001270601596597842 0.0048595420258254205 0 0.0020040980739981073 0.0061900977388603265 0 0.0018314029795237264 0.0056185525340389855 0 0.0053309927737238971 0.0032538689066831179 0 0.0041461446970606089 0.0036790885369109888 0 0.0065327032057311456 0.0023259475589346235 0 0.0065607109229228484 0.002255631420523479 0 0.0064946089318830471 0.0021650676387539539 0 0.0018565425486698791 0.0051056838045943961 0 0.001270601596597842 0.0048595420258254205 0 0.0018314029795237264 0.0056185525340389855 0 0.0018565425486698791 0.0051056838045943961 0 0.0022359684236197114 0.0052037597498337598 0 0.0018314029795237264 0.0056185525340389855 0 0.0022359684236197114 0.0052037597498337598 0 0.0018314029795237264 0.0056185525340389855 0 0.0026833889965886806 0.0055928822580382223 0 0.0022359684236197114 0.0052037597498337598 0 0.0027095277187713825 0.0050249595974807574 0 0.0026833889965886806 0.0055928822580382223 0 0.0021426457306623781 0.0046269331207123409 0 0.0027095277187713825 0.0050249595974807574 0 0.0027117025694160814 0.0045026564397866653 0 0.0018565425486698791 0.0051056838045943961 0 0.0022359684236197114 0.0052037597498337598 0 0.0021426457306623781 0.0046269331207123409 0 0.0022359684236197114 0.0052037597498337598 0 0.0021426457306623781 0.0046269331207123409 0 0.0027095277187713825 0.0050249595974807574 0 0.0018565425486698791 0.0051056838045943961 0 0.0021426457306623781 0.0046269331207123409 0 0.001270601596597842 0.0048595420258254205 0 0.0065120096044446931 0.0023656019731342543 0 0.0066676425071146373 0.0023473397643056617 0 0.006603912871837171 0.0025676529218199855 0 0.0053309927737238971 0.0032538689066831179 0 0.0062082682226201899 0.0026882989453624025 0 0.0067390412955815509 0.0025305018795338942 0 0.0066676425071146373 0.0023473397643056617 0 0.006603912871837171 0.0025676529218199855 0 0.0066676425071146373 0.0023473397643056617 0 0.0065607109229228484 0.002255631420523479 0 0.0067225993119289012 0.0021281582948824026 0 0.0065120096044446931 0.0023656019731342543 0 0.0066676425071146373 0.0023473397643056617 0 0.0065607109229228484 0.002255631420523479 0 0.0053309927737238971 0.0032538689066831179 0 0.0059312384536515756 0.0023324861487791777 0 0.0065607109229228484 0.002255631420523479 0 0.0067225993119289012 0.0021281582948824026 0 0.0066084553095172617 0.0021147652402916206 0 0.0065607109229228484 0.002255631420523479 0 0.0066084553095172617 0.0021147652402916206 0 0.0064946089318830471 0.0021650676387539539 0 0.0067013350165611718 0.0019687953746740966 0 0.0067225993119289012 0.0021281582948824026 0 0.0066084553095172617 0.0021147652402916206 0 0.0018314029795237264 0.0056185525340389855 0 0.0029558686833279766 0.0066220304320971854 0 0.0045810783260613981 0.0065970991898644171 0 0.0064527303470876722 0.0020389968614773508 0 0.0066084553095172617 0.0021147652402916206 0 0.0064946089318830471 0.0021650676387539539 0 0.0021124251305671589 0.0057134607836541278 0 0.0036160685777633208 0.0063573091763662543 0 0.0020040980739981073 0.0061900977388603265 0 0.0018314029795237264 0.0056185525340389855 0 0.0029558686833279766 0.0066220304320971854 0 0.0098829061229068101 0.0057179031504361582 0 0.0041461446970606089 0.0036790885369109888 0 0.0029675640355361732 0.0080403971587343134 0 0.0020040980739981073 0.0061900977388603265 0 0.0029558686833279766 0.0066220304320971854 0 0.0018314029795237264 0.0056185525340389855 0 0.0032693459164045207 0.0062998448517739948 0 0.0026833889965886806 0.0055928822580382223 0 0.0029675640355361732 0.0080403971587343134 0 0.0029558686833279766 0.0066220304320971854 0 0.0045810783260613981 0.0065970991898644171 0 0.0032693459164045207 0.0062998448517739948 0 0.0026833889965886806 0.0055928822580382223 0 0.0034150412625742676 0.0054006255712093203 0 0.0032693459164045207 0.0062998448517739948 0 0.0041456046325795788 0.0060288495232134311 0 0.0034150412625742676 0.0054006255712093203 0 0.0076119745274110997 0.0077943638120811769 0 0.0036160685777633208 0.0063573091763662543 0 0.0048983993287830315 0.0071336820126578103 0 0.0032693459164045207 0.0062998448517739948 0 0.0041456046325795788 0.0060288495232134311 0 0.0048983993287830315 0.0071336820126578103 0 0.0049246197072279696 0.0060052704263982709 0 0.0041456046325795788 0.0060288495232134311 0 0.0049246197072279696 0.0060052704263982709 0 0.0041456046325795788 0.0060288495232134311 0 0.0042586822203036483 0.0053539481095523514 0 0.004988752006684285 0.005216156121194011 0 0.0042586822203036483 0.0053539481095523514 0 0.0046592562081538696 0.0045629599331472393 0 0.0049246197072279696 0.0060052704263982709 0 0.004988752006684285 0.005216156121194011 0 0.0042586822203036483 0.0053539481095523514 0 0.0041456046325795788 0.0060288495232134311 0 0.0042586822203036483 0.0053539481095523514 0 0.0034150412625742676 0.0054006255712093203 0 0.0042586822203036483 0.0053539481095523514 0 0.0038410358407243695 0.0045172796101599026 0 0.0034150412625742676 0.0054006255712093203 0 0.0042586822203036483 0.0053539481095523514 0 0.0038410358407243695 0.0045172796101599026 0 0.0046592562081538696 0.0045629599331472393 0 0.0027095277187713825 0.0050249595974807574 0 0.0026833889965886806 0.0055928822580382223 0 0.0034150412625742676 0.0054006255712093203 0 0.0027095277187713825 0.0050249595974807574 0 0.0034150412625742676 0.0054006255712093203 0 0.0031710336572430262 0.0047379190450954432 0 0.0038410358407243695 0.0045172796101599026 0 0.0031710336572430262 0.0047379190450954432 0 0.003225021304060301 0.0040726164330859944 0 0.0038410358407243695 0.0045172796101599026 0 0.0034150412625742676 0.0054006255712093203 0 0.0031710336572430262 0.0047379190450954432 0 0.0031710336572430262 0.0047379190450954432 0 0.0027117025694160814 0.0045026564397866653 0 0.003225021304060301 0.0040726164330859944 0 0.0027095277187713825 0.0050249595974807574 0 0.0031710336572430262 0.0047379190450954432 0 0.0027117025694160814 0.0045026564397866653 0 0.0027117025694160814 0.0045026564397866653 0 0.0025549445886427356 0.0039364248733526975 0 0.003225021304060301 0.0040726164330859944 0 0.0038410358407243695 0.0045172796101599026 0 0.003225021304060301 0.0040726164330859944 0 0.0038084583871856592 0.0035141900778341748 0 0.003225021304060301 0.0040726164330859944 0 0.0031404480349182013 0.0032893313939953098 0 0.0038084583871856592 0.0035141900778341748 0 0.0025549445886427356 0.0039364248733526975 0 0.003225021304060301 0.0040726164330859944 0 0.0031404480349182013 0.0032893313939953098 0 0.0038410358407243695 0.0045172796101599026 0 0.0046592562081538696 0.0045629599331472393 0 0.004383834359587893 0.003960520170982083 0 0.0050731334229659744 0.0038047852811011924 0 0.0046592562081538696 0.0045629599331472393 0 0.004383834359587893 0.003960520170982083 0 0.0038410358407243695 0.0045172796101599026 0 0.004383834359587893 0.003960520170982083 0 0.0038084583871856592 0.0035141900778341748 0 0.004383834359587893 0.003960520170982083 0 0.0038084583871856592 0.0035141900778341748 0 0.0045232023919429048 0.0030780842162449885 0 0.0050731334229659744 0.0038047852811011924 0 0.004383834359587893 0.003960520170982083 0 0.0045232023919429048 0.0030780842162449885 0 0.0038084583871856592 0.0035141900778341748 0 0.0045232023919429048 0.0030780842162449885 0 0.0037933165287494415 0.0026922032405063338 0 0.0037933165287494415 0.0026922032405063338 0 0.0031762593405040324 0.0022166078768569306 0 0.0038107393970489537 0.0017999445473277549 0 0.0037933165287494415 0.0026922032405063338 0 0.0043444279324167711 0.0021901362217780804 0 0.0038107393970489537 0.0017999445473277549 0 0.00512862307148428 0.0024752669767176649 0 0.0045232023919429048 0.0030780842162449885 0 0.0043444279324167711 0.0021901362217780804 0 0.0045232023919429048 0.0030780842162449885 0 0.0037933165287494415 0.0026922032405063338 0 0.0043444279324167711 0.0021901362217780804 0 0.0031404480349182013 0.0032893313939953098 0 0.0031762593405040324 0.0022166078768569306 0 0.0017859167629392188 0.0032193217049291691 0 0.0031404480349182013 0.0032893313939953098 0 0.0038084583871856592 0.0035141900778341748 0 0.0037933165287494415 0.0026922032405063338 0 0.0031404480349182013 0.0032893313939953098 0 0.0037933165287494415 0.0026922032405063338 0 0.0031762593405040324 0.0022166078768569306 0 0.0065545126637447278 0.0027158397325694516 0 0.0066850442704071223 0.002815305660780123 0 0.0066382581883694322 0.0028246338600612965 0 0.0040194836719814149 0.0030816304689413598 0 0.0043945797548442427 0.0021892646469978292 0 0.0031762593405040324 0.0022166078768569306 0 0.0017859167629392188 0.0032193217049291691 0 0.002251169012202675 0.0015652561971058407 0 0.0021426457306623781 0.0046269331207123409 0 0.0025549445886427356 0.0039364248733526975 0 0.0017859167629392188 0.0032193217049291691 0 0.0053309927737238971 0.0032538689066831179 0 0.0040194836719814149 0.0030816304689413598 0 0.0025549445886427356 0.0039364248733526975 0 0.0031404480349182013 0.0032893313939953098 0 0.0017859167629392188 0.0032193217049291691 0 0.0021426457306623781 0.0046269331207123409 0 0.001270601596597842 0.0048595420258254205 0 0.0017859167629392188 0.0032193217049291691 0 0.0021426457306623781 0.0046269331207123409 0 0.0027117025694160814 0.0045026564397866653 0 0.0025549445886427356 0.0039364248733526975 0 0.0065545126637447278 0.0027158397325694516 0 0.006603912871837171 0.0025676529218199855 0 0.0066783604920867372 0.0026946168142994815 0 0.0065418993266417513 0.002476455440107743 0 0.0065545126637447278 0.0027158397325694516 0 0.006603912871837171 0.0025676529218199855 0 0.0067390412955815509 0.0025305018795338942 0 0.006603912871837171 0.0025676529218199855 0 0.0066783604920867372 0.0026946168142994815 0 0.0065545126637447278 0.0027158397325694516 0 0.0066783604920867372 0.0026946168142994815 0 0.0066850442704071223 0.002815305660780123 0 0.0066850442704071223 0.002815305660780123 0 0.0066972153310745769 0.0028459653461857617 0 0.0067982732627251997 0.0029502859868501263 0 0.0066850442704071223 0.002815305660780123 0 0.0066972153310745769 0.0028459653461857617 0 0.0066382581883694322 0.0028246338600612965 0 0.0066972153310745769 0.0028459653461857617 0 0.0067521379681102283 0.0028144252521744161 0 0.00678786138620138 0.0029227316176970732 0 0.0066972153310745769 0.0028459653461857617 0 0.0067521379681102283 0.0028144252521744161 0 0.0066934717046516108 0.0027959462315422286 0 0.0066934717046516108 0.0027959462315422286 0 0.0066382581883694322 0.0028246338600612965 0 0.0066830086921055454 0.0027595688381171278 0 0.0043945797548442427 0.0021892646469978292 0 0.0053520272057891085 0.0013454257361164847 0 0.0066972153310745769 0.0028459653461857617 0 0.0066934717046516108 0.0027959462315422286 0 0.0066382581883694322 0.0028246338600612965 0 0.0031762593405040324 0.0022166078768569306 0 0.002251169012202675 0.0015652561971058407 0 0.0034215956622905656 0.0011342338790336207 0 0.0031762593405040324 0.0022166078768569306 0 0.0034215956622905656 0.0011342338790336207 0 0.0038107393970489537 0.0017999445473277549 0 0.0043444279324167711 0.0021901362217780804 0 0.0038107393970489537 0.0017999445473277549 0 0.0043431281475310888 0.0012878911232931086 0 0.0043444279324167711 0.0021901362217780804 0 0.0043431281475310888 0.0012878911232931086 0 0.0048815783475016986 0.0018400160377661581 0 0.0034215956622905656 0.0011342338790336207 0 0.0043431281475310888 0.0012878911232931086 0 0.0039685778117958303 0.00078912226339670349 0 0.0034215956622905656 0.0011342338790336207 0 0.0038107393970489537 0.0017999445473277549 0 0.0043431281475310888 0.0012878911232931086 0 0.0043431281475310888 0.0012878911232931086 0 0.0044070747698884 0.00047668338364888235 0 0.0039685778117958303 0.00078912226339670349 0 0.0043431281475310888 0.0012878911232931086 0 0.0044070747698884 0.00047668338364888235 0 0.0047589126800332247 0.00083193438919376835 0 0.0044070747698884 0.00047668338364888235 0 0.0039685778117958303 0.00078912226339670349 0 0.0036476335475630938 0.0003311637568128068 0 0.0034215956622905656 0.0011342338790336207 0 0.0039685778117958303 0.00078912226339670349 0 0.0036476335475630938 0.0003311637568128068 0 0.0044070747698884 0.00047668338364888235 0 0.0036476335475630938 0.0003311637568128068 0 0.0038179300520530491 -0.00043809493713751243 0 0.0042281901155116156 0.0002640614009971946 0 0.0036562168273109241 -0.0006317765096776225 0 0.0044070747698884 0.00047668338364888235 0 0.0041152705649856909 -0.0007783524934576717 0 0.0031221788860249016 -0.0012012502730071944 0 0.002251169012202675 0.0015652561971058407 0 0.0034215956622905656 0.0011342338790336207 0 0.0027146939422235689 1.6521188860666716e-05 0 0.0036476335475630938 0.0003311637568128068 0 0.0027146939422235689 1.6521188860666716e-05 0 0.0038179300520530491 -0.00043809493713751243 0 0.0034215956622905656 0.0011342338790336207 0 0.0036476335475630938 0.0003311637568128068 0 0.0027146939422235689 1.6521188860666716e-05 0 0.0027146939422235689 1.6521188860666716e-05 0 0.0031030873093945764 -0.0014164703542504137 0 0.0031953687801692231 -0.0013992777255682001 0 0.0027146939422235689 1.6521188860666716e-05 0 0.0038179300520530491 -0.00043809493713751243 0 0.0031953687801692231 -0.0013992777255682001 0 0.0066830086921055454 0.0027595688381171278 0 0.0065995120517303024 0.0027352155913153275 0 0.0066853838950565641 0.0027392940067329785 0 0.0053520272057891085 0.0013454257361164847 0 -0.0018509320599447705 -0.00013551576309405155 0 0.0041152705649856909 -0.0007783524934576717 0 0.0031221788860249016 -0.0012012502730071944 0 0.0038056232176767141 -0.0026393487520809593 0 0.0041152705649856909 -0.0007783524934576717 0 0.0038056232176767141 -0.0026393487520809593 0 0.005144386192459726 0.00019332517604533938 0 0.0031221788860249016 -0.0012012502730071944 0 0.0038056232176767141 -0.0026393487520809593 0 0.0019514198054796548 -0.0030014011279009718 0 0.0036562168273109241 -0.0006317765096776225 0 -0.0022696987629063675 -0.00079839288716836306 0 -0.0098466906994782548 -0.0020335023418191099 0 -0.009911798462610635 -0.0017791524285694137 0 -0.01024371796209847 -0.0017917712677017932 0 -0.0098328545710131398 -0.0020383498699574282 0 -0.0097834184988706899 -0.0019159245500756773 0 -0.0095976138916940169 -0.0018962633984478526 0 -0.0098466906994782548 -0.0020335023418191099 0 -0.0097834184988706899 -0.0019159245500756773 0 -0.009911798462610635 -0.0017791524285694137 0 -0.0058617172191481499 -0.0013530694454425634 0 -0.0065200034798581271 -0.0019143048560815977 0 -0.0098328545710131398 -0.0020383498699574282 0 -0.0095976138916940169 -0.0018962633984478526 0 -0.0092237290788369161 -0.0019210609962141943 0 -0.0095976138916940169 -0.0018962633984478526 0 -0.0094739748829231162 -0.0018009454806750633 0 -0.0092237290788369161 -0.0019210609962141943 0 -0.0058617172191481499 -0.0013530694454425634 0 -0.0022696987629063675 -0.00079839288716836306 0 -0.0097834184988706899 -0.0019159245500756773 0 -0.0095976138916940169 -0.0018962633984478526 0 -0.0096694867863941891 -0.0018396479860757846 0 -0.0094739748829231162 -0.0018009454806750633 0 -0.0095589673003166654 -0.0016983359432390945 0 -0.0093961914144713807 -0.0016917125879422684 0 -0.0095976138916940169 -0.0018962633984478526 0 -0.0094739748829231162 -0.0018009454806750633 0 -0.0095929104416999506 -0.001798192980292649 0 -0.0094739748829231162 -0.0018009454806750633 0 -0.0095589673003166654 -0.0016983359432390945 0 -0.0095929104416999506 -0.001798192980292649 0 -0.0095589673003166654 -0.0016983359432390945 0 -0.0093961914144713807 -0.0016917125879422684 0 -0.0096012302607236949 -0.0014563830342253596 0 -0.0096680700507390284 -0.0016219498939953536 0 -0.0098073554012283806 -0.0015847652401251905 0 -0.0096012302607236949 -0.0014563830342253596 0 -0.0095589673003166654 -0.0016983359432390945 0 -0.0096680700507390284 -0.0016219498939953536 0 -0.0097041432453367996 -0.0017486166028460066 0 -0.0095589673003166654 -0.0016983359432390945 0 -0.0096680700507390284 -0.0016219498939953536 0 -0.0096012302607236949 -0.0014563830342253596 0 -0.0095589673003166654 -0.0016983359432390945 0 -0.0097041432453367996 -0.0017486166028460066 0 -0.0095929104416999506 -0.001798192980292649 0 -0.0095976138916940169 -0.0018962633984478526 0 -0.0095929104416999506 -0.001798192980292649 0 -0.0096694867863941891 -0.0018396479860757846 0 -0.0097041432453367996 -0.0017486166028460066 0 -0.0095929104416999506 -0.001798192980292649 0 -0.0096694867863941891 -0.0018396479860757846 0 -0.0097834184988706899 -0.0019159245500756773 0 -0.0097041432453367996 -0.0017486166028460066 0 -0.009911798462610635 -0.0017791524285694137 0 -0.0097834184988706899 -0.0019159245500756773 0 -0.0097041432453367996 -0.0017486166028460066 0 -0.0096694867863941891 -0.0018396479860757846 0 -0.0097041432453367996 -0.0017486166028460066 0 -0.0098073554012283806 -0.0015847652401251905 0 -0.009911798462610635 -0.0017791524285694137 0 -0.0096680700507390284 -0.0016219498939953536 0 -0.0097041432453367996 -0.0017486166028460066 0 -0.0098073554012283806 -0.0015847652401251905 0 -0.0098073554012283806 -0.0015847652401251905 0 -0.009911798462610635 -0.0017791524285694137 0 -0.01008005465473498 -0.001606525602310227 0 -0.0091858005714797845 -0.0018537967667310107 0 -0.0093961914144713807 -0.0016917125879422684 0 -0.009444857712677595 -0.0011582237552507468 0 -0.0018509320599447705 -0.00013551576309405155 0 -0.0022696987629063675 -0.00079839288716836306 0 -0.0034867988990273445 0.00014323209604101713 0 -0.0033411698078025195 0.00017236566339399491 0 -0.0034458816547202537 -4.943408185303067e-07 0 -0.0022696987629063675 -0.00079839288716836306 0 -0.0041193100616197494 -0.0010038948083757324 0 -0.0018509320599447705 -0.00013551576309405155 0 -0.0041193100616197494 -0.0010038948083757324 0 -0.0092237290788369161 -0.0019210609962141943 0 -0.0091858005714797845 -0.0018537967667310107 0 -0.0093961914144713807 -0.0016917125879422684 0 -0.0094739748829231162 -0.0018009454806750633 0 -0.0092237290788369161 -0.0019210609962141943 0 -0.0093961914144713807 -0.0016917125879422684 0 -0.0086654661661068628 0.00025174009369183611 0 -0.0086645613028473439 0.00024517699223838239 0 -0.0087091457570929384 0.00024415515138181401 0 0.0067083936624539649 0.0027066544818191694 0 0.00673130260251752 0.0027499276597478103 0 0.0066853838950565641 0.0027392940067329785 0 -0.0086654661661068628 0.00025174009369183611 0 -0.0087091457570929384 0.00024415515138181401 0 -0.0086983530282629378 0.00021128445233331458 0 0.0065995120517303024 0.0027352155913153275 0 0.0067083936624539649 0.0027066544818191694 0 0.0066853838950565641 0.0027392940067329785 0 -0.0018509320599447705 -0.00013551576309405155 0 -0.00078136710988911239 0.0016721027859389977 0 0.0067083936624539649 0.0027066544818191694 0 0.00673130260251752 0.0027499276597478103 0 0.0067976090557528455 0.0027155819024968502 0 -0.00078136710988911239 0.0016721027859389977 0 -0.0009096479090080859 0.0012467792810258412 0 0.0067521379681102283 0.0028144252521744161 0 0.00673130260251752 0.0027499276597478103 0 0.0067976090557528455 0.0027155819024968502 0 0.0067521379681102283 0.0028144252521744161 0 0.0066934717046516108 0.0027959462315422286 0 0.00673130260251752 0.0027499276597478103 0 0.0066934717046516108 0.0027959462315422286 0 0.0066830086921055454 0.0027595688381171278 0 0.0066853838950565641 0.0027392940067329785 0 0.0066934717046516108 0.0027959462315422286 0 0.00673130260251752 0.0027499276597478103 0 0.0066853838950565641 0.0027392940067329785 0 -0.010217631488604811 -0.002658679342940797 0 -0.010027847598260045 -0.0026966216572890159 0 -0.009934712313325789 -0.0027180117259007174 0 -0.010176497300770016 -0.0026431677101007816 0 -0.010217631488604811 -0.002658679342940797 0 -0.010027847598260045 -0.0026966216572890159 0 -0.010066790834925014 -0.0027132978254603571 0 -0.010176497300770016 -0.0026431677101007816 0 -0.010027847598260045 -0.0026966216572890159 0 -0.0098366368153766873 -0.0027769082586483933 0 -0.010027847598260045 -0.0026966216572890159 0 -0.0097693122153615034 -0.002766444653524173 0 -0.010027847598260045 -0.0026966216572890159 0 -0.0097693122153615034 -0.002766444653524173 0 -0.009934712313325789 -0.0027180117259007174 0 -0.010689770672885016 -0.0032154590259732304 0 -0.010242315954012772 -0.0026603950822527557 0 -0.0096642065788999764 -0.0028372621883839214 0 -0.009934712313325789 -0.0027180117259007174 0 -0.010008443405366886 -0.0026676255866868934 0 -0.0096642065788999764 -0.0028372621883839214 0 -0.0097693122153615034 -0.002766444653524173 0 -0.009934712313325789 -0.0027180117259007174 0 -0.010217631488604811 -0.002658679342940797 0 -0.009934712313325789 -0.0027180117259007174 0 -0.010008443405366886 -0.0026676255866868934 0 -0.010580410577316469 -0.0025010988612582438 0 -0.010505917878664563 -0.0027039026008544723 0 -0.010842363560942946 -0.0023155833951037513 0 -0.010554104346331415 -0.0027875210403299085 0 -0.010505917878664563 -0.0027039026008544723 0 -0.010655794455461649 -0.0028138169051365272 0 -0.01054258759970529 -0.0027023096068321192 0 -0.010749492908716246 -0.0025597446778183926 0 -0.010580410577316469 -0.0025010988612582438 0 -0.010658446811652749 -0.0023510310598543671 0 -0.010842363560942946 -0.0023155833951037513 0 -0.010580410577316469 -0.0025010988612582438 0 -0.010528419863594292 -0.002339466495145453 0 -0.010658446811652749 -0.0023510310598543671 0 -0.010580410577316469 -0.0025010988612582438 0 -0.010505917878664563 -0.0027039026008544723 0 -0.010271637999546522 -0.0025333158330521025 0 -0.010367108918137264 -0.0026599397508837736 0 -0.010554104346331415 -0.0027875210403299085 0 -0.010505917878664563 -0.0027039026008544723 0 -0.010367108918137264 -0.0026599397508837736 0 -0.010488010420999363 -0.0027084436749102575 0 -0.010505917878664563 -0.0027039026008544723 0 -0.010488010420999363 -0.0027084436749102575 0 -0.010505917878664563 -0.0027039026008544723 0 -0.010271637999546522 -0.0025333158330521025 0 -0.0022209544484290567 -0.00024089872294618864 0 -0.0022084827134373139 -0.001265175987971033 0 0.0060085903193342052 0.0020377950267846628 0 0.0051979734158053674 0.0013077266258126373 0 0.005144386192459726 0.00019332517604533938 0 0.0053921047089736949 0.0020903424886500603 0 0.0060085903193342052 0.0020377950267846628 0 0.0051979734158053674 0.0013077266258126373 0 0.0053921047089736949 0.0020903424886500603 0 0.0048815783475016986 0.0018400160377661581 0 0.0051979734158053674 0.0013077266258126373 0 0.0043431281475310888 0.0012878911232931086 0 0.0051979734158053674 0.0013077266258126373 0 0.0047589126800332247 0.00083193438919376835 0 0.0043431281475310888 0.0012878911232931086 0 0.0048815783475016986 0.0018400160377661581 0 0.0051979734158053674 0.0013077266258126373 0 0.0051979734158053674 0.0013077266258126373 0 0.0047589126800332247 0.00083193438919376835 0 0.005144386192459726 0.00019332517604533938 0 0.0044070747698884 0.00047668338364888235 0 0.0047589126800332247 0.00083193438919376835 0 0.005144386192459726 0.00019332517604533938 0 -0.010580410577316469 -0.0025010988612582438 0 -0.010271637999546522 -0.0025333158330521025 0 -0.010528419863594292 -0.002339466495145453 0 0.0044070747698884 0.00047668338364888235 0 0.0041152705649856909 -0.0007783524934576717 0 0.005144386192459726 0.00019332517604533938 0 -0.0058617172191481499 -0.0013530694454425634 0 -0.0022084827134373139 -0.001265175987971033 0 -0.009857642921290136 -0.001850195220662817 0 -0.010271637999546522 -0.0025333158330521025 0 -0.010361339983394198 -0.0019534882195267364 0 -0.010271637999546522 -0.0025333158330521025 0 -0.010361339983394198 -0.0019534882195267364 0 -0.010528419863594292 -0.002339466495145453 0 -0.01024371796209847 -0.0017917712677017932 0 -0.010807634265247574 -0.0017656723555425126 0 -0.01036586528765474 -0.001483554409258475 0 -0.010474588277116004 -0.002102858833928677 0 -0.01024371796209847 -0.0017917712677017932 0 -0.010807634265247574 -0.0017656723555425126 0 -0.0098466906994782548 -0.0020335023418191099 0 -0.010474588277116004 -0.002102858833928677 0 -0.01024371796209847 -0.0017917712677017932 0 -0.0058617172191481499 -0.0013530694454425634 0 -0.011062615968878566 -0.0021634166066011886 0 -0.01024371796209847 -0.0017917712677017932 0 -0.01008005465473498 -0.001606525602310227 0 -0.01036586528765474 -0.001483554409258475 0 -0.009911798462610635 -0.0017791524285694137 0 -0.01024371796209847 -0.0017917712677017932 0 -0.01008005465473498 -0.001606525602310227 0 -0.010807634265247574 -0.0017656723555425126 0 -0.01089324432386771 -0.002115821330027118 0 -0.011327761024140093 -0.0016607583918598827 0 -0.010474588277116004 -0.002102858833928677 0 -0.010807634265247574 -0.0017656723555425126 0 -0.01089324432386771 -0.002115821330027118 0 -0.010807634265247574 -0.0017656723555425126 0 -0.011327761024140093 -0.0016607583918598827 0 -0.011043074523635852 -0.0015020282387648418 0 -0.01089324432386771 -0.002115821330027118 0 -0.010842363560942946 -0.0023155833951037513 0 -0.011327761024140093 -0.0016607583918598827 0 -0.010361339983394198 -0.0019534882195267364 0 -0.01089324432386771 -0.002115821330027118 0 -0.010679421461451094 -0.0022307807287284876 0 -0.01089324432386771 -0.002115821330027118 0 -0.010679421461451094 -0.0022307807287284876 0 -0.010842363560942946 -0.0023155833951037513 0 -0.011062615968878566 -0.0021634166066011886 0 -0.01061913706360653 -0.0020643257958460901 0 -0.010361339983394198 -0.0019534882195267364 0 -0.010679421461451094 -0.0022307807287284876 0 -0.010528419863594292 -0.002339466495145453 0 -0.010679421461451094 -0.0022307807287284876 0 -0.010528419863594292 -0.002339466495145453 0 -0.010658446811652749 -0.0023510310598543671 0 -0.010679421461451094 -0.0022307807287284876 0 -0.010658446811652749 -0.0023510310598543671 0 -0.010842363560942946 -0.0023155833951037513 0 -0.010554104346331415 -0.0027875210403299085 0 -0.010655794455461649 -0.0028138169051365272 0 -0.010889306402962505 -0.0027427653063800926 0 -0.010242315954012772 -0.0026603950822527557 0 -0.010736277538880051 -0.0027554076758321651 0 -0.010217631488604811 -0.002658679342940797 0 -0.010008443405366886 -0.0026676255866868934 0 -0.010484583947689525 -0.0027650520143769602 0 -0.010484583947689525 -0.0027650520143769602 0 -0.01092379986149038 -0.0026313585665431074 0 -0.010511904085462282 -0.0026222288640052392 0 -0.010217631488604811 -0.002658679342940797 0 -0.010484583947689525 -0.0027650520143769602 0 -0.010511904085462282 -0.0026222288640052392 0 -0.010655794455461649 -0.0028138169051365272 0 -0.010889306402962505 -0.0027427653063800926 0 -0.011020121046073337 -0.0023736411833677287 0 -0.010749492908716246 -0.0025597446778183926 0 -0.011205363532104435 -0.0019889149785051637 0 -0.010484583947689525 -0.0027650520143769602 0 -0.01092379986149038 -0.0026313585665431074 0 -0.011468181718024856 -0.0021462335664388754 0 -0.010736277538880051 -0.0027554076758321651 0 -0.011296198556635108 -0.0022033486256992918 0 -0.010889306402962505 -0.0027427653063800926 0 -0.011020121046073337 -0.0023736411833677287 0 -0.011468181718024856 -0.0021462335664388754 0 -0.01092379986149038 -0.0026313585665431074 0 -0.011985477583869367 -0.0022182466108287731 0 -0.011468181718024856 -0.0021462335664388754 0 -0.011098607241458976 -0.002627822552374997 0 -0.011797365323062444 -0.0024306230997015155 0 -0.01092379986149038 -0.0026313585665431074 0 -0.01320954795741836 -0.0024283451952336133 0 -0.011985477583869367 -0.0022182466108287731 0 -0.01092379986149038 -0.0026313585665431074 0 -0.010394262187013215 -0.002559637407459933 0 -0.010511904085462282 -0.0026222288640052392 0 -0.01092379986149038 -0.0026313585665431074 0 -0.010394262187013215 -0.002559637407459933 0 -0.010352769377865313 -0.0025797091348363889 0 -0.010394262187013215 -0.002559637407459933 0 -0.010511904085462282 -0.0026222288640052392 0 -0.010319319734155214 -0.0025920984911998834 0 -0.010217631488604811 -0.002658679342940797 0 -0.010511904085462282 -0.0026222288640052392 0 -0.010319319734155214 -0.0025920984911998834 0 -0.010176497300770016 -0.0026431677101007816 0 -0.010217631488604811 -0.002658679342940797 0 -0.010319319734155214 -0.0025920984911998834 0 -0.01378502785294318 -1.9748582241731165e-05 0 -0.013466219909703654 -0.00098005455835543042 0 -0.01194131324832081 -0.00079658368289592439 0 -0.013466219909703654 -0.00098005455835543042 0 -0.012402389689704432 -0.0014939024430351796 0 -0.01194131324832081 -0.00079658368289592439 0 -0.013466219909703654 -0.00098005455835543042 0 -0.01320954795741836 -0.0024283451952336133 0 -0.012402389689704432 -0.0014939024430351796 0 -0.011985477583869367 -0.0022182466108287731 0 -0.012402389689704432 -0.0014939024430351796 0 -0.011468181718024856 -0.0021462335664388754 0 -0.01320954795741836 -0.0024283451952336133 0 -0.011985477583869367 -0.0022182466108287731 0 -0.012402389689704432 -0.0014939024430351796 0 -0.011205363532104435 -0.0019889149785051637 0 -0.011840970732256749 -0.00086465723973905533 0 -0.012402389689704432 -0.0014939024430351796 0 -0.011468181718024856 -0.0021462335664388754 0 -0.01194131324832081 -0.00079658368289592439 0 -0.011020121046073337 -0.0023736411833677287 0 -0.011468181718024856 -0.0021462335664388754 0 -0.01194131324832081 -0.00079658368289592439 0 -0.011327761024140093 -0.0016607583918598827 0 -0.01194131324832081 -0.00079658368289592439 0 -0.011213690307828164 -0.0011960693509825266 0 -0.01194131324832081 -0.00079658368289592439 0 -0.010953743434771885 -0.00076987545931487503 0 -0.011213690307828164 -0.0011960693509825266 0 -0.01194131324832081 -0.00079658368289592439 0 -0.010953743434771885 -0.00076987545931487503 0 -0.011335242658568447 0.00017287885212797987 0 -0.010953743434771885 -0.00076987545931487503 0 -0.010310132085778651 -0.00060609177986210004 0 -0.011335242658568447 0.00017287885212797987 0 -0.010953743434771885 -0.00076987545931487503 0 -0.011213690307828164 -0.0011960693509825266 0 -0.010778132703839566 -0.0012553431703452096 0 -0.011213690307828164 -0.0011960693509825266 0 -0.011043074523635852 -0.0015020282387648418 0 -0.010778132703839566 -0.0012553431703452096 0 -0.010953743434771885 -0.00076987545931487503 0 -0.010778132703839566 -0.0012553431703452096 0 -0.010285505675374836 -0.0011123763818721496 0 -0.011327761024140093 -0.0016607583918598827 0 -0.011213690307828164 -0.0011960693509825266 0 -0.011043074523635852 -0.0015020282387648418 0 -0.010807634265247574 -0.0017656723555425126 0 -0.011043074523635852 -0.0015020282387648418 0 -0.010778132703839566 -0.0012553431703452096 0 -0.010807634265247574 -0.0017656723555425126 0 -0.010778132703839566 -0.0012553431703452096 0 -0.01036586528765474 -0.001483554409258475 0 -0.010778132703839566 -0.0012553431703452096 0 -0.01036586528765474 -0.001483554409258475 0 -0.010285505675374836 -0.0011123763818721496 0 -0.01008005465473498 -0.001606525602310227 0 -0.01036586528765474 -0.001483554409258475 0 -0.0099458624015450123 -0.0013844743055843572 0 -0.01036586528765474 -0.001483554409258475 0 -0.010285505675374836 -0.0011123763818721496 0 -0.0099458624015450123 -0.0013844743055843572 0 -0.010953743434771885 -0.00076987545931487503 0 -0.010285505675374836 -0.0011123763818721496 0 -0.010310132085778651 -0.00060609177986210004 0 -0.016670345640893699 0.0012569907645542837 0 -0.016726876917217828 0.0015119271099577247 0 -0.016399978440572508 0.0013575612358494879 0 -0.016726876917217828 0.0015119271099577247 0 -0.016789177951975508 0.0015902458977916755 0 -0.016632059636624473 0.0015831575342810675 0 -0.016726876917217828 0.0015119271099577247 0 -0.016789177951975508 0.0015902458977916755 0 -0.016831002953598993 0.0015914110374449547 0 -0.016789177951975508 0.0015902458977916755 0 -0.016831002953598993 0.0015914110374449547 0 -0.016879443449837574 0.0016127390729010647 0 -0.016670345640893699 0.0012569907645542837 0 -0.016726876917217828 0.0015119271099577247 0 -0.016831002953598993 0.0015914110374449547 0 -0.013628393047357877 0.00045920824685402139 0 -0.014048201437206012 0.00084938493416737097 0 -0.01194131324832081 -0.00079658368289592439 0 -0.011335242658568447 0.00017287885212797987 0 -0.013237771014755201 0.0011410840126419625 0 -0.014048201437206012 0.00084938493416737097 0 -0.01493265168190863 0.0014136656311115577 0 -0.016831002953598993 0.0015914110374449547 0 -0.016636260683316573 0.0018024466162439828 0 -0.016879443449837574 0.0016127390729010647 0 -0.01378502785294318 -1.9748582241731165e-05 0 -0.01194131324832081 -0.00079658368289592439 0 -0.013237771014755201 0.0011410840126419625 0 -0.0087311014105760122 0.00031231668854579859 0 -0.0087821434940728773 0.00027416189734334306 0 -0.0088784681304658903 0.00049736049582329938 0 -0.010302137489515263 -0.0010462764937889146 0 -0.010782392053290736 -0.00059046209808839845 0 -0.0097248290703608482 -0.00015287273901747091 0 -0.010291382162319746 -0.00061259111863293649 0 -0.0091778732372516693 0.00028693702649114171 0 -0.0087311014105760122 0.00031231668854579859 0 -0.0088784681304658903 0.00049736049582329938 0 -0.0087789372197341689 0.00057644063688964498 0 -0.0086983530282629378 0.00021128445233331458 0 -0.0087311014105760122 0.00031231668854579859 0 -0.008736333579199675 0.00025620040123147263 0 -0.0086983530282629378 0.00021128445233331458 0 -0.0087311014105760122 0.00031231668854579859 0 -0.0084664416813643156 0.0001320157819802815 0 -0.0087311014105760122 0.00031231668854579859 0 -0.008736333579199675 0.00025620040123147263 0 -0.0087821434940728773 0.00027416189734334306 0 -0.0087091457570929384 0.00024415515138181401 0 -0.0086983530282629378 0.00021128445233331458 0 -0.008736333579199675 0.00025620040123147263 0 -0.0087091457570929384 0.00024415515138181401 0 -0.008736333579199675 0.00025620040123147263 0 -0.0087821434940728773 0.00027416189734334306 0 -0.010752446993711364 -0.0018315910449859996 0 -0.010302137489515263 -0.0010462764937889146 0 -0.010623852381034799 -0.0013881022061427934 0 -0.0041193100616197494 -0.0010038948083757324 0 -0.012214440971234142 -0.00076270728173954375 0 -0.0086645613028473439 0.00024517699223838239 0 -0.0087091457570929384 0.00024415515138181401 0 -0.0087821434940728773 0.00027416189734334306 0 -0.010752446993711364 -0.0018315910449859996 0 -0.010623852381034799 -0.0013881022061427934 0 -0.010962816380368895 -0.0011633624419648974 0 -0.0041193100616197494 -0.0010038948083757324 0 -0.010291382162319746 -0.00061259111863293649 0 -0.010611336109661394 -0.0015300767462273633 0 -0.012214440971234142 -0.00076270728173954375 0 -0.010623852381034799 -0.0013881022061427934 0 -0.01068361923311589 -0.0010274608320090446 0 -0.011060473705711097 -0.0011636469692790528 0 -0.010302137489515263 -0.0010462764937889146 0 -0.010623852381034799 -0.0013881022061427934 0 -0.01068361923311589 -0.0010274608320090446 0 -0.010285505675374836 -0.0011123763818721496 0 -0.0099458624015450123 -0.0013844743055843572 0 -0.009444857712677595 -0.0011582237552507468 0 -0.0098073554012283806 -0.0015847652401251905 0 -0.0099458624015450123 -0.0013844743055843572 0 -0.0096012302607236949 -0.0014563830342253596 0 -0.0098073554012283806 -0.0015847652401251905 0 -0.01008005465473498 -0.001606525602310227 0 -0.0099458624015450123 -0.0013844743055843572 0 -0.0093961914144713807 -0.0016917125879422684 0 -0.0096012302607236949 -0.0014563830342253596 0 -0.009444857712677595 -0.0011582237552507468 0 -0.0099458624015450123 -0.0013844743055843572 0 -0.0096012302607236949 -0.0014563830342253596 0 -0.009444857712677595 -0.0011582237552507468 0 -0.012214440971234142 -0.00076270728173954375 0 -0.014047893175229838 0.00071491180647517238 0 -0.016670345640893699 0.0012569907645542837 0 -0.016202339190147866 0.00090362290022553515 0 -0.016399978440572508 0.0013575612358494879 0 -0.013628393047357877 0.00045920824685402139 0 -0.012214440971234142 -0.00076270728173954375 0 -0.010285505675374836 -0.0011123763818721496 0 -0.010310132085778651 -0.00060609177986210004 0 -0.009444857712677595 -0.0011582237552507468 0 -0.011060473705711097 -0.0011636469692790528 0 -0.010782392053290736 -0.00059046209808839845 0 -0.011389838973420965 -0.00025303028825191979 0 -0.010302137489515263 -0.0010462764937889146 0 -0.01068361923311589 -0.0010274608320090446 0 -0.010782392053290736 -0.00059046209808839845 0 -0.01068361923311589 -0.0010274608320090446 0 -0.011060473705711097 -0.0011636469692790528 0 -0.010782392053290736 -0.00059046209808839845 0 -0.010782392053290736 -0.00059046209808839845 0 -0.010676598367726805 0.00034675822871656659 0 -0.011389838973420965 -0.00025303028825191979 0 -0.016726876917217828 0.0015119271099577247 0 -0.016399978440572508 0.0013575612358494879 0 -0.016632059636624473 0.0015831575342810675 0 -0.010676598367726805 0.00034675822871656659 0 -0.011389838973420965 -0.00025303028825191979 0 -0.011712657709753748 0.00067999588395394603 0 -0.014047893175229838 0.00071491180647517238 0 -0.014168196255737772 0.0011007933616429342 0 -0.010676598367726805 0.00034675822871656659 0 -0.011712657709753748 0.00067999588395394603 0 -0.011216881476241737 0.0013051612776758842 0 -0.010676598367726805 0.00034675822871656659 0 -0.011216881476241737 0.0013051612776758842 0 -0.010349794195073772 0.0013672447149244093 0 -0.010676598367726805 0.00034675822871656659 0 -0.0098955301264665643 0.00069494040100836888 0 -0.010349794195073772 0.0013672447149244093 0 -0.010676598367726805 0.00034675822871656659 0 -0.0098955301264665643 0.00069494040100836888 0 -0.0097248290703608482 -0.00015287273901747091 0 -0.010782392053290736 -0.00059046209808839845 0 -0.010676598367726805 0.00034675822871656659 0 -0.0097248290703608482 -0.00015287273901747091 0 -0.0091778732372516693 0.00028693702649114171 0 -0.0090917543153708046 0.00077836849731427959 0 -0.0088784681304658903 0.00049736049582329938 0 -0.0090673435546776687 0.00085693395814341968 0 -0.0087789372197341689 0.00057644063688964498 0 -0.0098955301264665643 0.00069494040100836888 0 -0.0090673435546776687 0.00085693395814341968 0 -0.0093424652191532245 0.0014212310843403977 0 -0.0098955301264665643 0.00069494040100836888 0 -0.0097248290703608482 -0.00015287273901747091 0 -0.0090673435546776687 0.00085693395814341968 0 -0.0090673435546776687 0.00085693395814341968 0 -0.0085970097216604754 0.00080615089946714589 0 -0.0087075504541276154 0.0012686623199358379 0 -0.0090673435546776687 0.00085693395814341968 0 -0.0085970097216604754 0.00080615089946714589 0 -0.0087789372197341689 0.00057644063688964498 0 -0.0085970097216604754 0.00080615089946714589 0 -0.0082111621696069597 0.00077508497871784645 0 -0.0083191143041104615 0.0011415675158892313 0 -0.0085970097216604754 0.00080615089946714589 0 -0.0087075504541276154 0.0012686623199358379 0 -0.0083191143041104615 0.0011415675158892313 0 -0.0085970097216604754 0.00080615089946714589 0 -0.0082111621696069597 0.00077508497871784645 0 -0.0084562629076393031 0.00045091973131842984 0 -0.0085970097216604754 0.00080615089946714589 0 -0.0087789372197341689 0.00057644063688964498 0 -0.0084562629076393031 0.00045091973131842984 0 -0.0079859629162467253 0.001062910426761259 0 -0.0076568214237744984 0.0009758339095681767 0 -0.0078287440651367991 0.0012364285651337769 0 -0.0079859629162467253 0.001062910426761259 0 -0.0078458248219448225 0.00078607331589438409 0 -0.0076568214237744984 0.0009758339095681767 0 -0.0079859629162467253 0.001062910426761259 0 -0.0082111621696069597 0.00077508497871784645 0 -0.0083191143041104615 0.0011415675158892313 0 -0.0079859629162467253 0.001062910426761259 0 -0.0082111621696069597 0.00077508497871784645 0 -0.0078458248219448225 0.00078607331589438409 0 -0.0082111621696069597 0.00077508497871784645 0 -0.0080509103079980607 0.00047761407787232199 0 -0.0084562629076393031 0.00045091973131842984 0 -0.0082111621696069597 0.00077508497871784645 0 -0.0078458248219448225 0.00078607331589438409 0 -0.0080509103079980607 0.00047761407787232199 0 -0.0078458248219448225 0.00078607331589438409 0 -0.0077147244411061647 0.00049926336306004059 0 -0.0080509103079980607 0.00047761407787232199 0 -0.0078458248219448225 0.00078607331589438409 0 -0.0077147244411061647 0.00049926336306004059 0 -0.0074152052265860436 0.00059540219366624242 0 -0.0077147244411061647 0.00049926336306004059 0 -0.0080509103079980607 0.00047761407787232199 0 -0.0075533282323331299 0.00014243469792965232 0 -0.0080509103079980607 0.00047761407787232199 0 -0.008046990346055027 0.00010966555546719851 0 -0.0075533282323331299 0.00014243469792965232 0 -0.0080509103079980607 0.00047761407787232199 0 -0.008046990346055027 0.00010966555546719851 0 -0.0084562629076393031 0.00045091973131842984 0 -0.00080075684632986146 0.0009801663987033611 0 -0.001144217681351803 0.00061994360841812856 0 0.0064829094674126418 0.0018467917550038047 0 0.0052137616626162049 0.0019953084161301038 0 0.005320434015438487 0.0010915889810142092 0 -0.0087311014105760122 0.00031231668854579859 0 -0.0087789372197341689 0.00057644063688964498 0 -0.0084562629076393031 0.00045091973131842984 0 -0.00080075684632986146 0.0009801663987033611 0 -0.0009096479090080859 0.0012467792810258412 0 -0.008046990346055027 0.00010966555546719851 0 -0.0084562629076393031 0.00045091973131842984 0 -0.0084664416813643156 0.0001320157819802815 0 -0.0087311014105760122 0.00031231668854579859 0 -0.0084562629076393031 0.00045091973131842984 0 -0.0084664416813643156 0.0001320157819802815 0 0.0067083936624539649 0.0027066544818191694 0 0.0067747223093715652 0.0024521443951818099 0 0.0067976090557528455 0.0027155819024968502 0 0.0067976090557528455 0.0027155819024968502 0 0.0067480903306523987 0.0028732075175854424 0 0.00678786138620138 0.0029227316176970732 0 0.0067521379681102283 0.0028144252521744161 0 0.0067976090557528455 0.0027155819024968502 0 0.00678786138620138 0.0029227316176970732 0 0.0067976090557528455 0.0027155819024968502 0 0.0067480903306523987 0.0028732075175854424 0 0.0066186435457821057 0.0025143923941674078 0 0.0067747223093715652 0.0024521443951818099 0 0.0067976090557528455 0.0027155819024968502 0 0.0066186435457821057 0.0025143923941674078 0 0.0064829094674126418 0.0018467917550038047 0 0.0067747223093715652 0.0024521443951818099 0 0.0066186435457821057 0.0025143923941674078 0 0.0064829094674126418 0.0018467917550038047 0 0.0066186435457821057 0.0025143923941674078 0 0.0058943770973017172 0.0025932003294774778 0 0.0064829094674126418 0.0018467917550038047 0 0.0058943770973017172 0.0025932003294774778 0 0.0052137616626162049 0.0019953084161301038 0 0.0058943770973017172 0.0025932003294774778 0 0.0067527839459735365 0.003547432018927273 0 0.0050558786226596241 0.0029658400481545771 0 0.0066186435457821057 0.0025143923941674078 0 0.0058943770973017172 0.0025932003294774778 0 0.0066226504289630577 0.0029866386088480165 0 0.0067480903306523987 0.0028732075175854424 0 0.0066186435457821057 0.0025143923941674078 0 0.0066226504289630577 0.0029866386088480165 0 0.0066226504289630577 0.0029866386088480165 0 0.0067527839459735365 0.003547432018927273 0 0.0068095185481436889 0.0031108035719747168 0 0.0067480903306523987 0.0028732075175854424 0 0.0066226504289630577 0.0029866386088480165 0 0.0068095185481436889 0.0031108035719747168 0 0.0058943770973017172 0.0025932003294774778 0 0.0066226504289630577 0.0029866386088480165 0 0.0067527839459735365 0.003547432018927273 0 0.0073826324063898212 0.003017122032099731 0 0.0067527839459735365 0.003547432018927273 0 0.0069441767878460712 0.0031218191614198806 0 0.0073826324063898212 0.003017122032099731 0 0.0067527839459735365 0.003547432018927273 0 0.0076550067126080279 0.0032376020768595166 0 0.0067527839459735365 0.003547432018927273 0 0.0069441767878460712 0.0031218191614198806 0 0.0068095185481436889 0.0031108035719747168 0 0.0067982732627251997 0.0029502859868501263 0 0.00678786138620138 0.0029227316176970732 0 0.0068095185481436889 0.0031108035719747168 0 0.0069441767878460712 0.0031218191614198806 0 0.0067982732627251997 0.0029502859868501263 0 0.0068095185481436889 0.0031108035719747168 0 0.0066972153310745769 0.0028459653461857617 0 0.0067982732627251997 0.0029502859868501263 0 0.00678786138620138 0.0029227316176970732 0 0.0067480903306523987 0.0028732075175854424 0 0.00678786138620138 0.0029227316176970732 0 0.0068095185481436889 0.0031108035719747168 0 0.0032276968041635439 0.0048783474351743799 0 0.0014129490932607157 0.0046647948635344652 0 0.0024282582604035182 0.0039375797090651773 0 0.0032276968041635439 0.0048783474351743799 0 0.0035458121438515147 0.0034599440023185052 0 0.0024282582604035182 0.0039375797090651773 0 0.0051143320396369856 0.0033642105127183615 0 0.002564105165066651 0.0033751136205543747 0 0.0049727652136999272 0.002202180230228393 0 0.0040218618467655724 0.0020830128989462742 0 0.0040987025704552447 0.0028313479822678228 0 0.0040218618467655724 0.0020830128989462742 0 0.0040987025704552447 0.0028313479822678228 0 0.0033584995469024452 0.0029139294057906107 0 0.0038824720389665584 0.0036031406219819814 0 0.0040987025704552447 0.0028313479822678228 0 0.0033584995469024452 0.0029139294057906107 0 0.0068280807426680254 0.0031294171816290579 0 0.0051143320396369856 0.0033642105127183615 0 0.0047522526960485862 0.0032255641023132874 0 0.0049727652136999272 0.002202180230228393 0 0.0040987025704552447 0.0028313479822678228 0 0.008591289026542253 0.0038250485763988706 0 0.008226180538400114 0.0031939912121944527 0 0.0079683592190287721 0.0038053422252358983 0 0.0087126030093104059 0.0031529465893935212 0 0.008591289026542253 0.0038250485763988706 0 0.008226180538400114 0.0031939912121944527 0 0.0067527839459735365 0.003547432018927273 0 0.0076550067126080279 0.0032376020768595166 0 0.0079683592190287721 0.0038053422252358983 0 0.008226180538400114 0.0031939912121944527 0 0.0076550067126080279 0.0032376020768595166 0 0.0079683592190287721 0.0038053422252358983 0 0.0067527839459735365 0.003547432018927273 0 0.0051720829307690414 0.0038089587196419119 0 0.0050558786226596241 0.0029658400481545771 0 0.0066171029116362957 0.0036053727149942061 0 0.0068020782586202229 0.0038116825371070986 0 0.003967406120451971 0.0037281362065100668 0 0.0051720829307690414 0.0038089587196419119 0 0.0050558786226596241 0.0029658400481545771 0 0.0051143320396369856 0.0033642105127183615 0 0.0037654881984818781 0.0033289258042549009 0 0.0051143320396369856 0.0033642105127183615 0 0.0068020782586202229 0.0038116825371070986 0 0.004108210433383188 0.0028267848336851367 0 0.0050558786226596241 0.0029658400481545771 0 0.0039907440047574306 0.0020694335691121839 0 0.003967406120451971 0.0037281362065100668 0 0.004108210433383188 0.0028267848336851367 0 0.0050558786226596241 0.0029658400481545771 0 0.0058943770973017172 0.0025932003294774778 0 0.0050558786226596241 0.0029658400481545771 0 0.0052137616626162049 0.0019953084161301038 0 0.0050558786226596241 0.0029658400481545771 0 0.0052137616626162049 0.0019953084161301038 0 0.0039907440047574306 0.0020694335691121839 0 0.0035458121438515147 0.0034599440023185052 0 0.0039907440047574306 0.0020694335691121839 0 0.0025830536519585402 0.0028471541838382534 0 0.0037654881984818781 0.0033289258042549009 0 0.0040124275186785817 0.0020838658484717948 0 0.0039907440047574306 0.0020694335691121839 0 0.0020371283735369666 0.0018695283108690508 0 0.0025830536519585402 0.0028471541838382534 0 0.0035458121438515147 0.0034599440023185052 0 0.0025830536519585402 0.0028471541838382534 0 0.0024282582604035182 0.0039375797090651773 0 0.0025830536519585402 0.0028471541838382534 0 0.0024282582604035182 0.0039375797090651773 0 0.0010031492095624889 0.0028636433427730152 0 0.0014129490932607157 0.0046647948635344652 0 0.0024282582604035182 0.0039375797090651773 0 0.0010031492095624889 0.0028636433427730152 0 0.0014129490932607157 0.0046647948635344652 0 0.0010031492095624889 0.0028636433427730152 0 -0.00045554303646924807 0.004418691306127159 0 0.0020371283735369666 0.0018695283108690508 0 0.0010031492095624889 0.0028636433427730152 0 0.00058256476424789483 0.0019756412906813911 0 0.0020371283735369666 0.0018695283108690508 0 0.0025830536519585402 0.0028471541838382534 0 0.0010031492095624889 0.0028636433427730152 0 0.0020371283735369666 0.0018695283108690508 0 0.0014965926064008581 0.0011304720917010931 0 0.00058256476424789483 0.0019756412906813911 0 0.0014965926064008581 0.0011304720917010931 0 0.00058256476424789483 0.0019756412906813911 0 0.00044498019193500748 0.0010603531218979637 0 0.0014965926064008581 0.0011304720917010931 0 0.001148349321016619 0.0001616090679628738 0 0.00044498019193500748 0.0010603531218979637 0 0.0039907440047574306 0.0020694335691121839 0 0.0020371283735369666 0.0018695283108690508 0 0.0034050448147518613 0.00043856665020428504 0 0.0020371283735369666 0.0018695283108690508 0 0.0014965926064008581 0.0011304720917010931 0 0.0034050448147518613 0.00043856665020428504 0 0.0014965926064008581 0.0011304720917010931 0 0.001148349321016619 0.0001616090679628738 0 0.0034050448147518613 0.00043856665020428504 0 -0.0065480821626554379 0.00020092256023095863 0 -0.0070595775520150787 0.00018420378031098705 0 -0.0069010148794083747 0.0004989010252057374 0 -0.0026801866104064036 0.00019272367773625127 0 -0.0018310820847991854 0.00032627576334278178 0 -0.0065480821626554379 0.00020092256023095863 0 -0.0066282804118406417 0.00048947437454196412 0 -0.0069010148794083747 0.0004989010252057374 0 0.0052137616626162049 0.0019953084161301038 0 0.0039907440047574306 0.0020694335691121839 0 0.005320434015438487 0.0010915889810142092 0 -0.001144217681351803 0.00061994360841812856 0 -0.0018310820847991854 0.00032627576334278178 0 0.0039907440047574306 0.0020694335691121839 0 0.005320434015438487 0.0010915889810142092 0 0.0034050448147518613 0.00043856665020428504 0 -0.0070595775520150787 0.00018420378031098705 0 -0.0074152052265860436 0.00059540219366624242 0 -0.0069010148794083747 0.0004989010252057374 0 -0.0077147244411061647 0.00049926336306004059 0 -0.0075533282323331299 0.00014243469792965232 0 -0.0074152052265860436 0.00059540219366624242 0 -0.0075533282323331299 0.00014243469792965232 0 -0.0070595775520150787 0.00018420378031098705 0 -0.0074152052265860436 0.00059540219366624242 0 -0.0078458248219448225 0.00078607331589438409 0 -0.0074152052265860436 0.00059540219366624242 0 -0.0076568214237744984 0.0009758339095681767 0 -0.0074152052265860436 0.00059540219366624242 0 -0.0069010148794083747 0.0004989010252057374 0 -0.0070676551132919574 0.00079549789918873968 0 -0.0073302942247875638 0.00098288763170354646 0 -0.0070676551132919574 0.00079549789918873968 0 -0.0070014039871800311 0.0010955618402874159 0 -0.0074152052265860436 0.00059540219366624242 0 -0.0073302942247875638 0.00098288763170354646 0 -0.0070676551132919574 0.00079549789918873968 0 -0.0073302942247875638 0.00098288763170354646 0 -0.0076568214237744984 0.0009758339095681767 0 -0.0075363187687436843 0.0011929046238172616 0 -0.0074152052265860436 0.00059540219366624242 0 -0.0073302942247875638 0.00098288763170354646 0 -0.0076568214237744984 0.0009758339095681767 0 -0.0066282804118406417 0.00048947437454196412 0 -0.0069010148794083747 0.0004989010252057374 0 -0.0066715062588464649 0.00081044078984294501 0 -0.0065480821626554379 0.00020092256023095863 0 -0.0066282804118406417 0.00048947437454196412 0 -0.0063787757384636701 0.00049832643492242381 0 -0.0066715062588464649 0.00081044078984294501 0 -0.0063787757384636701 0.00049832643492242381 0 -0.0063088910167237904 0.0007546235432246384 0 -0.0066282804118406417 0.00048947437454196412 0 -0.0066715062588464649 0.00081044078984294501 0 -0.0063787757384636701 0.00049832643492242381 0 -0.0069010148794083747 0.0004989010252057374 0 -0.0070676551132919574 0.00079549789918873968 0 -0.0066715062588464649 0.00081044078984294501 0 -0.0070676551132919574 0.00079549789918873968 0 -0.0066715062588464649 0.00081044078984294501 0 -0.0070014039871800311 0.0010955618402874159 0 -0.0066715062588464649 0.00081044078984294501 0 -0.0066988057343723099 0.0011623342199118612 0 -0.0063664548347517414 0.0010519357131857385 0 -0.0066715062588464649 0.00081044078984294501 0 -0.0066988057343723099 0.0011623342199118612 0 -0.0070014039871800311 0.0010955618402874159 0 -0.0066988057343723099 0.0011623342199118612 0 -0.0063664548347517414 0.0010519357131857385 0 -0.0064153353619675942 0.0013925367435155896 0 -0.0066988057343723099 0.0011623342199118612 0 -0.0070322467669248316 0.0014403403464580326 0 -0.0064153353619675942 0.0013925367435155896 0 -0.0066988057343723099 0.0011623342199118612 0 -0.0070014039871800311 0.0010955618402874159 0 -0.0070322467669248316 0.0014403403464580326 0 -0.0070014039871800311 0.0010955618402874159 0 -0.0070322467669248316 0.0014403403464580326 0 -0.0073343320133647701 0.0012601487028057134 0 -0.019640338727636989 0.00057323779759153664 0 -0.019016446921707415 0.0010640939867143442 0 -0.019391348949153363 0.0014474051621728571 0 -0.019640338727636989 0.00057323779759153664 0 -0.019391348949153363 0.0014474051621728571 0 -0.020277015158500271 0.001201291323631539 0 -0.013366747448164636 0.0010130517814777253 0 -0.011918693145403872 0.00072283147837843632 0 -0.019640338727636989 0.00057323779759153664 0 -0.01859032045799874 0.00079567771913480352 0 -0.017836573291068827 0.00011823834089954298 0 -0.019640338727636989 0.00057323779759153664 0 -0.019016446921707415 0.0010640939867143442 0 -0.01859032045799874 0.00079567771913480352 0 -0.01859032045799874 0.00079567771913480352 0 -0.018022770172286481 0.00081527341701177509 0 -0.017836573291068827 0.00011823834089954298 0 -0.019016446921707415 0.0010640939867143442 0 -0.01859032045799874 0.00079567771913480352 0 -0.018630237637616568 0.0014763631315873017 0 -0.01859032045799874 0.00079567771913480352 0 -0.018630237637616568 0.0014763631315873017 0 -0.018022770172286481 0.00081527341701177509 0 -0.018458969129917978 0.0017913989966566925 0 -0.018630237637616568 0.0014763631315873017 0 -0.019391348949153363 0.0014474051621728571 0 -0.018458969129917978 0.0017913989966566925 0 -0.019391348949153363 0.0014474051621728571 0 -0.019570048729531067 0.0023617621435964775 0 -0.019016446921707415 0.0010640939867143442 0 -0.018630237637616568 0.0014763631315873017 0 -0.019391348949153363 0.0014474051621728571 0 -0.019391348949153363 0.0014474051621728571 0 -0.019570048729531067 0.0023617621435964775 0 -0.020191200152671663 0.0017153546557767782 0 -0.01977451235276298 0.002429454554276551 0 -0.019570048729531067 0.0023617621435964775 0 -0.020468411307200753 0.0021562186868675452 0 -0.027549678185572069 0.0019930905690722965 0 -0.027859052814298887 0.0023176415914146244 0 -0.021793823379968279 0.0019769310420518793 0 -0.027859052814298887 0.0023176415914146244 0 -0.027859052814298887 0.0023176415914146244 0 -0.032758634678803585 0.0024684531064922922 0 -0.026983325674949946 0.0026046329730557852 0 -0.027972828036535939 0.0033482556168419508 0 -0.026896128807531137 0.0027700108465396277 0 -0.035820365229366477 0.0015025541856122523 0 -0.036745349892495636 0.0011906222050368542 0 -0.036955000390613536 0.0017276907476261919 0 -0.02108678207131718 0.0021882807643139554 0 -0.020468411307200753 0.0021562186868675452 0 -0.020831892878737563 0.0017850665059043647 0 -0.02108678207131718 0.0021882807643139554 0 -0.020831892878737563 0.0017850665059043647 0 -0.021284126746690033 0.0018110122244551993 0 -0.02108678207131718 0.0021882807643139554 0 -0.020468411307200753 0.0021562186868675452 0 -0.020608541828257179 0.0027409720119219634 0 -0.01977451235276298 0.002429454554276551 0 -0.020468411307200753 0.0021562186868675452 0 -0.020608541828257179 0.0027409720119219634 0 -0.019570048729531067 0.0023617621435964775 0 -0.020468411307200753 0.0021562186868675452 0 -0.020191200152671663 0.0017153546557767782 0 -0.020468411307200753 0.0021562186868675452 0 -0.020191200152671663 0.0017153546557767782 0 -0.020831892878737563 0.0017850665059043647 0 -0.019391348949153363 0.0014474051621728571 0 -0.020191200152671663 0.0017153546557767782 0 -0.020277015158500271 0.001201291323631539 0 -0.020191200152671663 0.0017153546557767782 0 -0.02058087166638756 0.0014289600257452028 0 -0.020831892878737563 0.0017850665059043647 0 -0.020191200152671663 0.0017153546557767782 0 -0.02058087166638756 0.0014289600257452028 0 -0.020277015158500271 0.001201291323631539 0 -0.02058087166638756 0.0014289600257452028 0 -0.020711298140863463 0.0012052579775317087 0 -0.020277015158500271 0.001201291323631539 0 -0.02058087166638756 0.0014289600257452028 0 -0.02086583049408668 0.001374487199464111 0 -0.020711298140863463 0.0012052579775317087 0 -0.02058087166638756 0.0014289600257452028 0 -0.020831892878737563 0.0017850665059043647 0 -0.02086583049408668 0.001374487199464111 0 -0.020831892878737563 0.0017850665059043647 0 -0.02086583049408668 0.001374487199464111 0 -0.021231636590245913 0.0015424924730985273 0 -0.020831892878737563 0.0017850665059043647 0 -0.021231636590245913 0.0015424924730985273 0 -0.021284126746690033 0.0018110122244551993 0 -0.02086583049408668 0.001374487199464111 0 -0.020821841591189636 0.0010517878221396951 0 -0.021231636590245913 0.0015424924730985273 0 -0.0075826264938182253 0.0015071572518599054 0 -0.0076895079625127266 0.00134777059025832 0 -0.0078596324084356118 0.0014125434869467477 0 -0.020711298140863463 0.0012052579775317087 0 -0.020864662308308031 0.0010161609048404039 0 -0.020277015158500271 0.001201291323631539 0 -0.020821841591189636 0.0010517878221396951 0 -0.020711298140863463 0.0012052579775317087 0 -0.020864662308308031 0.0010161609048404039 0 -0.02086583049408668 0.001374487199464111 0 -0.020821841591189636 0.0010517878221396951 0 -0.020711298140863463 0.0012052579775317087 0 -0.019640338727636989 0.00057323779759153664 0 -0.020864662308308031 0.0010161609048404039 0 -0.020277015158500271 0.001201291323631539 0 -0.013366747448164636 0.0010130517814777253 0 -0.014174119185529478 0.0012645166833422101 0 -0.0070322467669248316 0.0014403403464580326 0 -0.0075826264938182253 0.0015071572518599054 0 -0.0073343320133647701 0.0012601487028057134 0 -0.0073302942247875638 0.00098288763170354646 0 -0.0070014039871800311 0.0010955618402874159 0 -0.0073343320133647701 0.0012601487028057134 0 -0.0073302942247875638 0.00098288763170354646 0 -0.0073343320133647701 0.0012601487028057134 0 -0.0075363187687436843 0.0011929046238172616 0 -0.0076568214237744984 0.0009758339095681767 0 -0.0075363187687436843 0.0011929046238172616 0 -0.0078287440651367991 0.0012364285651337769 0 -0.0076895079625127266 0.00134777059025832 0 -0.0075363187687436843 0.0011929046238172616 0 -0.0078287440651367991 0.0012364285651337769 0 -0.0076895079625127266 0.00134777059025832 0 -0.007524349228829494 0.0013173357227445762 0 -0.0075363187687436843 0.0011929046238172616 0 -0.0075826264938182253 0.0015071572518599054 0 -0.0076895079625127266 0.00134777059025832 0 -0.007524349228829494 0.0013173357227445762 0 -0.0075826264938182253 0.0015071572518599054 0 -0.0073343320133647701 0.0012601487028057134 0 -0.007524349228829494 0.0013173357227445762 0 -0.0073343320133647701 0.0012601487028057134 0 -0.007524349228829494 0.0013173357227445762 0 -0.0075363187687436843 0.0011929046238172616 0 -0.0076895079625127266 0.00134777059025832 0 -0.0078287440651367991 0.0012364285651337769 0 -0.0078596324084356118 0.0014125434869467477 0 -0.0078287440651367991 0.0012364285651337769 0 -0.0078596324084356118 0.0014125434869467477 0 -0.0081181074106100436 0.0013213392031324381 0 -0.0079859629162467253 0.001062910426761259 0 -0.0078287440651367991 0.0012364285651337769 0 -0.0081181074106100436 0.0013213392031324381 0 -0.0079859629162467253 0.001062910426761259 0 -0.0081181074106100436 0.0013213392031324381 0 -0.0083191143041104615 0.0011415675158892313 0 -0.0081181074106100436 0.0013213392031324381 0 -0.0083191143041104615 0.0011415675158892313 0 -0.008380067573754953 0.0014683062048418557 0 -0.0078596324084356118 0.0014125434869467477 0 -0.0081181074106100436 0.0013213392031324381 0 -0.0080951705448503979 0.0016359167461763111 0 -0.0081181074106100436 0.0013213392031324381 0 -0.0080951705448503979 0.0016359167461763111 0 -0.008380067573754953 0.0014683062048418557 0 -0.020260419912303335 0.0013944261305346541 0 -0.02015280070752817 0.001377504114783852 0 -0.020286999827425104 0.0012546597420156702 0 -0.014174119185529478 0.0012645166833422101 0 -0.014186878969527281 0.0015063015229087573 0 -0.0075826264938182253 0.0015071572518599054 0 -0.0078596324084356118 0.0014125434869467477 0 -0.0080951705448503979 0.0016359167461763111 0 -0.020821841591189636 0.0010517878221396951 0 -0.020864662308308031 0.0010161609048404039 0 -0.020260419912303335 0.0013944261305346541 0 -0.020821841591189636 0.0010517878221396951 0 -0.020260419912303335 0.0013944261305346541 0 -0.020286999827425104 0.0012546597420156702 0 -0.020844718374356502 0.0011114495821636797 0 -0.020997897584831074 0.0013918448791263706 0 -0.0087075504541276154 0.0012686623199358379 0 -0.0087208735497506119 0.0019050261354260644 0 -0.0093424652191532245 0.0014212310843403977 0 -0.0090673435546776687 0.00085693395814341968 0 -0.0087075504541276154 0.0012686623199358379 0 -0.0093424652191532245 0.0014212310843403977 0 -0.0087075504541276154 0.0012686623199358379 0 -0.008380067573754953 0.0014683062048418557 0 -0.0087208735497506119 0.0019050261354260644 0 -0.0087075504541276154 0.0012686623199358379 0 -0.0083191143041104615 0.0011415675158892313 0 -0.008380067573754953 0.0014683062048418557 0 -0.0080951705448503979 0.0016359167461763111 0 -0.008380067573754953 0.0014683062048418557 0 -0.0087208735497506119 0.0019050261354260644 0 -0.020260419912303335 0.0013944261305346541 0 -0.020033307003405762 0.0014707542161238049 0 -0.02015280070752817 0.001377504114783852 0 -0.014186878969527281 0.0015063015229087573 0 -0.014375914259556134 0.001693381863468349 0 -0.020033307003405762 0.0014707542161238049 0 -0.020027384958774177 0.0014477297098051812 0 -0.019901930116965252 0.0016241065064543001 0 -0.020033307003405762 0.0014707542161238049 0 -0.020027384958774177 0.0014477297098051812 0 -0.020100552713384113 0.0013667931633563819 0 -0.020033307003405762 0.0014707542161238049 0 -0.020100552713384113 0.0013667931633563819 0 -0.02015280070752817 0.001377504114783852 0 -0.021471806840353696 0.0017313217024854718 0 -0.021296712030198606 0.0014236656653157562 0 -0.021561020612836199 0.0012859761164711221 0 -0.021471806840353696 0.0017313217024854718 0 -0.021659575329871034 0.0016706437203762058 0 -0.021561020612836199 0.0012859761164711221 0 -0.020787614470514165 0.0015331423473906648 0 -0.020442785016285731 0.0014305018051827619 0 -0.021471806840353696 0.0017313217024854718 0 -0.021296712030198606 0.0014236656653157562 0 -0.020875570661382677 0.001552588943795817 0 -0.020027384958774177 0.0014477297098051812 0 -0.020100552713384113 0.0013667931633563819 0 -0.020035699215731062 0.0013413912530603471 0 -0.021596564364746662 0.0016736899578845127 0 -0.021231636590245913 0.0015424924730985273 0 -0.02172650245041137 0.0015457993476358867 0 -0.020821841591189636 0.0010517878221396951 0 -0.021231636590245913 0.0015424924730985273 0 -0.02172650245041137 0.0015457993476358867 0 -0.021596564364746662 0.0016736899578845127 0 -0.021231636590245913 0.0015424924730985273 0 -0.021284126746690033 0.0018110122244551993 0 -0.020100552713384113 0.0013667931633563819 0 -0.02015280070752817 0.001377504114783852 0 -0.020286999827425104 0.0012546597420156702 0 -0.020787614470514165 0.0015331423473906648 0 -0.020997897584831074 0.0013918448791263706 0 -0.021471806840353696 0.0017313217024854718 0 -0.02172650245041137 0.0015457993476358867 0 -0.021659575329871034 0.0016706437203762058 0 -0.021596564364746662 0.0016736899578845127 0 -0.02172650245041137 0.0015457993476358867 0 -0.021659575329871034 0.0016706437203762058 0 -0.021659575329871034 0.0016706437203762058 0 -0.021723388339061591 0.0014940601692522391 0 -0.021561020612836199 0.0012859761164711221 0 -0.021596564364746662 0.0016736899578845127 0 -0.021659575329871034 0.0016706437203762058 0 -0.02169732290410099 0.0018103946984068158 0 -0.021659575329871034 0.0016706437203762058 0 -0.02169732290410099 0.0018103946984068158 0 -0.021723388339061591 0.0014940601692522391 0 -0.021771099667648133 0.0018006619612267586 0 -0.021975466981090763 0.0020782823798477313 0 -0.02169732290410099 0.0018103946984068158 0 -0.021982369705505708 0.0013744149210233724 0 -0.021723388339061591 0.0014940601692522391 0 -0.021596564364746662 0.0016736899578845127 0 -0.02169732290410099 0.0018103946984068158 0 -0.021284126746690033 0.0018110122244551993 0 -0.02108678207131718 0.0021882807643139554 0 -0.02169732290410099 0.0018103946984068158 0 -0.021284126746690033 0.0018110122244551993 0 -0.02108678207131718 0.0021882807643139554 0 -0.02169732290410099 0.0018103946984068158 0 -0.021675236645646318 0.0026111434463573116 0 -0.021675236645646318 0.0026111434463573116 0 -0.02164711401530884 0.0032436246829067915 0 -0.020608541828257179 0.0027409720119219634 0 -0.021982369705505708 0.0013744149210233724 0 -0.021803179050145723 0.0011894610220696334 0 -0.022079914562034703 0.0010218111725270066 0 -0.021975466981090763 0.0020782823798477313 0 -0.025657192749523928 0.001930389067673803 0 -0.021982369705505708 0.0013744149210233724 0 -0.021723388339061591 0.0014940601692522391 0 -0.021803179050145723 0.0011894610220696334 0 -0.021723388339061591 0.0014940601692522391 0 -0.021803179050145723 0.0011894610220696334 0 -0.021561020612836199 0.0012859761164711221 0 -0.021803179050145723 0.0011894610220696334 0 -0.022079914562034703 0.0010218111725270066 0 -0.021727743543498719 0.00073027530322783472 0 -0.021803179050145723 0.0011894610220696334 0 -0.021561020612836199 0.0012859761164711221 0 -0.021727743543498719 0.00073027530322783472 0 -0.025657192749523928 0.001930389067673803 0 -0.023029559341974419 0.0013441835494848349 0 -0.021307410765860801 0.00099941206193280619 0 -0.020875570661382677 0.001552588943795817 0 -0.020838688268975489 0.00069776132549626631 0 -0.021296712030198606 0.0014236656653157562 0 -0.021307410765860801 0.00099941206193280619 0 -0.020875570661382677 0.001552588943795817 0 -0.021296712030198606 0.0014236656653157562 0 -0.021561020612836199 0.0012859761164711221 0 -0.021307410765860801 0.00099941206193280619 0 -0.021307410765860801 0.00099941206193280619 0 -0.021402549200149473 0.00037658685078740482 0 -0.021727743543498719 0.00073027530322783472 0 -0.021561020612836199 0.0012859761164711221 0 -0.021307410765860801 0.00099941206193280619 0 -0.021727743543498719 0.00073027530322783472 0 -0.021307410765860801 0.00099941206193280619 0 -0.021402549200149473 0.00037658685078740482 0 -0.020838688268975489 0.00069776132549626631 0 -0.021402549200149473 0.00037658685078740482 0 -0.020838688268975489 0.00069776132549626631 0 -0.021220095129118325 4.3957639040999729e-05 0 -0.023076763130478281 0.0011986212186847333 0 -0.024811155642601869 0.0021035849523092557 0 -0.024566955304917659 0.00053549560920820687 0 -0.022268007741771279 0.0007809606909937463 0 -0.023029559341974419 0.0013441835494848349 0 -0.023076763130478281 0.0011986212186847333 0 -0.023197083547493651 -0.00020528300929543373 0 -0.024566955304917659 0.00053549560920820687 0 -0.023197083547493651 -0.00020528300929543373 0 -0.024566955304917659 0.00053549560920820687 0 -0.024621474038711375 -0.0012549140553809225 0 -0.022268007741771279 0.0007809606909937463 0 -0.021266580599317159 0.00011882034415621411 0 -0.023076763130478281 0.0011986212186847333 0 -0.023197083547493651 -0.00020528300929543373 0 -0.021220095129118325 4.3957639040999729e-05 0 -0.023197083547493651 -0.00020528300929543373 0 -0.021220095129118325 4.3957639040999729e-05 0 -0.022435332269089125 -0.0013362901182309467 0 -0.025657192749523928 0.001930389067673803 0 -0.030545891810439246 -0.00036947031608309004 0 -0.026498719203845271 0.0029903744680171416 0 -0.024811155642601869 0.0021035849523092557 0 -0.026749801915523123 0.00066335349901496638 0 -0.024811155642601869 0.0021035849523092557 0 -0.024566955304917659 0.00053549560920820687 0 -0.026749801915523123 0.00066335349901496638 0 -0.024566955304917659 0.00053549560920820687 0 -0.026749801915523123 0.00066335349901496638 0 -0.024621474038711375 -0.0012549140553809225 0 -0.030545891810439246 -0.00036947031608309004 0 -0.029701348649969136 -0.0021960581521593856 0 -0.033202288584021952 -0.0012157419948122866 0 -0.034575643524253824 -0.0012610388916531033 0 -0.034094299126949681 -0.0020397883516861744 0 -0.033202288584021952 -0.0012157419948122866 0 -0.034094299126949681 -0.0020397883516861744 0 -0.033384837055995799 -0.0026413849526502695 0 -0.033202288584021952 -0.0012157419948122866 0 -0.034575643524253824 -0.0012610388916531033 0 -0.03438931358498358 -0.00030623411435244966 0 -0.033004747010658239 0.00024667071529498789 0 -0.033202288584021952 -0.0012157419948122866 0 -0.03438931358498358 -0.00030623411435244966 0 -0.034575643524253824 -0.0012610388916531033 0 -0.035415996969973371 -0.0013420241269677625 0 -0.035525683121389609 -0.00064289940935508959 0 -0.034575643524253824 -0.0012610388916531033 0 -0.035525683121389609 -0.00064289940935508959 0 -0.03438931358498358 -0.00030623411435244966 0 -0.034575643524253824 -0.0012610388916531033 0 -0.035415996969973371 -0.0013420241269677625 0 -0.034729345877510497 -0.0020337542712503816 0 -0.034575643524253824 -0.0012610388916531033 0 -0.034729345877510497 -0.0020337542712503816 0 -0.034094299126949681 -0.0020397883516861744 0 -0.035902738633736837 -0.0017918723463061313 0 -0.035415996969973371 -0.0013420241269677625 0 -0.036447598049874741 -0.00069083303139623193 0 -0.036343093543080532 -0.0010965368211151721 0 -0.036703616460247029 -0.00025825506250716485 0 -0.036748195537135597 -0.00042567189434718206 0 -0.037134436754556258 -0.00026905124297717578 0 -0.036964969813022747 0.00013473889408039527 0 -0.035415996969973371 -0.0013420241269677625 0 -0.036447598049874741 -0.00069083303139623193 0 -0.035525683121389609 -0.00064289940935508959 0 -0.036447598049874741 -0.00069083303139623193 0 -0.035525683121389609 -0.00064289940935508959 0 -0.035440081620527385 0.00010512913251239807 0 -0.036447598049874741 -0.00069083303139623193 0 -0.035440081620527385 0.00010512913251239807 0 -0.036194671647078173 0.00082680277553842749 0 -0.036703616460247029 -0.00025825506250716485 0 -0.037011907799697499 0.00055596041120465874 0 -0.036447598049874741 -0.00069083303139623193 0 -0.036194671647078173 0.00082680277553842749 0 -0.03702299016437452 0.0006038364419832464 0 -0.035820365229366477 0.0015025541856122523 0 -0.036745349892495636 0.0011906222050368542 0 -0.036194671647078173 0.00082680277553842749 0 -0.036745349892495636 0.0011906222050368542 0 -0.036194671647078173 0.00082680277553842749 0 -0.03702299016437452 0.0006038364419832464 0 -0.035440081620527385 0.00010512913251239807 0 -0.036194671647078173 0.00082680277553842749 0 -0.035515666591661929 0.00078270284094646429 0 -0.035543046006864726 0.0014126467190469728 0 -0.035820365229366477 0.0015025541856122523 0 -0.036194671647078173 0.00082680277553842749 0 -0.035543046006864726 0.0014126467190469728 0 -0.036194671647078173 0.00082680277553842749 0 -0.035515666591661929 0.00078270284094646429 0 -0.027549678185572069 0.0019930905690722965 0 -0.027845467435657266 0.0018675226806502819 0 -0.035543046006864726 0.0014126467190469728 0 -0.035515666591661929 0.00078270284094646429 0 -0.034380650782877699 0.00092781899385531539 0 -0.035440081620527385 0.00010512913251239807 0 -0.035515666591661929 0.00078270284094646429 0 -0.034380650782877699 0.00092781899385531539 0 -0.02108678207131718 0.0021882807643139554 0 -0.021675236645646318 0.0026111434463573116 0 -0.020608541828257179 0.0027409720119219634 0 -0.025657192749523928 0.001930389067673803 0 -0.027845467435657266 0.0018675226806502819 0 -0.033004747010658239 0.00024667071529498789 0 -0.034380650782877699 0.00092781899385531539 0 -0.03438931358498358 -0.00030623411435244966 0 -0.035525683121389609 -0.00064289940935508959 0 -0.035440081620527385 0.00010512913251239807 0 -0.03438931358498358 -0.00030623411435244966 0 -0.035440081620527385 0.00010512913251239807 0 -0.034380650782877699 0.00092781899385531539 0 -0.03438931358498358 -0.00030623411435244966 0 -0.016532432197551395 0.0012476458686633413 0 -0.017057144480510916 0.0010876421879764903 0 -0.017209008056641197 0.001559330910082757 0 -0.017057144480510916 0.0010876421879764903 0 -0.017615310401252138 0.0011414822260141851 0 -0.017551518900603778 0.00081794476080971007 0 -0.017057144480510916 0.0010876421879764903 0 -0.017615310401252138 0.0011414822260141851 0 -0.017209008056641197 0.001559330910082757 0 -0.016532432197551395 0.0012476458686633413 0 -0.017209008056641197 0.001559330910082757 0 -0.016807827298998143 0.0015125367507057544 0 -0.015741421413764951 0.0014968272216490913 0 -0.016636260683316573 0.0018024466162439828 0 -0.016807827298998143 0.0015125367507057544 0 -0.016636260683316573 0.0018024466162439828 0 -0.016807827298998143 0.0015125367507057544 0 -0.016879443449837574 0.0016127390729010647 0 -0.016807827298998143 0.0015125367507057544 0 -0.016973596384303739 0.0015559377358740716 0 -0.016879443449837574 0.0016127390729010647 0 -0.017209008056641197 0.001559330910082757 0 -0.016807827298998143 0.0015125367507057544 0 -0.016973596384303739 0.0015559377358740716 0 -0.016973596384303739 0.0015559377358740716 0 -0.016879443449837574 0.0016127390729010647 0 -0.016811484902388547 0.0015894728543421181 0 -0.016789177951975508 0.0015902458977916755 0 -0.016879443449837574 0.0016127390729010647 0 -0.016811484902388547 0.0015894728543421181 0 -0.016789177951975508 0.0015902458977916755 0 -0.016632059636624473 0.0015831575342810675 0 -0.016811484902388547 0.0015894728543421181 0 -0.014168196255737772 0.0011007933616429342 0 -0.014265712379580967 0.0015474260358833746 0 -0.016973596384303739 0.0015559377358740716 0 -0.016811484902388547 0.0015894728543421181 0 -0.016874652570284414 0.0016532596867080379 0 -0.014265712379580967 0.0015474260358833746 0 -0.016360704684847224 0.0022014356484688874 0 -0.018475541694915516 0.0019020164499638133 0 -0.018276092590785064 0.0013997268849792923 0 -0.018858526895851459 0.0015010821589803692 0 -0.016360704684847224 0.0022014356484688874 0 -0.018076975797478596 0.0016266708132199796 0 -0.017209008056641197 0.001559330910082757 0 -0.016973596384303739 0.0015559377358740716 0 -0.016874652570284414 0.0016532596867080379 0 -0.017765370065731752 0.0015368903046888362 0 -0.016360704684847224 0.0022014356484688874 0 -0.017209008056641197 0.001559330910082757 0 -0.018414144472334564 0.0019434465510265819 0 -0.018276092590785064 0.0013997268849792923 0 -0.017615310401252138 0.0011414822260141851 0 -0.018276092590785064 0.0013997268849792923 0 -0.018182607128964651 0.00091079447410845023 0 -0.017615310401252138 0.0011414822260141851 0 -0.017209008056641197 0.001559330910082757 0 -0.018276092590785064 0.0013997268849792923 0 -0.018693275921420248 0.0011424312859449732 0 -0.018276092590785064 0.0013997268849792923 0 -0.018182607128964651 0.00091079447410845023 0 -0.018693275921420248 0.0011424312859449732 0 -0.018276092590785064 0.0013997268849792923 0 -0.018858526895851459 0.0015010821589803692 0 -0.018693275921420248 0.0011424312859449732 0 -0.019294071083743064 0.0012410221514409789 0 -0.018858526895851459 0.0015010821589803692 0 -0.019294071083743064 0.0012410221514409789 0 -0.019803731977805755 0.0014599597613515595 0 -0.019982961630097891 0.0011605764683845555 0 -0.019294071083743064 0.0012410221514409789 0 -0.019406311466895771 0.0018411173206479079 0 -0.019803731977805755 0.0014599597613515595 0 -0.018475541694915516 0.0019020164499638133 0 -0.018858526895851459 0.0015010821589803692 0 -0.019406311466895771 0.0018411173206479079 0 -0.019294071083743064 0.0012410221514409789 0 -0.018858526895851459 0.0015010821589803692 0 -0.019406311466895771 0.0018411173206479079 0 -0.016360704684847224 0.0022014356484688874 0 -0.014999846758674447 0.0021472358304576778 0 -0.012052037663528472 0.0016274689159109942 0 -0.011038914292726625 0.0024687501357648486 0 -0.011216881476241737 0.0013051612776758842 0 -0.012052037663528472 0.0016274689159109942 0 -0.012396072048668532 0.0026240977042292658 0 -0.011038914292726625 0.0024687501357648486 0 -0.011712657709753748 0.00067999588395394603 0 -0.012052037663528472 0.0016274689159109942 0 -0.011216881476241737 0.0013051612776758842 0 -0.011038914292726625 0.0024687501357648486 0 -0.011216881476241737 0.0013051612776758842 0 -0.010349794195073772 0.0013672447149244093 0 -0.014999846758674447 0.0021472358304576778 0 -0.014864543109217452 0.001933490306549678 0 -0.011038914292726625 0.0024687501357648486 0 -0.010349794195073772 0.0013672447149244093 0 -0.0097371636645867728 0.0022424531474488311 0 -0.010349794195073772 0.0013672447149244093 0 -0.0093424652191532245 0.0014212310843403977 0 -0.0097371636645867728 0.0022424531474488311 0 -0.0098955301264665643 0.00069494040100836888 0 -0.010349794195073772 0.0013672447149244093 0 -0.0093424652191532245 0.0014212310843403977 0 -0.014375914259556134 0.001693381863468349 0 -0.014864543109217452 0.001933490306549678 0 -0.0087208735497506119 0.0019050261354260644 0 -0.0093424652191532245 0.0014212310843403977 0 -0.0097371636645867728 0.0022424531474488311 0 -0.020027384958774177 0.0014477297098051812 0 -0.019901930116965252 0.0016241065064543001 0 -0.020035699215731062 0.0013413912530603471 0 -0.019901930116965252 0.0016241065064543001 0 -0.019803731977805755 0.0014599597613515595 0 -0.020035699215731062 0.0013413912530603471 0 -0.019406311466895771 0.0018411173206479079 0 -0.019901930116965252 0.0016241065064543001 0 -0.019803731977805755 0.0014599597613515595 0 -0.019803731977805755 0.0014599597613515595 0 -0.020035699215731062 0.0013413912530603471 0 -0.019982961630097891 0.0011605764683845555 0 -0.020442785016285731 0.0014305018051827619 0 -0.020000622412357113 0.0011824907973105475 0 -0.020875570661382677 0.001552588943795817 0 -0.019982961630097891 0.0011605764683845555 0 -0.020838688268975489 0.00069776132549626631 0 -0.019982961630097891 0.0011605764683845555 0 -0.020838688268975489 0.00069776132549626631 0 -0.02018137040882571 0.00042788662416456578 0 -0.020838688268975489 0.00069776132549626631 0 -0.021220095129118325 4.3957639040999729e-05 0 -0.02018137040882571 0.00042788662416456578 0 -0.021220095129118325 4.3957639040999729e-05 0 -0.020492048675406736 -0.00072643203974440552 0 -0.021153692257051538 -0.00098612115162258402 0 -0.020195552025311869 -0.00022711349242717551 0 -0.019784637095800021 -0.00086184234892389589 0 -0.020492048675406736 -0.00072643203974440552 0 -0.021220095129118325 4.3957639040999729e-05 0 -0.020195552025311869 -0.00022711349242717551 0 -0.020492048675406736 -0.00072643203974440552 0 -0.021220095129118325 4.3957639040999729e-05 0 -0.020195552025311869 -0.00022711349242717551 0 -0.02018137040882571 0.00042788662416456578 0 -0.02018137040882571 0.00042788662416456578 0 -0.019551163090964937 3.9890690109800522e-05 0 -0.019489918019666555 0.00072294771435440477 0 -0.020195552025311869 -0.00022711349242717551 0 -0.02018137040882571 0.00042788662416456578 0 -0.019551163090964937 3.9890690109800522e-05 0 -0.020195552025311869 -0.00022711349242717551 0 -0.019551163090964937 3.9890690109800522e-05 0 -0.019784637095800021 -0.00086184234892389589 0 -0.019551163090964937 3.9890690109800522e-05 0 -0.019224401185415827 -0.00051416891765171803 0 -0.01878416327174778 8.4982532487156887e-05 0 -0.019551163090964937 3.9890690109800522e-05 0 -0.019224401185415827 -0.00051416891765171803 0 -0.019784637095800021 -0.00086184234892389589 0 -0.019551163090964937 3.9890690109800522e-05 0 -0.019152144425658525 0.00037942759379161413 0 -0.01878416327174778 8.4982532487156887e-05 0 -0.019551163090964937 3.9890690109800522e-05 0 -0.019152144425658525 0.00037942759379161413 0 -0.019489918019666555 0.00072294771435440477 0 -0.019152144425658525 0.00037942759379161413 0 -0.019489918019666555 0.00072294771435440477 0 -0.018818618312124762 0.00069590594497899623 0 -0.019982961630097891 0.0011605764683845555 0 -0.02018137040882571 0.00042788662416456578 0 -0.019489918019666555 0.00072294771435440477 0 -0.019294071083743064 0.0012410221514409789 0 -0.019982961630097891 0.0011605764683845555 0 -0.019489918019666555 0.00072294771435440477 0 -0.019294071083743064 0.0012410221514409789 0 -0.019489918019666555 0.00072294771435440477 0 -0.018818618312124762 0.00069590594497899623 0 -0.018693275921420248 0.0011424312859449732 0 -0.019294071083743064 0.0012410221514409789 0 -0.018818618312124762 0.00069590594497899623 0 -0.018182607128964651 0.00091079447410845023 0 -0.018256451123526217 0.00047688950024429595 0 -0.018818618312124762 0.00069590594497899623 0 -0.018693275921420248 0.0011424312859449732 0 -0.018182607128964651 0.00091079447410845023 0 -0.018818618312124762 0.00069590594497899623 0 -0.017615310401252138 0.0011414822260141851 0 -0.018182607128964651 0.00091079447410845023 0 -0.017551518900603778 0.00081794476080971007 0 -0.018182607128964651 0.00091079447410845023 0 -0.018256451123526217 0.00047688950024429595 0 -0.017551518900603778 0.00081794476080971007 0 -0.018256451123526217 0.00047688950024429595 0 -0.01822341118666301 5.9847012602335147e-06 0 -0.017724228507870213 0.00039705377158241295 0 -0.019152144425658525 0.00037942759379161413 0 -0.018818618312124762 0.00069590594497899623 0 -0.01878416327174778 8.4982532487156887e-05 0 -0.018256451123526217 0.00047688950024429595 0 -0.018818618312124762 0.00069590594497899623 0 -0.01878416327174778 8.4982532487156887e-05 0 -0.01878416327174778 8.4982532487156887e-05 0 -0.018699395024604677 -0.00038530070474410263 0 -0.01822341118666301 5.9847012602335147e-06 0 -0.019224401185415827 -0.00051416891765171803 0 -0.01878416327174778 8.4982532487156887e-05 0 -0.018699395024604677 -0.00038530070474410263 0 -0.018699395024604677 -0.00038530070474410263 0 -0.01822341118666301 5.9847012602335147e-06 0 -0.018269293190652167 -0.0005982124807627022 0 -0.018256451123526217 0.00047688950024429595 0 -0.01878416327174778 8.4982532487156887e-05 0 -0.01822341118666301 5.9847012602335147e-06 0 -0.01822341118666301 5.9847012602335147e-06 0 -0.017740833069677164 -9.0122048901937975e-05 0 -0.017724228507870213 0.00039705377158241295 0 -0.017740833069677164 -9.0122048901937975e-05 0 -0.017682159174654686 -0.00053179677728854122 0 -0.018269293190652167 -0.0005982124807627022 0 -0.01822341118666301 5.9847012602335147e-06 0 -0.017740833069677164 -9.0122048901937975e-05 0 -0.018269293190652167 -0.0005982124807627022 0 -0.017308542079826204 -0.00011016221468192486 0 -0.017740833069677164 -9.0122048901937975e-05 0 -0.017682159174654686 -0.00053179677728854122 0 -0.017740833069677164 -9.0122048901937975e-05 0 -0.017352805701626634 0.00032079290523000383 0 -0.017724228507870213 0.00039705377158241295 0 -0.017308542079826204 -0.00011016221468192486 0 -0.017740833069677164 -9.0122048901937975e-05 0 -0.017352805701626634 0.00032079290523000383 0 -0.017352805701626634 0.00032079290523000383 0 -0.017724228507870213 0.00039705377158241295 0 -0.017193980697267328 0.00070620429732281892 0 -0.016931018573609215 0.00054361932885860762 0 -0.017352805701626634 0.00032079290523000383 0 -0.017193980697267328 0.00070620429732281892 0 -0.017724228507870213 0.00039705377158241295 0 -0.017551518900603778 0.00081794476080971007 0 -0.017193980697267328 0.00070620429732281892 0 -0.018256451123526217 0.00047688950024429595 0 -0.017724228507870213 0.00039705377158241295 0 -0.017551518900603778 0.00081794476080971007 0 -0.017057144480510916 0.0010876421879764903 0 -0.017551518900603778 0.00081794476080971007 0 -0.017193980697267328 0.00070620429732281892 0 -0.016656038209600831 0.00095778457812821874 0 -0.017057144480510916 0.0010876421879764903 0 -0.017193980697267328 0.00070620429732281892 0 -0.043379393325757735 0.00034467350356138615 0 -0.044526826801291927 -0.00030191913477585242 0 -0.043988762657656423 -0.0005746664495268033 0 -0.042365996467831221 -0.00027712864367350146 0 -0.043379393325757735 0.00034467350356138615 0 -0.043988762657656423 -0.0005746664495268033 0 -0.043379393325757735 0.00034467350356138615 0 -0.044308570873146845 0.00068197488535853129 0 -0.044526826801291927 -0.00030191913477585242 0 -0.044308570873146845 0.00068197488535853129 0 -0.044684664944301927 -4.9502186048271232e-05 0 -0.044526826801291927 -0.00030191913477585242 0 -0.031193738796996284 -0.00052396159164509455 0 -0.031642520335147702 -0.00099864173427643759 0 -0.018207486301322795 -0.0017746028398248036 0 -0.018494551066386079 -0.001530782670623557 0 -0.018735395169637653 -0.0020289690372545287 0 -0.018207486301322795 -0.0017746028398248036 0 -0.018043851985405011 -0.0011238581991468257 0 -0.018494551066386079 -0.001530782670623557 0 -0.030062361442693621 0.00032499708562390059 0 -0.031193738796996284 -0.00052396159164509455 0 -0.04244074314158449 0.0021097809062136552 0 -0.043379393325757735 0.00034467350356138615 0 -0.044308570873146845 0.00068197488535853129 0 -0.017531667380049659 -0.0013884375900239416 0 -0.018207486301322795 -0.0017746028398248036 0 -0.018043851985405011 -0.0011238581991468257 0 -0.017531667380049659 -0.0013884375900239416 0 -0.017610708636515489 -0.00091414108903232084 0 -0.018043851985405011 -0.0011238581991468257 0 -0.017610708636515489 -0.00091414108903232084 0 -0.017682159174654686 -0.00053179677728854122 0 -0.018043851985405011 -0.0011238581991468257 0 -0.017682159174654686 -0.00053179677728854122 0 -0.018043851985405011 -0.0011238581991468257 0 -0.018269293190652167 -0.0005982124807627022 0 -0.018043851985405011 -0.0011238581991468257 0 -0.018564379526713744 -0.0011547211096576617 0 -0.018494551066386079 -0.001530782670623557 0 -0.018043851985405011 -0.0011238581991468257 0 -0.018564379526713744 -0.0011547211096576617 0 -0.018269293190652167 -0.0005982124807627022 0 -0.018564379526713744 -0.0011547211096576617 0 -0.018927980774637726 -0.00096414077267087145 0 -0.01892803278457892 -0.0016010687160958863 0 -0.018564379526713744 -0.0011547211096576617 0 -0.018269293190652167 -0.0005982124807627022 0 -0.018927980774637726 -0.00096414077267087145 0 -0.018699395024604677 -0.00038530070474410263 0 -0.018269293190652167 -0.0005982124807627022 0 -0.018927980774637726 -0.00096414077267087145 0 -0.019224401185415827 -0.00051416891765171803 0 -0.018699395024604677 -0.00038530070474410263 0 -0.018927980774637726 -0.00096414077267087145 0 -0.018927980774637726 -0.00096414077267087145 0 -0.01892803278457892 -0.0016010687160958863 0 -0.019355808889609725 -0.0014842106019652744 0 -0.018927980774637726 -0.00096414077267087145 0 -0.019355808889609725 -0.0014842106019652744 0 -0.01944937519850521 -0.0010520817358923419 0 -0.01892803278457892 -0.0016010687160958863 0 -0.019342050654274436 -0.0018654479714586177 0 -0.019355808889609725 -0.0014842106019652744 0 -0.01892803278457892 -0.0016010687160958863 0 -0.018494551066386079 -0.001530782670623557 0 -0.018735395169637653 -0.0020289690372545287 0 -0.018564379526713744 -0.0011547211096576617 0 -0.01892803278457892 -0.0016010687160958863 0 -0.018494551066386079 -0.001530782670623557 0 -0.044684664944301927 -4.9502186048271232e-05 0 -0.044726474488609676 -0.0001975924959381543 0 -0.044526826801291927 -0.00030191913477585242 0 -0.01892803278457892 -0.0016010687160958863 0 -0.018735395169637653 -0.0020289690372545287 0 -0.018953286000545282 -0.0021195348810915437 0 -0.031642520335147702 -0.00099864173427643759 0 -0.030817501297617154 -0.00076530881209233481 0 -0.01892803278457892 -0.0016010687160958863 0 -0.018953286000545282 -0.0021195348810915437 0 -0.019342050654274436 -0.0018654479714586177 0 -0.030817501297617154 -0.00076530881209233481 0 -0.036784859865408387 -0.0022739177373387875 0 -0.018953286000545282 -0.0021195348810915437 0 -0.019342050654274436 -0.0018654479714586177 0 -0.0195411975219319 -0.0023234714337848029 0 -0.029501971723543994 -0.0019778179799045804 0 -0.036784859865408387 -0.0022739177373387875 0 -0.040140658463678827 -0.0015277682962985984 0 -0.040129196033078358 -0.001701278616105845 0 -0.040200848748197869 -0.0015127752318171263 0 -0.019342050654274436 -0.0018654479714586177 0 -0.019864846211233519 -0.0017598113032953069 0 -0.0195411975219319 -0.0023234714337848029 0 -0.040140658463678827 -0.0015277682962985984 0 -0.040098664929396143 -0.0015873949495101617 0 -0.040129196033078358 -0.001701278616105845 0 -0.040140658463678827 -0.0015277682962985984 0 -0.040098664929396143 -0.0015873949495101617 0 -0.040126765119044575 -0.0014666732810641476 0 -0.040098664929396143 -0.0015873949495101617 0 -0.040035101875154334 -0.0015748204978523095 0 -0.040102179433075542 -0.0014944339786254913 0 -0.040098664929396143 -0.0015873949495101617 0 -0.040102179433075542 -0.0014944339786254913 0 -0.040126765119044575 -0.0014666732810641476 0 -0.029501971723543994 -0.0019778179799045804 0 -0.026310666024898999 -0.00063488493742233155 0 -0.040129196033078358 -0.001701278616105845 0 -0.039905719379657721 -0.002003559126338567 0 -0.039921492560999923 -0.0017753581692731642 0 -0.040098664929396143 -0.0015873949495101617 0 -0.040129196033078358 -0.001701278616105845 0 -0.039921492560999923 -0.0017753581692731642 0 -0.019342050654274436 -0.0018654479714586177 0 -0.019864846211233519 -0.0017598113032953069 0 -0.019355808889609725 -0.0014842106019652744 0 -0.019864846211233519 -0.0017598113032953069 0 -0.019355808889609725 -0.0014842106019652744 0 -0.01944937519850521 -0.0010520817358923419 0 -0.019224401185415827 -0.00051416891765171803 0 -0.01944937519850521 -0.0010520817358923419 0 -0.019784637095800021 -0.00086184234892389589 0 -0.019224401185415827 -0.00051416891765171803 0 -0.018927980774637726 -0.00096414077267087145 0 -0.01944937519850521 -0.0010520817358923419 0 -0.01944937519850521 -0.0010520817358923419 0 -0.019784637095800021 -0.00086184234892389589 0 -0.020092682961713466 -0.0014250887842783711 0 -0.019864846211233519 -0.0017598113032953069 0 -0.01944937519850521 -0.0010520817358923419 0 -0.020378097465986098 -0.0011338704564485404 0 -0.017064431631859323 -0.00099360850127130831 0 -0.026310666024898999 -0.00063488493742233155 0 -0.039905719379657721 -0.002003559126338567 0 -0.039644603493332278 -0.0020162166632336632 0 -0.039921492560999923 -0.0017753581692731642 0 -0.019852288650172582 -0.0019415621953393419 0 -0.020301423174237446 -0.0012972860676522559 0 -0.021382525254822711 -0.0024856014964546422 0 -0.026310666024898999 -0.00063488493742233155 0 -0.031286145302570276 -0.0024600688309045701 0 -0.026310666024898999 -0.00063488493742233155 0 -0.020900505976728524 -0.0027889717253907062 0 -0.019784637095800021 -0.00086184234892389589 0 -0.020092682961713466 -0.0014250887842783711 0 -0.020301423174237446 -0.0012972860676522559 0 -0.019784637095800021 -0.00086184234892389589 0 -0.020301423174237446 -0.0012972860676522559 0 -0.020492048675406736 -0.00072643203974440552 0 -0.020301423174237446 -0.0012972860676522559 0 -0.020492048675406736 -0.00072643203974440552 0 -0.021153692257051538 -0.00098612115162258402 0 -0.021220095129118325 4.3957639040999729e-05 0 -0.021153692257051538 -0.00098612115162258402 0 -0.022435332269089125 -0.0013362901182309467 0 -0.021153692257051538 -0.00098612115162258402 0 -0.021382525254822711 -0.0024856014964546422 0 -0.022435332269089125 -0.0013362901182309467 0 -0.020301423174237446 -0.0012972860676522559 0 -0.021153692257051538 -0.00098612115162258402 0 -0.021382525254822711 -0.0024856014964546422 0 -0.039644603493332278 -0.0020162166632336632 0 -0.039648403119765994 -0.0017430205384128647 0 -0.039921492560999923 -0.0017753581692731642 0 -0.039921492560999923 -0.0017753581692731642 0 -0.040035101875154334 -0.0015748204978523095 0 -0.039936394785367181 -0.0015796392745756592 0 -0.040098664929396143 -0.0015873949495101617 0 -0.039921492560999923 -0.0017753581692731642 0 -0.040035101875154334 -0.0015748204978523095 0 -0.040035101875154334 -0.0015748204978523095 0 -0.040102179433075542 -0.0014944339786254913 0 -0.040097702253697923 -0.0014439072767022951 0 -0.040035101875154334 -0.0015748204978523095 0 -0.039936394785367181 -0.0015796392745756592 0 -0.040097702253697923 -0.0014439072767022951 0 -0.039936394785367181 -0.0015796392745756592 0 -0.040048619449053385 -0.0014037862577545919 0 -0.040097702253697923 -0.0014439072767022951 0 -0.039648403119765994 -0.0017430205384128647 0 -0.039921492560999923 -0.0017753581692731642 0 -0.039936394785367181 -0.0015796392745756592 0 -0.039936394785367181 -0.0015796392745756592 0 -0.03978974159201995 -0.0015215519197502806 0 -0.040048619449053385 -0.0014037862577545919 0 -0.039648403119765994 -0.0017430205384128647 0 -0.03978974159201995 -0.0015215519197502806 0 -0.03952867530254825 -0.0014881418116876081 0 -0.039648403119765994 -0.0017430205384128647 0 -0.039936394785367181 -0.0015796392745756592 0 -0.03978974159201995 -0.0015215519197502806 0 -0.040200803449854619 -0.0012439317405765634 0 -0.039963810939439869 -0.0013085567289413348 0 -0.040048619449053385 -0.0014037862577545919 0 -0.040200803449854619 -0.0012439317405765634 0 -0.039963810939439869 -0.0013085567289413348 0 -0.040114684469082888 -0.0011542317667208161 0 -0.039963810939439869 -0.0013085567289413348 0 -0.03986480360265416 -0.0011511205548829105 0 -0.039711138964260234 -0.0013182731935073104 0 -0.039963810939439869 -0.0013085567289413348 0 -0.040114684469082888 -0.0011542317667208161 0 -0.03986480360265416 -0.0011511205548829105 0 -0.03978974159201995 -0.0015215519197502806 0 -0.039963810939439869 -0.0013085567289413348 0 -0.039711138964260234 -0.0013182731935073104 0 -0.03978974159201995 -0.0015215519197502806 0 -0.039963810939439869 -0.0013085567289413348 0 -0.040048619449053385 -0.0014037862577545919 0 -0.040048619449053385 -0.0014037862577545919 0 -0.040097702253697923 -0.0014439072767022951 0 -0.040196578624856642 -0.0013300092877112418 0 -0.040196578624856642 -0.0013300092877112418 0 -0.040403865990471056 -0.0010801978048859866 0 -0.04012024266841107 -0.0014470882245919059 0 -0.040403865990471056 -0.0010801978048859866 0 -0.040311440682851911 -0.001173440366730486 0 -0.04031240828678475 -0.0012027666929153057 0 -0.040097702253697923 -0.0014439072767022951 0 -0.040138427693440226 -0.0014228384212418596 0 -0.040196578624856642 -0.0013300092877112418 0 -0.040102179433075542 -0.0014944339786254913 0 -0.040097702253697923 -0.0014439072767022951 0 -0.040138427693440226 -0.0014228384212418596 0 -0.040138427693440226 -0.0014228384212418596 0 -0.040196578624856642 -0.0013300092877112418 0 -0.040144030966485444 -0.0014160698880816764 0 -0.040200803449854619 -0.0012439317405765634 0 -0.040048619449053385 -0.0014037862577545919 0 -0.040196578624856642 -0.0013300092877112418 0 -0.040200803449854619 -0.0012439317405765634 0 -0.040196578624856642 -0.0013300092877112418 0 -0.040403865990471056 -0.0010801978048859866 0 -0.040123778782542703 -0.0010852596698236819 0 -0.040820333083889819 -0.001277033748299372 0 -0.041206907019277102 -0.0010400465170010442 0 -0.040472992493330286 -0.0010353932162224986 0 -0.043072488895885781 -0.0015451419544481018 0 -0.041206907019277102 -0.0010400465170010442 0 -0.041725617341575733 -0.0010691075520327801 0 -0.043072488895885781 -0.0015451419544481018 0 -0.040119137278140468 -0.00092784183930106267 0 -0.042630213595547743 -0.0014300015892553903 0 -0.040472992493330286 -0.0010353932162224986 0 -0.040403865990471056 -0.0010801978048859866 0 -0.04031240828678475 -0.0012027666929153057 0 -0.041725617341575733 -0.0010691075520327801 0 -0.042002421507414067 -0.001040241361319131 0 -0.041818784667178255 -0.00088096558698501446 0 -0.042002421507414067 -0.001040241361319131 0 -0.042355227867854374 -0.00098048999265114116 0 -0.042507241951208148 -0.0012217367436157763 0 -0.041725617341575733 -0.0010691075520327801 0 -0.042002421507414067 -0.001040241361319131 0 -0.042507241951208148 -0.0012217367436157763 0 -0.042002421507414067 -0.001040241361319131 0 -0.042110397594184563 -0.00081948518912885104 0 -0.042355227867854374 -0.00098048999265114116 0 -0.042110397594184563 -0.00081948518912885104 0 -0.042294423880154253 -0.0005105854182078101 0 -0.042540134749630455 -0.00079336967731418752 0 -0.042002421507414067 -0.001040241361319131 0 -0.042110397594184563 -0.00081948518912885104 0 -0.041818784667178255 -0.00088096558698501446 0 -0.042110397594184563 -0.00081948518912885104 0 -0.041818784667178255 -0.00088096558698501446 0 -0.041831592845611755 -0.00063546367523892246 0 -0.041725617341575733 -0.0010691075520327801 0 -0.041818784667178255 -0.00088096558698501446 0 -0.041508103698470848 -0.00082142854099918113 0 -0.041818784667178255 -0.00088096558698501446 0 -0.041831592845611755 -0.00063546367523892246 0 -0.041508103698470848 -0.00082142854099918113 0 -0.041831592845611755 -0.00063546367523892246 0 -0.041431611393848919 -0.00054502017150464123 0 -0.041830834188964501 -0.00024796177142355979 0 -0.041831592845611755 -0.00063546367523892246 0 -0.041508103698470848 -0.00082142854099918113 0 -0.041431611393848919 -0.00054502017150464123 0 -0.042110397594184563 -0.00081948518912885104 0 -0.041831592845611755 -0.00063546367523892246 0 -0.042294423880154253 -0.0005105854182078101 0 -0.041831592845611755 -0.00063546367523892246 0 -0.042294423880154253 -0.0005105854182078101 0 -0.041830834188964501 -0.00024796177142355979 0 -0.041206907019277102 -0.0010400465170010442 0 -0.040902319319656891 -0.00089872968847163161 0 -0.040472992493330286 -0.0010353932162224986 0 -0.041130428183673781 -0.00078311153238465661 0 -0.040902319319656891 -0.00089872968847163161 0 -0.040786237257449717 -0.00074424641685438961 0 -0.040902319319656891 -0.00089872968847163161 0 -0.040786237257449717 -0.00074424641685438961 0 -0.040472992493330286 -0.0010353932162224986 0 -0.041206907019277102 -0.0010400465170010442 0 -0.041130428183673781 -0.00078311153238465661 0 -0.040902319319656891 -0.00089872968847163161 0 -0.041206907019277102 -0.0010400465170010442 0 -0.041725617341575733 -0.0010691075520327801 0 -0.041508103698470848 -0.00082142854099918113 0 -0.041206907019277102 -0.0010400465170010442 0 -0.041130428183673781 -0.00078311153238465661 0 -0.041508103698470848 -0.00082142854099918113 0 -0.041130428183673781 -0.00078311153238465661 0 -0.041431611393848919 -0.00054502017150464123 0 -0.041053719116643649 -0.00055649768744216079 0 -0.041130428183673781 -0.00078311153238465661 0 -0.041508103698470848 -0.00082142854099918113 0 -0.041431611393848919 -0.00054502017150464123 0 -0.041431611393848919 -0.00054502017150464123 0 -0.041053719116643649 -0.00055649768744216079 0 -0.041221407027313951 -0.00027895369705194229 0 -0.041130428183673781 -0.00078311153238465661 0 -0.041053719116643649 -0.00055649768744216079 0 -0.040786237257449717 -0.00074424641685438961 0 -0.041053719116643649 -0.00055649768744216079 0 -0.040786237257449717 -0.00074424641685438961 0 -0.04071451026705266 -0.00045201973841022989 0 -0.040786237257449717 -0.00074424641685438961 0 -0.04071451026705266 -0.00045201973841022989 0 -0.040505085349451041 -0.00079053179624642201 0 -0.04071451026705266 -0.00045201973841022989 0 -0.040278934805544737 -0.00071684549036840563 0 -0.040505085349451041 -0.00079053179624642201 0 -0.040278934805544737 -0.00071684549036840563 0 -0.040354461412959695 -0.00098361983198943094 0 -0.040195985213309936 -0.0010068996785377493 0 -0.040278934805544737 -0.00071684549036840563 0 -0.040354461412959695 -0.00098361983198943094 0 -0.040505085349451041 -0.00079053179624642201 0 -0.040786237257449717 -0.00074424641685438961 0 -0.040505085349451041 -0.00079053179624642201 0 -0.040472992493330286 -0.0010353932162224986 0 -0.040354461412959695 -0.00098361983198943094 0 -0.040505085349451041 -0.00079053179624642201 0 -0.040472992493330286 -0.0010353932162224986 0 -0.040354461412959695 -0.00098361983198943094 0 -0.040403865990471056 -0.0010801978048859866 0 -0.040246837981820396 -0.0010926291626282877 0 -0.040200803449854619 -0.0012439317405765634 0 -0.040403865990471056 -0.0010801978048859866 0 -0.040241045305995975 -0.0011452013941280757 0 -0.040403865990471056 -0.0010801978048859866 0 -0.040246837981820396 -0.0010926291626282877 0 -0.040241045305995975 -0.0011452013941280757 0 -0.040354461412959695 -0.00098361983198943094 0 -0.040472992493330286 -0.0010353932162224986 0 -0.040403865990471056 -0.0010801978048859866 0 -0.040195985213309936 -0.0010068996785377493 0 -0.040246837981820396 -0.0010926291626282877 0 -0.040114684469082888 -0.0011542317667208161 0 -0.040354461412959695 -0.00098361983198943094 0 -0.040195985213309936 -0.0010068996785377493 0 -0.040246837981820396 -0.0010926291626282877 0 -0.040246837981820396 -0.0010926291626282877 0 -0.040114684469082888 -0.0011542317667208161 0 -0.040241045305995975 -0.0011452013941280757 0 -0.040200803449854619 -0.0012439317405765634 0 -0.040114684469082888 -0.0011542317667208161 0 -0.040241045305995975 -0.0011452013941280757 0 -0.040114684469082888 -0.0011542317667208161 0 -0.03986480360265416 -0.0011511205548829105 0 -0.039967406861281432 -0.00093898121754296506 0 -0.040195985213309936 -0.0010068996785377493 0 -0.040114684469082888 -0.0011542317667208161 0 -0.039967406861281432 -0.00093898121754296506 0 -0.03986480360265416 -0.0011511205548829105 0 -0.039967406861281432 -0.00093898121754296506 0 -0.039782355917351367 -0.00099076008816366759 0 -0.039967406861281432 -0.00093898121754296506 0 -0.039651504163211705 -0.00080847436309454477 0 -0.039782355917351367 -0.00099076008816366759 0 -0.039967406861281432 -0.00093898121754296506 0 -0.039939633442771953 -0.00060041709195315202 0 -0.039651504163211705 -0.00080847436309454477 0 -0.040278934805544737 -0.00071684549036840563 0 -0.039967406861281432 -0.00093898121754296506 0 -0.039939633442771953 -0.00060041709195315202 0 -0.040278934805544737 -0.00071684549036840563 0 -0.040195985213309936 -0.0010068996785377493 0 -0.039967406861281432 -0.00093898121754296506 0 -0.040278934805544737 -0.00071684549036840563 0 -0.039939633442771953 -0.00060041709195315202 0 -0.040394576369184344 -0.00021417924359182995 0 -0.045195416488069323 1.3968933979902489e-05 0 -0.042296664401361574 -0.00026521734523485193 0 -0.042877255629252306 0.00013806064542044253 0 -0.042296664401361574 -0.00026521734523485193 0 -0.039939633442771953 -0.00060041709195315202 0 -0.040394576369184344 -0.00021417924359182995 0 -0.039573313740109445 -0.00017992424554514591 0 -0.044753397611544413 -1.1339353370108676e-05 0 -0.044817478362778503 -0.00015798234638238036 0 -0.044267590056316745 -0.00030349754744048114 0 -0.040394576369184344 -0.00021417924359182995 0 -0.041051738515622556 0.00050399231702853969 0 -0.039573313740109445 -0.00017992424554514591 0 -0.040394576369184344 -0.00021417924359182995 0 -0.041051738515622556 0.00050399231702853969 0 -0.040950434544809192 -6.6402505727345166e-05 0 -0.04071451026705266 -0.00045201973841022989 0 -0.040394576369184344 -0.00021417924359182995 0 -0.040950434544809192 -6.6402505727345166e-05 0 -0.04071451026705266 -0.00045201973841022989 0 -0.040278934805544737 -0.00071684549036840563 0 -0.040394576369184344 -0.00021417924359182995 0 -0.044999589223885382 8.348600142413547e-08 0 -0.045034159694988189 -0.00015431677601629901 0 -0.044394766694348782 -0.00024590764702161485 0 -0.044753397611544413 -1.1339353370108676e-05 0 -0.044919043121495028 -3.0344509048460559e-05 0 -0.045000215764728554 9.0713423580862425e-08 0 -0.045195416488069323 1.3968933979902489e-05 0 -0.044999601307767097 -2.5027584749602658e-07 0 -0.044999589223885382 8.348600142413547e-08 0 -0.045034159694988189 -0.00015431677601629901 0 -0.045000341007657096 -8.4227942541613029e-08 0 -0.044919043121495028 -3.0344509048460559e-05 0 -0.044817478362778503 -0.00015798234638238036 0 -0.045024539530559474 4.7459000566531801e-06 0 -0.044753397611544413 -1.1339353370108676e-05 0 -0.044919043121495028 -3.0344509048460559e-05 0 -0.044817478362778503 -0.00015798234638238036 0 -0.042877255629252306 0.00013806064542044253 0 -0.044044882322538205 0.00030750838856862965 0 -0.042010143102772485 0.00020183719228539817 0 -0.041051738515622556 0.00050399231702853969 0 -0.043133853532532171 0.00069722351894425656 0 -0.042010143102772485 0.00020183719228539817 0 -0.041051738515622556 0.00050399231702853969 0 -0.041415226898646441 1.7349544112188447e-05 0 -0.040950434544809192 -6.6402505727345166e-05 0 -0.041415226898646441 1.7349544112188447e-05 0 -0.041221407027313951 -0.00027895369705194229 0 -0.041051738515622556 0.00050399231702853969 0 -0.040950434544809192 -6.6402505727345166e-05 0 -0.041415226898646441 1.7349544112188447e-05 0 -0.041431611393848919 -0.00054502017150464123 0 -0.041221407027313951 -0.00027895369705194229 0 -0.041830834188964501 -0.00024796177142355979 0 -0.041415226898646441 1.7349544112188447e-05 0 -0.041221407027313951 -0.00027895369705194229 0 -0.041830834188964501 -0.00024796177142355979 0 -0.04071451026705266 -0.00045201973841022989 0 -0.040950434544809192 -6.6402505727345166e-05 0 -0.041221407027313951 -0.00027895369705194229 0 -0.041053719116643649 -0.00055649768744216079 0 -0.04071451026705266 -0.00045201973841022989 0 -0.041221407027313951 -0.00027895369705194229 0 -0.042294423880154253 -0.0005105854182078101 0 -0.041830834188964501 -0.00024796177142355979 0 -0.042599976865673732 -0.00010945480147188921 0 -0.042010143102772485 0.00020183719228539817 0 -0.041830834188964501 -0.00024796177142355979 0 -0.042599976865673732 -0.00010945480147188921 0 -0.042010143102772485 0.00020183719228539817 0 -0.041415226898646441 1.7349544112188447e-05 0 -0.041830834188964501 -0.00024796177142355979 0 -0.042599976865673732 -0.00010945480147188921 0 -0.043394045880817453 -0.00021416293721757763 0 -0.042873192603132423 -0.00054116381745555572 0 -0.042294423880154253 -0.0005105854182078101 0 -0.042599976865673732 -0.00010945480147188921 0 -0.042873192603132423 -0.00054116381745555572 0 -0.043394045880817453 -0.00021416293721757763 0 -0.043133853532532171 0.00069722351894425656 0 -0.044090875880048036 1.3082780763909255e-05 0 -0.042010143102772485 0.00020183719228539817 0 -0.042599976865673732 -0.00010945480147188921 0 -0.043133853532532171 0.00069722351894425656 0 -0.042599976865673732 -0.00010945480147188921 0 -0.043394045880817453 -0.00021416293721757763 0 -0.043133853532532171 0.00069722351894425656 0 -0.044919043121495028 -3.0344509048460559e-05 0 -0.045024539530559474 4.7459000566531801e-06 0 -0.045000215764728554 9.0713423580862425e-08 0 -0.045024539530559474 4.7459000566531801e-06 0 -0.045000215764728554 9.0713423580862425e-08 0 -0.044999524885820173 1.1521024334535164e-07 0 -0.043133853532532171 0.00069722351894425656 0 -0.044785484475461913 0.0001672563947459722 0 -0.044090875880048036 1.3082780763909255e-05 0 -0.044044882322538205 0.00030750838856862965 0 -0.044650201170410415 0.00022364694838826815 0 -0.045024539530559474 4.7459000566531801e-06 0 -0.044999524885820173 1.1521024334535164e-07 0 -0.044785484475461913 0.0001672563947459722 0 -0.044785484475461913 0.0001672563947459722 0 -0.044090875880048036 1.3082780763909255e-05 0 -0.044599761832683979 -0.00012802359257635664 0 -0.043394045880817453 -0.00021416293721757763 0 -0.044090875880048036 1.3082780763909255e-05 0 -0.044091133365478971 -0.00043609395182507462 0 -0.044091133365478971 -0.00043609395182507462 0 -0.044609428904164139 -0.00048464955727370453 0 -0.044599761832683979 -0.00012802359257635664 0 -0.044090875880048036 1.3082780763909255e-05 0 -0.044091133365478971 -0.00043609395182507462 0 -0.044599761832683979 -0.00012802359257635664 0 -0.044312422606336874 -0.00076867526076036547 0 -0.044091133365478971 -0.00043609395182507462 0 -0.044609428904164139 -0.00048464955727370453 0 -0.044312422606336874 -0.00076867526076036547 0 -0.043900913024364101 -0.00081843259052876598 0 -0.044091133365478971 -0.00043609395182507462 0 -0.044312422606336874 -0.00076867526076036547 0 -0.043900913024364101 -0.00081843259052876598 0 -0.043995955543552005 -0.0010991975119721536 0 -0.044312422606336874 -0.00076867526076036547 0 -0.044356184333151548 -0.0010283588628648827 0 -0.043995955543552005 -0.0010991975119721536 0 -0.043535020169613671 -0.0010738090889007871 0 -0.043995955543552005 -0.0010991975119721536 0 -0.043640211877486457 -0.001331003115293319 0 -0.043900913024364101 -0.00081843259052876598 0 -0.043379323525145869 -0.00074093396854860269 0 -0.043535020169613671 -0.0010738090889007871 0 -0.043900913024364101 -0.00081843259052876598 0 -0.043535020169613671 -0.0010738090889007871 0 -0.043995955543552005 -0.0010991975119721536 0 -0.043900913024364101 -0.00081843259052876598 0 -0.044091133365478971 -0.00043609395182507462 0 -0.043379323525145869 -0.00074093396854860269 0 -0.043394045880817453 -0.00021416293721757763 0 -0.044091133365478971 -0.00043609395182507462 0 -0.043379323525145869 -0.00074093396854860269 0 -0.043394045880817453 -0.00021416293721757763 0 -0.043379323525145869 -0.00074093396854860269 0 -0.042873192603132423 -0.00054116381745555572 0 -0.043379323525145869 -0.00074093396854860269 0 -0.042873192603132423 -0.00054116381745555572 0 -0.042936407538003096 -0.00088291249217772177 0 -0.042294423880154253 -0.0005105854182078101 0 -0.042873192603132423 -0.00054116381745555572 0 -0.042540134749630455 -0.00079336967731418752 0 -0.042936407538003096 -0.00088291249217772177 0 -0.042540134749630455 -0.00079336967731418752 0 -0.042627196354920335 -0.0010263875422862369 0 -0.042873192603132423 -0.00054116381745555572 0 -0.042936407538003096 -0.00088291249217772177 0 -0.042540134749630455 -0.00079336967731418752 0 -0.042110397594184563 -0.00081948518912885104 0 -0.042540134749630455 -0.00079336967731418752 0 -0.042355227867854374 -0.00098048999265114116 0 -0.041725617341575733 -0.0010691075520327801 0 -0.042507241951208148 -0.0012217367436157763 0 -0.043072488895885781 -0.0015451419544481018 0 -0.042355227867854374 -0.00098048999265114116 0 -0.042627196354920335 -0.0010263875422862369 0 -0.042507241951208148 -0.0012217367436157763 0 -0.042540134749630455 -0.00079336967731418752 0 -0.042355227867854374 -0.00098048999265114116 0 -0.042627196354920335 -0.0010263875422862369 0 -0.042627196354920335 -0.0010263875422862369 0 -0.042814469607750053 -0.0012406676870127535 0 -0.042507241951208148 -0.0012217367436157763 0 -0.042627196354920335 -0.0010263875422862369 0 -0.042895930350725135 -0.0010867403601394279 0 -0.042814469607750053 -0.0012406676870127535 0 -0.042936407538003096 -0.00088291249217772177 0 -0.042627196354920335 -0.0010263875422862369 0 -0.042895930350725135 -0.0010867403601394279 0 -0.042936407538003096 -0.00088291249217772177 0 -0.042895930350725135 -0.0010867403601394279 0 -0.043172096392127698 -0.0010935321687070326 0 -0.04286769373608381 -0.001332124372553389 0 -0.042507241951208148 -0.0012217367436157763 0 -0.043072488895885781 -0.0015451419544481018 0 -0.042895930350725135 -0.0010867403601394279 0 -0.043054533842871584 -0.0013063980189244918 0 -0.042814469607750053 -0.0012406676870127535 0 -0.042895930350725135 -0.0010867403601394279 0 -0.043054533842871584 -0.0013063980189244918 0 -0.043172096392127698 -0.0010935321687070326 0 -0.043054533842871584 -0.0013063980189244918 0 -0.04286769373608381 -0.001332124372553389 0 -0.042814469607750053 -0.0012406676870127535 0 -0.043054533842871584 -0.0013063980189244918 0 -0.04286769373608381 -0.001332124372553389 0 -0.043072488895885781 -0.0015451419544481018 0 -0.04286769373608381 -0.001332124372553389 0 -0.042814469607750053 -0.0012406676870127535 0 -0.042507241951208148 -0.0012217367436157763 0 -0.043379323525145869 -0.00074093396854860269 0 -0.043172096392127698 -0.0010935321687070326 0 -0.043535020169613671 -0.0010738090889007871 0 -0.043379323525145869 -0.00074093396854860269 0 -0.042936407538003096 -0.00088291249217772177 0 -0.043172096392127698 -0.0010935321687070326 0 -0.043054533842871584 -0.0013063980189244918 0 -0.043172096392127698 -0.0010935321687070326 0 -0.043295752502519234 -0.001284098833653595 0 -0.043295752502519234 -0.001284098833653595 0 -0.043535020169613671 -0.0010738090889007871 0 -0.043640211877486457 -0.001331003115293319 0 -0.043172096392127698 -0.0010935321687070326 0 -0.043295752502519234 -0.001284098833653595 0 -0.043535020169613671 -0.0010738090889007871 0 -0.043295752502519234 -0.001284098833653595 0 -0.043072488895885781 -0.0015451419544481018 0 -0.043640211877486457 -0.001331003115293319 0 -0.040311440682851911 -0.001173440366730486 0 -0.04031240828678475 -0.0012027666929153057 0 -0.039350794918525549 -0.0010584328485402845 0 -0.043054533842871584 -0.0013063980189244918 0 -0.043295752502519234 -0.001284098833653595 0 -0.043072488895885781 -0.0015451419544481018 0 -0.040196578624856642 -0.0013300092877112418 0 -0.04012024266841107 -0.0014470882245919059 0 -0.040144030966485444 -0.0014160698880816764 0 -0.04012024266841107 -0.0014470882245919059 0 -0.040144030966485444 -0.0014160698880816764 0 -0.040126765119044575 -0.0014666732810641476 0 -0.040138427693440226 -0.0014228384212418596 0 -0.040144030966485444 -0.0014160698880816764 0 -0.040126765119044575 -0.0014666732810641476 0 -0.040102179433075542 -0.0014944339786254913 0 -0.040138427693440226 -0.0014228384212418596 0 -0.040126765119044575 -0.0014666732810641476 0 -0.040140658463678827 -0.0015277682962985984 0 -0.04012024266841107 -0.0014470882245919059 0 -0.040126765119044575 -0.0014666732810641476 0 -0.043072488895885781 -0.0015451419544481018 0 -0.044339972469165351 -0.0016007177973038338 0 -0.043640211877486457 -0.001331003115293319 0 -0.042630213595547743 -0.0014300015892553903 0 -0.036784859865408387 -0.0022739177373387875 0 -0.040820333083889819 -0.001277033748299372 0 -0.036784859865408387 -0.0022739177373387875 0 -0.040140658463678827 -0.0015277682962985984 0 -0.04012024266841107 -0.0014470882245919059 0 -0.040200848748197869 -0.0015127752318171263 0 -0.044339972469165351 -0.0016007177973038338 0 -0.044356184333151548 -0.0010283588628648827 0 -0.043995955543552005 -0.0010991975119721536 0 -0.044339972469165351 -0.0016007177973038338 0 -0.043995955543552005 -0.0010991975119721536 0 -0.043640211877486457 -0.001331003115293319 0 -0.044726474488609676 -0.0001975924959381543 0 -0.044881305011364975 -0.00046395017439057737 0 -0.044688517076061023 -0.00048855898163147581 0 -0.044881305011364975 -0.00046395017439057737 0 -0.044735346704576566 -0.00074388175927266259 0 -0.044688517076061023 -0.00048855898163147581 0 -0.044735346704576566 -0.00074388175927266259 0 -0.044688517076061023 -0.00048855898163147581 0 -0.044741722809197339 -0.00052594534608001522 0 -0.036784859865408387 -0.0022739177373387875 0 -0.045282845715539942 0.00081219605294116789 0 -0.044339972469165351 -0.0016007177973038338 0 -0.044356184333151548 -0.0010283588628648827 0 -0.044735346704576566 -0.00074388175927266259 0 -0.044688517076061023 -0.00048855898163147581 0 -0.044639219632992881 -0.00047943089583978081 0 -0.044526826801291927 -0.00030191913477585242 0 -0.044726474488609676 -0.0001975924959381543 0 -0.044688517076061023 -0.00048855898163147581 0 -0.044526826801291927 -0.00030191913477585242 0 -0.044688517076061023 -0.00048855898163147581 0 -0.044741722809197339 -0.00052594534608001522 0 -0.044639219632992881 -0.00047943089583978081 0 -0.044741722809197339 -0.00052594534608001522 0 -0.044757934613063655 -0.0003753116316306855 0 -0.044639219632992881 -0.00047943089583978081 0 -0.044741722809197339 -0.00052594534608001522 0 -0.044757934613063655 -0.0003753116316306855 0 -0.044781818493307722 -0.00025547564845013605 0 -0.044741722809197339 -0.00052594534608001522 0 -0.044609428904164139 -0.00048464955727370453 0 -0.044781818493307722 -0.00025547564845013605 0 -0.044735346704576566 -0.00074388175927266259 0 -0.044741722809197339 -0.00052594534608001522 0 -0.044609428904164139 -0.00048464955727370453 0 -0.044312422606336874 -0.00076867526076036547 0 -0.044356184333151548 -0.0010283588628648827 0 -0.044735346704576566 -0.00074388175927266259 0 -0.044312422606336874 -0.00076867526076036547 0 -0.044735346704576566 -0.00074388175927266259 0 -0.044609428904164139 -0.00048464955727370453 0 -0.044609428904164139 -0.00048464955727370453 0 -0.044781818493307722 -0.00025547564845013605 0 -0.044599761832683979 -0.00012802359257635664 0 -0.044781818493307722 -0.00025547564845013605 0 -0.044599761832683979 -0.00012802359257635664 0 -0.044846210654395507 -3.0932256296662334e-05 0 -0.044999524885820173 1.1521024334535164e-07 0 -0.044785484475461913 0.0001672563947459722 0 -0.044999665087633964 4.7115947978367645e-08 0 -0.044785484475461913 0.0001672563947459722 0 -0.044599761832683979 -0.00012802359257635664 0 -0.044846210654395507 -3.0932256296662334e-05 0 -0.044785484475461913 0.0001672563947459722 0 -0.044846210654395507 -3.0932256296662334e-05 0 -0.044999665087633964 4.7115947978367645e-08 0 -0.044846210654395507 -3.0932256296662334e-05 0 -0.044999665087633964 4.7115947978367645e-08 0 -0.044866158466388723 -0.00014757013837102181 0 -0.044999665087633964 4.7115947978367645e-08 0 -0.044866158466388723 -0.00014757013837102181 0 -0.044999812667324973 -1.5785297319015923e-07 0 -0.044781818493307722 -0.00025547564845013605 0 -0.044846210654395507 -3.0932256296662334e-05 0 -0.044866158466388723 -0.00014757013837102181 0 -0.044757934613063655 -0.0003753116316306855 0 -0.044781818493307722 -0.00025547564845013605 0 -0.044866158466388723 -0.00014757013837102181 0 -0.044866158466388723 -0.00014757013837102181 0 -0.044820924496783709 -0.00018811328970073067 0 -0.044675677201283799 -0.00037578607163347576 0 -0.044757934613063655 -0.0003753116316306855 0 -0.044866158466388723 -0.00014757013837102181 0 -0.044675677201283799 -0.00037578607163347576 0 -0.044866158466388723 -0.00014757013837102181 0 -0.044999812667324973 -1.5785297319015923e-07 0 -0.044820924496783709 -0.00018811328970073067 0 -0.044909308138511357 -0.00016200993852227418 0 -0.044999855594857009 -9.0050187531495498e-08 0 -0.044820924496783709 -0.00018811328970073067 0 -0.044999855594857009 -9.0050187531495498e-08 0 -0.044999812667324973 -1.5785297319015923e-07 0 -0.044820924496783709 -0.00018811328970073067 0 -0.044820924496783709 -0.00018811328970073067 0 -0.044551287182130944 -0.00040363305366201844 0 -0.044675677201283799 -0.00037578607163347576 0 -0.044781700775009543 -0.0002908001966950851 0 -0.044820924496783709 -0.00018811328970073067 0 -0.044551287182130944 -0.00040363305366201844 0 -0.044697208030693575 -0.00048270702799337869 0 -0.044781700775009543 -0.0002908001966950851 0 -0.044551287182130944 -0.00040363305366201844 0 -0.044757934613063655 -0.0003753116316306855 0 -0.044675677201283799 -0.00037578607163347576 0 -0.044639219632992881 -0.00047943089583978081 0 -0.044675677201283799 -0.00037578607163347576 0 -0.044639219632992881 -0.00047943089583978081 0 -0.044442502896731587 -0.00050140219063757297 0 -0.044551287182130944 -0.00040363305366201844 0 -0.044675677201283799 -0.00037578607163347576 0 -0.044442502896731587 -0.00050140219063757297 0 -0.044639219632992881 -0.00047943089583978081 0 -0.044442502896731587 -0.00050140219063757297 0 -0.044526826801291927 -0.00030191913477585242 0 -0.044442502896731587 -0.00050140219063757297 0 -0.044526826801291927 -0.00030191913477585242 0 -0.043988762657656423 -0.0005746664495268033 0 -0.044551287182130944 -0.00040363305366201844 0 -0.044442502896731587 -0.00050140219063757297 0 -0.043988762657656423 -0.0005746664495268033 0 -0.044697208030693575 -0.00048270702799337869 0 -0.044551287182130944 -0.00040363305366201844 0 -0.043988762657656423 -0.0005746664495268033 0 -0.043409385602046498 -0.0013770413384257814 0 -0.044047866132415694 -0.00064736522411867827 0 -0.037572008878821173 -0.0018135314682392316 0 -0.038196824830533105 -0.0019554073227066888 0 -0.037980311905256012 -0.0017689247242803905 0 -0.03494850987984488 -0.0043337308385555037 0 -0.033552039739730685 -0.0040366751416505585 0 -0.034379748053908497 -0.0034751335184526133 0 -0.036559479176957642 -0.0025091201021353181 0 -0.033989700559425032 -0.0034951535707306337 0 -0.038196824830533105 -0.0019554073227066888 0 -0.037980311905256012 -0.0017689247242803905 0 -0.03819255562054992 -0.0017642661819512631 0 -0.033989700559425032 -0.0034951535707306337 0 -0.035718645913421374 -0.0021664213289026507 0 -0.037980311905256012 -0.0017689247242803905 0 -0.037961306853056133 -0.001665134676102584 0 -0.037823542527886132 -0.0016902945056271757 0 -0.037980311905256012 -0.0017689247242803905 0 -0.037961306853056133 -0.001665134676102584 0 -0.03807796173410017 -0.0016480055156098451 0 -0.037961306853056133 -0.001665134676102584 0 -0.03807796173410017 -0.0016480055156098451 0 -0.037964554332304848 -0.0015533948307938725 0 -0.037964554332304848 -0.0015533948307938725 0 -0.037845204212493044 -0.0015285023236546133 0 -0.037823542527886132 -0.0016902945056271757 0 -0.037961306853056133 -0.001665134676102584 0 -0.037964554332304848 -0.0015533948307938725 0 -0.037823542527886132 -0.0016902945056271757 0 -0.037980311905256012 -0.0017689247242803905 0 -0.03819255562054992 -0.0017642661819512631 0 -0.03807796173410017 -0.0016480055156098451 0 -0.03819255562054992 -0.0017642661819512631 0 -0.03807796173410017 -0.0016480055156098451 0 -0.038216067324379738 -0.0016191248932913268 0 -0.03807796173410017 -0.0016480055156098451 0 -0.038216067324379738 -0.0016191248932913268 0 -0.038129289700961806 -0.0015124505285806021 0 -0.038216067324379738 -0.0016191248932913268 0 -0.038129289700961806 -0.0015124505285806021 0 -0.038333680904012422 -0.0014738630746940562 0 -0.038129289700961806 -0.0015124505285806021 0 -0.038203438504940034 -0.0013932837056890163 0 -0.038333680904012422 -0.0014738630746940562 0 -0.03807796173410017 -0.0016480055156098451 0 -0.038129289700961806 -0.0015124505285806021 0 -0.037964554332304848 -0.0015533948307938725 0 -0.038129289700961806 -0.0015124505285806021 0 -0.038203438504940034 -0.0013932837056890163 0 -0.038021915897204564 -0.0014244517707512892 0 -0.038021915897204564 -0.0014244517707512892 0 -0.037845204212493044 -0.0015285023236546133 0 -0.0377827965576936 -0.0013453663976172221 0 -0.037964554332304848 -0.0015533948307938725 0 -0.038021915897204564 -0.0014244517707512892 0 -0.037845204212493044 -0.0015285023236546133 0 -0.038129289700961806 -0.0015124505285806021 0 -0.037964554332304848 -0.0015533948307938725 0 -0.038021915897204564 -0.0014244517707512892 0 -0.036559479176957642 -0.0025091201021353181 0 -0.037812579901919746 -0.00099305397107743139 0 -0.036559479176957642 -0.0025091201021353181 0 -0.037983672427939694 -0.0010600923688528047 0 -0.037572008878821173 -0.0018135314682392316 0 -0.037845204212493044 -0.0015285023236546133 0 -0.0377827965576936 -0.0013453663976172221 0 -0.037567923495307055 -0.0018668979829166545 0 -0.0376664186682747 -0.0013200235540081979 0 -0.0377827965576936 -0.0013453663976172221 0 -0.037638588252148927 -0.0014586017341413676 0 -0.037598975223576324 -0.0013839110421728622 0 -0.0376664186682747 -0.0013200235540081979 0 -0.037572008878821173 -0.0018135314682392316 0 -0.037980311905256012 -0.0017689247242803905 0 -0.037823542527886132 -0.0016902945056271757 0 -0.037572008878821173 -0.0018135314682392316 0 -0.037845204212493044 -0.0015285023236546133 0 -0.037823542527886132 -0.0016902945056271757 0 -0.037638588252148927 -0.0014586017341413676 0 -0.037598975223576324 -0.0013839110421728622 0 -0.037503880253127654 -0.0014313983616967209 0 -0.037598975223576324 -0.0013839110421728622 0 -0.037503880253127654 -0.0014313983616967209 0 -0.037510925311011051 -0.0013323701428748854 0 -0.036559479176957642 -0.0025091201021353181 0 -0.037856814715563375 -0.0014407070481674133 0 -0.037856814715563375 -0.0014407070481674133 0 -0.039458432049290421 -0.0016237499970578038 0 -0.03772365540464187 -0.0016793606195112992 0 -0.037737595758150597 -0.0012465648119133531 0 -0.038728137393403049 -0.0018666355300906506 0 -0.039625170360023665 -0.0016450832683220079 0 -0.039114917744724906 -0.0011921146525147668 0 -0.040212428873903347 -0.0013940644869769459 0 -0.037856814715563375 -0.0014407070481674133 0 -0.039771238710209857 -0.0016059289633118092 0 -0.039625170360023665 -0.0016450832683220079 0 -0.039114917744724906 -0.0011921146525147668 0 -0.03908806624792513 -0.0021610890639789443 0 -0.039625170360023665 -0.0016450832683220079 0 -0.03908806624792513 -0.0021610890639789443 0 -0.040161087680409414 -0.0019494281747024507 0 -0.037856814715563375 -0.0014407070481674133 0 -0.037277181701929112 -0.0014494373230396857 0 -0.036907450702525907 -0.0018246554359833799 0 -0.036914283612436982 -0.0015965978261663091 0 -0.036778930148064493 -0.0015622452048595372 0 -0.037277181701929112 -0.0014494373230396857 0 -0.037043696803611068 -0.0014355987340595603 0 -0.036228081672112111 -0.0017334762726972331 0 -0.036778930148064493 -0.0015622452048595372 0 -0.036555382474348252 -0.001398714720378077 0 -0.036559479176957642 -0.0025091201021353181 0 -0.035922486409909402 -0.0018621638346730067 0 -0.036228081672112111 -0.0017334762726972331 0 -0.036555382474348252 -0.001398714720378077 0 -0.036494560739136997 -0.0010440848867875367 0 -0.036228081672112111 -0.0017334762726972331 0 -0.036907450702525907 -0.0018246554359833799 0 -0.036778930148064493 -0.0015622452048595372 0 -0.036778930148064493 -0.0015622452048595372 0 -0.036555382474348252 -0.001398714720378077 0 -0.0367099675865699 -0.0012847474925866843 0 -0.03691094460910007 -0.0015963698742899413 0 -0.036778930148064493 -0.0015622452048595372 0 -0.0367099675865699 -0.0012847474925866843 0 -0.0367099675865699 -0.0012847474925866843 0 -0.036748022069743785 -0.0010169753707999034 0 -0.036910783530282598 -0.0010152156880736635 0 -0.0367099675865699 -0.0012847474925866843 0 -0.036748022069743785 -0.0010169753707999034 0 -0.036494560739136997 -0.0010440848867875367 0 -0.036555382474348252 -0.001398714720378077 0 -0.0367099675865699 -0.0012847474925866843 0 -0.036494560739136997 -0.0010440848867875367 0 -0.036748022069743785 -0.0010169753707999034 0 -0.036494560739136997 -0.0010440848867875367 0 -0.036876451512940847 -0.00073216288210946519 0 -0.03688774020056259 -0.0015617490716608555 0 -0.037210369776913124 -0.0012961525448468569 0 -0.036910783530282598 -0.0010152156880736635 0 -0.03691094460910007 -0.0015963698742899413 0 -0.0367099675865699 -0.0012847474925866843 0 -0.036910783530282598 -0.0010152156880736635 0 -0.037277181701929112 -0.0014494373230396857 0 -0.036873418840406416 -0.0011169243996081012 0 -0.036748022069743785 -0.0010169753707999034 0 -0.036910783530282598 -0.0010152156880736635 0 -0.036876451512940847 -0.00073216288210946519 0 -0.036748195537135597 -0.00042567189434718206 0 -0.037134436754556258 -0.00026905124297717578 0 -0.036876451512940847 -0.00073216288210946519 0 -0.037134436754556258 -0.00026905124297717578 0 -0.036876451512940847 -0.00073216288210946519 0 -0.037236768950269145 -0.00062801823785259617 0 -0.036910783530282598 -0.0010152156880736635 0 -0.036876451512940847 -0.00073216288210946519 0 -0.037236768950269145 -0.00062801823785259617 0 -0.036343093543080532 -0.0010965368211151721 0 -0.035922486409909402 -0.0018621638346730067 0 -0.035480037840589104 -0.0012511730244124518 0 -0.035036162120326959 -0.0029634968467385503 0 -0.035902738633736837 -0.0017918723463061313 0 -0.035415996969973371 -0.0013420241269677625 0 -0.035366332921447668 -0.0024593161992847658 0 -0.036748195537135597 -0.00042567189434718206 0 -0.036494560739136997 -0.0010440848867875367 0 -0.036876451512940847 -0.00073216288210946519 0 -0.035902738633736837 -0.0017918723463061313 0 -0.035543199861117931 -0.0026200514413126067 0 -0.035366332921447668 -0.0024593161992847658 0 -0.035415996969973371 -0.0013420241269677625 0 -0.034729345877510497 -0.0020337542712503816 0 -0.035153811827832879 -0.002843156248079255 0 -0.034729345877510497 -0.0020337542712503816 0 -0.034374716070565463 -0.0026680971575818711 0 -0.034094299126949681 -0.0020397883516861744 0 -0.034729345877510497 -0.0020337542712503816 0 -0.034374716070565463 -0.0026680971575818711 0 -0.035153811827832879 -0.002843156248079255 0 -0.036559479176957642 -0.0025091201021353181 0 -0.035036162120326959 -0.0029634968467385503 0 -0.035323804352737964 -0.0032921043053063064 0 -0.035543199861117931 -0.0026200514413126067 0 -0.035366332921447668 -0.0024593161992847658 0 -0.03494850987984488 -0.0043337308385555037 0 -0.035153811827832879 -0.002843156248079255 0 -0.034379748053908497 -0.0034751335184526133 0 -0.034374716070565463 -0.0026680971575818711 0 -0.035153811827832879 -0.002843156248079255 0 -0.034379748053908497 -0.0034751335184526133 0 -0.033552039739730685 -0.0040366751416505585 0 -0.034379748053908497 -0.0034751335184526133 0 -0.033384837055995799 -0.0026413849526502695 0 -0.034374716070565463 -0.0026680971575818711 0 -0.034379748053908497 -0.0034751335184526133 0 -0.033384837055995799 -0.0026413849526502695 0 -0.034374716070565463 -0.0026680971575818711 0 -0.034094299126949681 -0.0020397883516861744 0 -0.033384837055995799 -0.0026413849526502695 0 -0.026749801915523123 0.00066335349901496638 0 -0.027023805676809745 -0.0016414152416146669 0 -0.024621474038711375 -0.0012549140553809225 0 -0.027023805676809745 -0.0016414152416146669 0 -0.024621474038711375 -0.0012549140553809225 0 -0.025258511834513764 -0.003575705509553002 0 -0.027335401068904797 -0.0039746283210090917 0 -0.027023805676809745 -0.0016414152416146669 0 -0.025258511834513764 -0.003575705509553002 0 -0.033989700559425032 -0.0034951535707306337 0 -0.029701348649969136 -0.0021960581521593856 0 -0.023197083547493651 -0.00020528300929543373 0 -0.024621474038711375 -0.0012549140553809225 0 -0.022435332269089125 -0.0013362901182309467 0 -0.024621474038711375 -0.0012549140553809225 0 -0.0232066559172012 -0.0031047284745613656 0 -0.025258511834513764 -0.003575705509553002 0 -0.024621474038711375 -0.0012549140553809225 0 -0.022435332269089125 -0.0013362901182309467 0 -0.0232066559172012 -0.0031047284745613656 0 -0.031286145302570276 -0.0024600688309045701 0 -0.031119270545526989 -0.0025390940076904624 0 -0.021382525254822711 -0.0024856014964546422 0 -0.022435332269089125 -0.0013362901182309467 0 -0.0232066559172012 -0.0031047284745613656 0 -0.039648403119765994 -0.0017430205384128647 0 -0.039229093533638293 -0.0020412755934584091 0 -0.039189619429879009 -0.0016897802893287366 0 -0.039644603493332278 -0.0020162166632336632 0 -0.039648403119765994 -0.0017430205384128647 0 -0.039229093533638293 -0.0020412755934584091 0 -0.031119270545526989 -0.0025390940076904624 0 -0.031759533516368274 -0.002714497139390773 0 -0.039229093533638293 -0.0020412755934584091 0 -0.039189619429879009 -0.0016897802893287366 0 -0.038725452124265466 -0.0020034184280235856 0 -0.039189619429879009 -0.0016897802893287366 0 -0.039050785139805158 -0.0014920981635168488 0 -0.039253610704070407 -0.0013746928436471904 0 -0.039189619429879009 -0.0016897802893287366 0 -0.039050785139805158 -0.0014920981635168488 0 -0.038823511985342285 -0.001640834440733517 0 -0.039648403119765994 -0.0017430205384128647 0 -0.039189619429879009 -0.0016897802893287366 0 -0.03952867530254825 -0.0014881418116876081 0 -0.039189619429879009 -0.0016897802893287366 0 -0.03952867530254825 -0.0014881418116876081 0 -0.039253610704070407 -0.0013746928436471904 0 -0.033989700559425032 -0.0034951535707306337 0 -0.031759533516368274 -0.002714497139390773 0 -0.03819879836219154 -0.0019402387277990788 0 -0.038528551312801085 -0.0017853880891688027 0 -0.038725452124265466 -0.0020034184280235856 0 -0.03819879836219154 -0.0019402387277990788 0 -0.038528551312801085 -0.0017853880891688027 0 -0.038365209733143175 -0.0016752697717089141 0 -0.03819879836219154 -0.0019402387277990788 0 -0.03819255562054992 -0.0017642661819512631 0 -0.038365209733143175 -0.0016752697717089141 0 -0.039189619429879009 -0.0016897802893287366 0 -0.038725452124265466 -0.0020034184280235856 0 -0.038823511985342285 -0.001640834440733517 0 -0.038528551312801085 -0.0017853880891688027 0 -0.038725452124265466 -0.0020034184280235856 0 -0.038823511985342285 -0.001640834440733517 0 -0.038528551312801085 -0.0017853880891688027 0 -0.038823511985342285 -0.001640834440733517 0 -0.03860666054856994 -0.001496703553681217 0 -0.039050785139805158 -0.0014920981635168488 0 -0.038823511985342285 -0.001640834440733517 0 -0.038820919555025077 -0.0013628920542199626 0 -0.038823511985342285 -0.001640834440733517 0 -0.03860666054856994 -0.001496703553681217 0 -0.038820919555025077 -0.0013628920542199626 0 -0.03860666054856994 -0.001496703553681217 0 -0.038333680904012422 -0.0014738630746940562 0 -0.038472392919839289 -0.0013149954694316537 0 -0.03860666054856994 -0.001496703553681217 0 -0.038365209733143175 -0.0016752697717089141 0 -0.038333680904012422 -0.0014738630746940562 0 -0.038528551312801085 -0.0017853880891688027 0 -0.03860666054856994 -0.001496703553681217 0 -0.038365209733143175 -0.0016752697717089141 0 -0.038216067324379738 -0.0016191248932913268 0 -0.038365209733143175 -0.0016752697717089141 0 -0.038333680904012422 -0.0014738630746940562 0 -0.03819255562054992 -0.0017642661819512631 0 -0.038216067324379738 -0.0016191248932913268 0 -0.038365209733143175 -0.0016752697717089141 0 -0.038203438504940034 -0.0013932837056890163 0 -0.038333680904012422 -0.0014738630746940562 0 -0.038326644123478679 -0.0013203975476980617 0 -0.03839960273332646 -0.0011775824370567612 0 -0.038583158001708168 -0.00098992010792120391 0 -0.038041492987952778 -0.0011004588642074676 0 -0.038570262262610407 -0.00096992505866832254 0 -0.038777620792192866 -0.00088742906877718785 0 -0.038203438504940034 -0.0013932837056890163 0 -0.038326644123478679 -0.0013203975476980617 0 -0.038218290154202764 -0.0012265268061861698 0 -0.038333680904012422 -0.0014738630746940562 0 -0.038326644123478679 -0.0013203975476980617 0 -0.038472392919839289 -0.0013149954694316537 0 -0.038326644123478679 -0.0013203975476980617 0 -0.03839960273332646 -0.0011775824370567612 0 -0.038472392919839289 -0.0013149954694316537 0 -0.038326644123478679 -0.0013203975476980617 0 -0.03839960273332646 -0.0011775824370567612 0 -0.038218290154202764 -0.0012265268061861698 0 -0.03839960273332646 -0.0011775824370567612 0 -0.038583158001708168 -0.00098992010792120391 0 -0.03863492843350886 -0.0011735790983236631 0 -0.038583158001708168 -0.00098992010792120391 0 -0.03863492843350886 -0.0011735790983236631 0 -0.038658524425779203 -0.0010640086170579984 0 -0.03839960273332646 -0.0011775824370567612 0 -0.03863492843350886 -0.0011735790983236631 0 -0.038472392919839289 -0.0013149954694316537 0 -0.03860666054856994 -0.001496703553681217 0 -0.03863492843350886 -0.0011735790983236631 0 -0.038472392919839289 -0.0013149954694316537 0 -0.03863492843350886 -0.0011735790983236631 0 -0.038820919555025077 -0.0013628920542199626 0 -0.038790189994079835 -0.001142112483355233 0 -0.03860666054856994 -0.001496703553681217 0 -0.03863492843350886 -0.0011735790983236631 0 -0.038820919555025077 -0.0013628920542199626 0 -0.038820919555025077 -0.0013628920542199626 0 -0.038790189994079835 -0.001142112483355233 0 -0.039022173410037039 -0.0012475806403200315 0 -0.038790189994079835 -0.001142112483355233 0 -0.039022173410037039 -0.0012475806403200315 0 -0.038989289976257412 -0.0010176959842814097 0 -0.03863492843350886 -0.0011735790983236631 0 -0.038790189994079835 -0.001142112483355233 0 -0.038658524425779203 -0.0010640086170579984 0 -0.038790189994079835 -0.001142112483355233 0 -0.038658524425779203 -0.0010640086170579984 0 -0.038766537581076767 -0.0010030917669107153 0 -0.038766537581076767 -0.0010030917669107153 0 -0.038871644513641716 -0.00067124438822005732 0 -0.038593363238953453 -0.0010500048672133274 0 -0.038658524425779203 -0.0010640086170579984 0 -0.038766537581076767 -0.0010030917669107153 0 -0.038593363238953453 -0.0010500048672133274 0 -0.038790189994079835 -0.001142112483355233 0 -0.038766537581076767 -0.0010030917669107153 0 -0.038989289976257412 -0.0010176959842814097 0 -0.038766537581076767 -0.0010030917669107153 0 -0.038871644513641716 -0.00067124438822005732 0 -0.038989289976257412 -0.0010176959842814097 0 -0.041767876415465414 -0.00054041597732149514 0 -0.037866806337303049 -0.0015770759315340513 0 -0.041767876415465414 -0.00054041597732149514 0 -0.041908136328644034 -0.00064919739486916364 0 -0.038583158001708168 -0.00098992010792120391 0 -0.03890912033226511 -0.0012314000349270271 0 -0.039319509026539107 -0.00069848310503500073 0 -0.038280473946891713 -0.0012207593758498622 0 -0.03890912033226511 -0.0012314000349270271 0 -0.038593363238953453 -0.0010500048672133274 0 -0.038583158001708168 -0.00098992010792120391 0 -0.03890912033226511 -0.0012314000349270271 0 -0.038593363238953453 -0.0010500048672133274 0 -0.038583158001708168 -0.00098992010792120391 0 -0.038658524425779203 -0.0010640086170579984 0 -0.038593363238953453 -0.0010500048672133274 0 -0.03986480360265416 -0.0011511205548829105 0 -0.039711138964260234 -0.0013182731935073104 0 -0.039642639147480278 -0.0010896339852435326 0 -0.039711138964260234 -0.0013182731935073104 0 -0.039457059187085551 -0.0012367733624848881 0 -0.039642639147480278 -0.0010896339852435326 0 -0.03978974159201995 -0.0015215519197502806 0 -0.03952867530254825 -0.0014881418116876081 0 -0.039711138964260234 -0.0013182731935073104 0 -0.03952867530254825 -0.0014881418116876081 0 -0.039711138964260234 -0.0013182731935073104 0 -0.039457059187085551 -0.0012367733624848881 0 -0.03952867530254825 -0.0014881418116876081 0 -0.039457059187085551 -0.0012367733624848881 0 -0.039253610704070407 -0.0013746928436471904 0 -0.039457059187085551 -0.0012367733624848881 0 -0.039212574392028084 -0.0011195607970013351 0 -0.039384591783554815 -0.00095360054269753251 0 -0.039457059187085551 -0.0012367733624848881 0 -0.039384591783554815 -0.00095360054269753251 0 -0.039642639147480278 -0.0010896339852435326 0 -0.039457059187085551 -0.0012367733624848881 0 -0.039212574392028084 -0.0011195607970013351 0 -0.039253610704070407 -0.0013746928436471904 0 -0.039212574392028084 -0.0011195607970013351 0 -0.039253610704070407 -0.0013746928436471904 0 -0.039022173410037039 -0.0012475806403200315 0 -0.039050785139805158 -0.0014920981635168488 0 -0.038820919555025077 -0.0013628920542199626 0 -0.039022173410037039 -0.0012475806403200315 0 -0.039050785139805158 -0.0014920981635168488 0 -0.039253610704070407 -0.0013746928436471904 0 -0.039022173410037039 -0.0012475806403200315 0 -0.039212574392028084 -0.0011195607970013351 0 -0.039022173410037039 -0.0012475806403200315 0 -0.038989289976257412 -0.0010176959842814097 0 -0.038871644513641716 -0.00067124438822005732 0 -0.039210728023242179 -0.00071056760565571444 0 -0.03950735359318297 -0.00042718569710978966 0 -0.039133534064981323 -0.00091781069090021011 0 -0.039179533981189903 -0.00088339238736031612 0 -0.038871644513641716 -0.00067124438822005732 0 -0.038989289976257412 -0.0010176959842814097 0 -0.039210728023242179 -0.00071056760565571444 0 -0.038989289976257412 -0.0010176959842814097 0 -0.039210728023242179 -0.00071056760565571444 0 -0.039621297588999828 -0.0007140377896096196 0 -0.039210728023242179 -0.00071056760565571444 0 -0.039621297588999828 -0.0007140377896096196 0 -0.03950735359318297 -0.00042718569710978966 0 -0.038989289976257412 -0.0010176959842814097 0 -0.039210722156282102 -0.00073075704696959039 0 -0.039189950528506316 -0.00095559999667279454 0 -0.039212574392028084 -0.0011195607970013351 0 -0.038989289976257412 -0.0010176959842814097 0 -0.039189950528506316 -0.00095559999667279454 0 -0.039212574392028084 -0.0011195607970013351 0 -0.039189950528506316 -0.00095559999667279454 0 -0.039384591783554815 -0.00095360054269753251 0 -0.039210722156282102 -0.00073075704696959039 0 -0.039189950528506316 -0.00095559999667279454 0 -0.039384591783554815 -0.00095360054269753251 0 -0.039384591783554815 -0.00095360054269753251 0 -0.039448543441049241 -0.00068674507401842886 0 -0.039651504163211705 -0.00080847436309454477 0 -0.039210722156282102 -0.00073075704696959039 0 -0.039448543441049241 -0.00068674507401842886 0 -0.039573313740109445 -0.00017992424554514591 0 -0.039210722156282102 -0.00073075704696959039 0 -0.039384591783554815 -0.00095360054269753251 0 -0.039448543441049241 -0.00068674507401842886 0 -0.039448543441049241 -0.00068674507401842886 0 -0.039651504163211705 -0.00080847436309454477 0 -0.039573313740109445 -0.00017992424554514591 0 -0.039939633442771953 -0.00060041709195315202 0 -0.039651504163211705 -0.00080847436309454477 0 -0.039573313740109445 -0.00017992424554514591 0 -0.039384591783554815 -0.00095360054269753251 0 -0.039651504163211705 -0.00080847436309454477 0 -0.039642639147480278 -0.0010896339852435326 0 -0.039651504163211705 -0.00080847436309454477 0 -0.039782355917351367 -0.00099076008816366759 0 -0.039642639147480278 -0.0010896339852435326 0 -0.03986480360265416 -0.0011511205548829105 0 -0.039782355917351367 -0.00099076008816366759 0 -0.039642639147480278 -0.0010896339852435326 0 -0.039621297588999828 -0.0007140377896096196 0 -0.040417472432179358 -0.00019645725023265535 0 -0.03950735359318297 -0.00042718569710978966 0 -0.042296664401361574 -0.00026521734523485193 0 -0.041772540522118325 -0.00054558318054703781 0 -0.044394766694348782 -0.00024590764702161485 0 -0.044620758700785072 -0.00047234830085687184 0 -0.044140145316847942 -0.0006448036524382614 0 -0.045034159694988189 -0.00015431677601629901 0 -0.044394766694348782 -0.00024590764702161485 0 -0.044620758700785072 -0.00047234830085687184 0 -0.039179533981189903 -0.00088339238736031612 0 -0.042296664401361574 -0.00026521734523485193 0 -0.044970765796505351 -2.565823098156886e-05 0 -0.044998497672335547 -6.7953989517593086e-06 0 -0.04498877060916865 -8.1909211817657071e-06 0 -0.043553141035956019 -0.00076041693367898296 0 -0.044394766694348782 -0.00024590764702161485 0 -0.044140145316847942 -0.0006448036524382614 0 -0.041767876415465414 -0.00054041597732149514 0 -0.045158834729341207 -9.8081767046694751e-06 0 -0.041767876415465414 -0.00054041597732149514 0 -0.041772540522118325 -0.00054558318054703781 0 -0.044998497672335547 -6.7953989517593086e-06 0 -0.044999991661381668 -4.5808820171059845e-09 0 -0.04498877060916865 -8.1909211817657071e-06 0 -0.045000009093078559 6.3838497524093184e-11 0 -0.044998497672335547 -6.7953989517593086e-06 0 -0.044999991661381668 -4.5808820171059845e-09 0 -0.044999243713283801 -3.8843628974084507e-07 0 -0.045158834729341207 -9.8081767046694751e-06 0 -0.044970765796505351 -2.565823098156886e-05 0 -0.04495984916371059 -3.3409900046082468e-05 0 -0.044981919637650178 -1.3929514749526435e-05 0 -0.044970765796505351 -2.565823098156886e-05 0 -0.044981919637650178 -1.3929514749526435e-05 0 -0.04498877060916865 -8.1909211817657071e-06 0 -0.044999991661381668 -4.5808820171059845e-09 0 -0.04498877060916865 -8.1909211817657071e-06 0 -0.044999966183254032 -1.0012715173340864e-08 0 -0.044981919637650178 -1.3929514749526435e-05 0 -0.04498877060916865 -8.1909211817657071e-06 0 -0.044999966183254032 -1.0012715173340864e-08 0 -0.044981919637650178 -1.3929514749526435e-05 0 -0.044999966183254032 -1.0012715173340864e-08 0 -0.044999978585547377 -1.4024729904996503e-08 0 -0.044981919637650178 -1.3929514749526435e-05 0 -0.044999978585547377 -1.4024729904996503e-08 0 -0.044973641887845313 -1.9712704811993108e-05 0 -0.044999978585547377 -1.4024729904996503e-08 0 -0.044973641887845313 -1.9712704811993108e-05 0 -0.04499991710145166 -5.5410134270464212e-09 0 -0.04495984916371059 -3.3409900046082468e-05 0 -0.044981919637650178 -1.3929514749526435e-05 0 -0.044973641887845313 -1.9712704811993108e-05 0 -0.041908136328644034 -0.00064919739486916364 0 -0.042602570224314067 -0.00045998414384699815 0 -0.03890912033226511 -0.0012314000349270271 0 -0.040164200492583818 -0.001023395481457515 0 -0.039319509026539107 -0.00069848310503500073 0 -0.04495984916371059 -3.3409900046082468e-05 0 -0.044973641887845313 -1.9712704811993108e-05 0 -0.044951006173383296 -4.7029472871884221e-05 0 -0.040164200492583818 -0.001023395481457515 0 -0.040219077158527558 -0.00049244309677355018 0 -0.039319509026539107 -0.00069848310503500073 0 -0.038447851599470735 -0.0010303088232047853 0 -0.038777620792192866 -0.00088742906877718785 0 -0.037598975223576324 -0.0013839110421728622 0 -0.037650302548670203 -0.0012688018415254187 0 -0.0376664186682747 -0.0013200235540081979 0 -0.037650302548670203 -0.0012688018415254187 0 -0.0376664186682747 -0.0013200235540081979 0 -0.0377827965576936 -0.0013453663976172221 0 -0.037581791875942634 -0.0011842103182672047 0 -0.038218290154202764 -0.0012265268061861698 0 -0.038041492987952778 -0.0011004588642074676 0 -0.038447851599470735 -0.0010303088232047853 0 -0.037849106619124363 -0.0012611849808182318 0 -0.038021915897204564 -0.0014244517707512892 0 -0.0377827965576936 -0.0013453663976172221 0 -0.038218290154202764 -0.0012265268061861698 0 -0.037650302548670203 -0.0012688018415254187 0 -0.0377827965576936 -0.0013453663976172221 0 -0.038218290154202764 -0.0012265268061861698 0 -0.038203438504940034 -0.0013932837056890163 0 -0.038021915897204564 -0.0014244517707512892 0 -0.038218290154202764 -0.0012265268061861698 0 -0.03839960273332646 -0.0011775824370567612 0 -0.038218290154202764 -0.0012265268061861698 0 -0.038041492987952778 -0.0011004588642074676 0 -0.039771238710209857 -0.0016059289633118092 0 -0.041175848541376056 -0.001827533551168226 0 -0.044909623026265506 -0.0014824788305048764 0 -0.044610517733524681 -0.0015609764520739667 0 -0.044695353149345009 -0.0010327636471095302 0 -0.041797057580532891 -0.0019731636775813179 0 -0.041553151500971365 -0.0018136809625645533 0 -0.0420089932196967 -0.0017352084315179423 0 -0.042498067613185773 -0.0015039942844390173 0 -0.042496011510885556 -0.0015766223016251764 0 -0.04275482810627014 -0.0015168666360426378 0 -0.041845787693614252 -0.0012299748873534468 0 -0.042780130791134741 -0.0016109652756829897 0 -0.043154488788772552 -0.00093003442830613984 0 -0.042780130791134741 -0.0016109652756829897 0 -0.041845787693614252 -0.0012299748873534468 0 -0.043154488788772552 -0.00093003442830613984 0 -0.041549484705408403 -0.0019626036823196516 0 -0.041797057580532891 -0.0019731636775813179 0 -0.041553151500971365 -0.0018136809625645533 0 -0.041845787693614252 -0.0012299748873534468 0 -0.039771238710209857 -0.0016059289633118092 0 -0.038613303005619014 -0.0012364319407236672 0 -0.040692725774046236 -0.0013218004794592342 0 -0.040708787415588643 -0.00082279278844560419 0 -0.042602570224314067 -0.00045998414384699815 0 -0.043154488788772552 -0.00093003442830613984 0 -0.037598975223576324 -0.0013839110421728622 0 -0.037650302548670203 -0.0012688018415254187 0 -0.037510925311011051 -0.0013323701428748854 0 -0.038447851599470735 -0.0010303088232047853 0 -0.041845787693614252 -0.0012299748873534468 0 -0.038447851599470735 -0.0010303088232047853 0 -0.039771238710209857 -0.0016059289633118092 0 -0.040219077158527558 -0.00049244309677355018 0 -0.041609673686311043 -0.00054836116627804106 0 -0.041604666566149036 -0.00070273074488149561 0 -0.040164200492583818 -0.001023395481457515 0 -0.040219077158527558 -0.00049244309677355018 0 -0.041604666566149036 -0.00070273074488149561 0 -0.044951006173383296 -4.7029472871884221e-05 0 -0.044917851004075152 -6.6415594335252258e-05 0 -0.044951121003309051 -2.732537696227395e-05 0 -0.043154488788772552 -0.00093003442830613984 0 -0.045150937475078944 -0.00032355855337258256 0 -0.044610517733524681 -0.0015609764520739667 0 -0.044695353149345009 -0.0010327636471095302 0 -0.044341032246799923 -0.00099170608073275508 0 -0.044909623026265506 -0.0014824788305048764 0 -0.044695353149345009 -0.0010327636471095302 0 -0.044954316749117575 -0.00069160044746249707 0 -0.044695353149345009 -0.0010327636471095302 0 -0.044674211669076397 -0.0004628507010230082 0 -0.044341032246799923 -0.00099170608073275508 0 -0.044695353149345009 -0.0010327636471095302 0 -0.044954316749117575 -0.00069160044746249707 0 -0.044674211669076397 -0.0004628507010230082 0 -0.044973641887845313 -1.9712704811993108e-05 0 -0.044951006173383296 -4.7029472871884221e-05 0 -0.044951121003309051 -2.732537696227395e-05 0 -0.044973641887845313 -1.9712704811993108e-05 0 -0.044951121003309051 -2.732537696227395e-05 0 -0.04499991710145166 -5.5410134270464212e-09 0 -0.044674211669076397 -0.0004628507010230082 0 -0.044998814360349429 -3.7728502118692488e-07 0 -0.045001146684905062 3.7642714764178836e-07 0 -0.045150937475078944 -0.00032355855337258256 0 -0.044999890216769131 -1.3735031101958193e-07 0 -0.044785213409169043 -0.00053551180332064461 0 -0.044999961296681434 -1.5579173977062089e-07 0 -0.044954316749117575 -0.00069160044746249707 0 -0.044674211669076397 -0.0004628507010230082 0 -0.045001146684905062 3.7642714764178836e-07 0 -0.045000275021939144 3.9037929210364003e-08 0 -0.044947762590949895 -0.00015578467837654511 0 -0.044999773492255625 -1.4125997250840136e-07 0 -0.044959153069207815 -0.00054135083173484843 0 -0.045000275021939144 3.9037929210364003e-08 0 -0.044947762590949895 -0.00015578467837654511 0 -0.044959153069207815 -0.00054135083173484843 0 -0.044947762590949895 -0.00015578467837654511 0 -0.044659794468947696 -0.00045280040137315889 0 -0.044928364669415556 -0.00013698278383586146 0 -0.044364352257510842 -6.2723449949997714e-05 0 -0.044947762590949895 -0.00015578467837654511 0 -0.044999773492255625 -1.4125997250840136e-07 0 -0.04499994804049242 8.9337161957303043e-06 0 -0.044947762590949895 -0.00015578467837654511 0 -0.044334631007688266 -0.00034281491295698327 0 -0.043728426121350812 -0.00010256935817751564 0 -0.044947762590949895 -0.00015578467837654511 0 -0.044659794468947696 -0.00045280040137315889 0 -0.044334631007688266 -0.00034281491295698327 0 -0.044999773492255625 -1.4125997250840136e-07 0 -0.04499994804049242 8.9337161957303043e-06 0 -0.045000054174975435 4.5056044322986465e-08 0 -0.043728426121350812 -0.00010256935817751564 0 -0.043436049632781075 -0.00049113103253115866 0 -0.043052299797780316 -0.00037982835527698678 0 -0.043436049632781075 -0.00049113103253115866 0 -0.043781935568913875 -0.00051980583822667278 0 -0.043439276587577062 -0.00078534130157580312 0 -0.043436049632781075 -0.00049113103253115866 0 -0.043052299797780316 -0.00037982835527698678 0 -0.043085398980085093 -0.00061555321729288954 0 -0.043728426121350812 -0.00010256935817751564 0 -0.043436049632781075 -0.00049113103253115866 0 -0.043781935568913875 -0.00051980583822667278 0 -0.044334631007688266 -0.00034281491295698327 0 -0.043728426121350812 -0.00010256935817751564 0 -0.043781935568913875 -0.00051980583822667278 0 -0.043781935568913875 -0.00051980583822667278 0 -0.043881775196808352 -0.00091569045733898768 0 -0.043439276587577062 -0.00078534130157580312 0 -0.043439276587577062 -0.00078534130157580312 0 -0.043416285293087886 -0.0012735861741735716 0 -0.043042520133142748 -0.00089746696293703889 0 -0.043439276587577062 -0.00078534130157580312 0 -0.043085398980085093 -0.00061555321729288954 0 -0.043042520133142748 -0.00089746696293703889 0 -0.043436049632781075 -0.00049113103253115866 0 -0.043439276587577062 -0.00078534130157580312 0 -0.043085398980085093 -0.00061555321729288954 0 -0.043881775196808352 -0.00091569045733898768 0 -0.043416285293087886 -0.0012735861741735716 0 -0.043928249295886582 -0.00131611198868729 0 -0.043881775196808352 -0.00091569045733898768 0 -0.043439276587577062 -0.00078534130157580312 0 -0.043416285293087886 -0.0012735861741735716 0 -0.044785213409169043 -0.00053551180332064461 0 -0.044440850157639517 -0.0012275698413173354 0 -0.043928249295886582 -0.00131611198868729 0 -0.044356426912832841 -0.00083825906670052916 0 -0.044440510684871114 -0.0015745553584442225 0 -0.043881775196808352 -0.00091569045733898768 0 -0.043928249295886582 -0.00131611198868729 0 -0.044356426912832841 -0.00083825906670052916 0 -0.044959153069207815 -0.00054135083173484843 0 -0.044356426912832841 -0.00083825906670052916 0 -0.044440510684871114 -0.0015745553584442225 0 -0.044959153069207815 -0.00054135083173484843 0 -0.044659794468947696 -0.00045280040137315889 0 -0.044356426912832841 -0.00083825906670052916 0 -0.044659794468947696 -0.00045280040137315889 0 -0.044334631007688266 -0.00034281491295698327 0 -0.044356426912832841 -0.00083825906670052916 0 -0.044334631007688266 -0.00034281491295698327 0 -0.043781935568913875 -0.00051980583822667278 0 -0.043881775196808352 -0.00091569045733898768 0 -0.044334631007688266 -0.00034281491295698327 0 -0.043881775196808352 -0.00091569045733898768 0 -0.044356426912832841 -0.00083825906670052916 0 -0.04380389396289882 -8.9063098071962278e-05 0 -0.042935991851071699 -0.00011332268133262023 0 -0.045000054174975435 4.5056044322986465e-08 0 -0.044997779657033388 -2.5604776131152167e-07 0 -0.044999959666992301 -1.2048746622294446e-08 0 -0.041882851092676733 -0.00036150772475469344 0 -0.042481544477264738 -0.00016594341273738108 0 -0.041367454039297293 -0.00028914281107556472 0 -0.044997779657033388 -2.5604776131152167e-07 0 -0.044999959666992301 -1.2048746622294446e-08 0 -0.04499785585937166 -1.3872590823155083e-07 0 -0.041881970598245631 -0.00061633009041852282 0 -0.041606639194579936 -0.00078524819730536465 0 -0.041663467713838269 -0.00052050361331666684 0 -0.041881970598245631 -0.00061633009041852282 0 -0.041882851092676733 -0.00036150772475469344 0 -0.04211776880849321 -0.00049219857157892515 0 -0.041881970598245631 -0.00061633009041852282 0 -0.041882851092676733 -0.00036150772475469344 0 -0.041663467713838269 -0.00052050361331666684 0 -0.041882851092676733 -0.00036150772475469344 0 -0.041612819880452297 -0.00039883422098465038 0 -0.041663467713838269 -0.00052050361331666684 0 -0.041882851092676733 -0.00036150772475469344 0 -0.042219207617295786 -0.00037590924897178894 0 -0.042481544477264738 -0.00016594341273738108 0 -0.04240019481032422 -0.00048915047645613295 0 -0.04211776880849321 -0.00049219857157892515 0 -0.042219207617295786 -0.00037590924897178894 0 -0.04240019481032422 -0.00048915047645613295 0 -0.042219207617295786 -0.00037590924897178894 0 -0.042481544477264738 -0.00016594341273738108 0 -0.041882851092676733 -0.00036150772475469344 0 -0.04211776880849321 -0.00049219857157892515 0 -0.042219207617295786 -0.00037590924897178894 0 -0.04240019481032422 -0.00048915047645613295 0 -0.04211776880849321 -0.00049219857157892515 0 -0.042157294229273223 -0.00073578513234686782 0 -0.041881970598245631 -0.00061633009041852282 0 -0.04211776880849321 -0.00049219857157892515 0 -0.042157294229273223 -0.00073578513234686782 0 -0.04240019481032422 -0.00048915047645613295 0 -0.042455027026064893 -0.00076922902965466725 0 -0.042157294229273223 -0.00073578513234686782 0 -0.04499994804049242 8.9337161957303043e-06 0 -0.045000054174975435 4.5056044322986465e-08 0 -0.044997779657033388 -2.5604776131152167e-07 0 -0.043728426121350812 -0.00010256935817751564 0 -0.042481544477264738 -0.00016594341273738108 0 -0.043052299797780316 -0.00037982835527698678 0 -0.044364352257510842 -6.2723449949997714e-05 0 -0.04380389396289882 -8.9063098071962278e-05 0 -0.042696891157043587 -0.00040923925132465785 0 -0.042481544477264738 -0.00016594341273738108 0 -0.043052299797780316 -0.00037982835527698678 0 -0.04240019481032422 -0.00048915047645613295 0 -0.042746557340191615 -0.00065331266440537769 0 -0.042455027026064893 -0.00076922902965466725 0 -0.04240019481032422 -0.00048915047645613295 0 -0.042746557340191615 -0.00065331266440537769 0 -0.042696891157043587 -0.00040923925132465785 0 -0.042746557340191615 -0.00065331266440537769 0 -0.042696891157043587 -0.00040923925132465785 0 -0.042890444321812736 -0.00049261807917059088 0 -0.04240019481032422 -0.00048915047645613295 0 -0.042696891157043587 -0.00040923925132465785 0 -0.042481544477264738 -0.00016594341273738108 0 -0.042696891157043587 -0.00040923925132465785 0 -0.043052299797780316 -0.00037982835527698678 0 -0.042890444321812736 -0.00049261807917059088 0 -0.042746557340191615 -0.00065331266440537769 0 -0.042890444321812736 -0.00049261807917059088 0 -0.043085398980085093 -0.00061555321729288954 0 -0.043052299797780316 -0.00037982835527698678 0 -0.042890444321812736 -0.00049261807917059088 0 -0.043085398980085093 -0.00061555321729288954 0 -0.042746557340191615 -0.00065331266440537769 0 -0.043085398980085093 -0.00061555321729288954 0 -0.043042520133142748 -0.00089746696293703889 0 -0.042746557340191615 -0.00065331266440537769 0 -0.043042520133142748 -0.00089746696293703889 0 -0.042669324374165846 -0.0009051679276550305 0 -0.043042520133142748 -0.00089746696293703889 0 -0.042709864416693423 -0.001171748866104477 0 -0.042669324374165846 -0.0009051679276550305 0 -0.043416285293087886 -0.0012735861741735716 0 -0.043042520133142748 -0.00089746696293703889 0 -0.042980404336105567 -0.0013723729802882147 0 -0.043042520133142748 -0.00089746696293703889 0 -0.042980404336105567 -0.0013723729802882147 0 -0.042709864416693423 -0.001171748866104477 0 -0.042980404336105567 -0.0013723729802882147 0 -0.042709864416693423 -0.001171748866104477 0 -0.042587416872145838 -0.0015483122474734966 0 -0.042709864416693423 -0.001171748866104477 0 -0.04240666656602906 -0.0012938791426351411 0 -0.042587416872145838 -0.0015483122474734966 0 -0.042709864416693423 -0.001171748866104477 0 -0.042447172338618638 -0.0010310777110472931 0 -0.04240666656602906 -0.0012938791426351411 0 -0.042447172338618638 -0.0010310777110472931 0 -0.042669324374165846 -0.0009051679276550305 0 -0.042455027026064893 -0.00076922902965466725 0 -0.042709864416693423 -0.001171748866104477 0 -0.042447172338618638 -0.0010310777110472931 0 -0.042669324374165846 -0.0009051679276550305 0 -0.042746557340191615 -0.00065331266440537769 0 -0.042669324374165846 -0.0009051679276550305 0 -0.042455027026064893 -0.00076922902965466725 0 -0.042455027026064893 -0.00076922902965466725 0 -0.042157294229273223 -0.00073578513234686782 0 -0.042265578530120432 -0.00092008438345520405 0 -0.042157294229273223 -0.00073578513234686782 0 -0.042069470490753769 -0.0009499124011128514 0 -0.042265578530120432 -0.00092008438345520405 0 -0.042069470490753769 -0.0009499124011128514 0 -0.042265578530120432 -0.00092008438345520405 0 -0.042203195132578752 -0.0011146992679636105 0 -0.042447172338618638 -0.0010310777110472931 0 -0.042455027026064893 -0.00076922902965466725 0 -0.042265578530120432 -0.00092008438345520405 0 -0.042447172338618638 -0.0010310777110472931 0 -0.042265578530120432 -0.00092008438345520405 0 -0.042203195132578752 -0.0011146992679636105 0 -0.042447172338618638 -0.0010310777110472931 0 -0.04240666656602906 -0.0012938791426351411 0 -0.042203195132578752 -0.0011146992679636105 0 -0.04240666656602906 -0.0012938791426351411 0 -0.042126708734333045 -0.0013773421330167432 0 -0.04232861109946582 -0.0015427916659292635 0 -0.04240666656602906 -0.0012938791426351411 0 -0.042126708734333045 -0.0013773421330167432 0 -0.042203195132578752 -0.0011146992679636105 0 -0.042126708734333045 -0.0013773421330167432 0 -0.042203195132578752 -0.0011146992679636105 0 -0.04186860959011144 -0.0011528915342411132 0 -0.042069470490753769 -0.0009499124011128514 0 -0.042203195132578752 -0.0011146992679636105 0 -0.04186860959011144 -0.0011528915342411132 0 -0.042126708734333045 -0.0013773421330167432 0 -0.04186860959011144 -0.0011528915342411132 0 -0.041869712263078909 -0.0014587806585176278 0 -0.04186860959011144 -0.0011528915342411132 0 -0.041869712263078909 -0.0014587806585176278 0 -0.041659414942100223 -0.0013007143511853728 0 -0.041869712263078909 -0.0014587806585176278 0 -0.041600280293212687 -0.0015062054180833796 0 -0.041659414942100223 -0.0013007143511853728 0 -0.04186860959011144 -0.0011528915342411132 0 -0.04172043615323321 -0.00097241952128232782 0 -0.041533260802859379 -0.001091786049355437 0 -0.04186860959011144 -0.0011528915342411132 0 -0.04172043615323321 -0.00097241952128232782 0 -0.041877411042542292 -0.00086405950880034661 0 -0.042069470490753769 -0.0009499124011128514 0 -0.04186860959011144 -0.0011528915342411132 0 -0.041877411042542292 -0.00086405950880034661 0 -0.042157294229273223 -0.00073578513234686782 0 -0.042069470490753769 -0.0009499124011128514 0 -0.041877411042542292 -0.00086405950880034661 0 -0.041881970598245631 -0.00061633009041852282 0 -0.042157294229273223 -0.00073578513234686782 0 -0.041877411042542292 -0.00086405950880034661 0 -0.041881970598245631 -0.00061633009041852282 0 -0.041877411042542292 -0.00086405950880034661 0 -0.041606639194579936 -0.00078524819730536465 0 -0.04172043615323321 -0.00097241952128232782 0 -0.041877411042542292 -0.00086405950880034661 0 -0.041606639194579936 -0.00078524819730536465 0 -0.041930210142829667 -0.001974659432646424 0 -0.04177474604159858 -0.0022121453817028286 0 -0.041684382790514028 -0.0019580168864178011 0 -0.041930210142829667 -0.001974659432646424 0 -0.041816362819155212 -0.0017358013853422103 0 -0.042091344883240671 -0.0017045127947804429 0 -0.041930210142829667 -0.001974659432646424 0 -0.041816362819155212 -0.0017358013853422103 0 -0.041684382790514028 -0.0019580168864178011 0 -0.041816362819155212 -0.0017358013853422103 0 -0.041606487460759671 -0.0017410009328964397 0 -0.041684382790514028 -0.0019580168864178011 0 -0.041816362819155212 -0.0017358013853422103 0 -0.041869712263078909 -0.0014587806585176278 0 -0.041600280293212687 -0.0015062054180833796 0 -0.042126708734333045 -0.0013773421330167432 0 -0.041869712263078909 -0.0014587806585176278 0 -0.042091344883240671 -0.0017045127947804429 0 -0.041816362819155212 -0.0017358013853422103 0 -0.041869712263078909 -0.0014587806585176278 0 -0.042091344883240671 -0.0017045127947804429 0 -0.042126708734333045 -0.0013773421330167432 0 -0.042091344883240671 -0.0017045127947804429 0 -0.04232861109946582 -0.0015427916659292635 0 -0.042091344883240671 -0.0017045127947804429 0 -0.04232861109946582 -0.0015427916659292635 0 -0.042331805476956058 -0.0017732677739647745 0 -0.042331805476956058 -0.0017732677739647745 0 -0.042182459677692102 -0.0019832909812216313 0 -0.042552860073551718 -0.0019208953294758398 0 -0.042182459677692102 -0.0019832909812216313 0 -0.042552860073551718 -0.0019208953294758398 0 -0.042313646380754362 -0.0022175835461557577 0 -0.042091344883240671 -0.0017045127947804429 0 -0.042331805476956058 -0.0017732677739647745 0 -0.042182459677692102 -0.0019832909812216313 0 -0.041930210142829667 -0.001974659432646424 0 -0.042091344883240671 -0.0017045127947804429 0 -0.042182459677692102 -0.0019832909812216313 0 -0.041930210142829667 -0.001974659432646424 0 -0.042182459677692102 -0.0019832909812216313 0 -0.042027279832283521 -0.0022235878378083214 0 -0.042552860073551718 -0.0019208953294758398 0 -0.042901156438849439 -0.0020536270117198475 0 -0.04263070355957841 -0.0022531351033470174 0 -0.042552860073551718 -0.0019208953294758398 0 -0.042841153667060934 -0.0017237983777661002 0 -0.042901156438849439 -0.0020536270117198475 0 -0.04232861109946582 -0.0015427916659292635 0 -0.042331805476956058 -0.0017732677739647745 0 -0.042587416872145838 -0.0015483122474734966 0 -0.042331805476956058 -0.0017732677739647745 0 -0.042552860073551718 -0.0019208953294758398 0 -0.042587416872145838 -0.0015483122474734966 0 -0.042552860073551718 -0.0019208953294758398 0 -0.042587416872145838 -0.0015483122474734966 0 -0.042841153667060934 -0.0017237983777661002 0 -0.04240666656602906 -0.0012938791426351411 0 -0.04232861109946582 -0.0015427916659292635 0 -0.042587416872145838 -0.0015483122474734966 0 -0.042980404336105567 -0.0013723729802882147 0 -0.042587416872145838 -0.0015483122474734966 0 -0.042841153667060934 -0.0017237983777661002 0 -0.042980404336105567 -0.0013723729802882147 0 -0.042841153667060934 -0.0017237983777661002 0 -0.043189493060294459 -0.0017200263842674539 0 -0.042901156438849439 -0.0020536270117198475 0 -0.043189493060294459 -0.0017200263842674539 0 -0.043296554316038759 -0.0020530765517302188 0 -0.042841153667060934 -0.0017237983777661002 0 -0.042901156438849439 -0.0020536270117198475 0 -0.043189493060294459 -0.0017200263842674539 0 -0.042901156438849439 -0.0020536270117198475 0 -0.042980993184120811 -0.0024165896396881373 0 -0.043296554316038759 -0.0020530765517302188 0 -0.042901156438849439 -0.0020536270117198475 0 -0.042980993184120811 -0.0024165896396881373 0 -0.04263070355957841 -0.0022531351033470174 0 -0.042980993184120811 -0.0024165896396881373 0 -0.042765189069596581 -0.0027452184952227333 0 -0.04316291695813182 -0.0027117281375399339 0 -0.042980993184120811 -0.0024165896396881373 0 -0.042633037480030889 -0.0025086603040943762 0 -0.042765189069596581 -0.0027452184952227333 0 -0.042633037480030889 -0.0025086603040943762 0 -0.042765189069596581 -0.0027452184952227333 0 -0.042420709919110823 -0.0026807547771769283 0 -0.042765189069596581 -0.0027452184952227333 0 -0.042420709919110823 -0.0026807547771769283 0 -0.042178814256873552 -0.0029396630320082614 0 -0.042633037480030889 -0.0025086603040943762 0 -0.042420709919110823 -0.0026807547771769283 0 -0.042375256351015994 -0.002453586906633463 0 -0.04263070355957841 -0.0022531351033470174 0 -0.042313646380754362 -0.0022175835461557577 0 -0.042375256351015994 -0.002453586906633463 0 -0.042633037480030889 -0.0025086603040943762 0 -0.04263070355957841 -0.0022531351033470174 0 -0.042375256351015994 -0.002453586906633463 0 -0.042980993184120811 -0.0024165896396881373 0 -0.042633037480030889 -0.0025086603040943762 0 -0.04263070355957841 -0.0022531351033470174 0 -0.042552860073551718 -0.0019208953294758398 0 -0.04263070355957841 -0.0022531351033470174 0 -0.042313646380754362 -0.0022175835461557577 0 -0.042182459677692102 -0.0019832909812216313 0 -0.042313646380754362 -0.0022175835461557577 0 -0.042027279832283521 -0.0022235878378083214 0 -0.042313646380754362 -0.0022175835461557577 0 -0.042124367518283773 -0.0024752745422445882 0 -0.042027279832283521 -0.0022235878378083214 0 -0.042313646380754362 -0.0022175835461557577 0 -0.042124367518283773 -0.0024752745422445882 0 -0.042375256351015994 -0.002453586906633463 0 -0.042124367518283773 -0.0024752745422445882 0 -0.042375256351015994 -0.002453586906633463 0 -0.042204367708171313 -0.0026564983277291608 0 -0.042420709919110823 -0.0026807547771769283 0 -0.042375256351015994 -0.002453586906633463 0 -0.042204367708171313 -0.0026564983277291608 0 -0.042420709919110823 -0.0026807547771769283 0 -0.042204367708171313 -0.0026564983277291608 0 -0.042178814256873552 -0.0029396630320082614 0 -0.042204367708171313 -0.0026564983277291608 0 -0.04199467031877803 -0.0026483133527643947 0 -0.042178814256873552 -0.0029396630320082614 0 -0.042124367518283773 -0.0024752745422445882 0 -0.042204367708171313 -0.0026564983277291608 0 -0.04199467031877803 -0.0026483133527643947 0 -0.042124367518283773 -0.0024752745422445882 0 -0.04199467031877803 -0.0026483133527643947 0 -0.041848373014143743 -0.002460424249515719 0 -0.04199467031877803 -0.0026483133527643947 0 -0.042178814256873552 -0.0029396630320082614 0 -0.04165326013869515 -0.0026673167553655603 0 -0.041848373014143743 -0.002460424249515719 0 -0.041597847998778359 -0.0024164786551746668 0 -0.04165326013869515 -0.0026673167553655603 0 -0.04199467031877803 -0.0026483133527643947 0 -0.041848373014143743 -0.002460424249515719 0 -0.04165326013869515 -0.0026673167553655603 0 -0.041848373014143743 -0.002460424249515719 0 -0.04177474604159858 -0.0022121453817028286 0 -0.041597847998778359 -0.0024164786551746668 0 -0.041848373014143743 -0.002460424249515719 0 -0.042027279832283521 -0.0022235878378083214 0 -0.04177474604159858 -0.0022121453817028286 0 -0.042124367518283773 -0.0024752745422445882 0 -0.041848373014143743 -0.002460424249515719 0 -0.042027279832283521 -0.0022235878378083214 0 -0.041930210142829667 -0.001974659432646424 0 -0.042027279832283521 -0.0022235878378083214 0 -0.04177474604159858 -0.0022121453817028286 0 -0.044440510684871114 -0.0015745553584442225 0 -0.043725295903053574 -0.0018242060410734952 0 -0.043928799208715674 -0.0024449254098610966 0 -0.044440850157639517 -0.0012275698413173354 0 -0.043447697235996618 -0.0020980673281068463 0 -0.043928249295886582 -0.00131611198868729 0 -0.044440510684871114 -0.0015745553584442225 0 -0.043725295903053574 -0.0018242060410734952 0 -0.043416285293087886 -0.0012735861741735716 0 -0.043928249295886582 -0.00131611198868729 0 -0.043725295903053574 -0.0018242060410734952 0 -0.043416285293087886 -0.0012735861741735716 0 -0.042980404336105567 -0.0013723729802882147 0 -0.043189493060294459 -0.0017200263842674539 0 -0.043416285293087886 -0.0012735861741735716 0 -0.043189493060294459 -0.0017200263842674539 0 -0.043725295903053574 -0.0018242060410734952 0 -0.043296554316038759 -0.0020530765517302188 0 -0.043725295903053574 -0.0018242060410734952 0 -0.04345235428410972 -0.0024155623042068602 0 -0.043189493060294459 -0.0017200263842674539 0 -0.043296554316038759 -0.0020530765517302188 0 -0.043725295903053574 -0.0018242060410734952 0 -0.043616539456609288 -0.0022818848296029572 0 -0.043447697235996618 -0.0020980673281068463 0 -0.043725295903053574 -0.0018242060410734952 0 -0.04345235428410972 -0.0024155623042068602 0 -0.043928799208715674 -0.0024449254098610966 0 -0.042980993184120811 -0.0024165896396881373 0 -0.043296554316038759 -0.0020530765517302188 0 -0.04345235428410972 -0.0024155623042068602 0 -0.042980993184120811 -0.0024165896396881373 0 -0.04345235428410972 -0.0024155623042068602 0 -0.04316291695813182 -0.0027117281375399339 0 -0.04345235428410972 -0.0024155623042068602 0 -0.043445249282140143 -0.0027493868496037905 0 -0.04316291695813182 -0.0027117281375399339 0 -0.04345235428410972 -0.0024155623042068602 0 -0.043445249282140143 -0.0027493868496037905 0 -0.043863896892890719 -0.0024277355891783236 0 -0.043447697235996618 -0.0020980673281068463 0 -0.04179549976411609 -0.0020139869987665497 0 -0.043445249282140143 -0.0027493868496037905 0 -0.043863896892890719 -0.0024277355891783236 0 -0.043514812414884786 -0.0030683941721171208 0 -0.042104567301354583 -0.001889390572393365 0 -0.042225180591731734 -0.0019633126947561012 0 -0.042386240729632034 -0.001674593822222951 0 -0.041877899751906457 -0.0019369504455257734 0 -0.042104567301354583 -0.001889390572393365 0 -0.042225180591731734 -0.0019633126947561012 0 -0.042780130791134741 -0.0016109652756829897 0 -0.043447697235996618 -0.0020980673281068463 0 -0.044610517733524681 -0.0015609764520739667 0 -0.044341032246799923 -0.00099170608073275508 0 -0.044027049063299253 -0.0015464003681878765 0 -0.041797057580532891 -0.0019731636775813179 0 -0.042104567301354583 -0.001889390572393365 0 -0.0420089932196967 -0.0017352084315179423 0 -0.042780130791134741 -0.0016109652756829897 0 -0.041831154923412377 -0.001932756904035925 0 -0.041175848541376056 -0.001827533551168226 0 -0.04179549976411609 -0.0020139869987665497 0 -0.039149490544607639 -0.0016237433629158399 0 -0.038728137393403049 -0.0018666355300906506 0 -0.039725917764415218 -0.0020563047608094217 0 -0.039625170360023665 -0.0016450832683220079 0 -0.040161087680409414 -0.0019494281747024507 0 -0.040212428873903347 -0.0013940644869769459 0 -0.042104567301354583 -0.001889390572393365 0 -0.0420089932196967 -0.0017352084315179423 0 -0.042386240729632034 -0.001674593822222951 0 -0.040161087680409414 -0.0019494281747024507 0 -0.040212428873903347 -0.0013940644869769459 0 -0.041242778608986418 -0.0017378335977585135 0 -0.039458432049290421 -0.0016237499970578038 0 -0.041115591046799932 -0.0020584590614552206 0 -0.037277181701929112 -0.0014494373230396857 0 -0.038348671905872815 -0.0016682531885424973 0 -0.037737595758150597 -0.0012465648119133531 0 -0.039149490544607639 -0.0016237433629158399 0 -0.038728137393403049 -0.0018666355300906506 0 -0.037210369776913124 -0.0012961525448468569 0 -0.03759365809753 -0.0017657011399502863 0 -0.037567911922062353 -0.0010687161415141113 0 -0.03688774020056259 -0.0015617490716608555 0 -0.037210369776913124 -0.0012961525448468569 0 -0.03759365809753 -0.0017657011399502863 0 -0.03759365809753 -0.0017657011399502863 0 -0.037983088711145904 -0.0014083338599476841 0 -0.037567911922062353 -0.0010687161415141113 0 -0.03759365809753 -0.0017657011399502863 0 -0.037983088711145904 -0.0014083338599476841 0 -0.038360789106626332 -0.0019996970708716748 0 -0.038348671905872815 -0.0016682531885424973 0 -0.039583794450407085 -0.0021647162345534306 0 -0.040212428873903347 -0.0013940644869769459 0 -0.041242778608986418 -0.0017378335977585135 0 -0.041316261075749025 -0.001601962029819972 0 -0.039149490544607639 -0.0016237433629158399 0 -0.039725917764415218 -0.0020563047608094217 0 -0.040546660385429936 -0.0020072581088166931 0 -0.043445249282140143 -0.0027493868496037905 0 -0.043514812414884786 -0.0030683941721171208 0 -0.043220429004001387 -0.0031318661385511923 0 -0.043445249282140143 -0.0027493868496037905 0 -0.04316291695813182 -0.0027117281375399339 0 -0.043220429004001387 -0.0031318661385511923 0 -0.040008497452288558 -0.0021114109299898262 0 -0.039725917764415218 -0.0020563047608094217 0 -0.040546660385429936 -0.0020072581088166931 0 -0.04143702107281981 -0.0023248815582493764 0 -0.041552156150549101 -0.0023035402012071796 0 -0.041458678857945255 -0.0022849020851065109 0 -0.041635916770710088 -0.0023524616312834228 0 -0.041115591046799932 -0.0020584590614552206 0 -0.04179549976411609 -0.0020139869987665497 0 -0.041635916770710088 -0.0023524616312834228 0 -0.04179549976411609 -0.0020139869987665497 0 -0.041115591046799932 -0.0020584590614552206 0 -0.041635916770710088 -0.0023524616312834228 0 -0.039583794450407085 -0.0021647162345534306 0 -0.042765189069596581 -0.0027452184952227333 0 -0.043220429004001387 -0.0031318661385511923 0 -0.042178814256873552 -0.0029396630320082614 0 -0.041253108632850727 -0.0026303299070872836 0 -0.041236378628362075 -0.0026430798854309989 0 -0.041215987316560745 -0.0026495122204373495 0 -0.041635916770710088 -0.0023524616312834228 0 -0.041832555221974335 -0.0028513588535713365 0 -0.042765189069596581 -0.0027452184952227333 0 -0.04316291695813182 -0.0027117281375399339 0 -0.043220429004001387 -0.0031318661385511923 0 -0.039583794450407085 -0.0021647162345534306 0 -0.038459218444240773 -0.0020647695592211769 0 -0.038360789106626332 -0.0019996970708716748 0 -0.038793804614790955 -0.001931889415193688 0 -0.03847927821857039 -0.0015506347906302453 0 -0.041196594206746873 -0.0026628166957070936 0 -0.041215987316560745 -0.0026495122204373495 0 -0.041133242283638113 -0.0026797419836512011 0 -0.041236378628362075 -0.0026430798854309989 0 -0.041196594206746873 -0.0026628166957070936 0 -0.041215987316560745 -0.0026495122204373495 0 -0.038386536313880462 -0.0020125232407883628 0 -0.038982769415915906 -0.0021839594900743609 0 -0.038793804614790955 -0.001931889415193688 0 -0.039583794450407085 -0.0021647162345534306 0 -0.040163129108384273 -0.0024631463745111142 0 -0.038982769415915906 -0.0021839594900743609 0 -0.038793804614790955 -0.001931889415193688 0 -0.039084980434940998 -0.0018377357940852403 0 -0.038898172185747905 -0.0015284282214063139 0 -0.038843983810172386 -0.0010532721318377983 0 -0.039448542731615022 -0.0015452759275435242 0 -0.038793804614790955 -0.001931889415193688 0 -0.039084980434940998 -0.0018377357940852403 0 -0.038898172185747905 -0.0015284282214063139 0 -0.038793804614790955 -0.001931889415193688 0 -0.038898172185747905 -0.0015284282214063139 0 -0.03847927821857039 -0.0015506347906302453 0 -0.038898172185747905 -0.0015284282214063139 0 -0.03847927821857039 -0.0015506347906302453 0 -0.038843983810172386 -0.0010532721318377983 0 -0.037983088711145904 -0.0014083338599476841 0 -0.038360789106626332 -0.0019996970708716748 0 -0.03847927821857039 -0.0015506347906302453 0 -0.037983088711145904 -0.0014083338599476841 0 -0.03847927821857039 -0.0015506347906302453 0 -0.038332673181421612 -0.0010468909432430934 0 -0.038332673181421612 -0.0010468909432430934 0 -0.038843983810172386 -0.0010532721318377983 0 -0.038517166107140205 -0.0005195702283944942 0 -0.037983088711145904 -0.0014083338599476841 0 -0.038332673181421612 -0.0010468909432430934 0 -0.037989324875795157 -0.00084809366512545077 0 -0.03847927821857039 -0.0015506347906302453 0 -0.038332673181421612 -0.0010468909432430934 0 -0.038843983810172386 -0.0010532721318377983 0 -0.038517166107140205 -0.0005195702283944942 0 -0.039279418203089521 -0.00066284642550639675 0 -0.039235023747067395 -0.00026115052612448147 0 -0.038843983810172386 -0.0010532721318377983 0 -0.038517166107140205 -0.0005195702283944942 0 -0.039279418203089521 -0.00066284642550639675 0 -0.038332673181421612 -0.0010468909432430934 0 -0.038517166107140205 -0.0005195702283944942 0 -0.037989324875795157 -0.00084809366512545077 0 -0.037690032413547382 -0.00044731935694288828 0 -0.037567911922062353 -0.0010687161415141113 0 -0.037989324875795157 -0.00084809366512545077 0 -0.038517166107140205 -0.0005195702283944942 0 -0.037690032413547382 -0.00044731935694288828 0 -0.037989324875795157 -0.00084809366512545077 0 -0.037690032413547382 -0.00044731935694288828 0 -0.037236768950269145 -0.00062801823785259617 0 -0.037567911922062353 -0.0010687161415141113 0 -0.037210369776913124 -0.0012961525448468569 0 -0.036910783530282598 -0.0010152156880736635 0 -0.037567911922062353 -0.0010687161415141113 0 -0.036910783530282598 -0.0010152156880736635 0 -0.037236768950269145 -0.00062801823785259617 0 -0.037567911922062353 -0.0010687161415141113 0 -0.037983088711145904 -0.0014083338599476841 0 -0.037567911922062353 -0.0010687161415141113 0 -0.037989324875795157 -0.00084809366512545077 0 -0.040261806602608481 -0.00056900395488559811 0 -0.039762094105006196 -0.00067075259821262098 0 -0.040142151153575882 -0.00082658596022667098 0 -0.040261806602608481 -0.00056900395488559811 0 -0.040142151153575882 -0.00082658596022667098 0 -0.040462578605030483 -0.00089335210652609234 0 -0.040261806602608481 -0.00056900395488559811 0 -0.040462578605030483 -0.00089335210652609234 0 -0.040702923429563991 -0.00071197433216459475 0 -0.040261806602608481 -0.00056900395488559811 0 -0.040702923429563991 -0.00071197433216459475 0 -0.040716871666728362 -0.00052946349413167436 0 -0.040261806602608481 -0.00056900395488559811 0 -0.040438654157190168 -0.00025634317695926774 0 -0.040076474233363989 -0.00012392034174802421 0 -0.040261806602608481 -0.00056900395488559811 0 -0.040438654157190168 -0.00025634317695926774 0 -0.040716871666728362 -0.00052946349413167436 0 -0.040261806602608481 -0.00056900395488559811 0 -0.039703712270418051 -0.00018926823640087227 0 -0.040076474233363989 -0.00012392034174802421 0 -0.040261806602608481 -0.00056900395488559811 0 -0.039762094105006196 -0.00067075259821262098 0 -0.039703712270418051 -0.00018926823640087227 0 -0.039762094105006196 -0.00067075259821262098 0 -0.039235023747067395 -0.00026115052612448147 0 -0.039703712270418051 -0.00018926823640087227 0 -0.039279418203089521 -0.00066284642550639675 0 -0.039762094105006196 -0.00067075259821262098 0 -0.039235023747067395 -0.00026115052612448147 0 -0.038843983810172386 -0.0010532721318377983 0 -0.039279418203089521 -0.00066284642550639675 0 -0.039448542731615022 -0.0015452759275435242 0 -0.039333638869515408 -0.00070645412684538773 0 -0.03952587094735361 -0.0011714027570740178 0 -0.039279418203089521 -0.00066284642550639675 0 -0.039762094105006196 -0.00067075259821262098 0 -0.039729579701182301 -0.00098800116920192403 0 -0.039762094105006196 -0.00067075259821262098 0 -0.039998309309306958 -0.00096498206792639061 0 -0.040142151153575882 -0.00082658596022667098 0 -0.039998309309306958 -0.00096498206792639061 0 -0.040225273800194139 -0.0011074570456399322 0 -0.040142151153575882 -0.00082658596022667098 0 -0.039762094105006196 -0.00067075259821262098 0 -0.039998309309306958 -0.00096498206792639061 0 -0.039729579701182301 -0.00098800116920192403 0 -0.039998309309306958 -0.00096498206792639061 0 -0.039729579701182301 -0.00098800116920192403 0 -0.040026579143735495 -0.0011554479693510187 0 -0.039998309309306958 -0.00096498206792639061 0 -0.040225273800194139 -0.0011074570456399322 0 -0.040026579143735495 -0.0011554479693510187 0 -0.039084980434940998 -0.0018377357940852403 0 -0.038898172185747905 -0.0015284282214063139 0 -0.039448542731615022 -0.0015452759275435242 0 -0.038982769415915906 -0.0021839594900743609 0 -0.039308212566485118 -0.0019933677193831626 0 -0.039613542855456367 -0.002352152895202379 0 -0.040163129108384273 -0.0024631463745111142 0 -0.040261582006667122 -0.0021249108727806241 0 -0.039448542731615022 -0.0015452759275435242 0 -0.039308212566485118 -0.0019933677193831626 0 -0.039613542855456367 -0.002352152895202379 0 -0.03952587094735361 -0.0011714027570740178 0 -0.040261582006667122 -0.0021249108727806241 0 -0.039729579701182301 -0.00098800116920192403 0 -0.040026579143735495 -0.0011554479693510187 0 -0.040120902579381494 -0.0013697666954525672 0 -0.039084980434940998 -0.0018377357940852403 0 -0.039448542731615022 -0.0015452759275435242 0 -0.039308212566485118 -0.0019933677193831626 0 -0.038982769415915906 -0.0021839594900743609 0 -0.039084980434940998 -0.0018377357940852403 0 -0.039308212566485118 -0.0019933677193831626 0 -0.040225273800194139 -0.0011074570456399322 0 -0.040026579143735495 -0.0011554479693510187 0 -0.040245203512357323 -0.0012969360888340554 0 -0.040026579143735495 -0.0011554479693510187 0 -0.0401132215717891 -0.0012698037200268544 0 -0.040245203512357323 -0.0012969360888340554 0 -0.040026579143735495 -0.0011554479693510187 0 -0.0401132215717891 -0.0012698037200268544 0 -0.040120902579381494 -0.0013697666954525672 0 -0.0401132215717891 -0.0012698037200268544 0 -0.040141575158947479 -0.001339480953021926 0 -0.040207549758984752 -0.0013481502821074132 0 -0.0401132215717891 -0.0012698037200268544 0 -0.040120902579381494 -0.0013697666954525672 0 -0.040141575158947479 -0.001339480953021926 0 -0.0401132215717891 -0.0012698037200268544 0 -0.040245203512357323 -0.0012969360888340554 0 -0.040207549758984752 -0.0013481502821074132 0 -0.040225273800194139 -0.0011074570456399322 0 -0.040245203512357323 -0.0012969360888340554 0 -0.040413216563728795 -0.00130475655915195 0 -0.040413216563728795 -0.00130475655915195 0 -0.040598320088104128 -0.0012679340650167499 0 -0.040458777449701722 -0.0011309278553395649 0 -0.040458777449701722 -0.0011309278553395649 0 -0.040462578605030483 -0.00089335210652609234 0 -0.040687162885459573 -0.0010411508440141715 0 -0.040598320088104128 -0.0012679340650167499 0 -0.040458777449701722 -0.0011309278553395649 0 -0.040687162885459573 -0.0010411508440141715 0 -0.040225273800194139 -0.0011074570456399322 0 -0.040458777449701722 -0.0011309278553395649 0 -0.040462578605030483 -0.00089335210652609234 0 -0.040225273800194139 -0.0011074570456399322 0 -0.040413216563728795 -0.00130475655915195 0 -0.040458777449701722 -0.0011309278553395649 0 -0.040225273800194139 -0.0011074570456399322 0 -0.040142151153575882 -0.00082658596022667098 0 -0.040462578605030483 -0.00089335210652609234 0 -0.040702923429563991 -0.00071197433216459475 0 -0.0407946437873795 -0.00087604074995328222 0 -0.041122921678166974 -0.00080194091928401979 0 -0.040462578605030483 -0.00089335210652609234 0 -0.040702923429563991 -0.00071197433216459475 0 -0.0407946437873795 -0.00087604074995328222 0 -0.040462578605030483 -0.00089335210652609234 0 -0.0407946437873795 -0.00087604074995328222 0 -0.040687162885459573 -0.0010411508440141715 0 -0.0407946437873795 -0.00087604074995328222 0 -0.041009448249849208 -0.00093561106392474347 0 -0.041122921678166974 -0.00080194091928401979 0 -0.041009448249849208 -0.00093561106392474347 0 -0.040872050112795946 -0.0011794411998159416 0 -0.041732465952706875 -0.00091016788655431111 0 -0.041009448249849208 -0.00093561106392474347 0 -0.040687162885459573 -0.0010411508440141715 0 -0.040872050112795946 -0.0011794411998159416 0 -0.0407946437873795 -0.00087604074995328222 0 -0.041009448249849208 -0.00093561106392474347 0 -0.040687162885459573 -0.0010411508440141715 0 -0.040598320088104128 -0.0012679340650167499 0 -0.040872050112795946 -0.0011794411998159416 0 -0.040751211358547861 -0.0013901693455179367 0 -0.040598320088104128 -0.0012679340650167499 0 -0.040687162885459573 -0.0010411508440141715 0 -0.040872050112795946 -0.0011794411998159416 0 -0.040872050112795946 -0.0011794411998159416 0 -0.040751211358547861 -0.0013901693455179367 0 -0.041732465952706875 -0.00091016788655431111 0 -0.042466331407931879 -0.00064530913514086025 0 -0.041902282453455057 -0.00082464387735901141 0 -0.040683711829077124 -0.0016174859785507388 0 -0.040751211358547861 -0.0013901693455179367 0 -0.041732465952706875 -0.00091016788655431111 0 -0.040683711829077124 -0.0016174859785507388 0 -0.0405558041787413 -0.0014480039588409687 0 -0.040505042141462014 -0.0015003252513537096 0 -0.040598320088104128 -0.0012679340650167499 0 -0.040751211358547861 -0.0013901693455179367 0 -0.0405558041787413 -0.0014480039588409687 0 -0.040683711829077124 -0.0016174859785507388 0 -0.040751211358547861 -0.0013901693455179367 0 -0.0405558041787413 -0.0014480039588409687 0 -0.040413216563728795 -0.00130475655915195 0 -0.040598320088104128 -0.0012679340650167499 0 -0.0405558041787413 -0.0014480039588409687 0 -0.040413216563728795 -0.00130475655915195 0 -0.0405558041787413 -0.0014480039588409687 0 -0.040429989934617439 -0.0014524850419053638 0 -0.040245203512357323 -0.0012969360888340554 0 -0.040413216563728795 -0.00130475655915195 0 -0.040429989934617439 -0.0014524850419053638 0 -0.0405558041787413 -0.0014480039588409687 0 -0.040429989934617439 -0.0014524850419053638 0 -0.040505042141462014 -0.0015003252513537096 0 -0.040505042141462014 -0.0015003252513537096 0 -0.040492239550664104 -0.0014506106549337723 0 -0.04032067152219438 -0.0012640201749953503 0 -0.040429989934617439 -0.0014524850419053638 0 -0.040505042141462014 -0.0015003252513537096 0 -0.040492239550664104 -0.0014506106549337723 0 -0.040429989934617439 -0.0014524850419053638 0 -0.040492239550664104 -0.0014506106549337723 0 -0.040429742016362132 -0.0014626625875933694 0 -0.040683711829077124 -0.0016174859785507388 0 -0.040505042141462014 -0.0015003252513537096 0 -0.04032067152219438 -0.0012640201749953503 0 -0.042466331407931879 -0.00064530913514086025 0 -0.0423276037580591 -0.00057215896453516324 0 -0.044267613572209596 0.00013251417549436258 0 -0.044669188695774985 9.6629289193207737e-05 0 -0.044541169933016454 7.1955010056042951e-05 0 -0.041832555221974335 -0.0028513588535713365 0 -0.041123997091043321 -0.0026751826429764563 0 -0.042178814256873552 -0.0029396630320082614 0 -0.04165326013869515 -0.0026673167553655603 0 -0.041133242283638113 -0.0026797419836512011 0 -0.041105528681716422 -0.0026910319230315605 0 -0.041205905117997203 -0.0024338034100614761 0 -0.040890102272599448 -0.0020226626194143329 0 -0.041196594206746873 -0.0026628166957070936 0 -0.041133242283638113 -0.0026797419836512011 0 -0.041105528681716422 -0.0026910319230315605 0 -0.04177474604159858 -0.0022121453817028286 0 -0.04153281994249812 -0.0021693266154036023 0 -0.041597847998778359 -0.0024164786551746668 0 -0.04153281994249812 -0.0021693266154036023 0 -0.04140251118884767 -0.0023614066973997299 0 -0.04128512410481186 -0.002119887915510829 0 -0.04140251118884767 -0.0023614066973997299 0 -0.041597847998778359 -0.0024164786551746668 0 -0.041396774348579919 -0.0025210326501541955 0 -0.04140251118884767 -0.0023614066973997299 0 -0.041396774348579919 -0.0025210326501541955 0 -0.041205905117997203 -0.0024338034100614761 0 -0.04153281994249812 -0.0021693266154036023 0 -0.04140251118884767 -0.0023614066973997299 0 -0.041597847998778359 -0.0024164786551746668 0 -0.04165326013869515 -0.0026673167553655603 0 -0.041396774348579919 -0.0025210326501541955 0 -0.041133242283638113 -0.0026797419836512011 0 -0.041597847998778359 -0.0024164786551746668 0 -0.04165326013869515 -0.0026673167553655603 0 -0.041396774348579919 -0.0025210326501541955 0 -0.041396774348579919 -0.0025210326501541955 0 -0.041133242283638113 -0.0026797419836512011 0 -0.041205905117997203 -0.0024338034100614761 0 -0.041133242283638113 -0.0026797419836512011 0 -0.041105528681716422 -0.0026910319230315605 0 -0.041205905117997203 -0.0024338034100614761 0 -0.041205905117997203 -0.0024338034100614761 0 -0.040890102272599448 -0.0020226626194143329 0 -0.04128512410481186 -0.002119887915510829 0 -0.04140251118884767 -0.0023614066973997299 0 -0.041205905117997203 -0.0024338034100614761 0 -0.04128512410481186 -0.002119887915510829 0 -0.040261582006667122 -0.0021249108727806241 0 -0.040662020256333503 -0.0016945136636786851 0 -0.040120902579381494 -0.0013697666954525672 0 -0.040306533126457766 -0.0014141630076406565 0 -0.04045252989239536 -0.001476803305150158 0 -0.040306533126457766 -0.0014141630076406565 0 -0.040429742016362132 -0.0014626625875933694 0 -0.04045252989239536 -0.001476803305150158 0 -0.040120902579381494 -0.0013697666954525672 0 -0.040207549758984752 -0.0013481502821074132 0 -0.040306533126457766 -0.0014141630076406565 0 -0.040120902579381494 -0.0013697666954525672 0 -0.040141575158947479 -0.001339480953021926 0 -0.040207549758984752 -0.0013481502821074132 0 -0.040245203512357323 -0.0012969360888340554 0 -0.040207549758984752 -0.0013481502821074132 0 -0.040306533126457766 -0.0014141630076406565 0 -0.040245203512357323 -0.0012969360888340554 0 -0.040429989934617439 -0.0014524850419053638 0 -0.040306533126457766 -0.0014141630076406565 0 -0.040429989934617439 -0.0014524850419053638 0 -0.040306533126457766 -0.0014141630076406565 0 -0.040429742016362132 -0.0014626625875933694 0 -0.040662020256333503 -0.0016945136636786851 0 -0.040689807918286532 -0.0013319127230196864 0 -0.040492239550664104 -0.0014506106549337723 0 -0.04045252989239536 -0.001476803305150158 0 -0.040735274726078401 -0.0012828976637403006 0 -0.040890102272599448 -0.0020226626194143329 0 -0.041221747548424198 -0.0016147070624133299 0 -0.040735274726078401 -0.0012828976637403006 0 -0.040492239550664104 -0.0014506106549337723 0 -0.040429742016362132 -0.0014626625875933694 0 -0.04045252989239536 -0.001476803305150158 0 -0.040890102272599448 -0.0020226626194143329 0 -0.04128512410481186 -0.002119887915510829 0 -0.041221747548424198 -0.0016147070624133299 0 -0.04128512410481186 -0.002119887915510829 0 -0.041221747548424198 -0.0016147070624133299 0 -0.041449961488232878 -0.0019149697032755017 0 -0.041221747548424198 -0.0016147070624133299 0 -0.041606487460759671 -0.0017410009328964397 0 -0.041449961488232878 -0.0019149697032755017 0 -0.041221747548424198 -0.0016147070624133299 0 -0.041600280293212687 -0.0015062054180833796 0 -0.041405667640447792 -0.0013294012330391715 0 -0.041221747548424198 -0.0016147070624133299 0 -0.041600280293212687 -0.0015062054180833796 0 -0.041606487460759671 -0.0017410009328964397 0 -0.041816362819155212 -0.0017358013853422103 0 -0.041600280293212687 -0.0015062054180833796 0 -0.041606487460759671 -0.0017410009328964397 0 -0.041606487460759671 -0.0017410009328964397 0 -0.041449961488232878 -0.0019149697032755017 0 -0.041684382790514028 -0.0019580168864178011 0 -0.04153281994249812 -0.0021693266154036023 0 -0.04128512410481186 -0.002119887915510829 0 -0.041449961488232878 -0.0019149697032755017 0 -0.04177474604159858 -0.0022121453817028286 0 -0.04153281994249812 -0.0021693266154036023 0 -0.041684382790514028 -0.0019580168864178011 0 -0.04153281994249812 -0.0021693266154036023 0 -0.041449961488232878 -0.0019149697032755017 0 -0.041684382790514028 -0.0019580168864178011 0 -0.041606639194579936 -0.00078524819730536465 0 -0.041533260802859379 -0.001091786049355437 0 -0.041341750051426415 -0.00078650643075090952 0 -0.04172043615323321 -0.00097241952128232782 0 -0.041606639194579936 -0.00078524819730536465 0 -0.041533260802859379 -0.001091786049355437 0 -0.041533260802859379 -0.001091786049355437 0 -0.041405667640447792 -0.0013294012330391715 0 -0.041130349666032101 -0.0011219162581522606 0 -0.04186860959011144 -0.0011528915342411132 0 -0.041533260802859379 -0.001091786049355437 0 -0.041659414942100223 -0.0013007143511853728 0 -0.041533260802859379 -0.001091786049355437 0 -0.041659414942100223 -0.0013007143511853728 0 -0.041405667640447792 -0.0013294012330391715 0 -0.041600280293212687 -0.0015062054180833796 0 -0.041659414942100223 -0.0013007143511853728 0 -0.041405667640447792 -0.0013294012330391715 0 -0.041221747548424198 -0.0016147070624133299 0 -0.041130349666032101 -0.0011219162581522606 0 -0.040735274726078401 -0.0012828976637403006 0 -0.041221747548424198 -0.0016147070624133299 0 -0.041405667640447792 -0.0013294012330391715 0 -0.041130349666032101 -0.0011219162581522606 0 -0.041533260802859379 -0.001091786049355437 0 -0.041130349666032101 -0.0011219162581522606 0 -0.041341750051426415 -0.00078650643075090952 0 -0.041130349666032101 -0.0011219162581522606 0 -0.041061352567348559 -0.0008343188746509385 0 -0.041341750051426415 -0.00078650643075090952 0 -0.041130349666032101 -0.0011219162581522606 0 -0.041061352567348559 -0.0008343188746509385 0 -0.040810446512817962 -0.00099719153387941065 0 -0.041061352567348559 -0.0008343188746509385 0 -0.040810446512817962 -0.00099719153387941065 0 -0.040875536912556333 -0.00071394835150386698 0 -0.041130349666032101 -0.0011219162581522606 0 -0.040810446512817962 -0.00099719153387941065 0 -0.040735274726078401 -0.0012828976637403006 0 -0.040492239550664104 -0.0014506106549337723 0 -0.040735274726078401 -0.0012828976637403006 0 -0.040571638293418887 -0.001134692674699419 0 -0.040810446512817962 -0.00099719153387941065 0 -0.040735274726078401 -0.0012828976637403006 0 -0.040571638293418887 -0.001134692674699419 0 -0.040810446512817962 -0.00099719153387941065 0 -0.040571638293418887 -0.001134692674699419 0 -0.040628680572087274 -0.00082275773848391857 0 -0.04499785585937166 -1.3872590823155083e-07 0 -0.044999182486212673 -3.19622774546818e-07 0 -0.044999997041750228 8.4437717476165676e-10 0 -0.042935991851071699 -0.00011332268133262023 0 -0.043940240746198247 -0.00042416359218858118 0 -0.040786917078641662 -0.00043421862349376426 0 -0.041367454039297293 -0.00028914281107556472 0 -0.040487442590607506 -0.00040944096037762731 0 -0.040810446512817962 -0.00099719153387941065 0 -0.040628680572087274 -0.00082275773848391857 0 -0.040875536912556333 -0.00071394835150386698 0 -0.040628680572087274 -0.00082275773848391857 0 -0.040678153884302994 -0.00056595163853845061 0 -0.040809218792623128 -0.00059293248769024215 0 -0.040628680572087274 -0.00082275773848391857 0 -0.040809218792623128 -0.00059293248769024215 0 -0.040875536912556333 -0.00071394835150386698 0 -0.040628680572087274 -0.00082275773848391857 0 -0.040678153884302994 -0.00056595163853845061 0 -0.040487442590607506 -0.00040944096037762731 0 -0.040786917078641662 -0.00043421862349376426 0 -0.040678153884302994 -0.00056595163853845061 0 -0.040487442590607506 -0.00040944096037762731 0 -0.040786917078641662 -0.00043421862349376426 0 -0.040678153884302994 -0.00056595163853845061 0 -0.040809218792623128 -0.00059293248769024215 0 -0.040786917078641662 -0.00043421862349376426 0 -0.040953065726612642 -0.00053458754033899479 0 -0.041106245956336177 -0.00044854748529506806 0 -0.040786917078641662 -0.00043421862349376426 0 -0.040953065726612642 -0.00053458754033899479 0 -0.040809218792623128 -0.00059293248769024215 0 -0.040953065726612642 -0.00053458754033899479 0 -0.041159848456181591 -0.00055295735372031397 0 -0.041106245956336177 -0.00044854748529506806 0 -0.040953065726612642 -0.00053458754033899479 0 -0.040875536912556333 -0.00071394835150386698 0 -0.041159848456181591 -0.00055295735372031397 0 -0.040953065726612642 -0.00053458754033899479 0 -0.040809218792623128 -0.00059293248769024215 0 -0.040875536912556333 -0.00071394835150386698 0 -0.041061352567348559 -0.0008343188746509385 0 -0.040875536912556333 -0.00071394835150386698 0 -0.041159848456181591 -0.00055295735372031397 0 -0.044999959666992301 -1.2048746622294446e-08 0 -0.04499785585937166 -1.3872590823155083e-07 0 -0.044999997041750228 8.4437717476165676e-10 0 -0.040786917078641662 -0.00043421862349376426 0 -0.041106245956336177 -0.00044854748529506806 0 -0.041367454039297293 -0.00028914281107556472 0 -0.041061352567348559 -0.0008343188746509385 0 -0.041341750051426415 -0.00078650643075090952 0 -0.041159848456181591 -0.00055295735372031397 0 -0.041341750051426415 -0.00078650643075090952 0 -0.041159848456181591 -0.00055295735372031397 0 -0.04140134817227769 -0.00052542307205651875 0 -0.041159848456181591 -0.00055295735372031397 0 -0.041267474476159444 -0.00043606498326025821 0 -0.04140134817227769 -0.00052542307205651875 0 -0.041159848456181591 -0.00055295735372031397 0 -0.041106245956336177 -0.00044854748529506806 0 -0.041267474476159444 -0.00043606498326025821 0 -0.041106245956336177 -0.00044854748529506806 0 -0.041267474476159444 -0.00043606498326025821 0 -0.041367454039297293 -0.00028914281107556472 0 -0.041267474476159444 -0.00043606498326025821 0 -0.041367454039297293 -0.00028914281107556472 0 -0.04140134817227769 -0.00052542307205651875 0 -0.041367454039297293 -0.00028914281107556472 0 -0.041536894481240538 -0.00042531916568278993 0 -0.041612819880452297 -0.00039883422098465038 0 -0.041367454039297293 -0.00028914281107556472 0 -0.041536894481240538 -0.00042531916568278993 0 -0.04140134817227769 -0.00052542307205651875 0 -0.041882851092676733 -0.00036150772475469344 0 -0.041367454039297293 -0.00028914281107556472 0 -0.041612819880452297 -0.00039883422098465038 0 -0.041536894481240538 -0.00042531916568278993 0 -0.041612819880452297 -0.00039883422098465038 0 -0.041663467713838269 -0.00052050361331666684 0 -0.041536894481240538 -0.00042531916568278993 0 -0.041663467713838269 -0.00052050361331666684 0 -0.04140134817227769 -0.00052542307205651875 0 -0.041663467713838269 -0.00052050361331666684 0 -0.04140134817227769 -0.00052542307205651875 0 -0.041502225069772816 -0.00065441476572699068 0 -0.041606639194579936 -0.00078524819730536465 0 -0.041341750051426415 -0.00078650643075090952 0 -0.041502225069772816 -0.00065441476572699068 0 -0.041341750051426415 -0.00078650643075090952 0 -0.04140134817227769 -0.00052542307205651875 0 -0.041502225069772816 -0.00065441476572699068 0 -0.041606639194579936 -0.00078524819730536465 0 -0.041663467713838269 -0.00052050361331666684 0 -0.041502225069772816 -0.00065441476572699068 0 -0.044669188695774985 9.6629289193207737e-05 0 -0.044795579357421136 4.6925371099867512e-05 0 -0.044541169933016454 7.1955010056042951e-05 0 -0.044669188695774985 9.6629289193207737e-05 0 -0.04478902643931254 4.24741818907306e-05 0 -0.044795579357421136 4.6925371099867512e-05 0 -0.040571638293418887 -0.001134692674699419 0 -0.040628680572087274 -0.00082275773848391857 0 -0.04032067152219438 -0.0012640201749953503 0 -0.040492239550664104 -0.0014506106549337723 0 -0.040571638293418887 -0.001134692674699419 0 -0.04032067152219438 -0.0012640201749953503 0 -0.040628680572087274 -0.00082275773848391857 0 -0.04032067152219438 -0.0012640201749953503 0 -0.040487442590607506 -0.00040944096037762731 0 -0.044999582723324751 -2.8761677529521489e-07 0 -0.044999987601222209 -2.0339322600045697e-09 0 -0.045000003808566461 -1.8087747074841929e-09 0 -0.0423276037580591 -0.00057215896453516324 0 -0.043940240746198247 -0.00042416359218858118 0 -0.043940240746198247 -0.00042416359218858118 0 -0.04532934917787635 4.5627752046660523e-05 0 -0.044669188695774985 9.6629289193207737e-05 0 -0.044662079718245082 -2.8318153482118283e-05 0 -0.04478902643931254 4.24741818907306e-05 0 -0.044662079718245082 -2.8318153482118283e-05 0 -0.04478902643931254 4.24741818907306e-05 0 -0.044999409287473556 -1.4636967413585894e-07 0 -0.043940240746198247 -0.00042416359218858118 0 -0.044994724171546756 -2.1204655950269463e-07 0 -0.04478902643931254 4.24741818907306e-05 0 -0.044795579357421136 4.6925371099867512e-05 0 -0.044999409287473556 -1.4636967413585894e-07 0 -0.044795579357421136 4.6925371099867512e-05 0 -0.044999409287473556 -1.4636967413585894e-07 0 -0.044999861077180126 6.9663924661466885e-08 0 -0.044999861077180126 6.9663924661466885e-08 0 -0.04480905785453048 8.3303805453961573e-06 0 -0.044999549806443405 -4.1640074897573409e-08 0 -0.044795579357421136 4.6925371099867512e-05 0 -0.044999861077180126 6.9663924661466885e-08 0 -0.04480905785453048 8.3303805453961573e-06 0 -0.044795579357421136 4.6925371099867512e-05 0 -0.04480905785453048 8.3303805453961573e-06 0 -0.044541169933016454 7.1955010056042951e-05 0 -0.04480905785453048 8.3303805453961573e-06 0 -0.044541169933016454 7.1955010056042951e-05 0 -0.044553172421990417 1.7818328034065248e-05 0 -0.04480905785453048 8.3303805453961573e-06 0 -0.044553172421990417 1.7818328034065248e-05 0 -0.04481989009097103 -1.6001029434297754e-05 0 -0.044553172421990417 1.7818328034065248e-05 0 -0.04481989009097103 -1.6001029434297754e-05 0 -0.044568385922511382 7.6815285418458428e-05 0 -0.04480905785453048 8.3303805453961573e-06 0 -0.044999549806443405 -4.1640074897573409e-08 0 -0.04481989009097103 -1.6001029434297754e-05 0 -0.044999549806443405 -4.1640074897573409e-08 0 -0.04499993260554206 -4.8170877123110659e-08 0 -0.04481989009097103 -1.6001029434297754e-05 0 -0.04499993260554206 -4.8170877123110659e-08 0 -0.04481989009097103 -1.6001029434297754e-05 0 -0.044975235876011585 4.2822689916375976e-06 0 -0.044903428577897232 3.9768787406193541e-05 0 -0.04481989009097103 -1.6001029434297754e-05 0 -0.044847473430237136 0.00014945825414100036 0 -0.044903428577897232 3.9768787406193541e-05 0 -0.04481989009097103 -1.6001029434297754e-05 0 -0.044975235876011585 4.2822689916375976e-06 0 -0.04481989009097103 -1.6001029434297754e-05 0 -0.044568385922511382 7.6815285418458428e-05 0 -0.044847473430237136 0.00014945825414100036 0 -0.044903428577897232 3.9768787406193541e-05 0 -0.044847473430237136 0.00014945825414100036 0 -0.044986319992806979 4.7482253003022291e-05 0 -0.044118836118802143 0.00076584959583954641 0 -0.044450486819925028 0.00039214931490579627 0 -0.044179050920763262 0.00036221266540596952 0 -0.044118836118802143 0.00076584959583954641 0 -0.043862047190654355 0.00040819372919532999 0 -0.044179050920763262 0.00036221266540596952 0 -0.044568385922511382 7.6815285418458428e-05 0 -0.044847473430237136 0.00014945825414100036 0 -0.044450486819925028 0.00039214931490579627 0 -0.044485991816864322 0.00043756374269322791 0 -0.04446005223989883 0.00040549091572828101 0 -0.044568385922511382 7.6815285418458428e-05 0 -0.044450486819925028 0.00039214931490579627 0 -0.044288213497027364 0.00018410417982776101 0 -0.044450486819925028 0.00039214931490579627 0 -0.044288213497027364 0.00018410417982776101 0 -0.044346965518977988 0.00037637827265356891 0 -0.044288213497027364 0.00018410417982776101 0 -0.044063013810628764 2.7061302969710694e-05 0 -0.044356333705337259 4.4887972737214134e-05 0 -0.044267613572209596 0.00013251417549436258 0 -0.043443544312767091 -4.7057212211186049e-05 0 -0.041732465952706875 -0.00091016788655431111 0 -0.044288213497027364 0.00018410417982776101 0 -0.043443544312767091 -4.7057212211186049e-05 0 -0.044242026703062785 0.00050029091010417184 0 -0.044288213497027364 0.00018410417982776101 0 -0.043443544312767091 -4.7057212211186049e-05 0 -0.044063013810628764 2.7061302969710694e-05 0 -0.044267613572209596 0.00013251417549436258 0 -0.043443544312767091 -4.7057212211186049e-05 0 -0.044188890537623864 6.0863204306888203e-05 0 -0.043443544312767091 -4.7057212211186049e-05 0 -0.044063013810628764 2.7061302969710694e-05 0 -0.044188890537623864 6.0863204306888203e-05 0 -0.044267613572209596 0.00013251417549436258 0 -0.044541169933016454 7.1955010056042951e-05 0 -0.044188890537623864 6.0863204306888203e-05 0 -0.044063013810628764 2.7061302969710694e-05 0 -0.044188890537623864 6.0863204306888203e-05 0 -0.044356333705337259 4.4887972737214134e-05 0 -0.044541169933016454 7.1955010056042951e-05 0 -0.044553172421990417 1.7818328034065248e-05 0 -0.044188890537623864 6.0863204306888203e-05 0 -0.044553172421990417 1.7818328034065248e-05 0 -0.044188890537623864 6.0863204306888203e-05 0 -0.044356333705337259 4.4887972737214134e-05 0 -0.044553172421990417 1.7818328034065248e-05 0 -0.044568385922511382 7.6815285418458428e-05 0 -0.044356333705337259 4.4887972737214134e-05 0 -0.044568385922511382 7.6815285418458428e-05 0 -0.044288213497027364 0.00018410417982776101 0 -0.044356333705337259 4.4887972737214134e-05 0 -0.04405609332295668 0.00047074397739428207 0 -0.043995011627298297 0.00036021610115621563 0 -0.045000048108211323 -1.0302255975520795e-08 0 -0.044999822189906183 -1.2303649110591621e-10 0 -0.045000771292708887 -2.6295525745785708e-06 0 -0.044907639689697361 -1.5661414889365337e-06 0 -0.044828219786299174 -1.7810207537595444e-05 0 -0.044796679937997186 -0.00010622718468490543 0 -0.044817908671459863 1.1000225633255258e-06 0 -0.04465478698178911 -3.1754598507435413e-05 0 -0.044796679937997186 -0.00010622718468490543 0 -0.044926585076969221 -1.3166903691238981e-05 0 -0.044953636666086927 -4.0692065893261207e-05 0 -0.044796679937997186 -0.00010622718468490543 0 -0.044817908671459863 1.1000225633255258e-06 0 -0.044926585076969221 -1.3166903691238981e-05 0 -0.044907639689697361 -1.5661414889365337e-06 0 -0.04499997311913774 3.1376934620538368e-09 0 -0.045000048108211323 -1.0302255975520795e-08 0 -0.044999822189906183 -1.2303649110591621e-10 0 -0.044999975195877243 5.2168031230586644e-09 0 -0.044817908671459863 1.1000225633255258e-06 0 -0.044926585076969221 -1.3166903691238981e-05 0 -0.044999947229128617 4.7665708559331527e-08 0 -0.04405609332295668 0.00047074397739428207 0 -0.044434811814808246 0.00028977077394461793 0 -0.043362601089027217 0.00098886148461376248 0 -0.043488404628016127 0.00097103747915943306 0 -0.043527859787613532 0.0011427587180237518 0 -0.044434811814808246 0.00028977077394461793 0 -0.044324161088224061 0.00058951558144986393 0 -0.043488404628016127 0.00097103747915943306 0 -0.043527859787613532 0.0011427587180237518 0 -0.043735075398840272 0.001031721245360552 0 -0.044796807847544369 -5.5393985195130141e-06 0 -0.044434811814808246 0.00028977077394461793 0 -0.044926585076969221 -1.3166903691238981e-05 0 -0.044967156327201482 -3.6912966402391923e-05 0 -0.044999947229128617 4.7665708559331527e-08 0 -0.044967156327201482 -3.6912966402391923e-05 0 -0.044999947229128617 4.7665708559331527e-08 0 -0.04499991467203604 -8.5668891147666779e-07 0 -0.044434811814808246 0.00028977077394461793 0 -0.045060390695195449 7.786942036609642e-05 0 -0.04499993260554206 -4.8170877123110659e-08 0 -0.044999947229128617 4.7665708559331527e-08 0 -0.04499991467203604 -8.5668891147666779e-07 0 -0.04499993260554206 -4.8170877123110659e-08 0 -0.04499991467203604 -8.5668891147666779e-07 0 -0.044975235876011585 4.2822689916375976e-06 0 -0.045018344851031809 1.0561751164261161e-05 0 -0.04499991467203604 -8.5668891147666779e-07 0 -0.044975235876011585 4.2822689916375976e-06 0 -0.044903428577897232 3.9768787406193541e-05 0 -0.044975235876011585 4.2822689916375976e-06 0 -0.044986319992806979 4.7482253003022291e-05 0 -0.045018344851031809 1.0561751164261161e-05 0 -0.044975235876011585 4.2822689916375976e-06 0 -0.044986319992806979 4.7482253003022291e-05 0 -0.044118836118802143 0.00076584959583954641 0 -0.043735075398840272 0.001031721245360552 0 -0.043534268170692982 0.00081850592690208706 0 -0.044485991816864322 0.00043756374269322791 0 -0.044324161088224061 0.00058951558144986393 0 -0.043537519061635034 0.00080786238458684394 0 -0.043615252926654531 0.00062115082738906904 0 -0.044118836118802143 0.00076584959583954641 0 -0.043534268170692982 0.00081850592690208706 0 -0.043862047190654355 0.00040819372919532999 0 -0.043434331862255572 0.00079584154310408735 0 -0.043534268170692982 0.00081850592690208706 0 -0.043408599561633586 0.0007924541739539367 0 -0.043488404628016127 0.00097103747915943306 0 -0.043735075398840272 0.001031721245360552 0 -0.043534268170692982 0.00081850592690208706 0 -0.043362601089027217 0.00098886148461376248 0 -0.043488404628016127 0.00097103747915943306 0 -0.043383129846495283 0.00086662286227177877 0 -0.043488404628016127 0.00097103747915943306 0 -0.043534268170692982 0.00081850592690208706 0 -0.043383129846495283 0.00086662286227177877 0 -0.043434331862255572 0.00079584154310408735 0 -0.043534268170692982 0.00081850592690208706 0 -0.043383129846495283 0.00086662286227177877 0 -0.043434331862255572 0.00079584154310408735 0 -0.043383129846495283 0.00086662286227177877 0 -0.043368452768568877 0.00081426181341103887 0 -0.043383129846495283 0.00086662286227177877 0 -0.043368452768568877 0.00081426181341103887 0 -0.043311750304405643 0.00083276257265923787 0 -0.043368452768568877 0.00081426181341103887 0 -0.043332877484985412 0.00079123069708766588 0 -0.043311750304405643 0.00083276257265923787 0 -0.043362601089027217 0.00098886148461376248 0 -0.043383129846495283 0.00086662286227177877 0 -0.043285028336608911 0.00089207833546248476 0 -0.043383129846495283 0.00086662286227177877 0 -0.043285028336608911 0.00089207833546248476 0 -0.043311750304405643 0.00083276257265923787 0 -0.042783296177189324 0.00097605596902702169 0 -0.042948964038503457 0.0009806849195943474 0 -0.043337943820086253 0.00076619055961290152 0 -0.043332877484985412 0.00079123069708766588 0 -0.043378690616505546 0.0007763754942323928 0 -0.043368452768568877 0.00081426181341103887 0 -0.043332877484985412 0.00079123069708766588 0 -0.043378690616505546 0.0007763754942323928 0 -0.043434331862255572 0.00079584154310408735 0 -0.043368452768568877 0.00081426181341103887 0 -0.043378690616505546 0.0007763754942323928 0 -0.043337943820086253 0.00076619055961290152 0 -0.043378690616505546 0.0007763754942323928 0 -0.043330461211535228 0.00076909645459244196 0 -0.043378690616505546 0.0007763754942323928 0 -0.043335557773671513 0.00077997602842917182 0 -0.043330461211535228 0.00076909645459244196 0 -0.043378690616505546 0.0007763754942323928 0 -0.043335557773671513 0.00077997602842917182 0 -0.043408599561633586 0.0007924541739539367 0 -0.043434331862255572 0.00079584154310408735 0 -0.043378690616505546 0.0007763754942323928 0 -0.043408599561633586 0.0007924541739539367 0 -0.043615252926654531 0.00062115082738906904 0 -0.043894054565039163 0.00052685868700406838 0 -0.043335557773671513 0.00077997602842917182 0 -0.043408599561633586 0.0007924541739539367 0 -0.04338364207430951 0.0007952141584784369 0 -0.043335557773671513 0.00077997602842917182 0 -0.043352174358956878 0.00075274070048075641 0 -0.04338364207430951 0.0007952141584784369 0 -0.043335557773671513 0.00077997602842917182 0 -0.043352174358956878 0.00075274070048075641 0 -0.043201374745056934 0.00074321239113559216 0 -0.043352174358956878 0.00075274070048075641 0 -0.043201374745056934 0.00074321239113559216 0 -0.043411727425942362 0.00054535350173239125 0 -0.043195325486555448 0.00075982354702684349 0 -0.042948964038503457 0.0009806849195943474 0 -0.043201374745056934 0.00074321239113559216 0 -0.042567363505473875 0.0012438118188705313 0 -0.042710342469462335 0.00080916369978581242 0 -0.043335557773671513 0.00077997602842917182 0 -0.043201374745056934 0.00074321239113559216 0 -0.043330461211535228 0.00076909645459244196 0 -0.042567363505473875 0.0012438118188705313 0 -0.042710342469462335 0.00080916369978581242 0 -0.042362590457067764 0.0010155105629957085 0 -0.042710342469462335 0.00080916369978581242 0 -0.042362590457067764 0.0010155105629957085 0 -0.042406411182737747 0.00062150096975162089 0 -0.042128094409248633 0.00071499319527788287 0 -0.041944272561486598 0.00094373848579064161 0 -0.041826404152527988 0.00075814527353206961 0 -0.041881294048527903 0.000755155815530092 0 -0.041946691061970236 0.00097860337506429883 0 -0.042362590457067764 0.0010155105629957085 0 -0.042406411182737747 0.00062150096975162089 0 -0.041946691061970236 0.00097860337506429883 0 -0.042567363505473875 0.0012438118188705313 0 -0.042362590457067764 0.0010155105629957085 0 -0.042146910722507855 0.0013078533729517993 0 -0.042362590457067764 0.0010155105629957085 0 -0.042146910722507855 0.0013078533729517993 0 -0.041946691061970236 0.00097860337506429883 0 -0.042147028147913504 0.0012218248431936968 0 -0.042567363505473875 0.0012438118188705313 0 -0.042146910722507855 0.0013078533729517993 0 -0.041162291448081888 -0.00074933422096047392 0 -0.04118587001228121 -0.00086308780365129244 0 -0.041019091416148575 -0.00072063387146223488 0 -0.044349311991581132 0.00025719537160144481 0 -0.044242026703062785 0.00050029091010417184 0 -0.044352215493062966 0.00035937184192697712 0 -0.042736454497620896 -0.00026452528666939525 0 -0.042738453023843027 -0.00023130266042162325 0 -0.041162291448081888 -0.00074933422096047392 0 -0.04118587001228121 -0.00086308780365129244 0 -0.041134543055553252 -0.00083971211485563992 0 -0.040702923429563991 -0.00071197433216459475 0 -0.041122921678166974 -0.00080194091928401979 0 -0.041019091416148575 -0.00072063387146223488 0 -0.041122921678166974 -0.00080194091928401979 0 -0.04118587001228121 -0.00086308780365129244 0 -0.041019091416148575 -0.00072063387146223488 0 -0.041122921678166974 -0.00080194091928401979 0 -0.04118587001228121 -0.00086308780365129244 0 -0.041732465952706875 -0.00091016788655431111 0 -0.04325291220255139 -8.633332422331336e-05 0 -0.042738453023843027 -0.00023130266042162325 0 -0.04118587001228121 -0.00086308780365129244 0 -0.041732465952706875 -0.00091016788655431111 0 -0.041134543055553252 -0.00083971211485563992 0 -0.043443544312767091 -4.7057212211186049e-05 0 -0.041732465952706875 -0.00091016788655431111 0 -0.041134543055553252 -0.00083971211485563992 0 -0.041009448249849208 -0.00093561106392474347 0 -0.041122921678166974 -0.00080194091928401979 0 -0.041732465952706875 -0.00091016788655431111 0 -0.044242026703062785 0.00050029091010417184 0 -0.044346965518977988 0.00037637827265356891 0 -0.044352215493062966 0.00035937184192697712 0 -0.044288213497027364 0.00018410417982776101 0 -0.044242026703062785 0.00050029091010417184 0 -0.044346965518977988 0.00037637827265356891 0 -0.044450486819925028 0.00039214931490579627 0 -0.044352215493062966 0.00035937184192697712 0 -0.044179050920763262 0.00036221266540596952 0 -0.044450486819925028 0.00039214931490579627 0 -0.044346965518977988 0.00037637827265356891 0 -0.044352215493062966 0.00035937184192697712 0 -0.043862047190654355 0.00040819372919532999 0 -0.044179050920763262 0.00036221266540596952 0 -0.044124014849874292 0.00021686295187556379 0 -0.044352215493062966 0.00035937184192697712 0 -0.044179050920763262 0.00036221266540596952 0 -0.044124014849874292 0.00021686295187556379 0 -0.044349311991581132 0.00025719537160144481 0 -0.044352215493062966 0.00035937184192697712 0 -0.044124014849874292 0.00021686295187556379 0 -0.042736454497620896 -0.00026452528666939525 0 -0.042664356658686377 -6.8172017794816953e-07 0 -0.041162291448081888 -0.00074933422096047392 0 -0.04130079887672005 -0.00046773314071500889 0 -0.041056469379073951 -0.00045389951335406652 0 -0.044349311991581132 0.00025719537160144481 0 -0.044124014849874292 0.00021686295187556379 0 -0.044216712246063695 7.7284418732296545e-05 0 -0.043352174358956878 0.00075274070048075641 0 -0.04338364207430951 0.0007952141584784369 0 -0.043470152668071464 0.00072405769004217743 0 -0.043894054565039163 0.00052685868700406838 0 -0.042664356658686377 -6.8172017794816953e-07 0 -0.041264344620319603 -0.00045134710272193269 0 -0.041150478447711018 -0.0002722372735428966 0 -0.041505099792741258 -0.00012368284058107348 0 -0.043352174358956878 0.00075274070048075641 0 -0.043470152668071464 0.00072405769004217743 0 -0.043411727425942362 0.00054535350173239125 0 -0.042664356658686377 -6.8172017794816953e-07 0 -0.042453269738403722 0.00019633852792088347 0 -0.04130079887672005 -0.00046773314071500889 0 -0.041150478447711018 -0.0002722372735428966 0 -0.041056469379073951 -0.00045389951335406652 0 -0.042664356658686377 -6.8172017794816953e-07 0 -0.041333709090584279 -0.00012576768150743554 0 -0.041150478447711018 -0.0002722372735428966 0 -0.040953362668654354 -0.0002661529834955237 0 -0.041056469379073951 -0.00045389951335406652 0 -0.040953362668654354 -0.0002661529834955237 0 -0.041056469379073951 -0.00045389951335406652 0 -0.040797770635968414 -0.00032887786094557128 0 -0.041056469379073951 -0.00045389951335406652 0 -0.040969908547721659 -0.00057371014186529724 0 -0.040797770635968414 -0.00032887786094557128 0 -0.041162291448081888 -0.00074933422096047392 0 -0.040969908547721659 -0.00057371014186529724 0 -0.041019091416148575 -0.00072063387146223488 0 -0.041162291448081888 -0.00074933422096047392 0 -0.041056469379073951 -0.00045389951335406652 0 -0.040969908547721659 -0.00057371014186529724 0 -0.040702923429563991 -0.00071197433216459475 0 -0.040716871666728362 -0.00052946349413167436 0 -0.041019091416148575 -0.00072063387146223488 0 -0.040969908547721659 -0.00057371014186529724 0 -0.040716871666728362 -0.00052946349413167436 0 -0.041019091416148575 -0.00072063387146223488 0 -0.040438654157190168 -0.00025634317695926774 0 -0.040716871666728362 -0.00052946349413167436 0 -0.040797770635968414 -0.00032887786094557128 0 -0.040969908547721659 -0.00057371014186529724 0 -0.040716871666728362 -0.00052946349413167436 0 -0.040797770635968414 -0.00032887786094557128 0 -0.040438654157190168 -0.00025634317695926774 0 -0.040797770635968414 -0.00032887786094557128 0 -0.040562557424464789 -5.1073033566225581e-05 0 -0.040797770635968414 -0.00032887786094557128 0 -0.040562557424464789 -5.1073033566225581e-05 0 -0.040844164561036088 -4.3895448297161565e-05 0 -0.040562557424464789 -5.1073033566225581e-05 0 -0.040513492806135989 0.00029454292811840961 0 -0.040844164561036088 -4.3895448297161565e-05 0 -0.040562557424464789 -5.1073033566225581e-05 0 -0.040513492806135989 0.00029454292811840961 0 -0.040213989412411527 0.0001030566646837466 0 -0.040513492806135989 0.00029454292811840961 0 -0.040213989412411527 0.0001030566646837466 0 -0.040123038670569044 0.00044821260061246468 0 -0.040513492806135989 0.00029454292811840961 0 -0.040844164561036088 -4.3895448297161565e-05 0 -0.04100368881760539 0.00034330698967530897 0 -0.040953362668654354 -0.0002661529834955237 0 -0.040797770635968414 -0.00032887786094557128 0 -0.040844164561036088 -4.3895448297161565e-05 0 -0.041150478447711018 -0.0002722372735428966 0 -0.040953362668654354 -0.0002661529834955237 0 -0.040844164561036088 -4.3895448297161565e-05 0 -0.041150478447711018 -0.0002722372735428966 0 -0.040844164561036088 -4.3895448297161565e-05 0 -0.041183683108740016 1.4745969769864233e-05 0 -0.041150478447711018 -0.0002722372735428966 0 -0.041183683108740016 1.4745969769864233e-05 0 -0.041505099792741258 -0.00012368284058107348 0 -0.041183683108740016 1.4745969769864233e-05 0 -0.041505099792741258 -0.00012368284058107348 0 -0.041406952612274658 0.00021010702488311284 0 -0.041183683108740016 1.4745969769864233e-05 0 -0.041406952612274658 0.00021010702488311284 0 -0.04100368881760539 0.00034330698967530897 0 -0.040844164561036088 -4.3895448297161565e-05 0 -0.041183683108740016 1.4745969769864233e-05 0 -0.04100368881760539 0.00034330698967530897 0 -0.04100368881760539 0.00034330698967530897 0 -0.040980865973889224 0.00079961567789627356 0 -0.040647560398683169 0.00065790364753406732 0 -0.04100368881760539 0.00034330698967530897 0 -0.041369999613116569 0.00060199976373231533 0 -0.040980865973889224 0.00079961567789627356 0 -0.041406952612274658 0.00021010702488311284 0 -0.04100368881760539 0.00034330698967530897 0 -0.041369999613116569 0.00060199976373231533 0 -0.041369999613116569 0.00060199976373231533 0 -0.040980865973889224 0.00079961567789627356 0 -0.041307023239923892 0.0010904039016361919 0 -0.041369999613116569 0.00060199976373231533 0 -0.04164930126468868 0.00064368442548172217 0 -0.041307023239923892 0.0010904039016361919 0 -0.040980865973889224 0.00079961567789627356 0 -0.040298715854441745 0.0013161666604949609 0 -0.041307023239923892 0.0010904039016361919 0 -0.040190559993477912 0.00083103087263297236 0 -0.040647560398683169 0.00065790364753406732 0 -0.040298715854441745 0.0013161666604949609 0 -0.040980865973889224 0.00079961567789627356 0 -0.040647560398683169 0.00065790364753406732 0 -0.040298715854441745 0.0013161666604949609 0 -0.040513492806135989 0.00029454292811840961 0 -0.040190559993477912 0.00083103087263297236 0 -0.040123038670569044 0.00044821260061246468 0 -0.040513492806135989 0.00029454292811840961 0 -0.040190559993477912 0.00083103087263297236 0 -0.040647560398683169 0.00065790364753406732 0 -0.040513492806135989 0.00029454292811840961 0 -0.04100368881760539 0.00034330698967530897 0 -0.040647560398683169 0.00065790364753406732 0 -0.041831464696980833 0.00064725116676413153 0 -0.041791086991774924 0.00052978963574848957 0 -0.041708838352516125 0.00063934847411889169 0 -0.041831464696980833 0.00064725116676413153 0 -0.041826404152527988 0.00075814527353206961 0 -0.041708838352516125 0.00063934847411889169 0 -0.041831464696980833 0.00064725116676413153 0 -0.041826404152527988 0.00075814527353206961 0 -0.041881294048527903 0.000755155815530092 0 -0.042128094409248633 0.00071499319527788287 0 -0.042402988001385936 0.00046566896514046877 0 -0.041831464696980833 0.00064725116676413153 0 -0.041881294048527903 0.000755155815530092 0 -0.041871898780200083 0.00062851697404234198 0 -0.042710342469462335 0.00080916369978581242 0 -0.042406411182737747 0.00062150096975162089 0 -0.042852256611906954 0.0003352154293836792 0 -0.041831464696980833 0.00064725116676413153 0 -0.041837849888651656 0.00056548467631429699 0 -0.041791086991774924 0.00052978963574848957 0 -0.041831464696980833 0.00064725116676413153 0 -0.041871898780200083 0.00062851697404234198 0 -0.041837849888651656 0.00056548467631429699 0 -0.042402988001385936 0.00046566896514046877 0 -0.042204974584388148 0.0003871737278888817 0 -0.041837849888651656 0.00056548467631429699 0 -0.041865512752221647 0.00055892348806642388 0 -0.041814232032115935 0.00051916444277035252 0 -0.041871898780200083 0.00062851697404234198 0 -0.041837849888651656 0.00056548467631429699 0 -0.041865512752221647 0.00055892348806642388 0 -0.042852256611906954 0.0003352154293836792 0 -0.043180627072198538 0.00044592999351488811 0 -0.04319135273333484 0.00014822754184099502 0 -0.043201374745056934 0.00074321239113559216 0 -0.042710342469462335 0.00080916369978581242 0 -0.042852256611906954 0.0003352154293836792 0 -0.043201374745056934 0.00074321239113559216 0 -0.042852256611906954 0.0003352154293836792 0 -0.043180627072198538 0.00044592999351488811 0 -0.043201374745056934 0.00074321239113559216 0 -0.043411727425942362 0.00054535350173239125 0 -0.043180627072198538 0.00044592999351488811 0 -0.043411727425942362 0.00054535350173239125 0 -0.043180627072198538 0.00044592999351488811 0 -0.04319135273333484 0.00014822754184099502 0 -0.042453269738403722 0.00019633852792088347 0 -0.042204974584388148 0.0003871737278888817 0 -0.041505099792741258 -0.00012368284058107348 0 -0.041406952612274658 0.00021010702488311284 0 -0.041819296358492151 0.0002606978805572423 0 -0.041233007287724721 0.00060543545491370196 0 -0.042204974584388148 0.0003871737278888817 0 -0.041369999613116569 0.00060199976373231533 0 -0.041714516241232444 0.00037380618615883305 0 -0.04164930126468868 0.00064368442548172217 0 -0.041406952612274658 0.00021010702488311284 0 -0.041369999613116569 0.00060199976373231533 0 -0.041819296358492151 0.0002606978805572423 0 -0.04164930126468868 0.00064368442548172217 0 -0.04172686160426238 0.00077812851770289314 0 -0.041307023239923892 0.0010904039016361919 0 -0.04164930126468868 0.00064368442548172217 0 -0.041777894880663094 0.00059131149096622131 0 -0.04172686160426238 0.00077812851770289314 0 -0.041777894880663094 0.00059131149096622131 0 -0.041809616122901933 0.00052754416074626961 0 -0.04172686160426238 0.00077812851770289314 0 -0.041777894880663094 0.00059131149096622131 0 -0.041814232032115935 0.00051916444277035252 0 -0.041821268105876566 0.00053638863137541576 0 -0.041714516241232444 0.00037380618615883305 0 -0.04164930126468868 0.00064368442548172217 0 -0.041814232032115935 0.00051916444277035252 0 -0.04164930126468868 0.00064368442548172217 0 -0.041777894880663094 0.00059131149096622131 0 -0.041814232032115935 0.00051916444277035252 0 -0.042204974584388148 0.0003871737278888817 0 -0.041850307148901117 0.00042223973692728914 0 -0.041837849888651656 0.00056548467631429699 0 -0.041814232032115935 0.00051916444277035252 0 -0.041821268105876566 0.00053638863137541576 0 -0.041821268105876566 0.00053638863137541576 0 -0.041809616122901933 0.00052754416074626961 0 -0.041791086991774924 0.00052978963574848957 0 -0.041837849888651656 0.00056548467631429699 0 -0.041821268105876566 0.00053638863137541576 0 -0.041791086991774924 0.00052978963574848957 0 -0.041809616122901933 0.00052754416074626961 0 -0.041745199440019497 0.00047022256636585147 0 -0.041789022242748428 0.00043379561880284257 0 -0.041777894880663094 0.00059131149096622131 0 -0.041821268105876566 0.00053638863137541576 0 -0.041809616122901933 0.00052754416074626961 0 -0.041745199440019497 0.00047022256636585147 0 -0.041789022242748428 0.00043379561880284257 0 -0.041644152905256415 0.0003707008400646395 0 -0.041745199440019497 0.00047022256636585147 0 -0.041791086991774924 0.00052978963574848957 0 -0.041663210184833564 0.00045575853581762503 0 -0.041809616122901933 0.00052754416074626961 0 -0.041745199440019497 0.00047022256636585147 0 -0.041791086991774924 0.00052978963574848957 0 -0.037007165773160426 0.0011471415865471932 0 -0.036625056754760611 0.0015989691268114455 0 -0.036305300072298458 0.0011933975061908144 0 -0.037007165773160426 0.0011471415865471932 0 -0.036625056754760611 0.0015989691268114455 0 -0.037180710443928504 0.0019270042331987556 0 -0.036625056754760611 0.0015989691268114455 0 -0.037180710443928504 0.0019270042331987556 0 -0.036084465095028086 0.0019002561452865451 0 -0.0394121094213499 0.0011774509609850513 0 -0.038959745582386782 0.0010472718098809865 0 -0.0394121094213499 0.0011774509609850513 0 -0.039965516308205704 0.0013436253954463792 0 -0.041809616122901933 0.00052754416074626961 0 -0.041789022242748428 0.00043379561880284257 0 -0.04172686160426238 0.00077812851770289314 0 -0.037007165773160426 0.0011471415865471932 0 -0.037180710443928504 0.0019270042331987556 0 -0.037822555019898244 0.0010220651374610906 0 -0.037180710443928504 0.0019270042331987556 0 -0.038220134176547731 0.0019115659786271156 0 -0.037822555019898244 0.0010220651374610906 0 -0.038220134176547731 0.0019115659786271156 0 -0.038692818289269307 0.0010394488558720543 0 -0.037822555019898244 0.0010220651374610906 0 -0.039965516308205704 0.0013436253954463792 0 -0.040244937493787172 0.0014305259778541397 0 -0.038220134176547731 0.0019115659786271156 0 -0.039256913809013846 0.0018166598754665371 0 -0.03894606153413014 0.0014599131391000815 0 -0.038220134176547731 0.0019115659786271156 0 -0.038692818289269307 0.0010394488558720543 0 -0.03894606153413014 0.0014599131391000815 0 -0.038692818289269307 0.0010394488558720543 0 -0.0384305299512692 0.00062142300923463472 0 -0.038758108720782981 0.00057798985034740273 0 -0.038692818289269307 0.0010394488558720543 0 -0.0384305299512692 0.00062142300923463472 0 -0.037822555019898244 0.0010220651374610906 0 -0.0384305299512692 0.00062142300923463472 0 -0.037960207627210217 0.00024303878062368752 0 -0.038657340520041078 0.0002807750174351244 0 -0.0384305299512692 0.00062142300923463472 0 -0.038758108720782981 0.00057798985034740273 0 -0.038657340520041078 0.0002807750174351244 0 -0.034015369378941208 1.3308831618969606e-05 0 -0.027536524868651283 0.00072125874368175085 0 -0.0384305299512692 0.00062142300923463472 0 -0.037960207627210217 0.00024303878062368752 0 -0.037822555019898244 0.0010220651374610906 0 -0.037007165773160426 0.0011471415865471932 0 -0.037822555019898244 0.0010220651374610906 0 -0.037113735882057852 0.00034198075270009195 0 -0.034015369378941208 1.3308831618969606e-05 0 -0.031723787990287057 0.00038426391350595678 0 -0.037960207627210217 0.00024303878062368752 0 -0.037822555019898244 0.0010220651374610906 0 -0.037113735882057852 0.00034198075270009195 0 -0.027589200078844644 0.00018291390521329385 0 -0.026978714094058696 0.00030601011943299399 0 -0.027433679118248597 -3.4715230352362892e-05 0 -0.031723787990287057 0.00038426391350595678 0 -0.031640569964881196 0.00046936093608920511 0 -0.026978714094058696 0.00030601011943299399 0 -0.026379216210418197 0.00042643269914450095 0 -0.026665059891042064 -0.00011760453758704807 0 -0.037007165773160426 0.0011471415865471932 0 -0.037113735882057852 0.00034198075270009195 0 -0.036229350910019172 0.00049716786338235646 0 -0.040141976314978074 0.0012439293910217262 0 -0.039884902268140045 0.0012930715371840297 0 -0.039599605358398286 0.00073105060494191288 0 -0.040141976314978074 0.0012439293910217262 0 -0.040298715854441745 0.0013161666604949609 0 -0.039884902268140045 0.0012930715371840297 0 -0.039772656998707273 0.0012925948935947015 0 -0.039801992960899757 0.0012681208491022351 0 -0.039453283826135208 0.001392275092199944 0 -0.03952634188929123 0.0013631052334351181 0 -0.039825371480835203 0.0012748630309747857 0 -0.040190559993477912 0.00083103087263297236 0 -0.040298715854441745 0.0013161666604949609 0 -0.039825371480835203 0.0012748630309747857 0 -0.040141976314978074 0.0012439293910217262 0 -0.040298715854441745 0.0013161666604949609 0 -0.039825371480835203 0.0012748630309747857 0 -0.040298715854441745 0.0013161666604949609 0 -0.039256913809013846 0.0018166598754665371 0 -0.039884902268140045 0.0012930715371840297 0 -0.040261183092152868 0.0013405036360876492 0 -0.040244937493787172 0.0014305259778541397 0 -0.038692818289269307 0.0010394488558720543 0 -0.03894606153413014 0.0014599131391000815 0 -0.039374623697532883 0.0011380033048903064 0 -0.039256913809013846 0.0018166598754665371 0 -0.03894606153413014 0.0014599131391000815 0 -0.039374623697532883 0.0011380033048903064 0 -0.039256913809013846 0.0018166598754665371 0 -0.039884902268140045 0.0012930715371840297 0 -0.039374623697532883 0.0011380033048903064 0 -0.039884902268140045 0.0012930715371840297 0 -0.039374623697532883 0.0011380033048903064 0 -0.039599605358398286 0.00073105060494191288 0 -0.039374623697532883 0.0011380033048903064 0 -0.039599605358398286 0.00073105060494191288 0 -0.039031365078071346 0.00074548663242818823 0 -0.038692818289269307 0.0010394488558720543 0 -0.039374623697532883 0.0011380033048903064 0 -0.039031365078071346 0.00074548663242818823 0 -0.038692818289269307 0.0010394488558720543 0 -0.039031365078071346 0.00074548663242818823 0 -0.038758108720782981 0.00057798985034740273 0 -0.039599605358398286 0.00073105060494191288 0 -0.039031365078071346 0.00074548663242818823 0 -0.038758411118607346 0.00043063434942111021 0 -0.039319921764570651 0.00093524765932480986 0 -0.03881719585505887 0.0004883846558644409 0 -0.039031365078071346 0.00074548663242818823 0 -0.038758108720782981 0.00057798985034740273 0 -0.038758411118607346 0.00043063434942111021 0 -0.038758108720782981 0.00057798985034740273 0 -0.038758411118607346 0.00043063434942111021 0 -0.038657340520041078 0.0002807750174351244 0 -0.039025698243560364 0.0011394381422462148 0 -0.038986499651402766 0.00070242688286625214 0 -0.039334231265547061 0.0012124311977596252 0 -0.039025698243560364 0.0011394381422462148 0 -0.038758411118607346 0.00043063434942111021 0 -0.038986499651402766 0.00070242688286625214 0 -0.038986499651402766 0.00070242688286625214 0 -0.039334231265547061 0.0012124311977596252 0 -0.039342441559711006 0.0010624090514991743 0 -0.030852072542456893 0.00098545437754634009 0 -0.030263927360740898 0.0012271185825846252 0 -0.039772656998707273 0.0012925948935947015 0 -0.039319921764570651 0.00093524765932480986 0 -0.039453283826135208 0.001392275092199944 0 -0.039025698243560364 0.0011394381422462148 0 -0.039334231265547061 0.0012124311977596252 0 -0.039453283826135208 0.001392275092199944 0 -0.039334231265547061 0.0012124311977596252 0 -0.03952634188929123 0.0013631052334351181 0 -0.030263927360740898 0.0012271185825846252 0 -0.030226340708442916 0.0014071305854662826 0 -0.03952634188929123 0.0013631052334351181 0 -0.039342441559711006 0.0010624090514991743 0 -0.039434163345684697 0.0014413041378206169 0 -0.039334231265547061 0.0012124311977596252 0 -0.03952634188929123 0.0013631052334351181 0 -0.039342441559711006 0.0010624090514991743 0 -0.039434163345684697 0.0014413041378206169 0 -0.039445400201659493 0.0014396398609521762 0 -0.039170463220174576 0.001721325177672125 0 -0.021801537100318007 0.0014475327753040131 0 -0.022160753939251959 0.001465586338319656 0 -0.022119194011780866 0.0013018365430951856 0 -0.030226340708442916 0.0014071305854662826 0 -0.032489869219599801 0.0017366311086666367 0 -0.03952634188929123 0.0013631052334351181 0 -0.039434163345684697 0.0014413041378206169 0 -0.039445400201659493 0.0014396398609521762 0 -0.039445400201659493 0.0014396398609521762 0 -0.039514163133872605 0.0012104274723417775 0 -0.039825371480835203 0.0012748630309747857 0 -0.03952634188929123 0.0013631052334351181 0 -0.039445400201659493 0.0014396398609521762 0 -0.039825371480835203 0.0012748630309747857 0 -0.039445400201659493 0.0014396398609521762 0 -0.039514163133872605 0.0012104274723417775 0 -0.039127832430840032 0.0013371265292876629 0 -0.039514163133872605 0.0012104274723417775 0 -0.039825371480835203 0.0012748630309747857 0 -0.039848661572847582 0.00082199198006343676 0 -0.038935107192313884 0.0010803240712198795 0 -0.039127832430840032 0.0013371265292876629 0 -0.038591947544722262 0.0013998866667130996 0 -0.038935107192313884 0.0010803240712198795 0 -0.039127832430840032 0.0013371265292876629 0 -0.039399724255299126 0.00088142341305323527 0 -0.039514163133872605 0.0012104274723417775 0 -0.039127832430840032 0.0013371265292876629 0 -0.039399724255299126 0.00088142341305323527 0 -0.039445400201659493 0.0014396398609521762 0 -0.039127832430840032 0.0013371265292876629 0 -0.039036885215431257 0.001602522404828829 0 -0.039127832430840032 0.0013371265292876629 0 -0.038711178404314928 0.0016401373948572281 0 -0.038591947544722262 0.0013998866667130996 0 -0.039127832430840032 0.0013371265292876629 0 -0.038711178404314928 0.0016401373948572281 0 -0.039036885215431257 0.001602522404828829 0 -0.038711178404314928 0.0016401373948572281 0 -0.039036885215431257 0.001602522404828829 0 -0.0386951073699957 0.0018891387783523737 0 -0.039445400201659493 0.0014396398609521762 0 -0.039036885215431257 0.001602522404828829 0 -0.039170463220174576 0.001721325177672125 0 -0.039036885215431257 0.001602522404828829 0 -0.039170463220174576 0.001721325177672125 0 -0.0386951073699957 0.0018891387783523737 0 -0.022160753939251959 0.001465586338319656 0 -0.022473814673888308 0.0015189717446802088 0 -0.022119194011780866 0.0013018365430951856 0 -0.021934931786075626 0.0011958955914923304 0 -0.011881613395892929 0.0005487582808000168 0 -0.032489869219599801 0.0017366311086666367 0 -0.021934931786075626 0.0011958955914923304 0 -0.0053536460231883038 0.0012103224744108583 0 -0.0063100282710543175 0.00070182778979987245 0 -0.0068092569735404701 0.0011376218076374841 0 -0.021934931786075626 0.0011958955914923304 0 -0.03286092099360529 0.0020027359837245439 0 -0.0053536460231883038 0.0012103224744108583 0 -0.0068092569735404701 0.0011376218076374841 0 -0.0075096436478715523 0.0016986615620040353 0 -0.022491605063917831 0.00051701690876984456 0 -0.024347933169617968 0.00071015784119865099 0 -0.024029161050710016 0.0013388758743822519 0 -0.021934931786075626 0.0011958955914923304 0 -0.013833697264812973 0.0013737884627834955 0 -0.0063100282710543175 0.00070182778979987245 0 -0.0068092569735404701 0.0011376218076374841 0 -0.0083447267073549301 0.0016855900694613781 0 -0.0049401262870617047 0.00071227690819925297 0 -0.011204772843045305 0.00079427309079489674 0 -0.005049233490779936 0.00094930687889054749 0 -0.0054895519650840132 0.0010492775525874586 0 -0.0056889084909508177 0.0013491041414816682 0 -0.0068092569735404701 0.0011376218076374841 0 -0.0083447267073549301 0.0016855900694613781 0 -0.007645401776712901 0.0016596400442056424 0 -0.0054895519650840132 0.0010492775525874586 0 -0.0056889084909508177 0.0013491041414816682 0 -0.0057744353255359841 0.0010514531046671252 0 -0.011204772843045305 0.00079427309079489674 0 -0.013833697264812973 0.0013737884627834955 0 -0.0073360386726641063 -0.00023522215904750237 0 -0.013833697264812973 0.0013737884627834955 0 -0.03286092099360529 0.0020027359837245439 0 -0.031112899963523781 0.0017668661656163409 0 -0.024347933169617968 0.00071015784119865099 0 -0.024029161050710016 0.0013388758743822519 0 -0.025764439361107498 0.0017192505395701254 0 -0.038711178404314928 0.0016401373948572281 0 -0.0386951073699957 0.0018891387783523737 0 -0.038281632116241721 0.0018633591246408369 0 -0.0063664548347517414 0.0010519357131857385 0 -0.0060581153675590841 0.0011397474217501988 0 -0.0064153353619675942 0.0013925367435155896 0 -0.0056889084909508177 0.0013491041414816682 0 -0.0060581153675590841 0.0011397474217501988 0 -0.0064153353619675942 0.0013925367435155896 0 -0.011204772843045305 0.00079427309079489674 0 -0.011918693145403872 0.00072283147837843632 0 -0.0056889084909508177 0.0013491041414816682 0 -0.0060581153675590841 0.0011397474217501988 0 -0.0057744353255359841 0.0010514531046671252 0 -0.013833697264812973 0.0013737884627834955 0 -0.022883860569928631 0.0016881901894107137 0 -0.011204772843045305 0.00079427309079489674 0 -0.018186036064787841 0.0011023903901815079 0 -0.01510656577516776 -0.00021734520070939279 0 -0.01697250397588853 0.00084723929819331505 0 -0.017836573291068827 0.00011823834089954298 0 -0.024029161050710016 0.0013388758743822519 0 -0.025764439361107498 0.0017192505395701254 0 -0.025561474660375599 0.0021097541804649365 0 -0.016675866105833125 0.00033512521234359911 0 -0.016235257839756011 0.00030002239216257709 0 -0.01749754687934495 0.0011610218941512415 0 -0.016675866105833125 0.00033512521234359911 0 -0.01749754687934495 0.0011610218941512415 0 -0.017793169960097197 0.00099834176330820769 0 -0.018224740274982811 0.001324175731021549 0 -0.018186036064787841 0.0011023903901815079 0 -0.018630237637616568 0.0014763631315873017 0 -0.01697250397588853 0.00084723929819331505 0 -0.018022770172286481 0.00081527341701177509 0 -0.018458969129917978 0.0017913989966566925 0 -0.01749754687934495 0.0011610218941512415 0 -0.017793169960097197 0.00099834176330820769 0 -0.01697250397588853 0.00084723929819331505 0 -0.018022770172286481 0.00081527341701177509 0 -0.017836573291068827 0.00011823834089954298 0 -0.036955000390613536 0.0017276907476261919 0 -0.037712054302944019 0.0018201422421913124 0 -0.037503687844218009 0.0012393903366042136 0 -0.026983325674949946 0.0026046329730557852 0 -0.025764439361107498 0.0017192505395701254 0 -0.025561474660375599 0.0021097541804649365 0 -0.021793823379968279 0.0019769310420518793 0 -0.022883860569928631 0.0016881901894107137 0 -0.026983325674949946 0.0026046329730557852 0 -0.026896128807531137 0.0027700108465396277 0 -0.025561474660375599 0.0021097541804649365 0 -0.018458969129917978 0.0017913989966566925 0 -0.018630237637616568 0.0014763631315873017 0 -0.017793169960097197 0.00099834176330820769 0 -0.032758634678803585 0.0024684531064922922 0 -0.031112899963523781 0.0017668661656163409 0 -0.037712054302944019 0.0018201422421913124 0 -0.037503687844218009 0.0012393903366042136 0 -0.038146924108532064 0.0014831776497047551 0 -0.037503687844218009 0.0012393903366042136 0 -0.038146924108532064 0.0014831776497047551 0 -0.038076131252213728 0.00085457369663366988 0 -0.036745349892495636 0.0011906222050368542 0 -0.036955000390613536 0.0017276907476261919 0 -0.037503687844218009 0.0012393903366042136 0 -0.038281632116241721 0.0018633591246408369 0 -0.038591947544722262 0.0013998866667130996 0 -0.038146924108532064 0.0014831776497047551 0 -0.038711178404314928 0.0016401373948572281 0 -0.038281632116241721 0.0018633591246408369 0 -0.038591947544722262 0.0013998866667130996 0 -0.038281632116241721 0.0018633591246408369 0 -0.037712054302944019 0.0018201422421913124 0 -0.038146924108532064 0.0014831776497047551 0 -0.038146924108532064 0.0014831776497047551 0 -0.038573327065667025 0.001035528112424551 0 -0.038076131252213728 0.00085457369663366988 0 -0.038935107192313884 0.0010803240712198795 0 -0.038591947544722262 0.0013998866667130996 0 -0.038573327065667025 0.001035528112424551 0 -0.038591947544722262 0.0013998866667130996 0 -0.038146924108532064 0.0014831776497047551 0 -0.038573327065667025 0.001035528112424551 0 -0.038573327065667025 0.001035528112424551 0 -0.038533985504851112 0.00047639583309775583 0 -0.038927632049006143 0.00073148275009407029 0 -0.038573327065667025 0.001035528112424551 0 -0.038076131252213728 0.00085457369663366988 0 -0.038533985504851112 0.00047639583309775583 0 -0.038076131252213728 0.00085457369663366988 0 -0.038533985504851112 0.00047639583309775583 0 -0.037986995442153934 0.00038527864038237573 0 -0.036745349892495636 0.0011906222050368542 0 -0.037503687844218009 0.0012393903366042136 0 -0.03702299016437452 0.0006038364419832464 0 -0.037503687844218009 0.0012393903366042136 0 -0.03702299016437452 0.0006038364419832464 0 -0.037620490466786081 0.00061454121738605558 0 -0.037503687844218009 0.0012393903366042136 0 -0.038076131252213728 0.00085457369663366988 0 -0.037620490466786081 0.00061454121738605558 0 -0.038076131252213728 0.00085457369663366988 0 -0.037620490466786081 0.00061454121738605558 0 -0.037986995442153934 0.00038527864038237573 0 -0.037620490466786081 0.00061454121738605558 0 -0.037986995442153934 0.00038527864038237573 0 -0.037492449160399753 0.00012013449509818903 0 -0.036964969813022747 0.00013473889408039527 0 -0.03702299016437452 0.0006038364419832464 0 -0.037492449160399753 0.00012013449509818903 0 -0.03702299016437452 0.0006038364419832464 0 -0.037620490466786081 0.00061454121738605558 0 -0.037492449160399753 0.00012013449509818903 0 -0.037134436754556258 -0.00026905124297717578 0 -0.036964969813022747 0.00013473889408039527 0 -0.037492449160399753 0.00012013449509818903 0 -0.037986995442153934 0.00038527864038237573 0 -0.037492449160399753 0.00012013449509818903 0 -0.038146233819018563 -2.4747125679040619e-05 0 -0.037690032413547382 -0.00044731935694288828 0 -0.037492449160399753 0.00012013449509818903 0 -0.038146233819018563 -2.4747125679040619e-05 0 -0.037134436754556258 -0.00026905124297717578 0 -0.037690032413547382 -0.00044731935694288828 0 -0.037236768950269145 -0.00062801823785259617 0 -0.037134436754556258 -0.00026905124297717578 0 -0.037690032413547382 -0.00044731935694288828 0 -0.037492449160399753 0.00012013449509818903 0 -0.038533985504851112 0.00047639583309775583 0 -0.038735364186485641 3.8623691295508863e-06 0 -0.03920499653837619 0.00028701824029422483 0 -0.038533985504851112 0.00047639583309775583 0 -0.037986995442153934 0.00038527864038237573 0 -0.038146233819018563 -2.4747125679040619e-05 0 -0.038533985504851112 0.00047639583309775583 0 -0.038146233819018563 -2.4747125679040619e-05 0 -0.038735364186485641 3.8623691295508863e-06 0 -0.038517166107140205 -0.0005195702283944942 0 -0.038146233819018563 -2.4747125679040619e-05 0 -0.038735364186485641 3.8623691295508863e-06 0 -0.038517166107140205 -0.0005195702283944942 0 -0.037690032413547382 -0.00044731935694288828 0 -0.038146233819018563 -2.4747125679040619e-05 0 -0.038517166107140205 -0.0005195702283944942 0 -0.038735364186485641 3.8623691295508863e-06 0 -0.039235023747067395 -0.00026115052612448147 0 -0.038735364186485641 3.8623691295508863e-06 0 -0.039235023747067395 -0.00026115052612448147 0 -0.03920499653837619 0.00028701824029422483 0 -0.039235023747067395 -0.00026115052612448147 0 -0.03920499653837619 0.00028701824029422483 0 -0.039703712270418051 -0.00018926823640087227 0 -0.03920499653837619 0.00028701824029422483 0 -0.039703712270418051 -0.00018926823640087227 0 -0.039758140793386541 0.00034037056090486487 0 -0.039703712270418051 -0.00018926823640087227 0 -0.040076474233363989 -0.00012392034174802421 0 -0.039758140793386541 0.00034037056090486487 0 -0.040438654157190168 -0.00025634317695926774 0 -0.040562557424464789 -5.1073033566225581e-05 0 -0.040213989412411527 0.0001030566646837466 0 -0.040438654157190168 -0.00025634317695926774 0 -0.040076474233363989 -0.00012392034174802421 0 -0.040213989412411527 0.0001030566646837466 0 -0.040213989412411527 0.0001030566646837466 0 -0.039758140793386541 0.00034037056090486487 0 -0.040123038670569044 0.00044821260061246468 0 -0.040076474233363989 -0.00012392034174802421 0 -0.040213989412411527 0.0001030566646837466 0 -0.039758140793386541 0.00034037056090486487 0 -0.039758140793386541 0.00034037056090486487 0 -0.039848661572847582 0.00082199198006343676 0 -0.039399724255299126 0.00088142341305323527 0 -0.040190559993477912 0.00083103087263297236 0 -0.040123038670569044 0.00044821260061246468 0 -0.039848661572847582 0.00082199198006343676 0 -0.039758140793386541 0.00034037056090486487 0 -0.040123038670569044 0.00044821260061246468 0 -0.039848661572847582 0.00082199198006343676 0 -0.040190559993477912 0.00083103087263297236 0 -0.039825371480835203 0.0012748630309747857 0 -0.039848661572847582 0.00082199198006343676 0 -0.039514163133872605 0.0012104274723417775 0 -0.039848661572847582 0.00082199198006343676 0 -0.039399724255299126 0.00088142341305323527 0 -0.038935107192313884 0.0010803240712198795 0 -0.039399724255299126 0.00088142341305323527 0 -0.038927632049006143 0.00073148275009407029 0 -0.038935107192313884 0.0010803240712198795 0 -0.038573327065667025 0.001035528112424551 0 -0.038927632049006143 0.00073148275009407029 0 -0.03920499653837619 0.00028701824029422483 0 -0.039399724255299126 0.00088142341305323527 0 -0.038927632049006143 0.00073148275009407029 0 -0.038533985504851112 0.00047639583309775583 0 -0.03920499653837619 0.00028701824029422483 0 -0.038927632049006143 0.00073148275009407029 0 -0.03920499653837619 0.00028701824029422483 0 -0.039758140793386541 0.00034037056090486487 0 -0.039399724255299126 0.00088142341305323527 0 -0.036250065948016191 3.6433977674263919e-06 0 -0.038390321774663012 4.6717906487519825e-07 0 -0.033469024283131775 1.5045678458104552e-06 0 -0.036250065948016191 3.6433977674263919e-06 0 -0.034057312687884596 6.0082984001006218e-05 0 -0.033469024283131775 1.5045678458104552e-06 0 -0.036250065948016191 3.6433977674263919e-06 0 -0.03582527347612665 -5.9534362568610968e-05 0 -0.034057312687884596 6.0082984001006218e-05 0 -0.039043530784074222 -0.00046118967300160007 0 -0.038643823114216921 3.3366750702748254e-05 0 -0.03970801247966383 -0.00031452428086940672 0 -0.039043530784074222 -0.00046118967300160007 0 -0.03970801247966383 -0.00031452428086940672 0 -0.039430485209163327 -0.00062597736055030619 0 -0.036250065948016191 3.6433977674263919e-06 0 -0.038643823114216921 3.3366750702748254e-05 0 -0.038771267227676577 0.00020892762794290563 0 -0.037495124287489009 -0.00011853101059608355 0 -0.038393492089576334 0.00018594244292862943 0 -0.036250065948016191 3.6433977674263919e-06 0 -0.03582527347612665 -5.9534362568610968e-05 0 -0.038643823114216921 3.3366750702748254e-05 0 -0.04017460784882796 0.00038671939251777826 0 -0.038771267227676577 0.00020892762794290563 0 -0.041550851848058408 0.00034861090090963727 0 -0.038643823114216921 3.3366750702748254e-05 0 -0.04017460784882796 0.00038671939251777826 0 -0.038771267227676577 0.00020892762794290563 0 -0.038643823114216921 3.3366750702748254e-05 0 -0.04017460784882796 0.00038671939251777826 0 -0.040120522642469042 0.00018654709707800898 0 -0.036250065948016191 3.6433977674263919e-06 0 -0.038390321774663012 4.6717906487519825e-07 0 -0.038771267227676577 0.00020892762794290563 0 -0.038390321774663012 4.6717906487519825e-07 0 -0.038771267227676577 0.00020892762794290563 0 -0.041550851848058408 0.00034861090090963727 0 -0.04499458420551302 4.3891482975715465e-07 0 -0.044111989627770992 3.1979256939155736e-05 0 -0.044997795760144885 9.996737046527851e-08 0 -0.038390321774663012 4.6717906487519825e-07 0 -0.04499458420551302 4.3891482975715465e-07 0 -0.041550851848058408 0.00034861090090963727 0 -0.04499458420551302 4.3891482975715465e-07 0 -0.044111989627770992 3.1979256939155736e-05 0 -0.041550851848058408 0.00034861090090963727 0 -0.04017460784882796 0.00038671939251777826 0 -0.041550851848058408 0.00034861090090963727 0 -0.041843672104571877 0.00050836147942911504 0 -0.044111989627770992 3.1979256939155736e-05 0 -0.041550851848058408 0.00034861090090963727 0 -0.041843672104571877 0.00050836147942911504 0 -0.04017460784882796 0.00038671939251777826 0 -0.041843672104571877 0.00050836147942911504 0 -0.040818588144326928 0.00033234727627004545 0 -0.041753653318654549 0.00046299467441579545 0 -0.041843672104571877 0.00050836147942911504 0 -0.040818588144326928 0.00033234727627004545 0 -0.040772968644414501 0.00029177097321255536 0 -0.041003193421940164 0.00037646667288696565 0 -0.041753653318654549 0.00046299467441579545 0 -0.041843672104571877 0.00050836147942911504 0 -0.041995783895457849 0.00023817047516537314 0 -0.043981119393045928 1.9457435421820307e-05 0 -0.043502299282385068 2.1052048439349599e-05 0 -0.044111989627770992 3.1979256939155736e-05 0 -0.041843672104571877 0.00050836147942911504 0 -0.041995783895457849 0.00023817047516537314 0 -0.044111989627770992 3.1979256939155736e-05 0 -0.044794726769663229 -0.00023132813869748575 0 -0.044997795760144885 9.996737046527851e-08 0 -0.044997795760144885 9.996737046527851e-08 0 -0.045004123092247696 -8.4053733614149805e-05 0 -0.045000983879898475 -2.141716528063674e-05 0 -0.044794726769663229 -0.00023132813869748575 0 -0.044997795760144885 9.996737046527851e-08 0 -0.044960055932167391 -0.00018409955490681466 0 -0.044997795760144885 9.996737046527851e-08 0 -0.044960055932167391 -0.00018409955490681466 0 -0.045004123092247696 -8.4053733614149805e-05 0 -0.043502299282385068 2.1052048439349599e-05 0 -0.042894807969825768 6.6518220731724961e-05 0 -0.042894807969825768 6.6518220731724961e-05 0 -0.045238346464531627 0.00011015450094008114 0 -0.042894807969825768 6.6518220731724961e-05 0 -0.042702389228789772 0.00016660635693439325 0 -0.040772968644414501 0.00029177097321255536 0 -0.042894807969825768 6.6518220731724961e-05 0 -0.041753653318654549 0.00046299467441579545 0 -0.041995783895457849 0.00023817047516537314 0 -0.041667636590288958 0.00033125688514463851 0 -0.040483917749664082 0.0001923650531850151 0 -0.040523311751668914 0.00029158533063406979 0 -0.040491668627235612 0.0002340419900276536 0 -0.040523311751668914 0.00029158533063406979 0 -0.040491668627235612 0.0002340419900276536 0 -0.040598289789476924 0.00029575532527269466 0 -0.040491668627235612 0.0002340419900276536 0 -0.04048656889900272 0.00018022780349730478 0 -0.040395969189377642 0.00025708526261740324 0 -0.040491668627235612 0.0002340419900276536 0 -0.04048656889900272 0.00018022780349730478 0 -0.040586312894065987 0.00022838450579528195 0 -0.04048656889900272 0.00018022780349730478 0 -0.040395969189377642 0.00025708526261740324 0 -0.040421823237659561 3.4775546113832682e-05 0 -0.040395969189377642 0.00025708526261740324 0 -0.040164449060354247 -2.1673692959142949e-05 0 -0.040421823237659561 3.4775546113832682e-05 0 -0.040483917749664082 0.0001923650531850151 0 -0.040491668627235612 0.0002340419900276536 0 -0.040395969189377642 0.00025708526261740324 0 -0.040483917749664082 0.0001923650531850151 0 -0.040395969189377642 0.00025708526261740324 0 -0.040818588144326928 0.00033234727627004545 0 -0.04017460784882796 0.00038671939251777826 0 -0.040818588144326928 0.00033234727627004545 0 -0.040120522642469042 0.00018654709707800898 0 -0.040395969189377642 0.00025708526261740324 0 -0.040818588144326928 0.00033234727627004545 0 -0.040120522642469042 0.00018654709707800898 0 -0.040395969189377642 0.00025708526261740324 0 -0.040120522642469042 0.00018654709707800898 0 -0.040164449060354247 -2.1673692959142949e-05 0 -0.040120522642469042 0.00018654709707800898 0 -0.040164449060354247 -2.1673692959142949e-05 0 -0.03970801247966383 -0.00031452428086940672 0 -0.038643823114216921 3.3366750702748254e-05 0 -0.040120522642469042 0.00018654709707800898 0 -0.03970801247966383 -0.00031452428086940672 0 -0.040164449060354247 -2.1673692959142949e-05 0 -0.03970801247966383 -0.00031452428086940672 0 -0.039975118444243778 -0.00028746867587538526 0 -0.03970801247966383 -0.00031452428086940672 0 -0.039975118444243778 -0.00028746867587538526 0 -0.039771872734998583 -0.0004877385169636779 0 -0.039975118444243778 -0.00028746867587538526 0 -0.040210817396918126 -0.00020223821380164998 0 -0.039993344834921056 -0.00041151292377783878 0 -0.040164449060354247 -2.1673692959142949e-05 0 -0.039975118444243778 -0.00028746867587538526 0 -0.040210817396918126 -0.00020223821380164998 0 -0.040358827462455574 -0.00018807260635841081 0 -0.040563068908891414 -0.00010189391712082821 0 -0.040244289394979857 -0.00051530257689909385 0 -0.040210817396918126 -0.00020223821380164998 0 -0.040358827462455574 -0.00018807260635841081 0 -0.040244289394979857 -0.00051530257689909385 0 -0.040047504803613958 -0.00031876870417839071 0 -0.039866920791640184 -0.00054937493580475816 0 -0.040210817396918126 -0.00020223821380164998 0 -0.040358827462455574 -0.00018807260635841081 0 -0.040421823237659561 3.4775546113832682e-05 0 -0.040358827462455574 -0.00018807260635841081 0 -0.040421823237659561 3.4775546113832682e-05 0 -0.040563068908891414 -0.00010189391712082821 0 -0.040164449060354247 -2.1673692959142949e-05 0 -0.040210817396918126 -0.00020223821380164998 0 -0.040421823237659561 3.4775546113832682e-05 0 -0.03982514536696187 0.00042813413330382668 0 -0.0404001683539367 0.00049114955102817163 0 -0.040293791672801907 0.0012603711272483203 0 -0.040023086328145635 0.0011196116285355816 0 -0.040177837936441543 0.0015559983141529652 0 -0.040421823237659561 3.4775546113832682e-05 0 -0.040563068908891414 -0.00010189391712082821 0 -0.040672579272469422 0.00013416464856829088 0 -0.040047504803613958 -0.00031876870417839071 0 -0.0404001683539367 0.00049114955102817163 0 -0.039609809165583265 -0.00035729741401656264 0 -0.039727806584197896 -0.00038695797845930837 0 -0.03985876741830071 5.9177816601476468e-05 0 -0.039609809165583265 -0.00035729741401656264 0 -0.039727806584197896 -0.00038695797845930837 0 -0.039593463587518224 -0.00070086854732858664 0 -0.040023086328145635 0.0011196116285355816 0 -0.040209268147143838 0.0010870630681543761 0 -0.040147946795316622 0.00088770058589486697 0 -0.040293791672801907 0.0012603711272483203 0 -0.040023086328145635 0.0011196116285355816 0 -0.040209268147143838 0.0010870630681543761 0 -0.040209268147143838 0.0010870630681543761 0 -0.040341244194434536 0.00095882233976024621 0 -0.040364767489785777 0.0011131833331001707 0 -0.040293791672801907 0.0012603711272483203 0 -0.040209268147143838 0.0010870630681543761 0 -0.040364767489785777 0.0011131833331001707 0 -0.040209268147143838 0.0010870630681543761 0 -0.040341244194434536 0.00095882233976024621 0 -0.040147946795316622 0.00088770058589486697 0 -0.040341244194434536 0.00095882233976024621 0 -0.040557853686922704 0.00098237670555443766 0 -0.040375961449014314 0.00079124239949302107 0 -0.040341244194434536 0.00095882233976024621 0 -0.040557853686922704 0.00098237670555443766 0 -0.040364767489785777 0.0011131833331001707 0 -0.040557853686922704 0.00098237670555443766 0 -0.040364767489785777 0.0011131833331001707 0 -0.040514840072528972 0.0012242135289545176 0 -0.040557853686922704 0.00098237670555443766 0 -0.040692570265213869 0.0011733225832631247 0 -0.040514840072528972 0.0012242135289545176 0 -0.040730162479696519 0.001004285478186857 0 -0.04091996055268074 0.0010249538970865685 0 -0.040747965347181905 0.00083604043452039007 0 -0.040557853686922704 0.00098237670555443766 0 -0.040730162479696519 0.001004285478186857 0 -0.040747965347181905 0.00083604043452039007 0 -0.040557853686922704 0.00098237670555443766 0 -0.040730162479696519 0.001004285478186857 0 -0.040692570265213869 0.0011733225832631247 0 -0.040730162479696519 0.001004285478186857 0 -0.040692570265213869 0.0011733225832631247 0 -0.04091996055268074 0.0010249538970865685 0 -0.040692570265213869 0.0011733225832631247 0 -0.040903164129448367 0.00126403124961875 0 -0.04091996055268074 0.0010249538970865685 0 -0.040692570265213869 0.0011733225832631247 0 -0.040700775128156799 0.0013722516449436882 0 -0.040903164129448367 0.00126403124961875 0 -0.040692570265213869 0.0011733225832631247 0 -0.040700775128156799 0.0013722516449436882 0 -0.040514840072528972 0.0012242135289545176 0 -0.040700775128156799 0.0013722516449436882 0 -0.040898391838272596 0.0015090263504774185 0 -0.040903164129448367 0.00126403124961875 0 -0.040293791672801907 0.0012603711272483203 0 -0.040364767489785777 0.0011131833331001707 0 -0.040514840072528972 0.0012242135289545176 0 -0.040700775128156799 0.0013722516449436882 0 -0.040514840072528972 0.0012242135289545176 0 -0.040479590076803747 0.0014384037404611123 0 -0.040293791672801907 0.0012603711272483203 0 -0.040514840072528972 0.0012242135289545176 0 -0.040479590076803747 0.0014384037404611123 0 -0.040479590076803747 0.0014384037404611123 0 -0.040530921680624554 0.0016670271978765272 0 -0.040177837936441543 0.0015559983141529652 0 -0.040479590076803747 0.0014384037404611123 0 -0.040721931310742449 0.0016032517022847735 0 -0.040530921680624554 0.0016670271978765272 0 -0.040721931310742449 0.0016032517022847735 0 -0.040812860215626821 0.0017871307792646056 0 -0.040898391838272596 0.0015090263504774185 0 -0.040700775128156799 0.0013722516449436882 0 -0.040721931310742449 0.0016032517022847735 0 -0.040898391838272596 0.0015090263504774185 0 -0.040700775128156799 0.0013722516449436882 0 -0.040479590076803747 0.0014384037404611123 0 -0.040721931310742449 0.0016032517022847735 0 -0.040721931310742449 0.0016032517022847735 0 -0.040812860215626821 0.0017871307792646056 0 -0.040530921680624554 0.0016670271978765272 0 -0.042664663785819283 0.0013026950659191633 0 -0.042859628514862219 0.00089089322357752121 0 -0.040530921680624554 0.0016670271978765272 0 -0.040177837936441543 0.0015559983141529652 0 -0.040458160449467075 0.0019477012566642166 0 -0.040812860215626821 0.0017871307792646056 0 -0.040530921680624554 0.0016670271978765272 0 -0.040458160449467075 0.0019477012566642166 0 -0.040672579272469422 0.00013416464856829088 0 -0.040586312894065987 0.00022838450579528195 0 -0.040702457432644591 0.00027505004764762081 0 -0.041713293989429891 4.6120355742374251e-05 0 -0.041980952929668268 0.0010080383505226955 0 -0.042258021468525524 0.0008795057827309734 0 -0.0404001683539367 0.00049114955102817163 0 -0.042859628514862219 0.00089089322357752121 0 -0.0404001683539367 0.00049114955102817163 0 -0.043178517154382014 0.00036077897592478914 0 -0.040293791672801907 0.0012603711272483203 0 -0.040479590076803747 0.0014384037404611123 0 -0.040177837936441543 0.0015559983141529652 0 -0.04048656889900272 0.00018022780349730478 0 -0.040421823237659561 3.4775546113832682e-05 0 -0.040672579272469422 0.00013416464856829088 0 -0.04048656889900272 0.00018022780349730478 0 -0.040672579272469422 0.00013416464856829088 0 -0.040586312894065987 0.00022838450579528195 0 -0.040491668627235612 0.0002340419900276536 0 -0.040586312894065987 0.00022838450579528195 0 -0.040598289789476924 0.00029575532527269466 0 -0.044997795760144885 9.996737046527851e-08 0 -0.045000983879898475 -2.141716528063674e-05 0 -0.045000421889034067 -1.1060144558505387e-07 0 -0.040586312894065987 0.00022838450579528195 0 -0.040702457432644591 0.00027505004764762081 0 -0.040598289789476924 0.00029575532527269466 0 -0.043178517154382014 0.00036077897592478914 0 -0.042702389228789772 0.00016660635693439325 0 -0.043178517154382014 0.00036077897592478914 0 -0.042859628514862219 0.00089089322357752121 0 -0.043178517154382014 0.00036077897592478914 0 -0.045269612766756735 8.936483863215502e-05 0 -0.044972632079092058 1.1328912654345556e-05 0 -0.04498401213326246 2.2355214379386519e-05 0 -0.044992991235251772 3.3860753465764055e-05 0 -0.044972632079092058 1.1328912654345556e-05 0 -0.04498401213326246 2.2355214379386519e-05 0 -0.04496056259005328 8.5441805545564014e-06 0 -0.044918939750875082 1.2376164165131326e-05 0 -0.04496056259005328 8.5441805545564014e-06 0 -0.04497119730765315 2.3827665651464607e-05 0 -0.04498401213326246 2.2355214379386519e-05 0 -0.04496056259005328 8.5441805545564014e-06 0 -0.04497119730765315 2.3827665651464607e-05 0 -0.04498401213326246 2.2355214379386519e-05 0 -0.04497119730765315 2.3827665651464607e-05 0 -0.045000983879898475 -2.141716528063674e-05 0 -0.045238346464531627 0.00011015450094008114 0 -0.044909287057547369 -8.6070034653877337e-05 0 -0.04498401213326246 2.2355214379386519e-05 0 -0.045000983879898475 -2.141716528063674e-05 0 -0.044976948627074569 -1.1833604191460877e-05 0 -0.04498401213326246 2.2355214379386519e-05 0 -0.044976948627074569 -1.1833604191460877e-05 0 -0.044992991235251772 3.3860753465764055e-05 0 -0.045000421889034067 -1.1060144558505387e-07 0 -0.044927237017012595 -2.6026206268997028e-05 0 -0.044944927878788003 -1.3050437514852376e-05 0 -0.045000421889034067 -1.1060144558505387e-07 0 -0.044927237017012595 -2.6026206268997028e-05 0 -0.044976948627074569 -1.1833604191460877e-05 0 -0.045000983879898475 -2.141716528063674e-05 0 -0.045000421889034067 -1.1060144558505387e-07 0 -0.044976948627074569 -1.1833604191460877e-05 0 -0.044976948627074569 -1.1833604191460877e-05 0 -0.044904648697689113 9.307012312030548e-06 0 -0.044992991235251772 3.3860753465764055e-05 0 -0.044927237017012595 -2.6026206268997028e-05 0 -0.044976948627074569 -1.1833604191460877e-05 0 -0.044904648697689113 9.307012312030548e-06 0 -0.044927237017012595 -2.6026206268997028e-05 0 -0.044904648697689113 9.307012312030548e-06 0 -0.044831116858213657 -6.9287518320839661e-05 0 -0.044904648697689113 9.307012312030548e-06 0 -0.044831116858213657 -6.9287518320839661e-05 0 -0.044752423399378544 4.9456137084449256e-05 0 -0.044927237017012595 -2.6026206268997028e-05 0 -0.044944927878788003 -1.3050437514852376e-05 0 -0.044831116858213657 -6.9287518320839661e-05 0 -0.044944927878788003 -1.3050437514852376e-05 0 -0.044831116858213657 -6.9287518320839661e-05 0 -0.044980276788739566 -6.4184768978093286e-05 0 -0.044896657978827137 -9.7661765129661478e-05 0 -0.044682087528851867 -6.844489247327864e-05 0 -0.044831116858213657 -6.9287518320839661e-05 0 -0.044527066864629872 5.6274727892185115e-05 0 -0.044506583044297131 -0.00019000641288114016 0 -0.044811073063222351 -6.9694863807713239e-05 0 -0.044682087528851867 -6.844489247327864e-05 0 -0.044831116858213657 -6.9287518320839661e-05 0 -0.044752423399378544 4.9456137084449256e-05 0 -0.044527066864629872 5.6274727892185115e-05 0 -0.044752423399378544 4.9456137084449256e-05 0 -0.044584359865471039 0.00023956088840920416 0 -0.044527066864629872 5.6274727892185115e-05 0 -0.044904648697689113 9.307012312030548e-06 0 -0.044752423399378544 4.9456137084449256e-05 0 -0.044823814751846845 0.00011849576799868343 0 -0.044823814751846845 0.00011849576799868343 0 -0.044584359865471039 0.00023956088840920416 0 -0.04479296281472632 0.00026077792267304139 0 -0.044752423399378544 4.9456137084449256e-05 0 -0.044823814751846845 0.00011849576799868343 0 -0.044584359865471039 0.00023956088840920416 0 -0.045094422675957042 0.00035093872610055118 0 -0.044992991235251772 3.3860753465764055e-05 0 -0.044929734522151786 0.00015074477037144862 0 -0.044904648697689113 9.307012312030548e-06 0 -0.044992991235251772 3.3860753465764055e-05 0 -0.044929734522151786 0.00015074477037144862 0 -0.044904648697689113 9.307012312030548e-06 0 -0.044823814751846845 0.00011849576799868343 0 -0.044929734522151786 0.00015074477037144862 0 -0.044823814751846845 0.00011849576799868343 0 -0.044929734522151786 0.00015074477037144862 0 -0.04479296281472632 0.00026077792267304139 0 -0.044929734522151786 0.00015074477037144862 0 -0.044921149264727296 0.00030181811545833362 0 -0.04479296281472632 0.00026077792267304139 0 -0.044921149264727296 0.00030181811545833362 0 -0.045016977807737217 0.00046073386855626262 0 -0.044729900703372544 0.00041391124879208523 0 -0.044184942827394033 0.00085635432834786781 0 -0.042859628514862219 0.00089089322357752121 0 -0.045094422675957042 0.00035093872610055118 0 -0.044921149264727296 0.00030181811545833362 0 -0.044979983510662437 0.00040665049295503204 0 -0.045094422675957042 0.00035093872610055118 0 -0.044929734522151786 0.00015074477037144862 0 -0.044921149264727296 0.00030181811545833362 0 -0.044921149264727296 0.00030181811545833362 0 -0.04479296281472632 0.00026077792267304139 0 -0.044729900703372544 0.00041391124879208523 0 -0.044608117053495808 0.00072230864630594134 0 -0.045016977807737217 0.00046073386855626262 0 -0.044729900703372544 0.00041391124879208523 0 -0.044584359865471039 0.00023956088840920416 0 -0.044729900703372544 0.00041391124879208523 0 -0.044472921252725235 0.0004414325392004902 0 -0.044584359865471039 0.00023956088840920416 0 -0.04479296281472632 0.00026077792267304139 0 -0.044729900703372544 0.00041391124879208523 0 -0.044608117053495808 0.00072230864630594134 0 -0.044729900703372544 0.00041391124879208523 0 -0.044472921252725235 0.0004414325392004902 0 -0.044472921252725235 0.0004414325392004902 0 -0.04425992367545787 0.00031439562816747829 0 -0.044202627183684944 0.0005809414708308104 0 -0.044584359865471039 0.00023956088840920416 0 -0.044472921252725235 0.0004414325392004902 0 -0.04425992367545787 0.00031439562816747829 0 -0.043244121543232442 9.8132994813082055e-06 0 -0.04330997510318714 0.00076969908010319479 0 -0.044202627183684944 0.0005809414708308104 0 -0.04425992367545787 0.00031439562816747829 0 -0.043892938920725488 0.00032608083043059709 0 -0.044202627183684944 0.0005809414708308104 0 -0.043763841445350823 0.00033141790754250033 0 -0.044089961094257252 0.00049695474347396227 0 -0.04425992367545787 0.00031439562816747829 0 -0.044147927265383045 8.8772167670484765e-05 0 -0.043892938920725488 0.00032608083043059709 0 -0.04446102926591438 -0.00016569914755690655 0 -0.044561433931328651 -0.00013612852003469104 0 -0.04453024935456288 -0.00023481402056036338 0 -0.044358066512489823 -9.0907143582842192e-05 0 -0.043763841445350823 0.00033141790754250033 0 -0.044147927265383045 8.8772167670484765e-05 0 -0.044378498031541452 0.00018386272276456551 0 -0.044527066864629872 5.6274727892185115e-05 0 -0.044147927265383045 8.8772167670484765e-05 0 -0.044527066864629872 5.6274727892185115e-05 0 -0.044506583044297131 -0.00019000641288114016 0 -0.044584359865471039 0.00023956088840920416 0 -0.044378498031541452 0.00018386272276456551 0 -0.044527066864629872 5.6274727892185115e-05 0 -0.044584359865471039 0.00023956088840920416 0 -0.04425992367545787 0.00031439562816747829 0 -0.044378498031541452 0.00018386272276456551 0 -0.04425992367545787 0.00031439562816747829 0 -0.044147927265383045 8.8772167670484765e-05 0 -0.044378498031541452 0.00018386272276456551 0 -0.044944927878788003 -1.3050437514852376e-05 0 -0.044990484484529018 -1.5800648890621046e-05 0 -0.044999836238349238 2.6982306687073291e-08 0 -0.045000421889034067 -1.1060144558505387e-07 0 -0.044944927878788003 -1.3050437514852376e-05 0 -0.044999836238349238 2.6982306687073291e-08 0 -0.044944927878788003 -1.3050437514852376e-05 0 -0.044954298031982518 -2.3014253268573628e-05 0 -0.044990484484529018 -1.5800648890621046e-05 0 -0.044358066512489823 -9.0907143582842192e-05 0 -0.044682087528851867 -6.844489247327864e-05 0 -0.044682087528851867 -6.844489247327864e-05 0 -0.044751283539581285 -3.9961542401396982e-05 0 -0.04446102926591438 -0.00016569914755690655 0 -0.044516333465265186 -6.6647560289193188e-05 0 -0.044561433931328651 -0.00013612852003469104 0 -0.04446102926591438 -0.00016569914755690655 0 -0.044392203159612557 -9.7961934693142119e-05 0 -0.044516333465265186 -6.6647560289193188e-05 0 -0.045000048108211323 -1.0302255975520795e-08 0 -0.045000771292708887 -2.6295525745785708e-06 0 -0.044999836238349238 2.6982306687073291e-08 0 -0.044751283539581285 -3.9961542401396982e-05 0 -0.044828219786299174 -1.7810207537595444e-05 0 -0.044990484484529018 -1.5800648890621046e-05 0 -0.045000771292708887 -2.6295525745785708e-06 0 -0.044999836238349238 2.6982306687073291e-08 0 -0.044516333465265186 -6.6647560289193188e-05 0 -0.04465478698178911 -3.1754598507435413e-05 0 -0.044561433931328651 -0.00013612852003469104 0 -0.044796679937997186 -0.00010622718468490543 0 -0.04465478698178911 -3.1754598507435413e-05 0 -0.044654242120964083 -0.00017309683408063846 0 -0.04465478698178911 -3.1754598507435413e-05 0 -0.044561433931328651 -0.00013612852003469104 0 -0.044654242120964083 -0.00017309683408063846 0 -0.043285028336608911 0.00089207833546248476 0 -0.043226402183814155 0.00083921303658851011 0 -0.043311750304405643 0.00083276257265923787 0 -0.043995011627298297 0.00036021610115621563 0 -0.043763841445350823 0.00033141790754250033 0 -0.044561433931328651 -0.00013612852003469104 0 -0.044654242120964083 -0.00017309683408063846 0 -0.04453024935456288 -0.00023481402056036338 0 -0.043763841445350823 0.00033141790754250033 0 -0.042848088023493387 0.00078428798492786935 0 -0.043226402183814155 0.00083921303658851011 0 -0.043311750304405643 0.00083276257265923787 0 -0.043284865605999444 0.00079150853442159109 0 -0.042783296177189324 0.00097605596902702169 0 -0.042848088023493387 0.00078428798492786935 0 -0.043337943820086253 0.00076619055961290152 0 -0.043332877484985412 0.00079123069708766588 0 -0.043284865605999444 0.00079150853442159109 0 -0.043332877484985412 0.00079123069708766588 0 -0.043311750304405643 0.00083276257265923787 0 -0.043284865605999444 0.00079150853442159109 0 -0.042147028147913504 0.0012218248431936968 0 -0.042146910722507855 0.0013078533729517993 0 -0.042819766881995638 0.0013682252260948013 0 -0.042147028147913504 0.0012218248431936968 0 -0.042591372680967625 0.00069233237379842151 0 -0.042819766881995638 0.0013682252260948013 0 -0.043244121543232442 9.8132994813082055e-06 0 -0.042591372680967625 0.00069233237379842151 0 -0.04330997510318714 0.00076969908010319479 0 -0.042591372680967625 0.00069233237379842151 0 -0.042819766881995638 0.0013682252260948013 0 -0.04330997510318714 0.00076969908010319479 0 -0.04330997510318714 0.00076969908010319479 0 -0.044202627183684944 0.0005809414708308104 0 -0.043802848941751411 0.0011242636315457646 0 -0.044608117053495808 0.00072230864630594134 0 -0.044202627183684944 0.0005809414708308104 0 -0.043802848941751411 0.0011242636315457646 0 -0.042664663785819283 0.0013026950659191633 0 -0.042496503415676748 0.0013604668406016088 0 -0.044608117053495808 0.00072230864630594134 0 -0.044472921252725235 0.0004414325392004902 0 -0.044202627183684944 0.0005809414708308104 0 -0.040812860215626821 0.0017871307792646056 0 -0.040898391838272596 0.0015090263504774185 0 -0.041174958331745101 0.001629130018393702 0 -0.040898391838272596 0.0015090263504774185 0 -0.041174958331745101 0.001629130018393702 0 -0.041089306039900998 0.0013774025045722657 0 -0.042819766881995638 0.0013682252260948013 0 -0.04330997510318714 0.00076969908010319479 0 -0.043802848941751411 0.0011242636315457646 0 -0.041549281390331191 0.0014874786107259188 0 -0.041174958331745101 0.001629130018393702 0 -0.041307946142903722 0.0013175937643191899 0 -0.042204878646054426 0.0014122704484225046 0 -0.042496503415676748 0.0013604668406016088 0 -0.041174958331745101 0.001629130018393702 0 -0.041307946142903722 0.0013175937643191899 0 -0.041089306039900998 0.0013774025045722657 0 -0.041307946142903722 0.0013175937643191899 0 -0.041140390795367909 0.0011523455432948027 0 -0.041089306039900998 0.0013774025045722657 0 -0.041307946142903722 0.0013175937643191899 0 -0.041140390795367909 0.0011523455432948027 0 -0.041341868948495557 0.0010425047304089277 0 -0.040898391838272596 0.0015090263504774185 0 -0.041089306039900998 0.0013774025045722657 0 -0.040903164129448367 0.00126403124961875 0 -0.041140390795367909 0.0011523455432948027 0 -0.041089306039900998 0.0013774025045722657 0 -0.040903164129448367 0.00126403124961875 0 -0.04091996055268074 0.0010249538970865685 0 -0.041182934988982706 0.00086469423182539899 0 -0.040959549844566401 0.00081391438591996851 0 -0.041140390795367909 0.0011523455432948027 0 -0.04091996055268074 0.0010249538970865685 0 -0.041182934988982706 0.00086469423182539899 0 -0.041140390795367909 0.0011523455432948027 0 -0.040903164129448367 0.00126403124961875 0 -0.04091996055268074 0.0010249538970865685 0 -0.041341868948495557 0.0010425047304089277 0 -0.04148556163408651 0.0008444944769903179 0 -0.041182934988982706 0.00086469423182539899 0 -0.041140390795367909 0.0011523455432948027 0 -0.041341868948495557 0.0010425047304089277 0 -0.041182934988982706 0.00086469423182539899 0 -0.041341868948495557 0.0010425047304089277 0 -0.041537517513447891 0.0011253360852166081 0 -0.04148556163408651 0.0008444944769903179 0 -0.041712970051592517 0.00097319813206356884 0 -0.041537517513447891 0.0011253360852166081 0 -0.04148556163408651 0.0008444944769903179 0 -0.041712970051592517 0.00097319813206356884 0 -0.041775696676029671 0.0011661036410736596 0 -0.041537517513447891 0.0011253360852166081 0 -0.041712970051592517 0.00097319813206356884 0 -0.04171214079077562 0.00080826987465027996 0 -0.04148556163408651 0.0008444944769903179 0 -0.041826404152527988 0.00075814527353206961 0 -0.041946691061970236 0.00097860337506429883 0 -0.04171214079077562 0.00080826987465027996 0 -0.041946691061970236 0.00097860337506429883 0 -0.041712970051592517 0.00097319813206356884 0 -0.04171214079077562 0.00080826987465027996 0 -0.041946691061970236 0.00097860337506429883 0 -0.041712970051592517 0.00097319813206356884 0 -0.041775696676029671 0.0011661036410736596 0 -0.042174629476691761 0.0013226775007518317 0 -0.042204878646054426 0.0014122704484225046 0 -0.042146910722507855 0.0013078533729517993 0 -0.041549281390331191 0.0014874786107259188 0 -0.041775696676029671 0.0011661036410736596 0 -0.042146910722507855 0.0013078533729517993 0 -0.041946691061970236 0.00097860337506429883 0 -0.041775696676029671 0.0011661036410736596 0 -0.041549281390331191 0.0014874786107259188 0 -0.041775696676029671 0.0011661036410736596 0 -0.041537517513447891 0.0011253360852166081 0 -0.041549281390331191 0.0014874786107259188 0 -0.041307946142903722 0.0013175937643191899 0 -0.041537517513447891 0.0011253360852166081 0 -0.041307946142903722 0.0013175937643191899 0 -0.041341868948495557 0.0010425047304089277 0 -0.041537517513447891 0.0011253360852166081 0 -0.041531271270489584 0.00063264521778591575 0 -0.041708838352516125 0.00063934847411889169 0 -0.041497384073797813 0.00046383074923412075 0 -0.041531271270489584 0.00063264521778591575 0 -0.041321932617310347 0.00060387238118773923 0 -0.041497384073797813 0.00046383074923412075 0 -0.041791086991774924 0.00052978963574848957 0 -0.041708838352516125 0.00063934847411889169 0 -0.041663210184833564 0.00045575853581762503 0 -0.041708838352516125 0.00063934847411889169 0 -0.041497384073797813 0.00046383074923412075 0 -0.041663210184833564 0.00045575853581762503 0 -0.041531271270489584 0.00063264521778591575 0 -0.041708838352516125 0.00063934847411889169 0 -0.04171214079077562 0.00080826987465027996 0 -0.041826404152527988 0.00075814527353206961 0 -0.041708838352516125 0.00063934847411889169 0 -0.04171214079077562 0.00080826987465027996 0 -0.041531271270489584 0.00063264521778591575 0 -0.04148556163408651 0.0008444944769903179 0 -0.041321932617310347 0.00060387238118773923 0 -0.041531271270489584 0.00063264521778591575 0 -0.04171214079077562 0.00080826987465027996 0 -0.04148556163408651 0.0008444944769903179 0 -0.04148556163408651 0.0008444944769903179 0 -0.041182934988982706 0.00086469423182539899 0 -0.041321932617310347 0.00060387238118773923 0 -0.041182934988982706 0.00086469423182539899 0 -0.041053183731743187 0.0006331290695428956 0 -0.041321932617310347 0.00060387238118773923 0 -0.041182934988982706 0.00086469423182539899 0 -0.040959549844566401 0.00081391438591996851 0 -0.041053183731743187 0.0006331290695428956 0 -0.04091996055268074 0.0010249538970865685 0 -0.040959549844566401 0.00081391438591996851 0 -0.040747965347181905 0.00083604043452039007 0 -0.040959549844566401 0.00081391438591996851 0 -0.041053183731743187 0.0006331290695428956 0 -0.040813907650084608 0.00060875172153947654 0 -0.041053183731743187 0.0006331290695428956 0 -0.041207284241135761 0.00037547184950312236 0 -0.040911261534476294 0.00039460991730677489 0 -0.041053183731743187 0.0006331290695428956 0 -0.040911261534476294 0.00039460991730677489 0 -0.040813907650084608 0.00060875172153947654 0 -0.041321932617310347 0.00060387238118773923 0 -0.041207284241135761 0.00037547184950312236 0 -0.041497384073797813 0.00046383074923412075 0 -0.041053183731743187 0.0006331290695428956 0 -0.041321932617310347 0.00060387238118773923 0 -0.041207284241135761 0.00037547184950312236 0 -0.041207284241135761 0.00037547184950312236 0 -0.041373668172204711 0.00024363246212977157 0 -0.041497384073797813 0.00046383074923412075 0 -0.041207284241135761 0.00037547184950312236 0 -0.041186742339966435 0.00013779282863073605 0 -0.041373668172204711 0.00024363246212977157 0 -0.041207284241135761 0.00037547184950312236 0 -0.041029238571999423 0.00018254791346692217 0 -0.041186742339966435 0.00013779282863073605 0 -0.040911261534476294 0.00039460991730677489 0 -0.041029238571999423 0.00018254791346692217 0 -0.040748173157629318 4.9941257453250357e-05 0 -0.041207284241135761 0.00037547184950312236 0 -0.040911261534476294 0.00039460991730677489 0 -0.041029238571999423 0.00018254791346692217 0 -0.041029238571999423 0.00018254791346692217 0 -0.041016304288905361 -4.8269216765527045e-05 0 -0.040748173157629318 4.9941257453250357e-05 0 -0.041029238571999423 0.00018254791346692217 0 -0.041016304288905361 -4.8269216765527045e-05 0 -0.041186742339966435 0.00013779282863073605 0 -0.041016304288905361 -4.8269216765527045e-05 0 -0.041186742339966435 0.00013779282863073605 0 -0.041282490472849064 2.7652917347312904e-05 0 -0.041186742339966435 0.00013779282863073605 0 -0.041282490472849064 2.7652917347312904e-05 0 -0.041373668172204711 0.00024363246212977157 0 -0.041282490472849064 2.7652917347312904e-05 0 -0.041425292744214436 0.00015046735077049159 0 -0.041484970210022648 3.1269417541970415e-05 0 -0.041282490472849064 2.7652917347312904e-05 0 -0.041425292744214436 0.00015046735077049159 0 -0.041373668172204711 0.00024363246212977157 0 -0.041425292744214436 0.00015046735077049159 0 -0.041550994848500215 0.00028870735661484808 0 -0.041484970210022648 3.1269417541970415e-05 0 -0.041425292744214436 0.00015046735077049159 0 -0.041550994848500215 0.00028870735661484808 0 -0.041373668172204711 0.00024363246212977157 0 -0.041550994848500215 0.00028870735661484808 0 -0.041373668172204711 0.00024363246212977157 0 -0.041497384073797813 0.00046383074923412075 0 -0.041550994848500215 0.00028870735661484808 0 -0.041497384073797813 0.00046383074923412075 0 -0.041663210184833564 0.00045575853581762503 0 -0.041745199440019497 0.00047022256636585147 0 -0.041663210184833564 0.00045575853581762503 0 -0.041644152905256415 0.0003707008400646395 0 -0.041550994848500215 0.00028870735661484808 0 -0.041663210184833564 0.00045575853581762503 0 -0.041644152905256415 0.0003707008400646395 0 -0.041550994848500215 0.00028870735661484808 0 -0.041644152905256415 0.0003707008400646395 0 -0.041484970210022648 3.1269417541970415e-05 0 -0.041373321636180571 0.00026896496520557498 0 -0.041871906308776387 0.00030207389717044138 0 -0.041789022242748428 0.00043379561880284257 0 -0.041644152905256415 0.0003707008400646395 0 -0.041404810753229916 0.00015696714057507823 0 -0.041644152905256415 0.0003707008400646395 0 -0.041404810753229916 0.00015696714057507823 0 -0.041102505140283442 0.00033451192907792284 0 -0.038959745582386782 0.0010472718098809865 0 -0.036673138225341614 0.00086749686069107694 0 -0.036084465095028086 0.0019002561452865451 0 -0.035615909137888882 0.0015368898686934803 0 -0.03510525299689983 0.0018351427271709163 0 -0.041404810753229916 0.00015696714057507823 0 -0.041102505140283442 0.00033451192907792284 0 -0.040415016168163634 3.8328196015835056e-05 0 -0.036084465095028086 0.0019002561452865451 0 -0.035615909137888882 0.0015368898686934803 0 -0.036047894992484314 0.0014884358625960672 0 -0.035615909137888882 0.0015368898686934803 0 -0.035754556920275342 0.0011381590773521248 0 -0.036047894992484314 0.0014884358625960672 0 -0.035615909137888882 0.0015368898686934803 0 -0.035754556920275342 0.0011381590773521248 0 -0.035229563126333095 0.0012494954102618646 0 -0.036625056754760611 0.0015989691268114455 0 -0.036047894992484314 0.0014884358625960672 0 -0.036305300072298458 0.0011933975061908144 0 -0.036625056754760611 0.0015989691268114455 0 -0.036084465095028086 0.0019002561452865451 0 -0.036047894992484314 0.0014884358625960672 0 -0.035754556920275342 0.0011381590773521248 0 -0.036047894992484314 0.0014884358625960672 0 -0.036305300072298458 0.0011933975061908144 0 -0.035754556920275342 0.0011381590773521248 0 -0.036305300072298458 0.0011933975061908144 0 -0.036229350910019172 0.00049716786338235646 0 -0.037007165773160426 0.0011471415865471932 0 -0.036305300072298458 0.0011933975061908144 0 -0.036229350910019172 0.00049716786338235646 0 -0.035754556920275342 0.0011381590773521248 0 -0.036229350910019172 0.00049716786338235646 0 -0.035339278603092918 0.00068342223375761726 0 -0.031640569964881196 0.00046936093608920511 0 -0.029158909907595631 8.885875878010229e-05 0 -0.035754556920275342 0.0011381590773521248 0 -0.035339278603092918 0.00068342223375761726 0 -0.035229563126333095 0.0012494954102618646 0 -0.025880714518135107 0.00018794788307792106 0 -0.026379216210418197 0.00042643269914450095 0 -0.025824993242176842 0.00054045683641565487 0 -0.025880714518135107 0.00018794788307792106 0 -0.026379216210418197 0.00042643269914450095 0 -0.026220626040068563 8.0714120151198629e-05 0 -0.024416235463450103 0.00015899550650150902 0 -0.029158909907595631 8.885875878010229e-05 0 -0.026379216210418197 0.00042643269914450095 0 -0.026220626040068563 8.0714120151198629e-05 0 -0.026665059891042064 -0.00011760453758704807 0 -0.025023340454841156 -2.7900883174932706e-05 0 -0.023467228047244763 0.00060284517454371701 0 -0.024255348259404043 -0.00043152224361051305 0 -0.0256882270316116 -0.00022904734798722824 0 -0.023447586213821897 0.00059425735980590593 0 -0.024255348259404043 -0.00043152224361051305 0 -0.023430104830154629 -0.00013369958624900313 0 -0.023447586213821897 0.00059425735980590593 0 -0.022890365643764989 0.00029246296771637124 0 -0.023430104830154629 -0.00013369958624900313 0 -0.023447586213821897 0.00059425735980590593 0 -0.022890365643764989 0.00029246296771637124 0 -0.023430104830154629 -0.00013369958624900313 0 -0.023022721504868868 -0.00083984781270847605 0 -0.024255348259404043 -0.00043152224361051305 0 -0.023430104830154629 -0.00013369958624900313 0 -0.023022721504868868 -0.00083984781270847605 0 -0.029158909907595631 8.885875878010229e-05 0 -0.027867310743665982 -0.00078459157675869078 0 -0.03220351138285911 5.0304859820918689e-06 0 -0.032069957230141569 0.00015348532561661714 0 -0.032197416466037923 0.00013367615612471152 0 -0.029158909907595631 8.885875878010229e-05 0 -0.03362874181032726 0.00068579353783198768 0 -0.03220351138285911 5.0304859820918689e-06 0 -0.031961310934240025 5.0806022135106893e-05 0 -0.032069957230141569 0.00015348532561661714 0 -0.024255348259404043 -0.00043152224361051305 0 -0.023022721504868868 -0.00083984781270847605 0 -0.025437026760727226 -0.001499154730720115 0 -0.024255348259404043 -0.00043152224361051305 0 -0.025437026760727226 -0.001499154730720115 0 -0.0256882270316116 -0.00022904734798722824 0 -0.032069957230141569 0.00015348532561661714 0 -0.032170231091499135 0.00027917859468472008 0 -0.031929331618573427 0.00018457112889660904 0 -0.031961310934240025 5.0806022135106893e-05 0 -0.032069957230141569 0.00015348532561661714 0 -0.031929331618573427 0.00018457112889660904 0 -0.037569553432834614 0.00012325779362391703 0 -0.033760493469544253 -0.00023601428198871262 0 -0.035615909137888882 0.0015368898686934803 0 -0.035229563126333095 0.0012494954102618646 0 -0.03510525299689983 0.0018351427271709163 0 -0.032197416466037923 0.00013367615612471152 0 -0.032159424277131109 0.00020994702429748187 0 -0.032200934341967011 0.00028021925392099947 0 -0.03362874181032726 0.00068579353783198768 0 -0.036673138225341614 0.00086749686069107694 0 -0.032069957230141569 0.00015348532561661714 0 -0.032197416466037923 0.00013367615612471152 0 -0.032159424277131109 0.00020994702429748187 0 -0.032069957230141569 0.00015348532561661714 0 -0.032159424277131109 0.00020994702429748187 0 -0.032170231091499135 0.00027917859468472008 0 -0.041102505140283442 0.00033451192907792284 0 -0.040415016168163634 3.8328196015835056e-05 0 -0.040294860877457012 2.9993728932209534e-05 0 -0.041871906308776387 0.00030207389717044138 0 -0.037569553432834614 0.00012325779362391703 0 -0.041282490472849064 2.7652917347312904e-05 0 -0.041484970210022648 3.1269417541970415e-05 0 -0.041157757170026364 -0.00023372933347061612 0 -0.041016304288905361 -4.8269216765527045e-05 0 -0.041282490472849064 2.7652917347312904e-05 0 -0.041157757170026364 -0.00023372933347061612 0 -0.032159424277131109 0.00020994702429748187 0 -0.032200934341967011 0.00028021925392099947 0 -0.032170231091499135 0.00027917859468472008 0 -0.036673138225341614 0.00086749686069107694 0 -0.037569553432834614 0.00012325779362391703 0 -0.037569553432834614 0.00012325779362391703 0 -0.038775213622826162 -0.00052149061880764141 0 -0.036612511691510051 -0.00043780853758222329 0 -0.036206432201112138 -0.0005139014076676905 0 -0.036258050476245453 -0.00059331742513607988 0 -0.041016304288905361 -4.8269216765527045e-05 0 -0.041157757170026364 -0.00023372933347061612 0 -0.040684322629101086 -0.00041030144638316233 0 -0.041016304288905361 -4.8269216765527045e-05 0 -0.040684322629101086 -0.00041030144638316233 0 -0.040748173157629318 4.9941257453250357e-05 0 -0.040684322629101086 -0.00041030144638316233 0 -0.0401443010450463 -0.00060194386422587529 0 -0.040305575027021943 -6.0995540010368657e-05 0 -0.038775213622826162 -0.00052149061880764141 0 -0.037832660520102479 -0.00055669220983475029 0 -0.032425029426519071 -0.00065620982882641542 0 -0.033760493469544253 -0.00023601428198871262 0 -0.036206432201112138 -0.0005139014076676905 0 -0.036028270808288826 -0.00065145896127342452 0 -0.035997105419031401 -0.000578323899512801 0 -0.036206432201112138 -0.0005139014076676905 0 -0.036028270808288826 -0.00065145896127342452 0 -0.036258050476245453 -0.00059331742513607988 0 -0.031961310934240025 5.0806022135106893e-05 0 -0.031722153371095803 9.1499726619668662e-05 0 -0.031929331618573427 0.00018457112889660904 0 -0.025623664856930725 -0.00062836203291769628 0 -0.025023340454841156 -2.7900883174932706e-05 0 -0.025437026760727226 -0.001499154730720115 0 -0.028143547913936265 -0.0013694379172048683 0 -0.0256882270316116 -0.00022904734798722824 0 -0.024656612582664755 -7.072036907101656e-05 0 -0.024026661416447125 0.00028804435728892349 0 -0.024356706816469554 0.00032847564242881756 0 -0.027867310743665982 -0.00078459157675869078 0 -0.032425029426519071 -0.00065620982882641542 0 -0.025437026760727226 -0.001499154730720115 0 -0.028324905336870588 -0.0021475598864597266 0 -0.028143547913936265 -0.0013694379172048683 0 -0.024656612582664755 -7.072036907101656e-05 0 -0.02458097157030021 0.00025401301313150834 0 -0.024850792441997491 0.00027021925654406684 0 -0.024656612582664755 -7.072036907101656e-05 0 -0.02458097157030021 0.00025401301313150834 0 -0.024356706816469554 0.00032847564242881756 0 -0.02458097157030021 0.00025401301313150834 0 -0.024513739539789529 0.00053206735325441736 0 -0.024356706816469554 0.00032847564242881756 0 -0.024513739539789529 0.00053206735325441736 0 -0.024850792441997491 0.00027021925654406684 0 -0.024844794835878547 0.00069266691617516491 0 -0.02458097157030021 0.00025401301313150834 0 -0.024513739539789529 0.00053206735325441736 0 -0.024850792441997491 0.00027021925654406684 0 -0.024513739539789529 0.00053206735325441736 0 -0.024356706816469554 0.00032847564242881756 0 -0.024113072658509538 0.000712509892268367 0 -0.024026661416447125 0.00028804435728892349 0 -0.024356706816469554 0.00032847564242881756 0 -0.024113072658509538 0.000712509892268367 0 -0.025207333002447877 0.00038062069922739536 0 -0.025480759089198567 6.4613491401221065e-05 0 -0.025797976416642887 0.00053604242488630965 0 -0.025207333002447877 0.00038062069922739536 0 -0.024850792441997491 0.00027021925654406684 0 -0.024844794835878547 0.00069266691617516491 0 -0.025207333002447877 0.00038062069922739536 0 -0.024850792441997491 0.00027021925654406684 0 -0.02511355953574412 2.5450611923780634e-05 0 -0.024656612582664755 -7.072036907101656e-05 0 -0.024850792441997491 0.00027021925654406684 0 -0.02511355953574412 2.5450611923780634e-05 0 -0.024656612582664755 -7.072036907101656e-05 0 -0.02511355953574412 2.5450611923780634e-05 0 -0.025371258198573582 -0.00042954057066166512 0 -0.025480759089198567 6.4613491401221065e-05 0 -0.025371258198573582 -0.00042954057066166512 0 -0.025914925606570809 4.1825774231271281e-06 0 -0.02511355953574412 2.5450611923780634e-05 0 -0.025480759089198567 6.4613491401221065e-05 0 -0.025371258198573582 -0.00042954057066166512 0 -0.031938181359844553 -0.00114766681800695 0 -0.032553573058229167 -0.00051177914631457793 0 -0.025207333002447877 0.00038062069922739536 0 -0.02511355953574412 2.5450611923780634e-05 0 -0.025480759089198567 6.4613491401221065e-05 0 -0.039154905098243903 -0.00099104822317218409 0 -0.039162678834706477 -0.0010048031999834058 0 -0.039179388911978863 -0.0010339015138153124 0 -0.039153005025118891 -0.00098710421193938047 0 -0.039154905098243903 -0.00099104822317218409 0 -0.039179388911978863 -0.0010339015138153124 0 -0.037832660520102479 -0.00055669220983475029 0 -0.038484139052037965 -0.00095396477554420672 0 -0.035973983453842923 -0.00060903731548545329 0 -0.035997105419031401 -0.000578323899512801 0 -0.035981656907170402 -0.00061882207123765032 0 -0.031938181359844553 -0.00114766681800695 0 -0.035270091999700777 -0.0013775099154060271 0 -0.035972061648353086 -0.00060748770628390775 0 -0.035973983453842923 -0.00060903731548545329 0 -0.035997105419031401 -0.000578323899512801 0 -0.039137187847718621 -0.0010190421249591305 0 -0.039162678834706477 -0.0010048031999834058 0 -0.039186152216015763 -0.00098941299005365175 0 -0.035270091999700777 -0.0013775099154060271 0 -0.038484139052037965 -0.00095396477554420672 0 -0.035270091999700777 -0.0013775099154060271 0 -0.038194009400885173 -0.0016428496049915142 0 -0.036028270808288826 -0.00065145896127342452 0 -0.035972061648353086 -0.00060748770628390775 0 -0.035997105419031401 -0.000578323899512801 0 -0.025623664856930725 -0.00062836203291769628 0 -0.031938181359844553 -0.00114766681800695 0 -0.028324905336870588 -0.0021475598864597266 0 -0.028143547913936265 -0.0013694379172048683 0 -0.030713179191182455 -0.002643646179899753 0 -0.032425029426519071 -0.00065620982882641542 0 -0.031938181359844553 -0.00114766681800695 0 -0.0401443010450463 -0.00060194386422587529 0 -0.039831606631276863 -0.00044203848298516603 0 -0.040305575027021943 -6.0995540010368657e-05 0 -0.0401443010450463 -0.00060194386422587529 0 -0.039831606631276863 -0.00044203848298516603 0 -0.03950145758377583 -0.00082140791648406184 0 -0.039831606631276863 -0.00044203848298516603 0 -0.039606354239501852 0.00012346984624676504 0 -0.039381093344087112 -0.00063976484736378572 0 -0.039831606631276863 -0.00044203848298516603 0 -0.039992325229684274 0.00010311397686250194 0 -0.039606354239501852 0.00012346984624676504 0 -0.039992325229684274 0.00010311397686250194 0 -0.039831110650520737 0.00066479735407277876 0 -0.039606354239501852 0.00012346984624676504 0 -0.039992325229684274 0.00010311397686250194 0 -0.040305575027021943 -6.0995540010368657e-05 0 -0.040202818305433985 0.00042304073007332456 0 -0.039831606631276863 -0.00044203848298516603 0 -0.039992325229684274 0.00010311397686250194 0 -0.040305575027021943 -6.0995540010368657e-05 0 -0.040684322629101086 -0.00041030144638316233 0 -0.040305575027021943 -6.0995540010368657e-05 0 -0.040748173157629318 4.9941257453250357e-05 0 -0.040911261534476294 0.00039460991730677489 0 -0.040748173157629318 4.9941257453250357e-05 0 -0.040608848569780608 0.0003449446935006501 0 -0.040305575027021943 -6.0995540010368657e-05 0 -0.040608848569780608 0.0003449446935006501 0 -0.040202818305433985 0.00042304073007332456 0 -0.040305575027021943 -6.0995540010368657e-05 0 -0.040748173157629318 4.9941257453250357e-05 0 -0.040608848569780608 0.0003449446935006501 0 -0.040580270856374674 0.00061471762120180091 0 -0.040375961449014314 0.00079124239949302107 0 -0.040202818305433985 0.00042304073007332456 0 -0.040608848569780608 0.0003449446935006501 0 -0.040580270856374674 0.00061471762120180091 0 -0.040202818305433985 0.00042304073007332456 0 -0.040911261534476294 0.00039460991730677489 0 -0.040608848569780608 0.0003449446935006501 0 -0.040813907650084608 0.00060875172153947654 0 -0.040608848569780608 0.0003449446935006501 0 -0.040580270856374674 0.00061471762120180091 0 -0.040813907650084608 0.00060875172153947654 0 -0.040959549844566401 0.00081391438591996851 0 -0.040813907650084608 0.00060875172153947654 0 -0.040747965347181905 0.00083604043452039007 0 -0.040580270856374674 0.00061471762120180091 0 -0.040813907650084608 0.00060875172153947654 0 -0.040747965347181905 0.00083604043452039007 0 -0.040557853686922704 0.00098237670555443766 0 -0.040747965347181905 0.00083604043452039007 0 -0.040375961449014314 0.00079124239949302107 0 -0.040580270856374674 0.00061471762120180091 0 -0.040747965347181905 0.00083604043452039007 0 -0.040375961449014314 0.00079124239949302107 0 -0.040117243842813233 0.00068772408104642165 0 -0.040147946795316622 0.00088770058589486697 0 -0.039831110650520737 0.00066479735407277876 0 -0.040375961449014314 0.00079124239949302107 0 -0.040117243842813233 0.00068772408104642165 0 -0.040147946795316622 0.00088770058589486697 0 -0.040341244194434536 0.00095882233976024621 0 -0.040375961449014314 0.00079124239949302107 0 -0.040147946795316622 0.00088770058589486697 0 -0.03982514536696187 0.00042813413330382668 0 -0.039714698792675383 -2.5438957071124429e-05 0 -0.040023086328145635 0.0011196116285355816 0 -0.040147946795316622 0.00088770058589486697 0 -0.039831110650520737 0.00066479735407277876 0 -0.039714698792675383 -2.5438957071124429e-05 0 -0.039526570242186122 -0.00028790111975996325 0 -0.040375961449014314 0.00079124239949302107 0 -0.040117243842813233 0.00068772408104642165 0 -0.040202818305433985 0.00042304073007332456 0 -0.040117243842813233 0.00068772408104642165 0 -0.039831110650520737 0.00066479735407277876 0 -0.040202818305433985 0.00042304073007332456 0 -0.039992325229684274 0.00010311397686250194 0 -0.039831110650520737 0.00066479735407277876 0 -0.040202818305433985 0.00042304073007332456 0 -0.039866920791640184 -0.00054937493580475816 0 -0.039626468364393742 -0.00074704392621058682 0 -0.039512815008306681 -0.00072648257007844569 0 -0.039475849356341804 -0.00066398159512703837 0 -0.039589949620484795 -0.00075930921571102121 0 -0.040244289394979857 -0.00051530257689909385 0 -0.039838865312203972 -0.00058687296862357447 0 -0.039589949620484795 -0.00075930921571102121 0 -0.039593463587518224 -0.00070086854732858664 0 -0.039512815008306681 -0.00072648257007844569 0 -0.039440573065037149 -0.00069527188469057093 0 -0.039593463587518224 -0.00070086854732858664 0 -0.039512815008306681 -0.00072648257007844569 0 -0.039475849356341804 -0.00066398159512703837 0 -0.039609809165583265 -0.00035729741401656264 0 -0.039593463587518224 -0.00070086854732858664 0 -0.039475849356341804 -0.00066398159512703837 0 -0.040210817396918126 -0.00020223821380164998 0 -0.040244289394979857 -0.00051530257689909385 0 -0.039993344834921056 -0.00041151292377783878 0 -0.040244289394979857 -0.00051530257689909385 0 -0.039838865312203972 -0.00058687296862357447 0 -0.039993344834921056 -0.00041151292377783878 0 -0.039838865312203972 -0.00058687296862357447 0 -0.039771872734998583 -0.0004877385169636779 0 -0.039622869145379221 -0.00069022264117539456 0 -0.039975118444243778 -0.00028746867587538526 0 -0.039993344834921056 -0.00041151292377783878 0 -0.039771872734998583 -0.0004877385169636779 0 -0.039838865312203972 -0.00058687296862357447 0 -0.039993344834921056 -0.00041151292377783878 0 -0.039771872734998583 -0.0004877385169636779 0 -0.039771872734998583 -0.0004877385169636779 0 -0.039430485209163327 -0.00062597736055030619 0 -0.039622869145379221 -0.00069022264117539456 0 -0.03970801247966383 -0.00031452428086940672 0 -0.039771872734998583 -0.0004877385169636779 0 -0.039430485209163327 -0.00062597736055030619 0 -0.039430485209163327 -0.00062597736055030619 0 -0.039622869145379221 -0.00069022264117539456 0 -0.039426697459606551 -0.00073457599131802876 0 -0.039430485209163327 -0.00062597736055030619 0 -0.039426697459606551 -0.00073457599131802876 0 -0.03924177153041828 -0.00071965176266553671 0 -0.039838865312203972 -0.00058687296862357447 0 -0.039622869145379221 -0.00069022264117539456 0 -0.039589949620484795 -0.00075930921571102121 0 -0.039558512281169876 -0.00078329712828370383 0 -0.039428809047314883 -0.00066993998151060829 0 -0.039589949620484795 -0.00075930921571102121 0 -0.039622869145379221 -0.00069022264117539456 0 -0.039558512281169876 -0.00078329712828370383 0 -0.039589949620484795 -0.00075930921571102121 0 -0.039622869145379221 -0.00069022264117539456 0 -0.039558512281169876 -0.00078329712828370383 0 -0.039426697459606551 -0.00073457599131802876 0 -0.039426697459606551 -0.00073457599131802876 0 -0.039428279398482896 -0.00079614262982098389 0 -0.039283155284263842 -0.00077533551279146482 0 -0.039558512281169876 -0.00078329712828370383 0 -0.039426697459606551 -0.00073457599131802876 0 -0.039428279398482896 -0.00079614262982098389 0 -0.039558512281169876 -0.00078329712828370383 0 -0.039428279398482896 -0.00079614262982098389 0 -0.039525416230080435 -0.00082928693000704483 0 -0.039428279398482896 -0.00079614262982098389 0 -0.039307698704711451 -0.00085692120096774024 0 -0.039283155284263842 -0.00077533551279146482 0 -0.039415528247926976 -0.00086242343479027656 0 -0.039356125799056667 -0.00095338308450177247 0 -0.039307698704711451 -0.00085692120096774024 0 -0.039356125799056667 -0.00095338308450177247 0 -0.039274247076524681 -0.00094419088708142744 0 -0.039307698704711451 -0.00085692120096774024 0 -0.039428279398482896 -0.00079614262982098389 0 -0.039415528247926976 -0.00086242343479027656 0 -0.039307698704711451 -0.00085692120096774024 0 -0.039415528247926976 -0.00086242343479027656 0 -0.03945105377471373 -0.00091696703089937082 0 -0.039356125799056667 -0.00095338308450177247 0 -0.039428279398482896 -0.00079614262982098389 0 -0.039415528247926976 -0.00086242343479027656 0 -0.039525416230080435 -0.00082928693000704483 0 -0.039415528247926976 -0.00086242343479027656 0 -0.03945105377471373 -0.00091696703089937082 0 -0.039525416230080435 -0.00082928693000704483 0 -0.03945105377471373 -0.00091696703089937082 0 -0.039525416230080435 -0.00082928693000704483 0 -0.039532583906614273 -0.00087869715182287774 0 -0.03945105377471373 -0.00091696703089937082 0 -0.039400450988278851 -0.0010451645382488731 0 -0.039532583906614273 -0.00087869715182287774 0 -0.03945105377471373 -0.00091696703089937082 0 -0.039400450988278851 -0.0010451645382488731 0 -0.039356125799056667 -0.00095338308450177247 0 -0.039400450988278851 -0.0010451645382488731 0 -0.039331716335757175 -0.0010663232289125678 0 -0.039356125799056667 -0.00095338308450177247 0 -0.039331716335757175 -0.0010663232289125678 0 -0.039356125799056667 -0.00095338308450177247 0 -0.039275604067746987 -0.0010250962391997471 0 -0.039369863580374372 -0.00075182624301232492 0 -0.039319865318037744 -0.00069862067805738547 0 -0.039558512281169876 -0.00078329712828370383 0 -0.039525416230080435 -0.00082928693000704483 0 -0.039428809047314883 -0.00066993998151060829 0 -0.038900234342931411 -0.00058305942199632236 0 -0.039270393830819275 -0.00068188926062221096 0 -0.039428809047314883 -0.00066993998151060829 0 -0.039525416230080435 -0.00082928693000704483 0 -0.039532583906614273 -0.00087869715182287774 0 -0.039428809047314883 -0.00066993998151060829 0 -0.039270393830819275 -0.00068188926062221096 0 -0.039428809047314883 -0.00066993998151060829 0 -0.039381867907290112 -0.00065672382774050928 0 -0.039428809047314883 -0.00066993998151060829 0 -0.039589949620484795 -0.00075930921571102121 0 -0.039440573065037149 -0.00069527188469057093 0 -0.039512815008306681 -0.00072648257007844569 0 -0.039589949620484795 -0.00075930921571102121 0 -0.039440573065037149 -0.00069527188469057093 0 -0.039428809047314883 -0.00066993998151060829 0 -0.039440573065037149 -0.00069527188469057093 0 -0.039381867907290112 -0.00065672382774050928 0 -0.039526570242186122 -0.00028790111975996325 0 -0.039392579184595829 -0.00062297853401310495 0 -0.039440573065037149 -0.00069527188469057093 0 -0.039381867907290112 -0.00065672382774050928 0 -0.039381093344087112 -0.00063976484736378572 0 -0.039831606631276863 -0.00044203848298516603 0 -0.039381093344087112 -0.00063976484736378572 0 -0.03950145758377583 -0.00082140791648406184 0 -0.039381867907290112 -0.00065672382774050928 0 -0.039326732880921096 -0.00068202175783017046 0 -0.039381093344087112 -0.00063976484736378572 0 -0.039381093344087112 -0.00063976484736378572 0 -0.039286151187967265 -0.00074900033078754156 0 -0.039391914665976989 -0.00079281764133062318 0 -0.039326732880921096 -0.00068202175783017046 0 -0.039381093344087112 -0.00063976484736378572 0 -0.039286151187967265 -0.00074900033078754156 0 -0.039286151187967265 -0.00074900033078754156 0 -0.039391914665976989 -0.00079281764133062318 0 -0.039202890375221004 -0.00091526222201361693 0 -0.039381093344087112 -0.00063976484736378572 0 -0.039391914665976989 -0.00079281764133062318 0 -0.03950145758377583 -0.00082140791648406184 0 -0.039270393830819275 -0.00068188926062221096 0 -0.039255833655173426 -0.00071303743437416958 0 -0.039145994517856511 -0.00076022132584174654 0 -0.039270393830819275 -0.00068188926062221096 0 -0.039145994517856511 -0.00076022132584174654 0 -0.039078200312932528 -0.00070134607515026388 0 -0.039381867907290112 -0.00065672382774050928 0 -0.039326732880921096 -0.00068202175783017046 0 -0.039255833655173426 -0.00071303743437416958 0 -0.039270393830819275 -0.00068188926062221096 0 -0.039381867907290112 -0.00065672382774050928 0 -0.039255833655173426 -0.00071303743437416958 0 -0.039326732880921096 -0.00068202175783017046 0 -0.039286151187967265 -0.00074900033078754156 0 -0.039255833655173426 -0.00071303743437416958 0 -0.039286151187967265 -0.00074900033078754156 0 -0.039255833655173426 -0.00071303743437416958 0 -0.039174016226421346 -0.00082626795376518651 0 -0.039286151187967265 -0.00074900033078754156 0 -0.039174016226421346 -0.00082626795376518651 0 -0.039202890375221004 -0.00091526222201361693 0 -0.039174016226421346 -0.00082626795376518651 0 -0.039145994517856511 -0.00076022132584174654 0 -0.039065650345568942 -0.0008747291366039445 0 -0.039145994517856511 -0.00076022132584174654 0 -0.039065650345568942 -0.0008747291366039445 0 -0.039014460873790742 -0.00082179561145195022 0 -0.039255833655173426 -0.00071303743437416958 0 -0.039174016226421346 -0.00082626795376518651 0 -0.039145994517856511 -0.00076022132584174654 0 -0.039017792251324762 -0.00096430935067938776 0 -0.039065650345568942 -0.0008747291366039445 0 -0.03893249563451464 -0.00092659697704134151 0 -0.039174016226421346 -0.00082626795376518651 0 -0.039065650345568942 -0.0008747291366039445 0 -0.039109809247353744 -0.00093041894519284838 0 -0.039017792251324762 -0.00096430935067938776 0 -0.039065650345568942 -0.0008747291366039445 0 -0.039109809247353744 -0.00093041894519284838 0 -0.039109809247353744 -0.00093041894519284838 0 -0.039202890375221004 -0.00091526222201361693 0 -0.039081420785306402 -0.0010377716405683452 0 -0.039174016226421346 -0.00082626795376518651 0 -0.039109809247353744 -0.00093041894519284838 0 -0.039202890375221004 -0.00091526222201361693 0 -0.039017792251324762 -0.00096430935067938776 0 -0.039109809247353744 -0.00093041894519284838 0 -0.039081420785306402 -0.0010377716405683452 0 -0.039017792251324762 -0.00096430935067938776 0 -0.039081420785306402 -0.0010377716405683452 0 -0.038888295823798387 -0.0010474278333839778 0 -0.039202890375221004 -0.00091526222201361693 0 -0.039081420785306402 -0.0010377716405683452 0 -0.039179388911978863 -0.0010339015138153124 0 -0.039153005025118891 -0.00098710421193938047 0 -0.039179388911978863 -0.0010339015138153124 0 -0.039168289371310741 -0.0011457938851096104 0 -0.039162678834706477 -0.0010048031999834058 0 -0.039186152216015763 -0.00098941299005365175 0 -0.039179388911978863 -0.0010339015138153124 0 -0.038979046026028079 -0.0010611000742054657 0 -0.038484139052037965 -0.00095396477554420672 0 -0.039391914665976989 -0.00079281764133062318 0 -0.039202890375221004 -0.00091526222201361693 0 -0.039514309120543822 -0.00084531070695392947 0 -0.039380545447948494 -0.00090616274300848033 0 -0.038484139052037965 -0.00095396477554420672 0 -0.039202890375221004 -0.00091526222201361693 0 -0.039186152216015763 -0.00098941299005365175 0 -0.039179388911978863 -0.0010339015138153124 0 -0.039081420785306402 -0.0010377716405683452 0 -0.039179388911978863 -0.0010339015138153124 0 -0.039168289371310741 -0.0011457938851096104 0 -0.039081420785306402 -0.0010377716405683452 0 -0.039168289371310741 -0.0011457938851096104 0 -0.038920581698702508 -0.0011859659281943939 0 -0.039168289371310741 -0.0011457938851096104 0 -0.038920581698702508 -0.0011859659281943939 0 -0.038855079916171861 -0.0014794979773833689 0 -0.039081420785306402 -0.0010377716405683452 0 -0.038920581698702508 -0.0011859659281943939 0 -0.038888295823798387 -0.0010474278333839778 0 -0.025797976416642887 0.00053604242488630965 0 -0.026441568415124808 0.00039619051209941169 0 -0.026551329250820405 0.00079764803656087507 0 -0.025914925606570809 4.1825774231271281e-06 0 -0.025797976416642887 0.00053604242488630965 0 -0.026441568415124808 0.00039619051209941169 0 -0.032553573058229167 -0.00051177914631457793 0 -0.032918489903064833 -0.00043188936393402855 0 -0.025480759089198567 6.4613491401221065e-05 0 -0.025914925606570809 4.1825774231271281e-06 0 -0.025797976416642887 0.00053604242488630965 0 -0.031010607635107847 -0.00088191791154887736 0 -0.030961866921964055 -0.00085585861201248814 0 -0.030956964712483853 -0.00085220292664807884 0 -0.031010607635107847 -0.00088191791154887736 0 -0.03100360728832887 -0.00088091981695844 0 -0.030961866921964055 -0.00085585861201248814 0 -0.03100360728832887 -0.00088091981695844 0 -0.030961866921964055 -0.00085585861201248814 0 -0.030944297837911087 -0.00084652979043167394 0 -0.038423583891616604 -0.0014098459752157724 0 -0.038855079916171861 -0.0014794979773833689 0 -0.038402555121309634 -0.0017734144981811227 0 -0.034993748789184376 -0.0013805684924636187 0 -0.03122398173829153 -0.00085279910039779956 0 -0.03033426188477031 -0.00069363493210022691 0 -0.027422416576560776 -0.0005996245315928252 0 -0.038423583891616604 -0.0014098459752157724 0 -0.038855079916171861 -0.0014794979773833689 0 -0.038700735226215151 -0.0012789367775750419 0 -0.038920581698702508 -0.0011859659281943939 0 -0.038855079916171861 -0.0014794979773833689 0 -0.038700735226215151 -0.0012789367775750419 0 -0.038920581698702508 -0.0011859659281943939 0 -0.038745181799295515 -0.0011308106747430009 0 -0.038888295823798387 -0.0010474278333839778 0 -0.038920581698702508 -0.0011859659281943939 0 -0.038700735226215151 -0.0012789367775750419 0 -0.038745181799295515 -0.0011308106747430009 0 -0.038745181799295515 -0.0011308106747430009 0 -0.03858781415049841 -0.001168520451043343 0 -0.03866118861380851 -0.0010554067935392832 0 -0.038700735226215151 -0.0012789367775750419 0 -0.038745181799295515 -0.0011308106747430009 0 -0.03858781415049841 -0.001168520451043343 0 -0.03858781415049841 -0.001168520451043343 0 -0.038438194630683986 -0.001092470389328161 0 -0.03856317911628545 -0.0010404876367549325 0 -0.038423583891616604 -0.0014098459752157724 0 -0.03858781415049841 -0.001168520451043343 0 -0.038438194630683986 -0.001092470389328161 0 -0.03033426188477031 -0.00069363493210022691 0 -0.03286092036060545 -0.00068837692682826635 0 -0.031010607635107847 -0.00088191791154887736 0 -0.03100360728832887 -0.00088091981695844 0 -0.031079399083685892 -0.0008912428044627115 0 -0.034993748789184376 -0.0013805684924636187 0 -0.03286092036060545 -0.00068837692682826635 0 -0.038423583891616604 -0.0014098459752157724 0 -0.038700735226215151 -0.0012789367775750419 0 -0.03858781415049841 -0.001168520451043343 0 -0.03286092036060545 -0.00068837692682826635 0 -0.032900424428170899 -0.00022699634934939911 0 -0.038438194630683986 -0.001092470389328161 0 -0.038424876843426388 -0.0010041131178330134 0 -0.038496813199431684 -0.0009950741265318233 0 -0.038424876843426388 -0.0010041131178330134 0 -0.038496813199431684 -0.0009950741265318233 0 -0.038454573389613951 -0.000963372296325099 0 -0.038438194630683986 -0.001092470389328161 0 -0.038496813199431684 -0.0009950741265318233 0 -0.03856317911628545 -0.0010404876367549325 0 -0.03858781415049841 -0.001168520451043343 0 -0.03856317911628545 -0.0010404876367549325 0 -0.03866118861380851 -0.0010554067935392832 0 -0.03856317911628545 -0.0010404876367549325 0 -0.03866118861380851 -0.0010554067935392832 0 -0.038649899775564808 -0.00098409511632782253 0 -0.03856317911628545 -0.0010404876367549325 0 -0.038649899775564808 -0.00098409511632782253 0 -0.038573880287606256 -0.00093538458785214483 0 -0.038496813199431684 -0.0009950741265318233 0 -0.03856317911628545 -0.0010404876367549325 0 -0.038573880287606256 -0.00093538458785214483 0 -0.038649899775564808 -0.00098409511632782253 0 -0.038573880287606256 -0.00093538458785214483 0 -0.038700472251606784 -0.00091675434696598089 0 -0.038573880287606256 -0.00093538458785214483 0 -0.038700472251606784 -0.00091675434696598089 0 -0.038657857011585028 -0.00085645981486263392 0 -0.038573880287606256 -0.00093538458785214483 0 -0.03854637469981783 -0.00084179022165774503 0 -0.038496329354734488 -0.00088125564803497025 0 -0.038573880287606256 -0.00093538458785214483 0 -0.038657857011585028 -0.00085645981486263392 0 -0.03854637469981783 -0.00084179022165774503 0 -0.03854637469981783 -0.00084179022165774503 0 -0.038496329354734488 -0.00088125564803497025 0 -0.038367776521191957 -0.00071971939964610057 0 -0.032900424428170899 -0.00022699634934939911 0 -0.036191586100216638 0.00031235848443317748 0 -0.038496329354734488 -0.00088125564803497025 0 -0.038462548012779672 -0.00092152732017675729 0 -0.038367776521191957 -0.00071971939964610057 0 -0.038424876843426388 -0.0010041131178330134 0 -0.038462548012779672 -0.00092152732017675729 0 -0.038367776521191957 -0.00071971939964610057 0 -0.038424876843426388 -0.0010041131178330134 0 -0.038454573389613951 -0.000963372296325099 0 -0.038462548012779672 -0.00092152732017675729 0 -0.038454573389613951 -0.000963372296325099 0 -0.038507208612594629 -0.00094484940961618222 0 -0.038462548012779672 -0.00092152732017675729 0 -0.038496813199431684 -0.0009950741265318233 0 -0.038454573389613951 -0.000963372296325099 0 -0.038507208612594629 -0.00094484940961618222 0 -0.038496813199431684 -0.0009950741265318233 0 -0.038573880287606256 -0.00093538458785214483 0 -0.038507208612594629 -0.00094484940961618222 0 -0.038573880287606256 -0.00093538458785214483 0 -0.038496329354734488 -0.00088125564803497025 0 -0.038507208612594629 -0.00094484940961618222 0 -0.038496329354734488 -0.00088125564803497025 0 -0.038507208612594629 -0.00094484940961618222 0 -0.038462548012779672 -0.00092152732017675729 0 -0.038888295823798387 -0.0010474278333839778 0 -0.038774126141097404 -0.00098672267181624368 0 -0.03893249563451464 -0.00092659697704134151 0 -0.039017792251324762 -0.00096430935067938776 0 -0.038888295823798387 -0.0010474278333839778 0 -0.03893249563451464 -0.00092659697704134151 0 -0.038745181799295515 -0.0011308106747430009 0 -0.03866118861380851 -0.0010554067935392832 0 -0.038774126141097404 -0.00098672267181624368 0 -0.038745181799295515 -0.0011308106747430009 0 -0.038888295823798387 -0.0010474278333839778 0 -0.038774126141097404 -0.00098672267181624368 0 -0.03866118861380851 -0.0010554067935392832 0 -0.038649899775564808 -0.00098409511632782253 0 -0.038774126141097404 -0.00098672267181624368 0 -0.038774126141097404 -0.00098672267181624368 0 -0.03893249563451464 -0.00092659697704134151 0 -0.038843862456799355 -0.0008509874203723553 0 -0.038700472251606784 -0.00091675434696598089 0 -0.038657857011585028 -0.00085645981486263392 0 -0.038843862456799355 -0.0008509874203723553 0 -0.038700472251606784 -0.00091675434696598089 0 -0.038774126141097404 -0.00098672267181624368 0 -0.038843862456799355 -0.0008509874203723553 0 -0.038649899775564808 -0.00098409511632782253 0 -0.038700472251606784 -0.00091675434696598089 0 -0.038774126141097404 -0.00098672267181624368 0 -0.03893249563451464 -0.00092659697704134151 0 -0.039014460873790742 -0.00082179561145195022 0 -0.038843862456799355 -0.0008509874203723553 0 -0.039065650345568942 -0.0008747291366039445 0 -0.03893249563451464 -0.00092659697704134151 0 -0.039014460873790742 -0.00082179561145195022 0 -0.038900234342931411 -0.00058305942199632236 0 -0.039078200312932528 -0.00070134607515026388 0 -0.03852585397501733 -0.00084498413974443663 0 -0.038900234342931411 -0.00058305942199632236 0 -0.039270393830819275 -0.00068188926062221096 0 -0.039078200312932528 -0.00070134607515026388 0 -0.039145994517856511 -0.00076022132584174654 0 -0.039014460873790742 -0.00082179561145195022 0 -0.039078200312932528 -0.00070134607515026388 0 -0.039014460873790742 -0.00082179561145195022 0 -0.038843862456799355 -0.0008509874203723553 0 -0.039078200312932528 -0.00070134607515026388 0 -0.038657857011585028 -0.00085645981486263392 0 -0.038843862456799355 -0.0008509874203723553 0 -0.038697130293915971 -0.00079279613554461418 0 -0.038843862456799355 -0.0008509874203723553 0 -0.039078200312932528 -0.00070134607515026388 0 -0.038697130293915971 -0.00079279613554461418 0 -0.038900234342931411 -0.00058305942199632236 0 -0.03852585397501733 -0.00084498413974443663 0 -0.03850910334548524 -0.00071372545098115879 0 -0.039400450988278851 -0.0010451645382488731 0 -0.039532583906614273 -0.00087869715182287774 0 -0.039350617755879974 -0.001243652921955736 0 -0.039369863580374372 -0.00075182624301232492 0 -0.037760234068985439 -0.000245063994434788 0 -0.039078200312932528 -0.00070134607515026388 0 -0.038367776521191957 -0.00071971939964610057 0 -0.038697130293915971 -0.00079279613554461418 0 -0.039944063234096161 -0.00090915289785174118 0 -0.036191586100216638 0.00031235848443317748 0 -0.03854637469981783 -0.00084179022165774503 0 -0.038367776521191957 -0.00071971939964610057 0 -0.038697130293915971 -0.00079279613554461418 0 -0.036191586100216638 0.00031235848443317748 0 -0.037760234068985439 -0.000245063994434788 0 -0.038657857011585028 -0.00085645981486263392 0 -0.03854637469981783 -0.00084179022165774503 0 -0.038697130293915971 -0.00079279613554461418 0 -0.039400450988278851 -0.0010451645382488731 0 -0.039331716335757175 -0.0010663232289125678 0 -0.039350617755879974 -0.001243652921955736 0 -0.039350617755879974 -0.001243652921955736 0 -0.038958562248403522 -0.0012784582787410076 0 -0.03859444245708301 -0.0017641391950905113 0 -0.039350617755879974 -0.001243652921955736 0 -0.039197488091616238 -0.0011730771593473376 0 -0.039266786339778016 -0.0011078975094138547 0 -0.036191586100216638 0.00031235848443317748 0 -0.031608668261998735 0.00018994353084371659 0 -0.039350617755879974 -0.001243652921955736 0 -0.039197488091616238 -0.0011730771593473376 0 -0.038958562248403522 -0.0012784582787410076 0 -0.039331716335757175 -0.0010663232289125678 0 -0.039350617755879974 -0.001243652921955736 0 -0.039266786339778016 -0.0011078975094138547 0 -0.037760234068985439 -0.000245063994434788 0 -0.03668025524153018 -0.00077937367574364461 0 -0.037127558197976883 0.00033222480678962203 0 -0.033675918528303608 4.8783566656244033e-05 0 -0.033583563536021654 -0.00067051956463591198 0 -0.037127558197976883 0.00033222480678962203 0 -0.03700068608522003 0.0013355360296487091 0 -0.033675918528303608 4.8783566656244033e-05 0 -0.039197488091616238 -0.0011730771593473376 0 -0.038958562248403522 -0.0012784582787410076 0 -0.039062199556279771 -0.0011066435215819354 0 -0.038958562248403522 -0.0012784582787410076 0 -0.038704079461338393 -0.001225088770393354 0 -0.03891674586647631 -0.0010805494506862608 0 -0.03820841519928847 -0.0012486005417282826 0 -0.038704079461338393 -0.001225088770393354 0 -0.03859444245708301 -0.0017641391950905113 0 -0.038958562248403522 -0.0012784582787410076 0 -0.038704079461338393 -0.001225088770393354 0 -0.03859444245708301 -0.0017641391950905113 0 -0.029743301916637516 0.00093657143044604369 0 -0.03074175525440603 0.00025102070567607283 0 -0.02898062744951015 -0.0009246566163337869 0 -0.033675918528303608 4.8783566656244033e-05 0 -0.033583563536021654 -0.00067051956463591198 0 -0.030275869974800196 -0.0012547891464887047 0 -0.031831272381951665 0.0015209845585840373 0 -0.029743301916637516 0.00093657143044604369 0 -0.03074175525440603 0.00025102070567607283 0 -0.031960953434310421 0.00037552324385087634 0 -0.031831272381951665 0.0015209845585840373 0 -0.03074175525440603 0.00025102070567607283 0 -0.031960953434310421 0.00037552324385087634 0 -0.03074175525440603 0.00025102070567607283 0 -0.031134752686144251 -0.00088008998871991174 0 -0.032900424428170899 -0.00022699634934939911 0 -0.03027876624143791 -0.00054390224833426556 0 -0.029698995175664999 -9.0327906558151631e-06 0 -0.029689178694128366 0.0001474632474425747 0 -0.02941888277684283 -0.00022756342820267819 0 -0.029637906773940407 -0.00048508032446465467 0 -0.029698995175664999 -9.0327906558151631e-06 0 -0.02941888277684283 -0.00022756342820267819 0 -0.03027876624143791 -0.00054390224833426556 0 -0.026928616882422044 -0.00046339337248229516 0 -0.031134752686144251 -0.00088008998871991174 0 -0.02898062744951015 -0.0009246566163337869 0 -0.030319876241620369 -0.0021246796757205793 0 -0.03074175525440603 0.00025102070567607283 0 -0.031134752686144251 -0.00088008998871991174 0 -0.02898062744951015 -0.0009246566163337869 0 -0.025882598011656339 -0.00036850692308869408 0 -0.026928616882422044 -0.00046339337248229516 0 -0.023436101933908 -2.2688072181055451e-05 0 -0.023184251032056426 6.7673626950696085e-05 0 -0.023372389655661852 -0.00030117370850677561 0 -0.023258626068299489 -3.6825878886280248e-05 0 -0.023436101933908 -2.2688072181055451e-05 0 -0.023184251032056426 6.7673626950696085e-05 0 -0.026928616882422044 -0.00046339337248229516 0 -0.027422416576560776 -0.0005996245315928252 0 -0.029637906773940407 -0.00048508032446465467 0 -0.02941888277684283 -0.00022756342820267819 0 -0.029167646448932417 -0.00059421450783072119 0 -0.029637906773940407 -0.00048508032446465467 0 -0.029167646448932417 -0.00059421450783072119 0 -0.029591758303047701 -0.00094750871146689897 0 -0.023786333070887566 3.8080137482522558e-07 0 -0.023184251032056426 6.7673626950696085e-05 0 -0.023368174972191839 -7.7950344713131314e-05 0 -0.023786333070887566 3.8080137482522558e-07 0 -0.023184251032056426 6.7673626950696085e-05 0 -0.022197605612297801 -4.0471346697227021e-07 0 -0.023258626068299489 -3.6825878886280248e-05 0 -0.023184251032056426 6.7673626950696085e-05 0 -0.023368174972191839 -7.7950344713131314e-05 0 -0.023258626068299489 -3.6825878886280248e-05 0 -0.023368174972191839 -7.7950344713131314e-05 0 -0.023393461642330585 -0.00035712853486368759 0 -0.025882598011656339 -0.00036850692308869408 0 -0.027474698042935515 -0.00068641370624022903 0 -0.023790330328379111 -5.790681841282467e-07 0 -0.027474698042935515 -0.00068641370624022903 0 -0.023786333070887566 3.8080137482522558e-07 0 -0.023368174972191839 -7.7950344713131314e-05 0 -0.023393461642330585 -0.00035712853486368759 0 -0.023796724310890503 -2.4220727509224609e-08 0 -0.025450539334579761 1.717894751624941e-08 0 -0.025876466840295143 -3.2830269374820324e-06 0 -0.025605117319169528 -0.0006346412584528684 0 -0.027474698042935515 -0.00068641370624022903 0 -0.025605117319169528 -0.0006346412584528684 0 -0.028068819870260969 -0.00096675386813178737 0 -0.025458745169147288 -3.7240725104436897e-08 0 -0.025976214236943337 -5.1070950303279845e-06 0 -0.027084824634993069 2.6870896141072566e-08 0 -0.029343896355184015 -0.0024785171073297397 0 -0.030094380654242425 -0.0022250410385880712 0 -0.027096603157400829 -4.5102779697476276e-06 0 -0.025795877201579619 -0.0010308014113669882 0 -0.027511450034019877 -0.0003611434093525593 0 -0.0278165626347672 -0.00048503669120837563 0 -0.028068819870260969 -0.00096675386813178737 0 -0.027474698042935515 -0.00068641370624022903 0 -0.028068819870260969 -0.00096675386813178737 0 -0.027088463078381426 -3.2633965116156799e-07 0 -0.029743301916637516 0.00093657143044604369 0 -0.02898062744951015 -0.0009246566163337869 0 -0.02767756521545512 0.00034775167611138041 0 -0.033583563536021654 -0.00067051956463591198 0 -0.029961947637124276 -0.0016827892116822265 0 -0.030275869974800196 -0.0012547891464887047 0 -0.03668025524153018 -0.00077937367574364461 0 -0.031119704704962652 -0.0010304589519411372 0 -0.031608668261998735 0.00018994353084371659 0 -0.027474698042935515 -0.00068641370624022903 0 -0.028304130163011261 -0.0016023024328476057 0 -0.028933975905015036 -0.0018566569891415154 0 -0.029442629159103763 -0.0011547841967595746 0 -0.027474698042935515 -0.00068641370624022903 0 -0.031119704704962652 -0.0010304589519411372 0 -0.028068819870260969 -0.00096675386813178737 0 -0.031119704704962652 -0.0010304589519411372 0 -0.035162753460132333 -0.0010235760507444698 0 -0.031119704704962652 -0.0010304589519411372 0 -0.031788445377664662 -0.00061488808175249828 0 -0.030094380654242425 -0.0022250410385880712 0 -0.030452135750808101 -0.00020855271096182189 0 -0.03820841519928847 -0.0012486005417282826 0 -0.03859444245708301 -0.0017641391950905113 0 -0.037336440082663479 -0.0022433130004378961 0 -0.030094380654242425 -0.0022250410385880712 0 -0.027096603157400829 -4.5102779697476276e-06 0 -0.030452135750808101 -0.00020855271096182189 0 -0.027096603157400829 -4.5102779697476276e-06 0 -0.031558026771919274 0.00011343839739743825 0 -0.030452135750808101 -0.00020855271096182189 0 -0.027096603157400829 -4.5102779697476276e-06 0 -0.031558026771919274 0.00011343839739743825 0 -0.033469024283131775 1.5045678458104552e-06 0 -0.031558026771919274 0.00011343839739743825 0 -0.031931263231512526 -3.7361514758320818e-05 0 -0.032966233885186935 0.00011382868732879128 0 -0.031558026771919274 0.00011343839739743825 0 -0.031931263231512526 -3.7361514758320818e-05 0 -0.030452135750808101 -0.00020855271096182189 0 -0.031788445377664662 -0.00061488808175249828 0 -0.031931263231512526 -3.7361514758320818e-05 0 -0.030452135750808101 -0.00020855271096182189 0 -0.03820841519928847 -0.0012486005417282826 0 -0.038704079461338393 -0.001225088770393354 0 -0.038946927768313884 -0.00078466671252917168 0 -0.035162753460132333 -0.0010235760507444698 0 -0.037033086685490983 -0.00061428547813243014 0 -0.03820841519928847 -0.0012486005417282826 0 -0.038946927768313884 -0.00078466671252917168 0 -0.038965607324090788 -0.00068378907965780257 0 -0.031788445377664662 -0.00061488808175249828 0 -0.031931263231512526 -3.7361514758320818e-05 0 -0.032953829378848248 -6.3547394191799407e-05 0 -0.038704079461338393 -0.001225088770393354 0 -0.038946927768313884 -0.00078466671252917168 0 -0.03891674586647631 -0.0010805494506862608 0 -0.03720435085241118 -0.00066828527636236064 0 -0.037033086685490983 -0.00061428547813243014 0 -0.039274247076524681 -0.00094419088708142744 0 -0.039275604067746987 -0.0010250962391997471 0 -0.03918845512797163 -0.00097163130317485602 0 -0.039356125799056667 -0.00095338308450177247 0 -0.039274247076524681 -0.00094419088708142744 0 -0.039275604067746987 -0.0010250962391997471 0 -0.039331716335757175 -0.0010663232289125678 0 -0.039275604067746987 -0.0010250962391997471 0 -0.039266786339778016 -0.0011078975094138547 0 -0.039275604067746987 -0.0010250962391997471 0 -0.039266786339778016 -0.0011078975094138547 0 -0.039189400810163776 -0.0010627301718095811 0 -0.039197488091616238 -0.0011730771593473376 0 -0.039266786339778016 -0.0011078975094138547 0 -0.039189400810163776 -0.0010627301718095811 0 -0.039189400810163776 -0.0010627301718095811 0 -0.039119416104978828 -0.0010168835468101463 0 -0.039062199556279771 -0.0011066435215819354 0 -0.039197488091616238 -0.0011730771593473376 0 -0.039189400810163776 -0.0010627301718095811 0 -0.039062199556279771 -0.0011066435215819354 0 -0.039189400810163776 -0.0010627301718095811 0 -0.03918845512797163 -0.00097163130317485602 0 -0.039119416104978828 -0.0010168835468101463 0 -0.039275604067746987 -0.0010250962391997471 0 -0.039189400810163776 -0.0010627301718095811 0 -0.03918845512797163 -0.00097163130317485602 0 -0.03918845512797163 -0.00097163130317485602 0 -0.039089245447223794 -0.00095436326997573584 0 -0.039119416104978828 -0.0010168835468101463 0 -0.039089245447223794 -0.00095436326997573584 0 -0.039042710312354213 -0.0010160491167860736 0 -0.039007428226884779 -0.00093974350863278698 0 -0.039089245447223794 -0.00095436326997573584 0 -0.039042710312354213 -0.0010160491167860736 0 -0.039119416104978828 -0.0010168835468101463 0 -0.039042710312354213 -0.0010160491167860736 0 -0.039119416104978828 -0.0010168835468101463 0 -0.039062199556279771 -0.0011066435215819354 0 -0.039042710312354213 -0.0010160491167860736 0 -0.039062199556279771 -0.0011066435215819354 0 -0.03891674586647631 -0.0010805494506862608 0 -0.038958562248403522 -0.0012784582787410076 0 -0.039062199556279771 -0.0011066435215819354 0 -0.03891674586647631 -0.0010805494506862608 0 -0.039042710312354213 -0.0010160491167860736 0 -0.03891674586647631 -0.0010805494506862608 0 -0.039007428226884779 -0.00093974350863278698 0 -0.038946927768313884 -0.00078466671252917168 0 -0.03891674586647631 -0.0010805494506862608 0 -0.039007428226884779 -0.00093974350863278698 0 -0.038946927768313884 -0.00078466671252917168 0 -0.039007428226884779 -0.00093974350863278698 0 -0.039040717256389787 -0.00085220281696889253 0 -0.039007428226884779 -0.00093974350863278698 0 -0.039040717256389787 -0.00085220281696889253 0 -0.039066908855011545 -0.0009068050629822325 0 -0.038946927768313884 -0.00078466671252917168 0 -0.039040717256389787 -0.00085220281696889253 0 -0.03903536947112192 -0.00078986070196052798 0 -0.038946927768313884 -0.00078466671252917168 0 -0.03903536947112192 -0.00078986070196052798 0 -0.039016363695812559 -0.00077496780036787755 0 -0.039040717256389787 -0.00085220281696889253 0 -0.03903536947112192 -0.00078986070196052798 0 -0.039099510818567128 -0.00080535215029946673 0 -0.039040717256389787 -0.00085220281696889253 0 -0.039099510818567128 -0.00080535215029946673 0 -0.039126696419592495 -0.00088322680553000932 0 -0.039099510818567128 -0.00080535215029946673 0 -0.039126696419592495 -0.00088322680553000932 0 -0.039188368837151134 -0.00081858486427521034 0 -0.03918845512797163 -0.00097163130317485602 0 -0.039089245447223794 -0.00095436326997573584 0 -0.039126696419592495 -0.00088322680553000932 0 -0.039040717256389787 -0.00085220281696889253 0 -0.039126696419592495 -0.00088322680553000932 0 -0.039066908855011545 -0.0009068050629822325 0 -0.039089245447223794 -0.00095436326997573584 0 -0.039007428226884779 -0.00093974350863278698 0 -0.039066908855011545 -0.0009068050629822325 0 -0.039089245447223794 -0.00095436326997573584 0 -0.039126696419592495 -0.00088322680553000932 0 -0.039066908855011545 -0.0009068050629822325 0 -0.039274247076524681 -0.00094419088708142744 0 -0.03918845512797163 -0.00097163130317485602 0 -0.039218244819093778 -0.00089134472650875341 0 -0.03918845512797163 -0.00097163130317485602 0 -0.039126696419592495 -0.00088322680553000932 0 -0.039218244819093778 -0.00089134472650875341 0 -0.039126696419592495 -0.00088322680553000932 0 -0.039218244819093778 -0.00089134472650875341 0 -0.039188368837151134 -0.00081858486427521034 0 -0.039218244819093778 -0.00089134472650875341 0 -0.039188368837151134 -0.00081858486427521034 0 -0.039307698704711451 -0.00085692120096774024 0 -0.039274247076524681 -0.00094419088708142744 0 -0.039218244819093778 -0.00089134472650875341 0 -0.039307698704711451 -0.00085692120096774024 0 -0.039119832472025516 -0.00076806387389604627 0 -0.039168843476677033 -0.00067292235803190963 0 -0.03924177153041828 -0.00071965176266553671 0 -0.039119832472025516 -0.00076806387389604627 0 -0.039096449745429425 -0.00078379239569387378 0 -0.039168843476677033 -0.00067292235803190963 0 -0.039188368837151134 -0.00081858486427521034 0 -0.039307698704711451 -0.00085692120096774024 0 -0.039283155284263842 -0.00077533551279146482 0 -0.039188368837151134 -0.00081858486427521034 0 -0.039283155284263842 -0.00077533551279146482 0 -0.039119832472025516 -0.00076806387389604627 0 -0.039099510818567128 -0.00080535215029946673 0 -0.039188368837151134 -0.00081858486427521034 0 -0.039119832472025516 -0.00076806387389604627 0 -0.03903536947112192 -0.00078986070196052798 0 -0.039099510818567128 -0.00080535215029946673 0 -0.039119832472025516 -0.00076806387389604627 0 -0.03903536947112192 -0.00078986070196052798 0 -0.039119832472025516 -0.00076806387389604627 0 -0.039016363695812559 -0.00077496780036787755 0 -0.037598200239652373 -0.0003514644226727178 0 -0.037033086685490983 -0.00061428547813243014 0 -0.039283155284263842 -0.00077533551279146482 0 -0.039119832472025516 -0.00076806387389604627 0 -0.03924177153041828 -0.00071965176266553671 0 -0.039426697459606551 -0.00073457599131802876 0 -0.039283155284263842 -0.00077533551279146482 0 -0.03924177153041828 -0.00071965176266553671 0 -0.031931263231512526 -3.7361514758320818e-05 0 -0.032966233885186935 0.00011382868732879128 0 -0.032953829378848248 -6.3547394191799407e-05 0 -0.032966233885186935 0.00011382868732879128 0 -0.032953829378848248 -6.3547394191799407e-05 0 -0.033862648752884597 0.00011152665746215366 0 -0.037033086685490983 -0.00061428547813243014 0 -0.036446657381484296 -0.00016940751545999646 0 -0.032966233885186935 0.00011382868732879128 0 -0.033862648752884597 0.00011152665746215366 0 -0.034057312687884596 6.0082984001006218e-05 0 -0.039430485209163327 -0.00062597736055030619 0 -0.039168843476677033 -0.00067292235803190963 0 -0.03924177153041828 -0.00071965176266553671 0 -0.039043530784074222 -0.00046118967300160007 0 -0.039430485209163327 -0.00062597736055030619 0 -0.039168843476677033 -0.00067292235803190963 0 -0.037495124287489009 -0.00011853101059608355 0 -0.036446657381484296 -0.00016940751545999646 0 -0.03582527347612665 -5.9534362568610968e-05 0 -0.033862648752884597 0.00011152665746215366 0 -0.034057312687884596 6.0082984001006218e-05 0 -0.031558026771919274 0.00011343839739743825 0 -0.034057312687884596 6.0082984001006218e-05 0 -0.033469024283131775 1.5045678458104552e-06 0 -0.031558026771919274 0.00011343839739743825 0 -0.032966233885186935 0.00011382868732879128 0 -0.034057312687884596 6.0082984001006218e-05 0 -0.010951586449458459 -0.0006777743957331521 0 -0.011999859197586473 -3.5592855108018466e-05 0 -0.011654855754879383 -0.0013502806325294268 0 -0.010951586449458459 -0.0006777743957331521 0 -0.011999859197586473 -3.5592855108018466e-05 0 -0.0110759518560558 8.9490315564982455e-05 0 -0.010951586449458459 -0.0006777743957331521 0 -0.0110759518560558 8.9490315564982455e-05 0 -0.010546680391809884 -0.00020243485634447488 0 -0.01397536007970502 -3.2893739410787258e-06 0 -0.011999859197586473 -3.5592855108018466e-05 0 -0.011654855754879383 -0.0013502806325294268 0 -0.01397536007970502 -3.2893739410787258e-06 0 -0.011999859197586473 -3.5592855108018466e-05 0 -0.011344837812251349 1.8676287196947756e-06 0 -0.011999859197586473 -3.5592855108018466e-05 0 -0.011344837812251349 1.8676287196947756e-06 0 -0.0110759518560558 8.9490315564982455e-05 0 -0.0110759518560558 8.9490315564982455e-05 0 -0.010010633235410042 0.00017697837434953984 0 -0.010546680391809884 -0.00020243485634447488 0 -0.0099888332905327462 7.1092268101169821e-05 0 -0.010011294254599394 -0.00035980989263038264 0 -0.010010633235410042 0.00017697837434953984 0 -0.010546680391809884 -0.00020243485634447488 0 -0.0099003959569932496 -0.00024352218740253387 0 -0.010010633235410042 0.00017697837434953984 0 -0.0091587092317400153 -0.00015715730337936376 0 -0.0096609802428887486 -0.0004989173592932916 0 -0.0099593212457077199 -0.00014913210853953704 0 -0.010011294254599394 -0.00035980989263038264 0 -0.011281366102925428 6.5810703576585334e-05 0 -0.011273708784943364 -0.00025976803150156179 0 -0.011148090782685777 -9.5919217970455813e-05 0 -0.010546624914596783 -0.00028195018120955848 0 -0.010635377348193961 -0.00034495417668874384 0 -0.010546983344281455 -0.00040429688090774492 0 -0.0099593212457077199 -0.00014913210853953704 0 -0.010894710930507638 -0.00028646990339067463 0 -0.010011294254599394 -0.00035980989263038264 0 -0.011438017106290901 -0.00080316244457327008 0 -0.010235669292911405 -0.0002543798070850836 0 -0.010297300817007785 -0.00083160618796161386 0 -0.0097987807292057114 -0.0011050671462540401 0 -0.010635377348193961 -0.00034495417668874384 0 -0.010546983344281455 -0.00040429688090774492 0 -0.010548906036019556 -0.00052741262144124872 0 -0.010894710930507638 -0.00028646990339067463 0 -0.011438017106290901 -0.00080316244457327008 0 -0.010235669292911405 -0.0002543798070850836 0 -0.010297300817007785 -0.00083160618796161386 0 -0.010573611749735017 -0.0008310255725133374 0 -0.010877747571250171 -0.00063993990181411195 0 -0.010011294254599394 -0.00035980989263038264 0 -0.010951586449458459 -0.0006777743957331521 0 -0.010235669292911405 -0.0002543798070850836 0 -0.010573611749735017 -0.0008310255725133374 0 -0.010951586449458459 -0.0006777743957331521 0 -0.010546680391809884 -0.00020243485634447488 0 -0.0099003959569932496 -0.00024352218740253387 0 -0.010951586449458459 -0.0006777743957331521 0 -0.010811264935911714 -0.0011758476931839116 0 -0.010573611749735017 -0.0008310255725133374 0 -0.010811264935911714 -0.0011758476931839116 0 -0.010573611749735017 -0.0008310255725133374 0 -0.010598481699477269 -0.0011952087534870296 0 -0.010573611749735017 -0.0008310255725133374 0 -0.010430239184093148 -0.0011161350257856645 0 -0.010598481699477269 -0.0011952087534870296 0 -0.010297300817007785 -0.00083160618796161386 0 -0.010573611749735017 -0.0008310255725133374 0 -0.010430239184093148 -0.0011161350257856645 0 -0.010297300817007785 -0.00083160618796161386 0 -0.010430239184093148 -0.0011161350257856645 0 -0.010162031688780111 -0.0010872505586894475 0 -0.010430239184093148 -0.0011161350257856645 0 -0.010397600993149249 -0.0013667740707156725 0 -0.010598481699477269 -0.0011952087534870296 0 -0.010397600993149249 -0.0013667740707156725 0 -0.01057506763909059 -0.0014073477284372118 0 -0.010598481699477269 -0.0011952087534870296 0 -0.010430239184093148 -0.0011161350257856645 0 -0.010397600993149249 -0.0013667740707156725 0 -0.01011968450163884 -0.0012953645686778145 0 -0.010397600993149249 -0.0013667740707156725 0 -0.01057506763909059 -0.0014073477284372118 0 -0.010651388498402784 -0.0015231030367434458 0 -0.01299346932096085 -0.00066675345581659385 0 -0.013610548449699963 -0.00075779909718356878 0 -0.010811264935911714 -0.0011758476931839116 0 -0.01057506763909059 -0.0014073477284372118 0 -0.010646373102953724 -0.0016093352352707637 0 -0.010811264935911714 -0.0011758476931839116 0 -0.01057506763909059 -0.0014073477284372118 0 -0.010598481699477269 -0.0011952087534870296 0 -0.010297300817007785 -0.00083160618796161386 0 -0.0097987807292057114 -0.0011050671462540401 0 -0.010162031688780111 -0.0010872505586894475 0 -0.010430239184093148 -0.0011161350257856645 0 -0.010162031688780111 -0.0010872505586894475 0 -0.01011968450163884 -0.0012953645686778145 0 -0.0097987807292057114 -0.0011050671462540401 0 -0.010162031688780111 -0.0010872505586894475 0 -0.01011968450163884 -0.0012953645686778145 0 -0.0097987807292057114 -0.0011050671462540401 0 -0.01011968450163884 -0.0012953645686778145 0 -0.0098003897010535568 -0.0013299632400851744 0 -0.012584429519511164 -0.00059575908503746054 0 -0.012415106074587713 -0.00035420709611525935 0 -0.012014937843153327 -0.0005654905620650258 0 -0.012022003914856517 -0.00050147887659961405 0 -0.012035855482036098 -0.00053143644291540101 0 -0.011438017106290901 -0.00080316244457327008 0 -0.012584429519511164 -0.00059575908503746054 0 -0.011438017106290901 -0.00080316244457327008 0 -0.012415106074587713 -0.00035420709611525935 0 -0.014290966248336586 -0.00044530278566265702 0 -0.01423852287315764 -0.00032148121921035731 0 -0.014314577838659701 -0.00028391242334625528 0 -0.012584429519511164 -0.00059575908503746054 0 -0.016099007051609653 0.00016578526730280223 0 -0.01011968450163884 -0.0012953645686778145 0 -0.0098003897010535568 -0.0013299632400851744 0 -0.010072567331042472 -0.0017993697934609212 0 -0.012584429519511164 -0.00059575908503746054 0 -0.014441289812988799 -0.00053432695075302135 0 -0.010397600993149249 -0.0013667740707156725 0 -0.01011968450163884 -0.0012953645686778145 0 -0.010072567331042472 -0.0017993697934609212 0 -0.014441289812988799 -0.00053432695075302135 0 -0.016099007051609653 0.00016578526730280223 0 -0.013610548449699963 -0.00075779909718356878 0 -0.016405546979985603 -0.00033893878777429258 0 -0.010397600993149249 -0.0013667740707156725 0 -0.010072567331042472 -0.0017993697934609212 0 -0.010651388498402784 -0.0015231030367434458 0 -0.014441289812988799 -0.00053432695075302135 0 -0.013610548449699963 -0.00075779909718356878 0 -0.015842733063804237 -0.00019385627254889362 0 -0.01637595351496339 -0.00038218570109603989 0 -0.01651608140866569 0.00014679939831454091 0 -0.01637595351496339 -0.00038218570109603989 0 -0.01651608140866569 0.00014679939831454091 0 -0.016884164169920595 -0.00053778014487409554 0 -0.015724702506140786 0.000154730178484049 0 -0.015816404196315439 6.6851539698461703e-05 0 -0.016191127452592675 0.00018034845532673388 0 -0.015724702506140786 0.000154730178484049 0 -0.016191127452592675 0.00018034845532673388 0 -0.015811239677928898 -0.0001229988662914064 0 -0.010811264935911714 -0.0011758476931839116 0 -0.010646373102953724 -0.0016093352352707637 0 -0.011654855754879383 -0.0013502806325294268 0 -0.013610548449699963 -0.00075779909718356878 0 -0.013657098139455053 -0.00057488881805240854 0 -0.010951586449458459 -0.0006777743957331521 0 -0.010811264935911714 -0.0011758476931839116 0 -0.011654855754879383 -0.0013502806325294268 0 -0.013979955542532849 -1.9002114954503946e-07 0 -0.013657098139455053 -0.00057488881805240854 0 -0.01398266137920583 -1.4211304261431334e-06 0 -0.015816404196315439 6.6851539698461703e-05 0 -0.015674219095109597 1.4305800466404803e-06 0 -0.015816404196315439 6.6851539698461703e-05 0 -0.015674219095109597 1.4305800466404803e-06 0 -0.016191127452592675 0.00018034845532673388 0 -0.015674219095109597 1.4305800466404803e-06 0 -0.016191127452592675 0.00018034845532673388 0 -0.017366028120933252 -1.4645521624561633e-06 0 -0.016191127452592675 0.00018034845532673388 0 -0.017366028120933252 -1.4645521624561633e-06 0 -0.01611739207125867 -0.00088149790250522319 0 -0.017368907826530489 4.2342428829550671e-08 0 -0.017931687041096864 -0.00068442442798318382 0 -0.016405546979985603 -0.00033893878777429258 0 -0.017931687041096864 -0.00068442442798318382 0 -0.016191127452592675 0.00018034845532673388 0 -0.015811239677928898 -0.0001229988662914064 0 -0.01611739207125867 -0.00088149790250522319 0 -0.016884164169920595 -0.00053778014487409554 0 -0.017249682482523211 -0.0012254957556008404 0 -0.016260439799305325 -0.00094511946621114729 0 -0.01987908384935283 -0.00098315736210492668 0 -0.01986330179133701 -0.0010794965249675923 0 -0.019936817628634099 -0.0010880312147133083 0 -0.01986330179133701 -0.0010794965249675923 0 -0.019936817628634099 -0.0010880312147133083 0 -0.019854053370641434 -0.0010968830609181118 0 -0.017931687041096864 -0.00068442442798318382 0 -0.020402105383632563 -0.00075576727174550605 0 -0.021697754380612336 -0.0015182878481860345 0 -0.021807182668122267 -0.0014725370607903666 0 -0.01987908384935283 -0.00098315736210492668 0 -0.01986330179133701 -0.0010794965249675923 0 -0.019734433902161896 -0.0011062097250174945 0 -0.017931687041096864 -0.00068442442798318382 0 -0.019698334097868128 -0.0015865812128753962 0 -0.017372850590849646 -1.083635360925101e-09 0 -0.01907405615316092 -9.4984635432223082e-06 0 -0.018692234722144221 9.5090930260400666e-05 0 -0.017372850590849646 -1.083635360925101e-09 0 -0.018692234722144221 9.5090930260400666e-05 0 -0.019537937118213226 -1.4788833929400799e-08 0 -0.01907405615316092 -9.4984635432223082e-06 0 -0.018692234722144221 9.5090930260400666e-05 0 -0.018755477857464505 4.2687723052488722e-06 0 -0.018692234722144221 9.5090930260400666e-05 0 -0.018755477857464505 4.2687723052488722e-06 0 -0.019537937118213226 -1.4788833929400799e-08 0 -0.020402105383632563 -0.00075576727174550605 0 -0.019541628892694059 -2.6730442614111832e-07 0 -0.02033608071052128 -0.0001280011890705066 0 -0.01954486954588661 -1.5089809534935016e-08 0 -0.020632186653892694 6.7152244647545857e-05 0 -0.01954486954588661 -1.5089809534935016e-08 0 -0.020632186653892694 6.7152244647545857e-05 0 -0.022188684585335672 5.722879302916345e-09 0 -0.022792333193160076 -0.0009796551027120915 0 -0.022560777695228029 -0.0005757149275967266 0 -0.022956909010771454 -0.00060905075596486143 0 -0.020402105383632563 -0.00075576727174550605 0 -0.021633672991024713 -0.00020962180051260247 0 -0.022792333193160076 -0.0009796551027120915 0 -0.023052125564255902 -0.00094722751135224085 0 -0.022956909010771454 -0.00060905075596486143 0 -0.020402105383632563 -0.00075576727174550605 0 -0.021807182668122267 -0.0014725370607903666 0 -0.021807182668122267 -0.0014725370607903666 0 -0.023030273218452947 -0.00072111493033280593 0 -0.023052125564255902 -0.00094722751135224085 0 -0.022956909010771454 -0.00060905075596486143 0 -0.023372389655661852 -0.00030117370850677561 0 -0.021996512540910118 -0.0029140639667958896 0 -0.023209346755476708 -0.0010265034059530802 0 -0.023102034777043253 -0.0028344380438490974 0 -0.01986330179133701 -0.0010794965249675923 0 -0.01985339991758191 -0.0010963936488255432 0 -0.019734433902161896 -0.0011062097250174945 0 -0.021807182668122267 -0.0014725370607903666 0 -0.019698334097868128 -0.0015865812128753962 0 -0.022956909010771454 -0.00060905075596486143 0 -0.02293274159146013 -0.00025950812736801998 0 -0.023372389655661852 -0.00030117370850677561 0 -0.023184251032056426 6.7673626950696085e-05 0 -0.02293274159146013 -0.00025950812736801998 0 -0.023372389655661852 -0.00030117370850677561 0 -0.022560777695228029 -0.0005757149275967266 0 -0.02293274159146013 -0.00025950812736801998 0 -0.022197605612297801 -4.0471346697227021e-07 0 -0.023184251032056426 6.7673626950696085e-05 0 -0.02293274159146013 -0.00025950812736801998 0 -0.022197605612297801 -4.0471346697227021e-07 0 -0.021633672991024713 -0.00020962180051260247 0 -0.022191034115303671 1.3665245462522422e-07 0 -0.022560777695228029 -0.0005757149275967266 0 -0.022956909010771454 -0.00060905075596486143 0 -0.02293274159146013 -0.00025950812736801998 0 -0.024426666022720936 0.00086203250787727831 0 -0.024564761607560635 -0.001678535882933028 0 -0.026062283683817893 -0.00049097764746944403 0 -0.023380430182923264 -0.0010264864389439954 0 -0.024117208833688897 0.00042655249683633435 0 -0.024059156036158852 -0.00055916399400021525 0 -0.022235560514117979 -0.001065771200813183 0 -0.023380430182923264 -0.0010264864389439954 0 -0.024117208833688897 0.00042655249683633435 0 -0.023313690882223792 -0.0014330746926201473 0 -0.027422416576560776 -0.0005996245315928252 0 -0.024247808644732177 -0.001417971928935778 0 -0.025288022598187319 -0.0012194645571540106 0 -0.024426666022720936 0.00086203250787727831 0 -0.023209346755476708 -0.0010265034059530802 0 -0.024564761607560635 -0.001678535882933028 0 -0.026928616882422044 -0.00046339337248229516 0 -0.023030273218452947 -0.00072111493033280593 0 -0.023209346755476708 -0.0010265034059530802 0 -0.023102034777043253 -0.0028344380438490974 0 -0.024564761607560635 -0.001678535882933028 0 -0.019698334097868128 -0.0015865812128753962 0 -0.023313690882223792 -0.0014330746926201473 0 -0.019698334097868128 -0.0015865812128753962 0 -0.020749420837483969 -0.0012139983452543182 0 -0.020420982709352421 -0.0025139133981181938 0 -0.022235560514117979 -0.001065771200813183 0 -0.023951766374927467 -0.0021456074257046867 0 -0.022235560514117979 -0.001065771200813183 0 -0.023380430182923264 -0.0010264864389439954 0 -0.023951766374927467 -0.0021456074257046867 0 -0.023380430182923264 -0.0010264864389439954 0 -0.023951766374927467 -0.0021456074257046867 0 -0.024039561969122748 -0.00056176377714347594 0 -0.018883034023504299 -0.0012361722577396669 0 -0.018360818519765915 -0.00091081080692050217 0 -0.017867386145995014 -0.0013391834207823721 0 -0.018360818519765915 -0.00091081080692050217 0 -0.017875698924763289 -0.00069123464320651451 0 -0.017867386145995014 -0.0013391834207823721 0 -0.018360818519765915 -0.00091081080692050217 0 -0.017875698924763289 -0.00069123464320651451 0 -0.018139913084178054 -0.00037845286859124953 0 -0.017249682482523211 -0.0012254957556008404 0 -0.016678694718274188 -0.0016971274959020038 0 -0.016260439799305325 -0.00094511946621114729 0 -0.018883034023504299 -0.0012361722577396669 0 -0.018360818519765915 -0.00091081080692050217 0 -0.018522877693753673 -0.00056909636698402601 0 -0.019698334097868128 -0.0015865812128753962 0 -0.017417199488125226 -0.00068993745262594037 0 -0.015842733063804237 -0.00019385627254889362 0 -0.01637595351496339 -0.00038218570109603989 0 -0.016260439799305325 -0.00094511946621114729 0 -0.01637595351496339 -0.00038218570109603989 0 -0.016884164169920595 -0.00053778014487409554 0 -0.016260439799305325 -0.00094511946621114729 0 -0.018146444185856411 9.8852258425739055e-05 0 -0.018522877693753673 -0.00056909636698402601 0 -0.018139913084178054 -0.00037845286859124953 0 -0.017879390472926134 -3.8922494214552249e-05 0 -0.017875698924763289 -0.00069123464320651451 0 -0.018139913084178054 -0.00037845286859124953 0 -0.016099007051609653 0.00016578526730280223 0 -0.017787709861506889 -0.00043748838546043439 0 -0.014441289812988799 -0.00053432695075302135 0 -0.017417199488125226 -0.00068993745262594037 0 -0.018360818519765915 -0.00091081080692050217 0 -0.018522877693753673 -0.00056909636698402601 0 -0.018139913084178054 -0.00037845286859124953 0 -0.018146444185856411 9.8852258425739055e-05 0 -0.017879390472926134 -3.8922494214552249e-05 0 -0.018139913084178054 -0.00037845286859124953 0 -0.016099007051609653 0.00016578526730280223 0 -0.015554765034957199 0.00018318286851623112 0 -0.017769473221997206 0.00054738693672395759 0 -0.017753233302514423 -0.00021236338412742312 0 -0.017105690004632763 0.00021678373400467723 0 -0.012972649960898294 0.00014146442708836191 0 -0.013139829289894121 0.00028954521858459362 0 -0.013081639798654046 0.00011792306342007373 0 -0.015554765034957199 0.00018318286851623112 0 -0.01388076705879727 0.00023327606503197704 0 -0.015554765034957199 0.00018318286851623112 0 -0.016959852785312396 -0.00020989953958889035 0 -0.016708044930392345 -0.00047960570392978656 0 -0.016837119603947372 -0.0010850622861537261 0 -0.015961566877054918 -0.00032374944610290675 0 -0.017105690004632763 0.00021678373400467723 0 -0.016708044930392345 -0.00047960570392978656 0 -0.017230713490629448 -0.00050704209235554105 0 -0.017092283520825945 0.00024149869207611466 0 -0.016708044930392345 -0.00047960570392978656 0 -0.015961566877054918 -0.00032374944610290675 0 -0.016708044930392345 -0.00047960570392978656 0 -0.017230713490629448 -0.00050704209235554105 0 -0.016837119603947372 -0.0010850622861537261 0 -0.017753233302514423 -0.00021236338412742312 0 -0.017105690004632763 0.00021678373400467723 0 -0.017230713490629448 -0.00050704209235554105 0 -0.017753233302514423 -0.00021236338412742312 0 -0.017230713490629448 -0.00050704209235554105 0 -0.017745695476590894 -0.00099503790083538789 0 -0.017787709861506889 -0.00043748838546043439 0 -0.020749420837483969 -0.0012139983452543182 0 -0.024308811821583613 -9.7361411176112776e-05 0 -0.023440887995353793 -0.00042549215730615543 0 -0.022441143808069438 -0.00026808954053114832 0 -0.017230713490629448 -0.00050704209235554105 0 -0.017745695476590894 -0.00099503790083538789 0 -0.016837119603947372 -0.0010850622861537261 0 -0.020749420837483969 -0.0012139983452543182 0 -0.020145306334879803 -8.2862730710594541e-06 0 -0.020749420837483969 -0.0012139983452543182 0 -0.025288022598187319 -0.0012194645571540106 0 -0.024308811821583613 -9.7361411176112776e-05 0 -0.023896723275003702 -0.00076024992474189618 0 -0.023440887995353793 -0.00042549215730615543 0 -0.024308811821583613 -9.7361411176112776e-05 0 -0.023896723275003702 -0.00076024992474189618 0 -0.024267265057177148 -0.001254208488198495 0 -0.025030354565021437 -0.00048472066403744044 0 -0.027131760388296119 -0.00049615765294053779 0 -0.023440887995353793 -0.00042549215730615543 0 -0.022441143808069438 -0.00026808954053114832 0 -0.023564451409035937 -0.0012597298972907862 0 -0.023896723275003702 -0.00076024992474189618 0 -0.023440887995353793 -0.00042549215730615543 0 -0.0235696277211834 -0.0012614403957122437 0 -0.020145306334879803 -8.2862730710594541e-06 0 -0.027131760388296119 -0.00049615765294053779 0 -0.026441568415124808 0.00039619051209941169 0 -0.026551329250820405 0.00079764803656087507 0 -0.026977246013490448 0.00077742908722785 0 -0.026591864097801746 0.0012064349266431456 0 -0.026551329250820405 0.00079764803656087507 0 -0.026951936962316465 0.00091011696277534565 0 -0.032918489903064833 -0.00043188936393402855 0 -0.03122398173829153 -0.00085279910039779956 0 -0.026551329250820405 0.00079764803656087507 0 -0.026951936962316465 0.00091011696277534565 0 -0.026977246013490448 0.00077742908722785 0 -0.030961866921964055 -0.00085585861201248814 0 -0.030958761553962894 -0.00085125046104739298 0 -0.030947908116196077 -0.00084124316092393616 0 -0.027422416576560776 -0.0005996245315928252 0 -0.027960648478500074 -0.0011714432801423055 0 -0.028366620520360559 -0.00020161530417991532 0 -0.027422416576560776 -0.0005996245315928252 0 -0.030961866921964055 -0.00085585861201248814 0 -0.030947908116196077 -0.00084124316092393616 0 -0.030944297837911087 -0.00084652979043167394 0 -0.023877669451161813 -0.0015338598717425777 0 -0.024267265057177148 -0.001254208488198495 0 -0.0235696277211834 -0.0012614403957122437 0 -0.02968296841484248 -0.0014359324723506788 0 -0.028795218744791191 -0.00063895574783456529 0 -0.028969968116398011 -0.0019425763867275086 0 -0.027960648478500074 -0.0011714432801423055 0 -0.03122398173829153 -0.00085279910039779956 0 -0.023896723275003702 -0.00076024992474189618 0 -0.024267265057177148 -0.001254208488198495 0 -0.0235696277211834 -0.0012614403957122437 0 -0.027422416576560776 -0.0005996245315928252 0 -0.025288022598187319 -0.0012194645571540106 0 -0.026667689859996502 -0.00091242136847379831 0 -0.026635899357677576 -0.00087615787006065462 0 -0.026666397393323934 -0.00085261121991988458 0 -0.027960648478500074 -0.0011714432801423055 0 -0.025288022598187319 -0.0012194645571540106 0 -0.027960648478500074 -0.0011714432801423055 0 -0.027131760388296119 -0.00049615765294053779 0 -0.027131760388296119 -0.00049615765294053779 0 -0.03122398173829153 -0.00085279910039779956 0 -0.025797976416642887 0.00053604242488630965 0 -0.025858453385032398 0.0011407880856652407 0 -0.025118491797166003 0.0010720644946590871 0 -0.025797976416642887 0.00053604242488630965 0 -0.026551329250820405 0.00079764803656087507 0 -0.025858453385032398 0.0011407880856652407 0 -0.020145306334879803 -8.2862730710594541e-06 0 -0.020227067723581311 0.00072425722002870388 0 -0.026591864097801746 0.0012064349266431456 0 -0.026551329250820405 0.00079764803656087507 0 -0.025858453385032398 0.0011407880856652407 0 -0.014745501062319496 8.4360743315823388e-05 0 -0.014326835276875869 0.0001123132496337021 0 -0.014354290485973649 0.00027005782849405296 0 -0.014326835276875869 0.0001123132496337021 0 -0.014354290485973649 0.00027005782849405296 0 -0.0141533356812918 0.0002357681691035058 0 -0.020145306334879803 -8.2862730710594541e-06 0 -0.01388076705879727 0.00023327606503197704 0 -0.014745501062319496 8.4360743315823388e-05 0 -0.014354290485973649 0.00027005782849405296 0 -0.014392018007630266 0.00028978848466733304 0 -0.013973529103014559 0.00026767726603643606 0 -0.01388076705879727 0.00023327606503197704 0 -0.013139829289894121 0.00028954521858459362 0 -0.013081639798654046 0.00011792306342007373 0 -0.013328188985087188 0.00023245564478626993 0 -0.01388076705879727 0.00023327606503197704 0 -0.013713096640390351 0.00023120455739288157 0 -0.014354290485973649 0.00027005782849405296 0 -0.014110027136175195 0.00023683112286593296 0 -0.0141533356812918 0.0002357681691035058 0 -0.014354290485973649 0.00027005782849405296 0 -0.014369012716388798 0.00027930178642346853 0 -0.014110027136175195 0.00023683112286593296 0 -0.013152713008751076 4.077434557000844e-05 0 -0.013244587739921192 -9.8290830153049787e-05 0 -0.013328188985087188 0.00023245564478626993 0 -0.013152713008751076 4.077434557000844e-05 0 -0.013081639798654046 0.00011792306342007373 0 -0.013328188985087188 0.00023245564478626993 0 -0.013152713008751076 4.077434557000844e-05 0 -0.013244587739921192 -9.8290830153049787e-05 0 -0.01297665360271799 -0.00018089128835417637 0 -0.013152713008751076 4.077434557000844e-05 0 -0.013026849166367222 -8.2567175408154484e-05 0 -0.01297665360271799 -0.00018089128835417637 0 -0.013152713008751076 4.077434557000844e-05 0 -0.013026849166367222 -8.2567175408154484e-05 0 -0.013081639798654046 0.00011792306342007373 0 -0.013026849166367222 -8.2567175408154484e-05 0 -0.013081639798654046 0.00011792306342007373 0 -0.013008366646555261 1.4226371971394965e-05 0 -0.012972649960898294 0.00014146442708836191 0 -0.013081639798654046 0.00011792306342007373 0 -0.013008366646555261 1.4226371971394965e-05 0 -0.012972649960898294 0.00014146442708836191 0 -0.013008366646555261 1.4226371971394965e-05 0 -0.012947702508889639 1.8112777795877257e-05 0 -0.014124534406560111 -0.00059544710964228053 0 -0.014182358562932597 0.00025899713422362696 0 -0.014597801950662206 -3.4202653973358975e-05 0 -0.014182358562932597 0.00025899713422362696 0 -0.014993638615471656 0.00066385732054996191 0 -0.014597801950662206 -3.4202653973358975e-05 0 -0.015554765034957199 0.00018318286851623112 0 -0.013781342088979673 -1.5338257335108573e-05 0 -0.013008366646555261 1.4226371971394965e-05 0 -0.012947702508889639 1.8112777795877257e-05 0 -0.013018924084773148 -9.1689354731367052e-05 0 -0.012415106074587713 -0.00035420709611525935 0 -0.013781342088979673 -1.5338257335108573e-05 0 -0.012415106074587713 -0.00035420709611525935 0 -0.012016638117926661 -0.00014497791507822412 0 -0.012948850369474763 -7.7607567977995844e-05 0 -0.013018924084773148 -9.1689354731367052e-05 0 -0.013105459813143426 -0.00014708665558583559 0 -0.012948850369474763 -7.7607567977995844e-05 0 -0.012947702508889639 1.8112777795877257e-05 0 -0.013018924084773148 -9.1689354731367052e-05 0 -0.011266792197985475 -0.00058550773492426183 0 -0.011231210695265666 -0.00065313965050318198 0 -0.011010491267121216 -0.00024688095689451127 0 -0.014124534406560111 -0.00059544710964228053 0 -0.014194918984273087 -0.00073531638100774691 0 -0.014597801950662206 -3.4202653973358975e-05 0 -0.013026849166367222 -8.2567175408154484e-05 0 -0.013018924084773148 -9.1689354731367052e-05 0 -0.013036653485348141 -0.00019698103551319228 0 -0.013026849166367222 -8.2567175408154484e-05 0 -0.013008366646555261 1.4226371971394965e-05 0 -0.013018924084773148 -9.1689354731367052e-05 0 -0.013018924084773148 -9.1689354731367052e-05 0 -0.013036653485348141 -0.00019698103551319228 0 -0.013105459813143426 -0.00014708665558583559 0 -0.011273708784943364 -0.00025976803150156179 0 -0.011266792197985475 -0.00058550773492426183 0 -0.011010491267121216 -0.00024688095689451127 0 -0.011273708784943364 -0.00025976803150156179 0 -0.011010491267121216 -0.00024688095689451127 0 -0.011148090782685777 -9.5919217970455813e-05 0 -0.011010491267121216 -0.00024688095689451127 0 -0.011032547168945424 4.122989654731195e-05 0 -0.010792915722719508 0.00016080884813763144 0 -0.011281366102925428 6.5810703576585334e-05 0 -0.011032547168945424 4.122989654731195e-05 0 -0.010930464026326754 0.00031908167178113189 0 -0.012016638117926661 -0.00014497791507822412 0 -0.012169366616743211 0.00013136498880959711 0 -0.0099593212457077199 -0.00014913210853953704 0 -0.0095710949400263159 0.00035937546714453399 0 -0.011281366102925428 6.5810703576585334e-05 0 -0.011148090782685777 -9.5919217970455813e-05 0 -0.011032547168945424 4.122989654731195e-05 0 -0.011010491267121216 -0.00024688095689451127 0 -0.011148090782685777 -9.5919217970455813e-05 0 -0.011032547168945424 4.122989654731195e-05 0 -0.011032547168945424 4.122989654731195e-05 0 -0.010792915722719508 0.00016080884813763144 0 -0.010930464026326754 0.00031908167178113189 0 -0.013036653485348141 -0.00019698103551319228 0 -0.01330279860001779 0.00014900749976563588 0 -0.012958310466480098 0.00028205000527587132 0 -0.013036653485348141 -0.00019698103551319228 0 -0.013105459813143426 -0.00014708665558583559 0 -0.01330279860001779 0.00014900749976563588 0 -0.012729355681174894 -0.00034475993103691058 0 -0.01213990542134207 0.00056286042666371259 0 -0.012958310466480098 0.00028205000527587132 0 -0.013036653485348141 -0.00019698103551319228 0 -0.012729355681174894 -0.00034475993103691058 0 -0.012958310466480098 0.00028205000527587132 0 -0.012625095324971216 -0.00039670896939565556 0 -0.012114197475845686 -0.00043155454919779917 0 -0.012729355681174894 -0.00034475993103691058 0 -0.010846891667651834 -0.00026755420157450078 0 -0.01213990542134207 0.00056286042666371259 0 -0.013244587739921192 -9.8290830153049787e-05 0 -0.012729355681174894 -0.00034475993103691058 0 -0.01297665360271799 -0.00018089128835417637 0 -0.013244587739921192 -9.8290830153049787e-05 0 -0.012729355681174894 -0.00034475993103691058 0 -0.013602706939057522 -0.00030236527680399473 0 -0.013026849166367222 -8.2567175408154484e-05 0 -0.013036653485348141 -0.00019698103551319228 0 -0.01297665360271799 -0.00018089128835417637 0 -0.013036653485348141 -0.00019698103551319228 0 -0.012729355681174894 -0.00034475993103691058 0 -0.01297665360271799 -0.00018089128835417637 0 -0.013602706939057522 -0.00030236527680399473 0 -0.013987103668590127 -0.00041023354259166726 0 -0.013876867944239878 2.8131468356856061e-05 0 -0.012114197475845686 -0.00043155454919779917 0 -0.011161941666865703 -0.00024087826677155901 0 -0.012729355681174894 -0.00034475993103691058 0 -0.013602706939057522 -0.00030236527680399473 0 -0.013354255594429707 -0.00066814990005850238 0 -0.013602706939057522 -0.00030236527680399473 0 -0.013354255594429707 -0.00066814990005850238 0 -0.013796357280995403 -0.00078073011663031889 0 -0.013602706939057522 -0.00030236527680399473 0 -0.013987103668590127 -0.00041023354259166726 0 -0.013796357280995403 -0.00078073011663031889 0 -0.014065545819832178 -0.00065738220874819449 0 -0.013987103668590127 -0.00041023354259166726 0 -0.013796357280995403 -0.00078073011663031889 0 -0.014065545819832178 -0.00065738220874819449 0 -0.014316275536175491 -0.00056377399822398248 0 -0.013987103668590127 -0.00041023354259166726 0 -0.014065545819832178 -0.00065738220874819449 0 -0.014316275536175491 -0.00056377399822398248 0 -0.014148667631668615 -0.0008781558456283765 0 -0.014316275536175491 -0.00056377399822398248 0 -0.014227318272800805 -0.00024098067875614508 0 -0.014431095245616823 -0.00027872600951722943 0 -0.014589350306823914 -0.00016009069733245428 0 -0.014424404146922351 -0.00014727409984973048 0 -0.014227318272800805 -0.00024098067875614508 0 -0.013987103668590127 -0.00041023354259166726 0 -0.013876867944239878 2.8131468356856061e-05 0 -0.014316275536175491 -0.00056377399822398248 0 -0.014227318272800805 -0.00024098067875614508 0 -0.013987103668590127 -0.00041023354259166726 0 -0.014227318272800805 -0.00024098067875614508 0 -0.014288528301182197 -2.9726858443294229e-05 0 -0.013876867944239878 2.8131468356856061e-05 0 -0.014227318272800805 -0.00024098067875614508 0 -0.014288528301182197 -2.9726858443294229e-05 0 -0.014431095245616823 -0.00027872600951722943 0 -0.014288528301182197 -2.9726858443294229e-05 0 -0.014256641197832804 0.00014632545989854055 0 -0.014458044483539335 2.0346360053959613e-05 0 -0.014288528301182197 -2.9726858443294229e-05 0 -0.014111895198300214 9.8727997917109317e-05 0 -0.013876867944239878 2.8131468356856061e-05 0 -0.014288528301182197 -2.9726858443294229e-05 0 -0.014111895198300214 9.8727997917109317e-05 0 -0.014256641197832804 0.00014632545989854055 0 -0.014111895198300214 9.8727997917109317e-05 0 -0.013876867944239878 2.8131468356856061e-05 0 -0.014097053217201321 0.00020470460517305053 0 -0.013244587739921192 -9.8290830153049787e-05 0 -0.013602706939057522 -0.00030236527680399473 0 -0.013876867944239878 2.8131468356856061e-05 0 -0.013244587739921192 -9.8290830153049787e-05 0 -0.013876867944239878 2.8131468356856061e-05 0 -0.013328188985087188 0.00023245564478626993 0 -0.013876867944239878 2.8131468356856061e-05 0 -0.014110027136175195 0.00023683112286593296 0 -0.014097053217201321 0.00020470460517305053 0 -0.013899809731771131 1.9802332492197614e-05 0 -0.013713096640390351 0.00023120455739288157 0 -0.014110027136175195 0.00023683112286593296 0 -0.014097053217201321 0.00020470460517305053 0 -0.0141533356812918 0.0002357681691035058 0 -0.014097053217201321 0.00020470460517305053 0 -0.0141533356812918 0.0002357681691035058 0 -0.014183096414560326 0.00028432997843954775 0 -0.014326835276875869 0.0001123132496337021 0 -0.0141533356812918 0.0002357681691035058 0 -0.01418170708889588 0.00026253126909817038 0 -0.020227067723581311 0.00072425722002870388 0 -0.019620821153250794 0.00065434832479889526 0 -0.01418170708889588 0.00026253126909817038 0 -0.014279429417143273 0.00046542803078175474 0 -0.014183096414560326 0.00028432997843954775 0 -0.0141533356812918 0.0002357681691035058 0 -0.01418170708889588 0.00026253126909817038 0 -0.014183096414560326 0.00028432997843954775 0 -0.019620821153250794 0.00065434832479889526 0 -0.019401893547377841 0.00072549151561839182 0 -0.025207333002447877 0.00038062069922739536 0 -0.025118491797166003 0.0010720644946590871 0 -0.024844794835878547 0.00069266691617516491 0 -0.025118491797166003 0.0010720644946590871 0 -0.024844794835878547 0.00069266691617516491 0 -0.024395101036529639 0.00098434630901251467 0 -0.025207333002447877 0.00038062069922739536 0 -0.025797976416642887 0.00053604242488630965 0 -0.025118491797166003 0.0010720644946590871 0 -0.024113072658509538 0.000712509892268367 0 -0.024395101036529639 0.00098434630901251467 0 -0.023771972951204569 0.00093295087188793196 0 -0.024513739539789529 0.00053206735325441736 0 -0.024113072658509538 0.000712509892268367 0 -0.024395101036529639 0.00098434630901251467 0 -0.019401893547377841 0.00072549151561839182 0 -0.018988202835224403 0.0008550278276276092 0 -0.024513739539789529 0.00053206735325441736 0 -0.024844794835878547 0.00069266691617516491 0 -0.024395101036529639 0.00098434630901251467 0 -0.014279429417143273 0.00046542803078175474 0 -0.014388842578474954 0.00033401572339477025 0 -0.014183096414560326 0.00028432997843954775 0 -0.014279429417143273 0.00046542803078175474 0 -0.014388842578474954 0.00033401572339477025 0 -0.014599709238171287 0.00069204326711283536 0 -0.014388842578474954 0.00033401572339477025 0 -0.014183096414560326 0.00028432997843954775 0 -0.014256641197832804 0.00014632545989854055 0 -0.014097053217201321 0.00020470460517305053 0 -0.014183096414560326 0.00028432997843954775 0 -0.014256641197832804 0.00014632545989854055 0 -0.014111895198300214 9.8727997917109317e-05 0 -0.014097053217201321 0.00020470460517305053 0 -0.014256641197832804 0.00014632545989854055 0 -0.014388842578474954 0.00033401572339477025 0 -0.014256641197832804 0.00014632545989854055 0 -0.014458044483539335 2.0346360053959613e-05 0 -0.014458044483539335 2.0346360053959613e-05 0 -0.01466500858050329 -0.00017912732880822913 0 -0.014642007005292789 0.00029327650584747494 0 -0.014642007005292789 0.00029327650584747494 0 -0.014919880436845192 0.00058602037158134439 0 -0.015031358831861486 0.00028452845351641809 0 -0.01466500858050329 -0.00017912732880822913 0 -0.014642007005292789 0.00029327650584747494 0 -0.015031358831861486 0.00028452845351641809 0 -0.014388842578474954 0.00033401572339477025 0 -0.014458044483539335 2.0346360053959613e-05 0 -0.014642007005292789 0.00029327650584747494 0 -0.014388842578474954 0.00033401572339477025 0 -0.014642007005292789 0.00029327650584747494 0 -0.014599709238171287 0.00069204326711283536 0 -0.014642007005292789 0.00029327650584747494 0 -0.014919880436845192 0.00058602037158134439 0 -0.014599709238171287 0.00069204326711283536 0 -0.014919880436845192 0.00058602037158134439 0 -0.014599709238171287 0.00069204326711283536 0 -0.015151107777068445 0.00089175092115311404 0 -0.018988202835224403 0.0008550278276276092 0 -0.019898007425579411 0.00057045008750357916 0 -0.023447586213821897 0.00059425735980590593 0 -0.023771972951204569 0.00093295087188793196 0 -0.022861220382502757 0.00096390301922950037 0 -0.024026661416447125 0.00028804435728892349 0 -0.024113072658509538 0.000712509892268367 0 -0.023771972951204569 0.00093295087188793196 0 -0.024026661416447125 0.00028804435728892349 0 -0.023447586213821897 0.00059425735980590593 0 -0.023771972951204569 0.00093295087188793196 0 -0.019898007425579411 0.00057045008750357916 0 -0.021919941827198391 0.00079734441631971716 0 -0.026220626040068563 8.0714120151198629e-05 0 -0.025928549052611521 -0.00017847854658267025 0 -0.026665059891042064 -0.00011760453758704807 0 -0.025880714518135107 0.00018794788307792106 0 -0.026220626040068563 8.0714120151198629e-05 0 -0.025928549052611521 -0.00017847854658267025 0 -0.022890365643764989 0.00029246296771637124 0 -0.023447586213821897 0.00059425735980590593 0 -0.022861220382502757 0.00096390301922950037 0 -0.024416235463450103 0.00015899550650150902 0 -0.019898007425579411 0.00057045008750357916 0 -0.019898007425579411 0.00057045008750357916 0 -0.015533628399610857 0.0013275798259646651 0 -0.015074295119750924 0.0014144341055618345 0 -0.015232347605992812 0.00068241084362367552 0 -0.016020852205393298 0.00060073741193853814 0 -0.014919880436845192 0.00058602037158134439 0 -0.015151107777068445 0.00089175092115311404 0 -0.015232347605992812 0.00068241084362367552 0 -0.014919880436845192 0.00058602037158134439 0 -0.015232347605992812 0.00068241084362367552 0 -0.015031358831861486 0.00028452845351641809 0 -0.015232347605992812 0.00068241084362367552 0 -0.016020852205393298 0.00060073741193853814 0 -0.015535929796007502 0.00030543312412828949 0 -0.015074295119750924 0.0014144341055618345 0 -0.016020852205393298 0.00060073741193853814 0 -0.016524029530583625 0.0016849601868703403 0 -0.016020852205393298 0.00060073741193853814 0 -0.015535929796007502 0.00030543312412828949 0 -0.016012420280606121 0.0001058408887950193 0 -0.015535929796007502 0.00030543312412828949 0 -0.016012420280606121 0.0001058408887950193 0 -0.015431217116314257 -7.736152344867707e-05 0 -0.015232347605992812 0.00068241084362367552 0 -0.015535929796007502 0.00030543312412828949 0 -0.015031358831861486 0.00028452845351641809 0 -0.015535929796007502 0.00030543312412828949 0 -0.015031358831861486 0.00028452845351641809 0 -0.015431217116314257 -7.736152344867707e-05 0 -0.01466500858050329 -0.00017912732880822913 0 -0.015431217116314257 -7.736152344867707e-05 0 -0.015594118835320615 -0.00081840217878845949 0 -0.01466500858050329 -0.00017912732880822913 0 -0.015031358831861486 0.00028452845351641809 0 -0.015431217116314257 -7.736152344867707e-05 0 -0.015431217116314257 -7.736152344867707e-05 0 -0.015890045907423659 -0.00035737949165000625 0 -0.015594118835320615 -0.00081840217878845949 0 -0.016012420280606121 0.0001058408887950193 0 -0.015431217116314257 -7.736152344867707e-05 0 -0.015890045907423659 -0.00035737949165000625 0 -0.014178332749107176 -0.00019839792428944821 0 -0.014071693042562746 -2.3679397640879017e-06 0 -0.013644915216218776 -1.536314832626628e-05 0 -0.015890045907423659 -0.00035737949165000625 0 -0.015594118835320615 -0.00081840217878845949 0 -0.016220743863591153 -0.00069709073979348985 0 -0.014071693042562746 -2.3679397640879017e-06 0 -0.014078254705490711 0.00019434563521973674 0 -0.013644915216218776 -1.536314832626628e-05 0 -0.014178332749107176 -0.00019839792428944821 0 -0.014071693042562746 -2.3679397640879017e-06 0 -0.014311279249715035 2.3314746534662482e-05 0 -0.014071693042562746 -2.3679397640879017e-06 0 -0.014078254705490711 0.00019434563521973674 0 -0.014311279249715035 2.3314746534662482e-05 0 -0.014311279249715035 2.3314746534662482e-05 0 -0.014480223168975138 -7.3540196932350341e-05 0 -0.014430449212447575 1.5019279145470588e-06 0 -0.014311279249715035 2.3314746534662482e-05 0 -0.014430449212447575 1.5019279145470588e-06 0 -0.01437051624138252 6.8821559552950955e-05 0 -0.014078254705490711 0.00019434563521973674 0 -0.014311279249715035 2.3314746534662482e-05 0 -0.014443142174196953 0.00039167551587969548 0 -0.014178332749107176 -0.00019839792428944821 0 -0.014311279249715035 2.3314746534662482e-05 0 -0.014480223168975138 -7.3540196932350341e-05 0 -0.014359164432000238 -9.3825152318648895e-05 0 -0.015612122494743802 -0.00079818069192128687 0 -0.01466500858050329 -0.00017912732880822913 0 -0.014178332749107176 -0.00019839792428944821 0 -0.014480223168975138 -7.3540196932350341e-05 0 -0.01466500858050329 -0.00017912732880822913 0 -0.014480223168975138 -7.3540196932350341e-05 0 -0.014504266520994877 -7.9589244524662142e-05 0 -0.014288528301182197 -2.9726858443294229e-05 0 -0.014458044483539335 2.0346360053959613e-05 0 -0.014504266520994877 -7.9589244524662142e-05 0 -0.014458044483539335 2.0346360053959613e-05 0 -0.01466500858050329 -0.00017912732880822913 0 -0.014504266520994877 -7.9589244524662142e-05 0 -0.014504266520994877 -7.9589244524662142e-05 0 -0.014404669354305434 4.1349461643051328e-05 0 -0.014452526488740942 3.5021490355511908e-05 0 -0.014494243631671004 -7.9303096296750572e-05 0 -0.014424404146922351 -0.00014727409984973048 0 -0.014288528301182197 -2.9726858443294229e-05 0 -0.014504266520994877 -7.9589244524662142e-05 0 -0.014431095245616823 -0.00027872600951722943 0 -0.014504266520994877 -7.9589244524662142e-05 0 -0.014430449212447575 1.5019279145470588e-06 0 -0.014404669354305434 4.1349461643051328e-05 0 -0.014480223168975138 -7.3540196932350341e-05 0 -0.014504266520994877 -7.9589244524662142e-05 0 -0.014430449212447575 1.5019279145470588e-06 0 -0.014404669354305434 4.1349461643051328e-05 0 -0.014328817954003354 0.00011947375344920435 0 -0.01437051624138252 6.8821559552950955e-05 0 -0.014430449212447575 1.5019279145470588e-06 0 -0.014404669354305434 4.1349461643051328e-05 0 -0.01437051624138252 6.8821559552950955e-05 0 -0.01499021520479391 0.00022150601492389272 0 -0.011878277020300121 0.00075547958343463262 0 -0.014404669354305434 4.1349461643051328e-05 0 -0.014452526488740942 3.5021490355511908e-05 0 -0.014328817954003354 0.00011947375344920435 0 -0.014479394726115711 0.00017408341817423873 0 -0.014328817954003354 0.00011947375344920435 0 -0.014360756250564813 0.000284394423531919 0 -0.014479394726115711 0.00017408341817423873 0 -0.014452526488740942 3.5021490355511908e-05 0 -0.014328817954003354 0.00011947375344920435 0 -0.014328817954003354 0.00011947375344920435 0 -0.01417437998262156 0.00028043880085362445 0 -0.014360756250564813 0.000284394423531919 0 -0.014328817954003354 0.00011947375344920435 0 -0.01417437998262156 0.00028043880085362445 0 -0.013958566419453781 -5.3016423545890006e-05 0 -0.0089991655487186867 0.0019921295236053952 0 -0.011878277020300121 0.00075547958343463262 0 -0.0042381708983312847 0.0036350210765461527 0 -0.0043811982403698813 0.0036666869685188859 0 -0.0043753583000642506 0.0038415044220936876 0 -0.0043811982403698813 0.0036666869685188859 0 -0.0045692772168329024 0.0037618100375453262 0 -0.0043753583000642506 0.0038415044220936876 0 -0.0045692772168329024 0.0037618100375453262 0 -0.0045329702402281723 0.0035199039717762389 0 -0.0048248704658624738 0.0037524930957571856 0 -0.0043811982403698813 0.0036666869685188859 0 -0.0045692772168329024 0.0037618100375453262 0 -0.0045329702402281723 0.0035199039717762389 0 -0.0046290475066754089 0.0039820124397429539 0 -0.0045692772168329024 0.0037618100375453262 0 -0.0048247845971472348 0.0039398547812012959 0 -0.0147638267553632 0.00010549079983410769 0 -0.011878277020300121 0.00075547958343463262 0 -0.0085423360327505811 0.0021924072481727124 0 -0.011878277020300121 0.00075547958343463262 0 -0.0046290475066754089 0.0039820124397429539 0 -0.0045692772168329024 0.0037618100375453262 0 -0.0043753583000642506 0.0038415044220936876 0 -0.004241043432164626 0.0034651933714905051 0 -0.0045329702402281723 0.0035199039717762389 0 -0.0042094280909175412 0.0034128732817265187 0 -0.004241043432164626 0.0034651933714905051 0 -0.0045329702402281723 0.0035199039717762389 0 -0.0043382197524860317 0.0035459223289873638 0 -0.004241043432164626 0.0034651933714905051 0 -0.0043382197524860317 0.0035459223289873638 0 -0.0042357158051988791 0.0035444500014884832 0 -0.0040774026914378427 0.00332607999240526 0 -0.0042094280909175412 0.0034128732817265187 0 -0.0040284450816800025 0.0034439549274020635 0 -0.0043316405286023107 0.0034312708473403903 0 -0.0042200985403610825 0.0034193635529553429 0 -0.0043811982403698813 0.0036666869685188859 0 -0.0045329702402281723 0.0035199039717762389 0 -0.0043382197524860317 0.0035459223289873638 0 -0.0043811982403698813 0.0036666869685188859 0 -0.0043382197524860317 0.0035459223289873638 0 -0.0042357158051988791 0.0035444500014884832 0 -0.0089991655487186867 0.0019921295236053952 0 -0.0085860203546142596 0.0023910984811508188 0 -0.0042381708983312847 0.0036350210765461527 0 -0.0043811982403698813 0.0036666869685188859 0 -0.0042357158051988791 0.0035444500014884832 0 -0.0042381708983312847 0.0036350210765461527 0 -0.0042357158051988791 0.0035444500014884832 0 -0.0041539582788384819 0.0034938833137894837 0 -0.01417437998262156 0.00028043880085362445 0 -0.014360756250564813 0.000284394423531919 0 -0.014250398036219209 0.00048780314999894385 0 -0.0080748141379096867 0.0020024837680708606 0 -0.0079718615956919994 0.0018404502439467866 0 -0.007937310398269351 0.0019698671076290985 0 -0.0041139249298488339 0.0035199234216789894 0 -0.004174296726372876 0.0034891536885459343 0 -0.0040947773908016202 0.003429526336237942 0 -0.004241043432164626 0.0034651933714905051 0 -0.004174296726372876 0.0034891536885459343 0 -0.0041635925225521819 0.0034047209246914449 0 -0.004241043432164626 0.0034651933714905051 0 -0.0042357158051988791 0.0035444500014884832 0 -0.004174296726372876 0.0034891536885459343 0 -0.0085860203546142596 0.0023910984811508188 0 -0.0040566572957901779 0.0037870619702267327 0 -0.0042357158051988791 0.0035444500014884832 0 -0.0041539582788384819 0.0034938833137894837 0 -0.004174296726372876 0.0034891536885459343 0 -0.004174296726372876 0.0034891536885459343 0 -0.0041635925225521819 0.0034047209246914449 0 -0.0040947773908016202 0.003429526336237942 0 -0.0041635925225521819 0.0034047209246914449 0 -0.0040947773908016202 0.003429526336237942 0 -0.0040717516032328076 0.003350793158864618 0 -0.003975945211315752 0.0033906129759218762 0 -0.0040947773908016202 0.003429526336237942 0 -0.0040717516032328076 0.003350793158864618 0 -0.0041139249298488339 0.0035199234216789894 0 -0.003975945211315752 0.0033906129759218762 0 -0.0040947773908016202 0.003429526336237942 0 -0.0085860203546142596 0.0023910984811508188 0 -0.0056939433624648532 0.0025374986611994992 0 -0.003975945211315752 0.0033906129759218762 0 -0.0039826118672715424 0.0032451696641949573 0 -0.0040717516032328076 0.003350793158864618 0 -0.0039826118672715424 0.0032451696641949573 0 -0.0040717516032328076 0.003350793158864618 0 -0.0040279040183322313 0.0032960840564016944 0 -0.0041635925225521819 0.0034047209246914449 0 -0.0040717516032328076 0.003350793158864618 0 -0.0041141278471674746 0.0033618927480501843 0 -0.0040717516032328076 0.003350793158864618 0 -0.0041141278471674746 0.0033618927480501843 0 -0.0040279040183322313 0.0032960840564016944 0 -0.0041141278471674746 0.0033618927480501843 0 -0.004157035187824067 0.0034108004780281087 0 -0.0041383495701940503 0.0033045874764074386 0 -0.004157035187824067 0.0034108004780281087 0 -0.0042094280909175412 0.0034128732817265187 0 -0.004104360727521795 0.0034776346781618768 0 -0.0041635925225521819 0.0034047209246914449 0 -0.0041141278471674746 0.0033618927480501843 0 -0.004157035187824067 0.0034108004780281087 0 -0.004241043432164626 0.0034651933714905051 0 -0.0041635925225521819 0.0034047209246914449 0 -0.0042094280909175412 0.0034128732817265187 0 -0.0041635925225521819 0.0034047209246914449 0 -0.004157035187824067 0.0034108004780281087 0 -0.0042094280909175412 0.0034128732817265187 0 -0.0042094280909175412 0.0034128732817265187 0 -0.004104360727521795 0.0034776346781618768 0 -0.0040284450816800025 0.0034439549274020635 0 -0.004157035187824067 0.0034108004780281087 0 -0.004104360727521795 0.0034776346781618768 0 -0.0041025417758906862 0.0034951942609672774 0 -0.004104360727521795 0.0034776346781618768 0 -0.0041025417758906862 0.0034951942609672774 0 -0.0040488226111572868 0.0035358734917353019 0 0.001232400238093721 0.0027538274759901491 0 0.0017403173726519112 0.0033828021373075831 0 0.0018958477999760906 0.0032459850781866085 0 -0.004157035187824067 0.0034108004780281087 0 -0.0041025417758906862 0.0034951942609672774 0 -0.0041383495701940503 0.0033045874764074386 0 -0.0012510783391174742 0.0030863188684596048 0 -0.0026295071926160842 0.003022582579809347 0 0.001232400238093721 0.0027538274759901491 0 0.00052398514958808793 0.0036391034291579053 0 -0.0010313171499448913 0.0026598649267723165 0 0.00036287945903357345 0.0036582613517693288 0 -0.001787187503034079 0.0034792337762996244 0 0.00052398514958808793 0.0036391034291579053 0 -0.002146340483083372 0.0037799297966516639 0 -0.0010313171499448913 0.0026598649267723165 0 0.00052398514958808793 0.0036391034291579053 0 -0.00036376073341480206 0.0038670739742037623 0 -0.0013137823473036434 0.0032759028856758458 0 0.00052398514958808793 0.0036391034291579053 0 0.00023436726490867391 0.0042190597308135779 0 -0.00036376073341480206 0.0038670739742037623 0 0.00023436726490867391 0.0042190597308135779 0 -0.00036376073341480206 0.0038670739742037623 0 -0.00053646192316801264 0.0044471550729424415 0 0.001232400238093721 0.0027538274759901491 0 0.00052398514958808793 0.0036391034291579053 0 0.0016150074549752588 0.0038598372805883599 0 0.001232400238093721 0.0027538274759901491 0 0.0016150074549752588 0.0038598372805883599 0 0.0017403173726519112 0.0033828021373075831 0 0.00052398514958808793 0.0036391034291579053 0 0.00023436726490867391 0.0042190597308135779 0 0.0016150074549752588 0.0038598372805883599 0 0.0016564415431354318 0.0039054114248785314 0 0.0014109998843507511 0.0043180952667750717 0 0.0016150074549752588 0.0038598372805883599 0 0.0018071030370670883 0.0035376282883913912 0 0.0018057172379875969 0.0037261210232531947 0 0.0016150074549752588 0.0038598372805883599 0 0.0018071030370670883 0.0035376282883913912 0 0.0027990588372438191 0.0035706103986993913 0 0.0036341593603443235 0.0032935845964985506 0 0.0028679459452366834 0.0034123846161948027 0 0.0018071030370670883 0.0035376282883913912 0 0.0027990588372438191 0.0035706103986993913 0 0.0029514254154530857 0.0034022218307075145 0 0.00023436726490867391 0.0042190597308135779 0 0.0016150074549752588 0.0038598372805883599 0 4.7646615546236213e-05 0.0051403100114775771 0 0.00023436726490867391 0.0042190597308135779 0 4.7646615546236213e-05 0.0051403100114775771 0 -0.00053646192316801264 0.0044471550729424415 0 0.0027990588372438191 0.0035706103986993913 0 0.0029514254154530857 0.0034022218307075145 0 0.0029471039253966764 0.0034331877116536686 0 0.0029514254154530857 0.0034022218307075145 0 0.0029147405019948644 0.00419719728822774 0 0.0048118468852926385 0.0036293331527844854 0 0.003920364571402395 0.0039878018828531873 0 0.0047507721187679984 0.0036480945623663841 0 0.0048191967661437218 0.0038173531009396697 0 0.0048118468852926385 0.0036293331527844854 0 0.0049111712643097787 0.0038219581290562525 0 0.0029514254154530857 0.0034022218307075145 0 0.0029471039253966764 0.0034331877116536686 0 0.0029147405019948644 0.00419719728822774 0 0.0049960219641910133 0.0030073086382336571 0 0.0029514254154530857 0.0034022218307075145 0 0.0048118468852926385 0.0036293331527844854 0 0.0051586770804089004 0.0037299838462531787 0 0.0048118468852926385 0.0036293331527844854 0 0.0049111712643097787 0.0038219581290562525 0 0.0049960219641910133 0.0030073086382336571 0 0.0048118468852926385 0.0036293331527844854 0 0.005197147489952347 0.0034383306567239802 0 0.0051586770804089004 0.0037299838462531787 0 0.0048118468852926385 0.0036293331527844854 0 0.005197147489952347 0.0034383306567239802 0 -0.0024497207184318529 0.0055537505376857263 0 -0.0015444104291564935 0.006363392509401539 0 -0.0028849979499860523 0.0069498299108065762 0 -0.0024497207184318529 0.0055537505376857263 0 -0.003584292742516319 0.0061311093208818515 0 -0.0028849979499860523 0.0069498299108065762 0 -0.0024497207184318529 0.0055537505376857263 0 -0.0036324936669844365 0.0050638475651874904 0 -0.003584292742516319 0.0061311093208818515 0 0.00094673990473409173 0.0049130622668329942 0 -0.0015206463639588922 0.0065014060853944627 0 0.00094673990473409173 0.0049130622668329942 0 0.00079643075664409177 0.0052398193440815824 0 0.0029147405019948644 0.00419719728822774 0 0.002051619027295891 0.0039896492135237634 0 0.0017964026143855373 0.0045980783265930445 0 -0.0024497207184318529 0.0055537505376857263 0 -0.0015444104291564935 0.006363392509401539 0 -0.0013641908289594284 0.004962895591306484 0 0.0027990588372438191 0.0035706103986993913 0 0.0029471039253966764 0.0034331877116536686 0 0.0033068658113078286 0.0033423978775123874 0 0.0014109998843507511 0.0043180952667750717 0 0.00094673990473409173 0.0049130622668329942 0 0.0029471039253966764 0.0034331877116536686 0 0.0029147405019948644 0.00419719728822774 0 0.002051619027295891 0.0039896492135237634 0 0.0035448544103142566 0.0032040889616645634 0 0.00094673990473409173 0.0049130622668329942 0 4.7646615546236213e-05 0.0051403100114775771 0 -0.0013641908289594284 0.004962895591306484 0 -0.00053646192316801264 0.0044471550729424415 0 4.7646615546236213e-05 0.0051403100114775771 0 -0.0015444104291564935 0.006363392509401539 0 -0.0013641908289594284 0.004962895591306484 0 -0.0013641908289594284 0.004962895591306484 0 -0.00053646192316801264 0.0044471550729424415 0 -0.0012787819014818248 0.0040532814440036018 0 -0.0013641908289594284 0.004962895591306484 0 -0.0023776272249774011 0.0040039667048588018 0 -0.0012787819014818248 0.0040532814440036018 0 -0.0024497207184318529 0.0055537505376857263 0 -0.0023776272249774011 0.0040039667048588018 0 -0.0036324936669844365 0.0050638475651874904 0 -0.0024497207184318529 0.0055537505376857263 0 -0.0013641908289594284 0.004962895591306484 0 -0.0023776272249774011 0.0040039667048588018 0 -0.003415021756078778 0.0032466512479448384 0 -0.001787187503034079 0.0034792337762996244 0 -0.0023776272249774011 0.0040039667048588018 0 -0.0031056632532635415 0.002950991601435137 0 -0.0014417561246326607 0.0031716608681536689 0 -0.0023776272249774011 0.0040039667048588018 0 -0.0031056632532635415 0.002950991601435137 0 -0.0041234681923431405 0.0038646569221856761 0 -0.00036376073341480206 0.0038670739742037623 0 -0.0012787819014818248 0.0040532814440036018 0 -0.0014417561246326607 0.0031716608681536689 0 -0.00036376073341480206 0.0038670739742037623 0 -0.00053646192316801264 0.0044471550729424415 0 -0.0012787819014818248 0.0040532814440036018 0 -0.0023776272249774011 0.0040039667048588018 0 -0.0012787819014818248 0.0040532814440036018 0 -0.0014417561246326607 0.0031716608681536689 0 -0.00049613713928954269 0.0038326623190772517 0 -0.001787187503034079 0.0034792337762996244 0 -0.002146340483083372 0.0037799297966516639 0 -0.0010313171499448913 0.0026598649267723165 0 -0.0038002996298516357 0.0031426590353865655 0 -0.0041383495701940503 0.0033045874764074386 0 -0.0040279040183322313 0.0032960840564016944 0 -0.0038002996298516357 0.0031426590353865655 0 -0.0026295071926160842 0.003022582579809347 0 -0.0036597839285178661 0.0031045724033136016 0 -0.0041141278471674746 0.0033618927480501843 0 -0.0041383495701940503 0.0033045874764074386 0 -0.0040279040183322313 0.0032960840564016944 0 -0.0038181953443599012 0.0035346974078082683 0 -0.0021044161354933058 0.0037237604235582406 0 -0.0035095735528847924 0.0029335123362999806 0 -0.0039826118672715424 0.0032451696641949573 0 -0.0040156016888439105 0.0031101666782931228 0 -0.0038684574504656596 0.0032213186942701786 0 -0.002146340483083372 0.0037799297966516639 0 -0.0038002996298516357 0.0031426590353865655 0 -0.0040156016888439105 0.0031101666782931228 0 -0.001787187503034079 0.0034792337762996244 0 -0.0035535910289496964 0.0031079671285736861 0 -0.0039826118672715424 0.0032451696641949573 0 -0.0040279040183322313 0.0032960840564016944 0 -0.0038002996298516357 0.0031426590353865655 0 -0.0039826118672715424 0.0032451696641949573 0 -0.0038002996298516357 0.0031426590353865655 0 -0.0040156016888439105 0.0031101666782931228 0 -0.0035535910289496964 0.0031079671285736861 0 -0.0057949001551646949 0.0026602269056775676 0 -0.0038181953443599012 0.0035346974078082683 0 -0.0049075248830274861 0.0021470212884942938 0 -0.0055204825972829368 0.0033448095177582931 0 -0.0057949001551646949 0.0026602269056775676 0 -0.0054022459166809143 0.0030743300759330724 0 -0.0038181953443599012 0.0035346974078082683 0 -0.0035095735528847924 0.0029335123362999806 0 -0.0049075248830274861 0.0021470212884942938 0 -0.0066305317716561351 0.0026139343622709234 0 -0.0062778880080164197 0.003024430338908039 0 -0.0071071954369294399 0.0029743565815857388 0 -0.0054022459166809143 0.0030743300759330724 0 -0.0071523419996472534 0.002961931528285543 0 -0.0060004384755012819 0.0025279283159744606 0 -0.0066305317716561351 0.0026139343622709234 0 -0.0062778880080164197 0.003024430338908039 0 -0.0051604374038350656 0.003105740114606406 0 -0.0057047769623810377 0.0041916368904806661 0 -0.0071071954369294399 0.0029743565815857388 0 -0.0054022459166809143 0.0030743300759330724 0 -0.0055431817656072004 0.0040663632217457241 0 -0.0047572781806578231 0.0027536047322284899 0 -0.0054037917701342773 0.0039847172732746673 0 -0.0041234681923431405 0.0038646569221856761 0 -0.0031056632532635415 0.002950991601435137 0 -0.0047572781806578231 0.0027536047322284899 0 -0.0041234681923431405 0.0038646569221856761 0 -0.003415021756078778 0.0032466512479448384 0 -0.0054022459166809143 0.0030743300759330724 0 -0.0023776272249774011 0.0040039667048588018 0 -0.0041234681923431405 0.0038646569221856761 0 -0.0036324936669844365 0.0050638475651874904 0 -0.0036324936669844365 0.0050638475651874904 0 -0.004759036039998517 0.0048820668008397712 0 -0.0047076505886719001 0.0060608666368358304 0 -0.0041234681923431405 0.0038646569221856761 0 -0.0036324936669844365 0.0050638475651874904 0 -0.004759036039998517 0.0048820668008397712 0 -0.0054037917701342773 0.0039847172732746673 0 -0.0041234681923431405 0.0038646569221856761 0 -0.004759036039998517 0.0048820668008397712 0 -0.0054037917701342773 0.0039847172732746673 0 -0.004759036039998517 0.0048820668008397712 0 -0.0060935798321164964 0.0052227914779567281 0 -0.0055431817656072004 0.0040663632217457241 0 -0.0060463451050404076 0.0051005941454641077 0 -0.004759036039998517 0.0048820668008397712 0 -0.0047076505886719001 0.0060608666368358304 0 -0.0060935798321164964 0.0052227914779567281 0 -0.0047076505886719001 0.0060608666368358304 0 -0.0060386681571327934 0.0065478492563784615 0 -0.0051051407946272886 0.006996351767602293 0 -0.0047076505886719001 0.0060608666368358304 0 -0.0060386681571327934 0.0065478492563784615 0 -0.0060935798321164964 0.0052227914779567281 0 -0.0047076505886719001 0.0060608666368358304 0 -0.003584292742516319 0.0061311093208818515 0 -0.0042142603644029419 0.0075126872449085419 0 -0.0036324936669844365 0.0050638475651874904 0 -0.0047076505886719001 0.0060608666368358304 0 -0.003584292742516319 0.0061311093208818515 0 -0.0052294820772974971 0.0022009251944740504 0 -0.0027370801999724004 0.0035338565452950042 0 -0.0072531610718484501 0.0058308507654932559 0 -0.0089938163945196617 0.0053711375712254148 0 -0.0076297890819654315 0.0072501954161661624 0 -0.00011783110043367278 0.0013173813732975817 0 -9.0370356268637005e-05 0.0012911425666423499 0 -7.770798745938552e-05 0.0012881798196066525 0 -0.0072531610718484501 0.0058308507654932559 0 -0.0060386681571327934 0.0065478492563784615 0 -0.0076297890819654315 0.0072501954161661624 0 -0.0072531610718484501 0.0058308507654932559 0 -0.0060386681571327934 0.0065478492563784615 0 -0.0060935798321164964 0.0052227914779567281 0 -0.0060935798321164964 0.0052227914779567281 0 -0.0076220436158036921 0.004695197744307828 0 -0.0070034835408801146 0.0040716813855385487 0 -0.0057047769623810377 0.0041916368904806661 0 -0.0060935798321164964 0.0052227914779567281 0 -0.0070034835408801146 0.0040716813855385487 0 -0.0072531610718484501 0.0058308507654932559 0 -0.0060935798321164964 0.0052227914779567281 0 -0.0076220436158036921 0.004695197744307828 0 -0.0076220436158036921 0.004695197744307828 0 -0.008290948858258429 0.0033669476516841978 0 -0.0089938163945196617 0.0053711375712254148 0 -0.0072531610718484501 0.0058308507654932559 0 -0.0076220436158036921 0.004695197744307828 0 -0.0089938163945196617 0.0053711375712254148 0 -0.0076220436158036921 0.004695197744307828 0 -0.008290948858258429 0.0033669476516841978 0 -0.0070034835408801146 0.0040716813855385487 0 -0.008290948858258429 0.0033669476516841978 0 -0.0070034835408801146 0.0040716813855385487 0 -0.0071071954369294399 0.0029743565815857388 0 -0.0057047769623810377 0.0041916368904806661 0 -0.0070034835408801146 0.0040716813855385487 0 -0.0071071954369294399 0.0029743565815857388 0 -0.0066305317716561351 0.0026139343622709234 0 -0.0071071954369294399 0.0029743565815857388 0 -0.0071435972257566319 0.0023143118808841884 0 -0.008290948858258429 0.0033669476516841978 0 -0.0071071954369294399 0.0029743565815857388 0 -0.0077204102426646258 0.0019591614565283152 0 -0.0080759912175391874 0.0022434422668727865 0 -0.0074535604863625853 0.001543854996884696 0 -0.0070286718241769379 0.0006961927767991467 0 -0.0072898585872951316 0.0011953686493799433 0 -0.0069051233086475676 0.0010095648889559053 0 -0.0072898585872951316 0.0011953686493799433 0 -0.0072133762705485728 0.0015321997119096566 0 -0.0076641512600646678 0.0018247478821949122 0 -0.0072898585872951316 0.0011953686493799433 0 -0.0072133762705485728 0.0015321997119096566 0 -0.0070061814875584348 0.0012954526784152846 0 -0.0077204102426646258 0.0019591614565283152 0 -0.0075597902374786499 0.0018563410523399716 0 -0.0076641512600646678 0.0018247478821949122 0 -0.0074535604863625853 0.001543854996884696 0 -0.0076693585515429799 0.0018438763063323774 0 -0.0077459098485240414 0.0018622643663057414 0 -0.0075597902374786499 0.0018563410523399716 0 -0.0076641512600646678 0.0018247478821949122 0 -0.0077459098485240414 0.0018622643663057414 0 -0.0075597902374786499 0.0018563410523399716 0 -0.0077394652565005309 0.0018464261049686624 0 -0.0075597902374786499 0.0018563410523399716 0 -0.0071435972257566319 0.0023143118808841884 0 -0.0066402893956059921 0.0021409640841639544 0 -0.0075597902374786499 0.0018563410523399716 0 -0.0077751307813646049 0.0017388733925317317 0 -0.0077394652565005309 0.0018464261049686624 0 -0.0071071954369294399 0.0029743565815857388 0 -0.0077204102426646258 0.0019591614565283152 0 -0.0071435972257566319 0.0023143118808841884 0 -0.0074241199840873297 0.001897091799290825 0 -0.007427002962279476 0.0018388625158087609 0 -0.0077204102426646258 0.0019591614565283152 0 -0.0075597902374786499 0.0018563410523399716 0 -0.0071435972257566319 0.0023143118808841884 0 -0.0078780207647375783 0.0016917342159872288 0 -0.0077751307813646049 0.0017388733925317317 0 -0.0078646289714957816 0.0017776032586463639 0 -0.0057949001551646949 0.0026602269056775676 0 -0.007427002962279476 0.0018388625158087609 0 -0.0060004384755012819 0.0025279283159744606 0 -0.0066305317716561351 0.0026139343622709234 0 -0.0066402893956059921 0.0021409640841639544 0 -0.0066305317716561351 0.0026139343622709234 0 -0.0071435972257566319 0.0023143118808841884 0 -0.0066402893956059921 0.0021409640841639544 0 -0.0077751307813646049 0.0017388733925317317 0 -0.0078646289714957816 0.0017776032586463639 0 -0.0078333360658069135 0.0018501856087130063 0 -0.0079718615956919994 0.0018404502439467866 0 -0.0078780207647375783 0.0016917342159872288 0 -0.0078646289714957816 0.0017776032586463639 0 -0.0056939433624648532 0.0025374986611994992 0 -0.0057949001551646949 0.0026602269056775676 0 -0.003975945211315752 0.0033906129759218762 0 -0.0039826118672715424 0.0032451696641949573 0 -0.0038684574504656596 0.0032213186942701786 0 -0.0079718615956919994 0.0018404502439467866 0 -0.007937310398269351 0.0019698671076290985 0 -0.0078667720025925123 0.001919702473649436 0 -0.0079718615956919994 0.0018404502439467866 0 -0.0078646289714957816 0.0017776032586463639 0 -0.0078333360658069135 0.0018501856087130063 0 -0.0079718615956919994 0.0018404502439467866 0 -0.0078333360658069135 0.0018501856087130063 0 -0.0078667720025925123 0.001919702473649436 0 -0.0077751307813646049 0.0017388733925317317 0 -0.0077394652565005309 0.0018464261049686624 0 -0.0078333360658069135 0.0018501856087130063 0 -0.0077394652565005309 0.0018464261049686624 0 -0.0078333360658069135 0.0018501856087130063 0 -0.0077964978676003643 0.0019025720590966782 0 -0.0078333360658069135 0.0018501856087130063 0 -0.0077964978676003643 0.0019025720590966782 0 -0.0078667720025925123 0.001919702473649436 0 -0.0077459098485240414 0.0018622643663057414 0 -0.0077964978676003643 0.0019025720590966782 0 -0.0078839424379169645 0.0018944676953872894 0 -0.0077459098485240414 0.0018622643663057414 0 -0.0077394652565005309 0.0018464261049686624 0 -0.0077964978676003643 0.0019025720590966782 0 -0.0077964978676003643 0.0019025720590966782 0 -0.0077759414944076804 0.0019711670903099403 0 -0.0078839424379169645 0.0018944676953872894 0 -0.0077759414944076804 0.0019711670903099403 0 -0.0080852356953534255 0.0018589207191025377 0 -0.0078839424379169645 0.0018944676953872894 0 -0.0077964978676003643 0.0019025720590966782 0 -0.0077759414944076804 0.0019711670903099403 0 -0.0078667720025925123 0.001919702473649436 0 -0.0077759414944076804 0.0019711670903099403 0 -0.0078667720025925123 0.001919702473649436 0 -0.0078642738898302891 0.0019861064110529231 0 -0.0077145462869754539 0.00158491601076699 0 -0.011475871067644776 0.00052980809236826852 0 -0.0077759414944076804 0.0019711670903099403 0 -0.0078642738898302891 0.0019861064110529231 0 -0.0078712345862264124 0.0020812746519852472 0 -0.0077759414944076804 0.0019711670903099403 0 -0.0080852356953534255 0.0018589207191025377 0 -0.0071050313603677698 0.0010480025147394743 0 -0.0080748141379096867 0.0020024837680708606 0 -0.007937310398269351 0.0019698671076290985 0 -0.0078712345862264124 0.0020812746519852472 0 -0.007937310398269351 0.0019698671076290985 0 -0.0078667720025925123 0.001919702473649436 0 -0.0078642738898302891 0.0019861064110529231 0 -0.007937310398269351 0.0019698671076290985 0 -0.0078642738898302891 0.0019861064110529231 0 -0.0078712345862264124 0.0020812746519852472 0 -0.014479394726115711 0.00017408341817423873 0 -0.014360756250564813 0.000284394423531919 0 -0.014539207616416005 0.00036159876857933752 0 -0.014360756250564813 0.000284394423531919 0 -0.014250398036219209 0.00048780314999894385 0 -0.014539207616416005 0.00036159876857933752 0 -0.014589350306823914 -0.00016009069733245428 0 -0.011475871067644776 0.00052980809236826852 0 -0.0085860203546142596 0.0023910984811508188 0 -0.011475871067644776 0.00052980809236826852 0 -0.0080852356953534255 0.0018589207191025377 0 -0.0071050313603677698 0.0010480025147394743 0 -0.0087929108236166065 0.00027411624956888956 0 -0.011475871067644776 0.00052980809236826852 0 -0.011161941666865703 -0.00024087826677155901 0 -0.014065545819832178 -0.00065738220874819449 0 -0.014148667631668615 -0.0008781558456283765 0 -0.013796357280995403 -0.00078073011663031889 0 -0.0080852356953534255 0.0018589207191025377 0 -0.0087929108236166065 0.00027411624956888956 0 -0.0097052378060409044 0.0013074637227782013 0 -0.0087929108236166065 0.00027411624956888956 0 -0.010792211004634664 0.00090248833999745837 0 -0.0097052378060409044 0.0013074637227782013 0 -0.010846891667651834 -0.00026755420157450078 0 -0.0087929108236166065 0.00027411624956888956 0 -0.010792211004634664 0.00090248833999745837 0 -0.010792211004634664 0.00090248833999745837 0 -0.0097052378060409044 0.0013074637227782013 0 -0.010986207307841915 0.0021194176496705866 0 -0.0072133762705485728 0.0015321997119096566 0 -0.007201843791290706 0.0019109367730390219 0 -0.0076641512600646678 0.0018247478821949122 0 -0.0081333972385138741 0.0018663394155905202 0 -0.0090369013669830116 0.0020146955280949163 0 -0.0080852356953534255 0.0018589207191025377 0 -0.007201843791290706 0.0019109367730390219 0 -0.0076641512600646678 0.0018247478821949122 0 -0.0080852356953534255 0.0018589207191025377 0 -0.0097052378060409044 0.0013074637227782013 0 -0.010986207307841915 0.0021194176496705866 0 -0.0080852356953534255 0.0018589207191025377 0 -0.0076641512600646678 0.0018247478821949122 0 -0.0078839424379169645 0.0018944676953872894 0 -0.0077459098485240414 0.0018622643663057414 0 -0.0076641512600646678 0.0018247478821949122 0 -0.0078839424379169645 0.0018944676953872894 0 -0.012491905758779991 0.0020248714049485254 0 -0.011896826131083315 0.001375594485013206 0 -0.012624952750318075 0.001101729361812802 0 -0.0097481354178211022 0.0014237844988859228 0 -0.010436641794238911 0.00069236879902051464 0 -0.012491905758779991 0.0020248714049485254 0 -0.012624952750318075 0.001101729361812802 0 -0.013259786919848708 0.0011055239327990884 0 -0.0075259992737504635 0.0013126490380751289 0 -0.010436641794238911 0.00069236879902051464 0 -0.0093737336757258784 0.0015428218841534681 0 -0.008846642118309829 0.0014727046449444332 0 -0.0097828384092520006 0.00075962276449442832 0 -0.0075259992737504635 0.0013126490380751289 0 -0.0097481354178211022 0.0014237844988859228 0 -0.007201843791290706 0.0019109367730390219 0 -0.0066729627858898933 0.0018163001892978908 0 -0.0069118457482979824 0.0015350698857314615 0 -0.010986207307841915 0.0021194176496705866 0 -0.012491905758779991 0.0020248714049485254 0 -0.011896826131083315 0.001375594485013206 0 -0.0090369013669830116 0.0020146955280949163 0 -0.0097481354178211022 0.0014237844988859228 0 -0.010792211004634664 0.00090248833999745837 0 -0.010986207307841915 0.0021194176496705866 0 -0.011896826131083315 0.001375594485013206 0 -0.010846891667651834 -0.00026755420157450078 0 -0.010792211004634664 0.00090248833999745837 0 -0.01213990542134207 0.00056286042666371259 0 -0.011896826131083315 0.001375594485013206 0 -0.01213990542134207 0.00056286042666371259 0 -0.012624952750318075 0.001101729361812802 0 -0.010792211004634664 0.00090248833999745837 0 -0.011896826131083315 0.001375594485013206 0 -0.01213990542134207 0.00056286042666371259 0 -0.01213990542134207 0.00056286042666371259 0 -0.012958310466480098 0.00028205000527587132 0 -0.012624952750318075 0.001101729361812802 0 -0.012958310466480098 0.00028205000527587132 0 -0.012624952750318075 0.001101729361812802 0 -0.013259786919848708 0.0011055239327990884 0 -0.010792915722719508 0.00016080884813763144 0 -0.010930464026326754 0.00031908167178113189 0 -0.010575612697091136 0.00057556612326286033 0 -0.0084785821865541559 0.00026747756285949579 0 -0.0084059962779291231 0.00068858988345925842 0 -0.008001518017592588 0.00063772873952666175 0 -0.01330279860001779 0.00014900749976563588 0 -0.012958310466480098 0.00028205000527587132 0 -0.013259786919848708 0.0011055239327990884 0 -0.012169366616743211 0.00013136498880959711 0 -0.010436641794238911 0.00069236879902051464 0 -0.0095710949400263159 0.00035937546714453399 0 -0.010436641794238911 0.00069236879902051464 0 -0.0090265206334417258 -0.00012023905754010983 0 -0.0084785821865541559 0.00026747756285949579 0 -0.0090542221297808638 0.00064910876152173491 0 -0.0084785821865541559 0.00026747756285949579 0 -0.0084059962779291231 0.00068858988345925842 0 -0.0090542221297808638 0.00064910876152173491 0 -0.0084059962779291231 0.00068858988345925842 0 -0.0086364348171681753 0.00093248305724308626 0 -0.0090542221297808638 0.00064910876152173491 0 -0.0086364348171681753 0.00093248305724308626 0 -0.0083737640230442615 0.0010599412991984384 0 -0.0087703159661456764 0.0011467347471649039 0 -0.0084059962779291231 0.00068858988345925842 0 -0.0084239727424221915 0.00088334560690417699 0 -0.0086364348171681753 0.00093248305724308626 0 -0.0084239727424221915 0.00088334560690417699 0 -0.0086364348171681753 0.00093248305724308626 0 -0.0083737640230442615 0.0010599412991984384 0 -0.0078154831179377288 0.0009977881903005829 0 -0.0083737640230442615 0.0010599412991984384 0 -0.0081252740156935888 0.00089159757075984384 0 -0.0064441742755650495 0.0012780128210728304 0 -0.0068757284896266528 0.0011278583213647883 0 -0.0066782945374421311 0.0012836511471983141 0 -0.0075259992737504635 0.0013126490380751289 0 -0.0076133360158055219 0.0010881064266645593 0 -0.008001518017592588 0.00063772873952666175 0 -0.0082763194616710146 0.00084421929121240565 0 -0.0081252740156935888 0.00089159757075984384 0 -0.0078154831179377288 0.0009977881903005829 0 -0.008001518017592588 0.00063772873952666175 0 -0.0081252740156935888 0.00089159757075984384 0 -0.0084059962779291231 0.00068858988345925842 0 -0.008001518017592588 0.00063772873952666175 0 -0.0082763194616710146 0.00084421929121240565 0 -0.0084059962779291231 0.00068858988345925842 0 -0.0084239727424221915 0.00088334560690417699 0 -0.0082763194616710146 0.00084421929121240565 0 -0.0082763194616710146 0.00084421929121240565 0 -0.0083737640230442615 0.0010599412991984384 0 -0.0081252740156935888 0.00089159757075984384 0 -0.0084239727424221915 0.00088334560690417699 0 -0.0082763194616710146 0.00084421929121240565 0 -0.0083737640230442615 0.0010599412991984384 0 -0.0066782945374421311 0.0012836511471983141 0 -0.006452034354930635 0.001232810614418508 0 -0.0062412110436038488 0.0011797001171953429 0 -0.0064441742755650495 0.0012780128210728304 0 -0.0065478328395596527 0.0012903951901764791 0 -0.0066782945374421311 0.0012836511471983141 0 -0.0065478328395596527 0.0012903951901764791 0 -0.0066782945374421311 0.0012836511471983141 0 -0.0065437953634379332 0.0012800674379970305 0 -0.0064441742755650495 0.0012780128210728304 0 -0.0065478328395596527 0.0012903951901764791 0 -0.0065359099102281137 0.0012742091263054109 0 -0.0066782945374421311 0.0012836511471983141 0 -0.006452034354930635 0.001232810614418508 0 -0.0065437953634379332 0.0012800674379970305 0 -0.006452034354930635 0.001232810614418508 0 -0.0065359099102281137 0.0012742091263054109 0 -0.0065437953634379332 0.0012800674379970305 0 -0.0065478328395596527 0.0012903951901764791 0 -0.0065359099102281137 0.0012742091263054109 0 -0.0065437953634379332 0.0012800674379970305 0 -0.0068757284896266528 0.0011278583213647883 0 -0.0066782945374421311 0.0012836511471983141 0 -0.0088659083756267958 0.0020537907648713965 0 -0.0076133360158055219 0.0010881064266645593 0 -0.0086917624719518288 0.0011654406737024959 0 -0.0068757284896266528 0.0011278583213647883 0 -0.0088659083756267958 0.0020537907648713965 0 -0.0087703159661456764 0.0011467347471649039 0 -0.0066782945374421311 0.0012836511471983141 0 -0.0062412110436038488 0.0011797001171953429 0 -0.0059244935853875018 0.0012540844165924523 0 -0.0067116873769639375 0.001290844176366679 0 -0.0072886889017334004 0.0015831438510284556 0 -0.0062412110436038488 0.0011797001171953429 0 -0.0060227419432253571 0.00096416441242046908 0 -0.0059244935853875018 0.0012540844165924523 0 -0.006452034354930635 0.001232810614418508 0 -0.0062412110436038488 0.0011797001171953429 0 -0.0063137962428410658 0.0010750886879581868 0 -0.0062412110436038488 0.0011797001171953429 0 -0.0063137962428410658 0.0010750886879581868 0 -0.0060227419432253571 0.00096416441242046908 0 -0.0064965386313733395 0.0011784714133093212 0 -0.0063137962428410658 0.0010750886879581868 0 -0.0065186652508767845 0.0010089592862666612 0 -0.006452034354930635 0.001232810614418508 0 -0.0065359099102281137 0.0012742091263054109 0 -0.0064965386313733395 0.0011784714133093212 0 -0.006452034354930635 0.001232810614418508 0 -0.0064965386313733395 0.0011784714133093212 0 -0.0063137962428410658 0.0010750886879581868 0 -0.0064965386313733395 0.0011784714133093212 0 -0.0067086816667444047 0.0012617979824188922 0 -0.0065186652508767845 0.0010089592862666612 0 -0.0065359099102281137 0.0012742091263054109 0 -0.0064965386313733395 0.0011784714133093212 0 -0.0067086816667444047 0.0012617979824188922 0 -0.0067086816667444047 0.0012617979824188922 0 -0.0069051233086475676 0.0010095648889559053 0 -0.0065186652508767845 0.0010089592862666612 0 -0.0064653126395477958 0.0017857423537452159 0 -0.0067086816667444047 0.0012617979824188922 0 -0.0069118457482979824 0.0015350698857314615 0 -0.0064653126395477958 0.0017857423537452159 0 -0.0066729627858898933 0.0018163001892978908 0 -0.0069118457482979824 0.0015350698857314615 0 -0.0075259992737504635 0.0013126490380751289 0 -0.0064237797544873061 0.0014321266642880065 0 -0.0064441742755650495 0.0012780128210728304 0 -0.0065359099102281137 0.0012742091263054109 0 -0.0067086816667444047 0.0012617979824188922 0 -0.0072133762705485728 0.0015321997119096566 0 -0.007201843791290706 0.0019109367730390219 0 -0.0069118457482979824 0.0015350698857314615 0 -0.0067086816667444047 0.0012617979824188922 0 -0.0069118457482979824 0.0015350698857314615 0 -0.0070061814875584348 0.0012954526784152846 0 -0.0072133762705485728 0.0015321997119096566 0 -0.0069118457482979824 0.0015350698857314615 0 -0.0070061814875584348 0.0012954526784152846 0 -0.0072898585872951316 0.0011953686493799433 0 -0.0070061814875584348 0.0012954526784152846 0 -0.0069051233086475676 0.0010095648889559053 0 -0.0067086816667444047 0.0012617979824188922 0 -0.0070061814875584348 0.0012954526784152846 0 -0.0069051233086475676 0.0010095648889559053 0 -0.0070286718241769379 0.0006961927767991467 0 -0.0069051233086475676 0.0010095648889559053 0 -0.0066999437202139717 0.00078641329683474431 0 -0.0065186652508767845 0.0010089592862666612 0 -0.0066999437202139717 0.00078641329683474431 0 -0.0063774218694255943 0.00073630292826356843 0 -0.0069051233086475676 0.0010095648889559053 0 -0.0065186652508767845 0.0010089592862666612 0 -0.0066999437202139717 0.00078641329683474431 0 -0.0066999437202139717 0.00078641329683474431 0 -0.0063774218694255943 0.00073630292826356843 0 -0.0066435886139868915 0.00045368125795129579 0 -0.0062851972484942818 0.00083748161216451044 0 -0.0067752618384199831 0.00017009135913628368 0 -0.0070286718241769379 0.0006961927767991467 0 -0.0066999437202139717 0.00078641329683474431 0 -0.0066435886139868915 0.00045368125795129579 0 -0.0070286718241769379 0.0006961927767991467 0 -0.0068350550151050037 0.0002180688938997463 0 -0.0066435886139868915 0.00045368125795129579 0 -0.0080759912175391874 0.0022434422668727865 0 -0.0052294820772974971 0.0022009251944740504 0 -0.0052294820772974971 0.0022009251944740504 0 -0.0067752618384199831 0.00017009135913628368 0 -0.0063776867747609165 0.00056035542051773599 0 -0.0062567588608590874 0.00037189785281141165 0 -0.0060791958853967211 0.00050179640537037669 0 -0.0064683900405813127 0.00038823552138553773 0 -0.0063776867747609165 0.00056035542051773599 0 -0.0062567588608590874 0.00037189785281141165 0 -0.0064683900405813127 0.00038823552138553773 0 -0.0062567588608590874 0.00037189785281141165 0 -0.0063813455352544598 0.00015786263651471394 0 -0.0062567588608590874 0.00037189785281141165 0 -0.0063813455352544598 0.00015786263651471394 0 -0.0060156576610340693 0.00023819118293574173 0 -0.0052294820772974971 0.0022009251944740504 0 -0.0032347755223181627 0.00074391201186815858 0 -0.00011783110043367278 0.0013173813732975817 0 -8.2673968066327471e-05 0.0012927155921672786 0 -7.770798745938552e-05 0.0012881798196066525 0 -0.0058017403703064163 0.00022081268452068544 0 -0.0060156576610340693 0.00023819118293574173 0 -0.0060791958853967211 0.00050179640537037669 0 -0.0062567588608590874 0.00037189785281141165 0 -0.0060156576610340693 0.00023819118293574173 0 -0.0060791958853967211 0.00050179640537037669 0 -0.0060791958853967211 0.00050179640537037669 0 -0.0058901823496632904 0.00067399297945987518 0 -0.0056637597992649164 0.00038232719207219161 0 -0.0058017403703064163 0.00022081268452068544 0 -0.0060791958853967211 0.00050179640537037669 0 -0.0056637597992649164 0.00038232719207219161 0 -0.0060791958853967211 0.00050179640537037669 0 -0.0058901823496632904 0.00067399297945987518 0 -0.0061806526843253664 0.00082845363786133595 0 -0.0063774218694255943 0.00073630292826356843 0 -0.0063776867747609165 0.00056035542051773599 0 -0.0060791958853967211 0.00050179640537037669 0 -0.0063774218694255943 0.00073630292826356843 0 -0.0060791958853967211 0.00050179640537037669 0 -0.0061806526843253664 0.00082845363786133595 0 -0.0065186652508767845 0.0010089592862666612 0 -0.0063774218694255943 0.00073630292826356843 0 -0.0061806526843253664 0.00082845363786133595 0 -0.0063137962428410658 0.0010750886879581868 0 -0.0065186652508767845 0.0010089592862666612 0 -0.0061806526843253664 0.00082845363786133595 0 -0.0058901823496632904 0.00067399297945987518 0 -0.0061806526843253664 0.00082845363786133595 0 -0.0060227419432253571 0.00096416441242046908 0 -0.0063137962428410658 0.0010750886879581868 0 -0.0061806526843253664 0.00082845363786133595 0 -0.0060227419432253571 0.00096416441242046908 0 -0.0057297421692185657 0.00083783617954100382 0 -0.0054699512515716244 0.00099962059812307288 0 -0.0059244935853875018 0.0012540844165924523 0 -0.0058901823496632904 0.00067399297945987518 0 -0.0060227419432253571 0.00096416441242046908 0 -0.0057297421692185657 0.00083783617954100382 0 -0.0060227419432253571 0.00096416441242046908 0 -0.0057297421692185657 0.00083783617954100382 0 -0.0059244935853875018 0.0012540844165924523 0 -0.0057297421692185657 0.00083783617954100382 0 -0.0054699512515716244 0.00099962059812307288 0 -0.0054608579676046912 0.00060602077005383718 0 -0.0057297421692185657 0.00083783617954100382 0 -0.0054608579676046912 0.00060602077005383718 0 -0.0056714305674447248 0.0005770339670714402 0 -0.0058901823496632904 0.00067399297945987518 0 -0.0057297421692185657 0.00083783617954100382 0 -0.0056714305674447248 0.0005770339670714402 0 -0.0058901823496632904 0.00067399297945987518 0 -0.0056714305674447248 0.0005770339670714402 0 -0.0056637597992649164 0.00038232719207219161 0 -0.0054608579676046912 0.00060602077005383718 0 -0.0056714305674447248 0.0005770339670714402 0 -0.0056637597992649164 0.00038232719207219161 0 -0.0054608579676046912 0.00060602077005383718 0 -0.0056637597992649164 0.00038232719207219161 0 -0.0052933159012465945 0.00043759633268324364 0 -0.0056637597992649164 0.00038232719207219161 0 -0.005419494899889769 0.00020310320339474682 0 -0.0052933159012465945 0.00043759633268324364 0 -0.0058017403703064163 0.00022081268452068544 0 -0.0056637597992649164 0.00038232719207219161 0 -0.0056039039116016712 5.9872347598919089e-05 0 -0.0056637597992649164 0.00038232719207219161 0 -0.005419494899889769 0.00020310320339474682 0 -0.0056039039116016712 5.9872347598919089e-05 0 -0.0003342408910407822 0.00022868358032900155 0 -0.0012906755948480693 -1.0595343949933635e-07 0 0.00085683945478843551 1.2531355579488885e-06 0 -0.0003342408910407822 0.00022868358032900155 0 -0.0012906755948480693 -1.0595343949933635e-07 0 -0.0015622930587970833 -7.0693168528115016e-05 0 -0.005419494899889769 0.00020310320339474682 0 -0.0051603033467131345 0.00028344221017924539 0 -0.0052933159012465945 0.00043759633268324364 0 -0.0051603033467131345 0.00028344221017924539 0 -0.0052933159012465945 0.00043759633268324364 0 -0.0050632408450630899 0.00060302168689980822 0 -0.0012906755948480693 -1.0595343949933635e-07 0 -0.0015622930587970833 -7.0693168528115016e-05 0 -0.0034373972524321828 -5.2310738634164399e-07 0 -0.0026836772724414476 0.00029612370234044397 0 -0.0036160781583035304 5.5243916906063485e-05 0 -0.0003342408910407822 0.00022868358032900155 0 -0.0015622930587970833 -7.0693168528115016e-05 0 -0.001639869330972824 -0.00074998988616614931 0 -0.0015622930587970833 -7.0693168528115016e-05 0 -0.0034373972524321828 -5.2310738634164399e-07 0 -0.0027852337392872675 1.508461736662674e-05 0 -0.0020631817211700489 -0.00026982516593529069 0 -0.0036160781583035304 5.5243916906063485e-05 0 -0.0034373972524321828 -5.2310738634164399e-07 0 -0.0027852337392872675 1.508461736662674e-05 0 -0.003072234150959276 -0.0002867354194061412 0 -0.0036160781583035304 5.5243916906063485e-05 0 -0.0042409058509804247 0.00015225647088999844 0 -0.0036160781583035304 5.5243916906063485e-05 0 -0.0065886218516213726 0.0010120317744405343 0 -0.0050632408450630899 0.00060302168689980822 0 -0.0050990633676458504 0.00076018095803314322 0 -0.0052761152110199815 0.00067625496842578937 0 -0.0034409738537806754 -1.0003096409837055e-06 0 -0.0040586801378319909 -5.9196374530461014e-05 0 -0.0044964624927160621 -4.6803779279823511e-05 0 -0.0042409058509804247 0.00015225647088999844 0 -0.0043214342615479568 5.8616152171646509e-06 0 -0.0048388175379782778 3.1230264088044067e-05 0 -0.0049531984470324256 0.00052027067898567723 0 -0.0047362318274437 0.00038059343537644912 0 -0.0049645093628537485 -0.00021573351673121003 0 -0.0046286681429833568 -0.00043738320138169193 0 -0.0044964624927160621 -4.6803779279823511e-05 0 -0.0034396378242870095 -1.8589397401985267e-07 0 -0.0042409058509804247 0.00015225647088999844 0 -0.0065886218516213726 0.0010120317744405343 0 -0.0042409058509804247 0.00015225647088999844 0 -0.0054608579676046912 0.00060602077005383718 0 -0.0052933159012465945 0.00043759633268324364 0 -0.0052761152110199815 0.00067625496842578937 0 -0.0054699512515716244 0.00099962059812307288 0 -0.0054608579676046912 0.00060602077005383718 0 -0.0052761152110199815 0.00067625496842578937 0 -0.0052933159012465945 0.00043759633268324364 0 -0.0050632408450630899 0.00060302168689980822 0 -0.0052761152110199815 0.00067625496842578937 0 -0.0098330848203154134 0.0023689912119256675 0 -0.010484717611749525 0.0027352341317202588 0 -0.01041446265445958 0.0021542877715808027 0 -0.0054699512515716244 0.00099962059812307288 0 -0.0050990633676458504 0.00076018095803314322 0 -0.0052761152110199815 0.00067625496842578937 0 -0.0079203920085327353 0.00186157641069897 0 -0.0065886218516213726 0.0010120317744405343 0 -0.0044964624927160621 -4.6803779279823511e-05 0 -0.0055960750422932469 -1.1675692782362426e-05 0 -0.0060747125916699833 3.0154111609845933e-07 0 -0.0049645093628537485 -0.00021573351673121003 0 -0.0055960750422932469 -1.1675692782362426e-05 0 -0.0065630550577159118 1.3485191027924042e-05 0 -0.0065886218516213726 0.0010120317744405343 0 -0.0086352390293305825 0.0012579244922687701 0 -0.0034409738537806754 -1.0003096409837055e-06 0 -0.0044964624927160621 -4.6803779279823511e-05 0 -0.0060747125916699833 3.0154111609845933e-07 0 -0.0049645093628537485 -0.00021573351673121003 0 -0.0044964624927160621 -4.6803779279823511e-05 0 -0.0055960750422932469 -1.1675692782362426e-05 0 -0.0065630550577159118 1.3485191027924042e-05 0 -0.0074529681550424276 3.067323350044877e-05 0 -0.0084866866658367939 4.5581395173517772e-05 0 -0.0055960750422932469 -1.1675692782362426e-05 0 -0.0060747125916699833 3.0154111609845933e-07 0 -0.0065630550577159118 1.3485191027924042e-05 0 -0.0060747125916699833 3.0154111609845933e-07 0 -0.0065630550577159118 1.3485191027924042e-05 0 -0.0074529681550424276 3.067323350044877e-05 0 -0.0060747125916699833 3.0154111609845933e-07 0 -0.0074529681550424276 3.067323350044877e-05 0 -0.0087096154019738522 3.9249568840562772e-08 0 -0.0074529681550424276 3.067323350044877e-05 0 -0.0084866866658367939 4.5581395173517772e-05 0 -0.0087096154019738522 3.9249568840562772e-08 0 -0.010360525601344549 0.0013756364735618097 0 -0.010060144563706762 0.0018922731394372765 0 -0.0096352508094586526 0.0016306862793621243 0 -0.0098330848203154134 0.0023689912119256675 0 -0.01041446265445958 0.0021542877715808027 0 -0.010060144563706762 0.0018922731394372765 0 -0.0086352390293305825 0.0012579244922687701 0 -0.0094179947128510098 0.00078609707213508765 0 -0.01041446265445958 0.0021542877715808027 0 -0.010360525601344549 0.0013756364735618097 0 -0.010060144563706762 0.0018922731394372765 0 -0.0098330848203154134 0.0023689912119256675 0 -0.010060144563706762 0.0018922731394372765 0 -0.0096352508094586526 0.0016306862793621243 0 -0.0079203920085327353 0.00186157641069897 0 -0.0072886889017334004 0.0015831438510284556 0 -0.0098330848203154134 0.0023689912119256675 0 -0.0088659083756267958 0.0020537907648713965 0 -0.0096352508094586526 0.0016306862793621243 0 -0.0088659083756267958 0.0020537907648713965 0 -0.0087703159661456764 0.0011467347471649039 0 -0.0096352508094586526 0.0016306862793621243 0 -0.010360525601344549 0.0013756364735618097 0 -0.0096352508094586526 0.0016306862793621243 0 -0.0096231386643080216 0.00086128822341267149 0 -0.0087703159661456764 0.0011467347471649039 0 -0.0096352508094586526 0.0016306862793621243 0 -0.0096231386643080216 0.00086128822341267149 0 -0.0096231386643080216 0.00086128822341267149 0 -0.0096029225434574698 0.00046080869521909957 0 -0.010150519206448534 0.00045347461039978328 0 -0.0086364348171681753 0.00093248305724308626 0 -0.0087703159661456764 0.0011467347471649039 0 -0.0090542221297808638 0.00064910876152173491 0 -0.0087703159661456764 0.0011467347471649039 0 -0.0096231386643080216 0.00086128822341267149 0 -0.0090542221297808638 0.00064910876152173491 0 -0.0096231386643080216 0.00086128822341267149 0 -0.0090542221297808638 0.00064910876152173491 0 -0.0096029225434574698 0.00046080869521909957 0 -0.0099593212457077199 -0.00014913210853953704 0 -0.0089117821846896369 0.00060340680276960515 0 -0.010010633235410042 0.00017697837434953984 0 -0.0091587092317400153 -0.00015715730337936376 0 -0.0096029225434574698 0.00046080869521909957 0 -0.0091587092317400153 -0.00015715730337936376 0 -0.0090542221297808638 0.00064910876152173491 0 -0.0096029225434574698 0.00046080869521909957 0 -0.010010633235410042 0.00017697837434953984 0 -0.0096029225434574698 0.00046080869521909957 0 -0.010150519206448534 0.00045347461039978328 0 -0.0110759518560558 8.9490315564982455e-05 0 -0.010010633235410042 0.00017697837434953984 0 -0.010150519206448534 0.00045347461039978328 0 -0.011344837812251349 1.8676287196947756e-06 0 -0.0110759518560558 8.9490315564982455e-05 0 -0.010150519206448534 0.00045347461039978328 0 -0.011344837812251349 1.8676287196947756e-06 0 -0.010150519206448534 0.00045347461039978328 0 -0.0087096154019738522 3.9249568840562772e-08 0 -0.0084866866658367939 4.5581395173517772e-05 0 -0.010150519206448534 0.00045347461039978328 0 -0.0087096154019738522 3.9249568840562772e-08 0 -0.0094179947128510098 0.00078609707213508765 0 -0.010001823607829962 0.00058699854905566555 0 -0.010360525601344549 0.0013756364735618097 0 -0.0096231386643080216 0.00086128822341267149 0 -0.010150519206448534 0.00045347461039978328 0 -0.0042594874565249534 0.0031190248010171278 0 -0.003660167260342251 0.0028914883568024242 0 -0.003666239408607387 0.0035104968252759362 0 -0.003660167260342251 0.0028914883568024242 0 -0.0044242592852596465 0.0021653196104804043 0 -0.0037913046748344445 0.0018668029888406631 0 -0.0042594874565249534 0.0031190248010171278 0 -0.003660167260342251 0.0028914883568024242 0 -0.0044242592852596465 0.0021653196104804043 0 -0.0042594874565249534 0.0031190248010171278 0 -0.0052783253490538626 0.0024248139730921525 0 -0.0060519941779233867 0.0033010606159617822 0 -0.0042594874565249534 0.0031190248010171278 0 -0.0052783253490538626 0.0024248139730921525 0 -0.0044242592852596465 0.0021653196104804043 0 -0.0052783253490538626 0.0024248139730921525 0 -0.0060519941779233867 0.0033010606159617822 0 -0.0061060754052499125 0.0020130225666660259 0 -0.0036874932667796678 0.003415195849501815 0 -0.003825926107009017 0.0032751071198336866 0 -0.0036215649095430115 0.0032863580184845573 0 -0.0042594874565249534 0.0031190248010171278 0 -0.003825926107009017 0.0032751071198336866 0 -0.003889640232887473 0.0033249972987565994 0 -0.0042720248681096728 0.003150561660000916 0 -0.004870065509283053 0.0033631937972929127 0 -0.0042594874565249534 0.0031190248010171278 0 -0.0036874932667796678 0.003415195849501815 0 -0.003825926107009017 0.0032751071198336866 0 -0.003825926107009017 0.0032751071198336866 0 -0.003889640232887473 0.0033249972987565994 0 -0.0036013774733104887 0.0032909745826242361 0 -0.003825926107009017 0.0032751071198336866 0 -0.0036215649095430115 0.0032863580184845573 0 -0.0036013774733104887 0.0032909745826242361 0 -0.0036215649095430115 0.0032863580184845573 0 -0.0036013774733104887 0.0032909745826242361 0 -0.0035284863662937605 0.0032790830175028918 0 -0.003889640232887473 0.0033249972987565994 0 -0.0036013774733104887 0.0032909745826242361 0 -0.0037401686575864947 0.0033397184164739623 0 -0.003889640232887473 0.0033249972987565994 0 -0.0037401686575864947 0.0033397184164739623 0 -0.003666239408607387 0.0035104968252759362 0 -0.0030633470315503137 0.0032377191778864573 0 -0.002718793391198575 0.0032134131807783567 0 -0.0042594874565249534 0.0031190248010171278 0 -0.003889640232887473 0.0033249972987565994 0 -0.003666239408607387 0.0035104968252759362 0 -0.0023777507456053844 0.0030792304602865819 0 -0.0017996791846440236 0.0029339957099843747 0 -0.0016641809451717754 0.003244418955835307 0 -0.0016641809451717754 0.003244418955835307 0 -0.00092905970879638171 0.0033475226968974624 0 -0.0013258326195730846 0.0030555358824658429 0 -0.0017996791846440236 0.0029339957099843747 0 -0.0016641809451717754 0.003244418955835307 0 -0.0013258326195730846 0.0030555358824658429 0 -0.00092905970879638171 0.0033475226968974624 0 -0.00089361375572827686 0.003011473538750566 0 -0.0013258326195730846 0.0030555358824658429 0 -0.00089361375572827686 0.003011473538750566 0 -0.0013258326195730846 0.0030555358824658429 0 -0.0012690651062119656 0.0026840041522014071 0 -0.002718793391198575 0.0032134131807783567 0 -0.0020138996426020046 0.0029534244095651449 0 -0.0017996791846440236 0.0029339957099843747 0 -0.0013258326195730846 0.0030555358824658429 0 -0.0012690651062119656 0.0026840041522014071 0 0.0021792848479905065 0.002885260431190743 0 0.0033584995469024452 0.0029139294057906107 0 0.0030664731506987908 0.0019692216439169694 0 -0.00092905970879638171 0.0033475226968974624 0 -0.00089361375572827686 0.003011473538750566 0 -0.00021876860000118658 0.0031376412415625066 0 -0.00092905970879638171 0.0033475226968974624 0 -0.00021876860000118658 0.0031376412415625066 0 -0.00015916570895031551 0.0031538807069045084 0 -0.00089361375572827686 0.003011473538750566 0 -0.00021876860000118658 0.0031376412415625066 0 -0.00063201591450290308 0.002757830553400599 0 0.00071545590121008099 0.0029811510220035188 0 0.0011105798446189102 0.0031394048054411857 0 0.002564105165066651 0.0033751136205543747 0 0.0011105798446189102 0.0031394048054411857 0 0.0040218618467655724 0.0020830128989462742 0 0.0033584995469024452 0.0029139294057906107 0 0.0030664731506987908 0.0019692216439169694 0 0.0009164102379925316 0.0031228042031506559 0 0.0011105798446189102 0.0031394048054411857 0 0.00043901836892307276 0.0032112728901968865 0 0.0011105798446189102 0.0031394048054411857 0 0.0010031492095624889 0.0028636433427730152 0 -0.00012521532675410622 0.0031768700106396277 0 -7.5241263138943232e-05 0.0027112116854545142 0 -0.00021876860000118658 0.0031376412415625066 0 -0.00012521532675410622 0.0031768700106396277 0 -7.5241263138943232e-05 0.0027112116854545142 0 -7.5241263138943232e-05 0.0027112116854545142 0 -0.00063201591450290308 0.002757830553400599 0 -0.00059388981125007526 0.0020917326506015676 0 -0.00021876860000118658 0.0031376412415625066 0 -7.5241263138943232e-05 0.0027112116854545142 0 -0.00063201591450290308 0.002757830553400599 0 0.0010031492095624889 0.0028636433427730152 0 -7.5241263138943232e-05 0.0027112116854545142 0 0.00058256476424789483 0.0019756412906813911 0 -7.5241263138943232e-05 0.0027112116854545142 0 -0.00059388981125007526 0.0020917326506015676 0 0.00058256476424789483 0.0019756412906813911 0 -0.003660167260342251 0.0028914883568024242 0 -0.0027679713268092257 0.0032554827834796562 0 -0.0026013246023385258 0.0016550870649798741 0 -0.001397895919575381 0.0024685296538009337 0 -0.0027679713268092257 0.0032554827834796562 0 -0.0026013246023385258 0.0016550870649798741 0 -0.003660167260342251 0.0028914883568024242 0 -0.003666239408607387 0.0035104968252759362 0 -0.0027679713268092257 0.0032554827834796562 0 -0.00096618677075897342 0.0022423892761673065 0 -0.0020138996426020046 0.0029534244095651449 0 -0.00089361375572827686 0.003011473538750566 0 -0.00063201591450290308 0.002757830553400599 0 -0.0012690651062119656 0.0026840041522014071 0 -0.00063201591450290308 0.002757830553400599 0 -0.00059388981125007526 0.0020917326506015676 0 -0.0012690651062119656 0.0026840041522014071 0 -0.003660167260342251 0.0028914883568024242 0 -0.0026013246023385258 0.0016550870649798741 0 -0.0037913046748344445 0.0018668029888406631 0 -0.0026013246023385258 0.0016550870649798741 0 -0.003723717606077885 0.001081487536663964 0 -0.0037913046748344445 0.0018668029888406631 0 -0.0034485971146594467 0.00018069375051782782 0 -0.0039915154346947578 0.00024828049531604629 0 -0.0026013246023385258 0.0016550870649798741 0 -0.0010023428651783151 0.00015528808544780807 0 -0.0027360706264221804 0.00023225887636563078 0 -0.0026013246023385258 0.0016550870649798741 0 -0.0027360706264221804 0.00023225887636563078 0 -0.003723717606077885 0.001081487536663964 0 -0.0027360706264221804 0.00023225887636563078 0 -0.0044933120357777074 0.00041565041054350581 0 -0.003723717606077885 0.001081487536663964 0 -0.00096618677075897342 0.0022423892761673065 0 0.00037971787092461927 0.001120154151541886 0 -0.001397895919575381 0.0024685296538009337 0 0.00044498019193500748 0.0010603531218979637 0 -0.00097091227250754853 0.0013124173205161182 0 -0.00059388981125007526 0.0020917326506015676 0 0.00058256476424789483 0.0019756412906813911 0 0.00044498019193500748 0.0010603531218979637 0 -0.001397895919575381 0.0024685296538009337 0 -0.0026013246023385258 0.0016550870649798741 0 -0.00097091227250754853 0.0013124173205161182 0 -0.0026013246023385258 0.0016550870649798741 0 -0.00097091227250754853 0.0013124173205161182 0 -0.0010023428651783151 0.00015528808544780807 0 0.001148349321016619 0.0001616090679628738 0 0.00044498019193500748 0.0010603531218979637 0 -0.0010023428651783151 0.00015528808544780807 0 -0.0065480821626554379 0.00020092256023095863 0 -0.0059594777198536614 0.00019887259379355296 0 -0.0063787757384636701 0.00049832643492242381 0 0.00044498019193500748 0.0010603531218979637 0 -0.00097091227250754853 0.0013124173205161182 0 -0.0010023428651783151 0.00015528808544780807 0 -0.0026801866104064036 0.00019272367773625127 0 -0.0034485971146594467 0.00018069375051782782 0 -0.0059594777198536614 0.00019887259379355296 0 -0.0063787757384636701 0.00049832643492242381 0 -0.0060945606137065072 0.00056718283460800516 0 -0.0063787757384636701 0.00049832643492242381 0 -0.0060945606137065072 0.00056718283460800516 0 -0.0063088910167237904 0.0007546235432246384 0 -0.0060945606137065072 0.00056718283460800516 0 -0.0057752609398490024 0.00050803703866162471 0 -0.0060068396200035536 0.00085219719906391223 0 -0.0059594777198536614 0.00019887259379355296 0 -0.0060945606137065072 0.00056718283460800516 0 -0.0057752609398490024 0.00050803703866162471 0 -0.0057752609398490024 0.00050803703866162471 0 -0.0060068396200035536 0.00085219719906391223 0 -0.0055708705820692057 0.0008253850506321392 0 -0.0057744353255359841 0.0010514531046671252 0 -0.0060068396200035536 0.00085219719906391223 0 -0.0055708705820692057 0.0008253850506321392 0 -0.0060581153675590841 0.0011397474217501988 0 -0.0057744353255359841 0.0010514531046671252 0 -0.0060068396200035536 0.00085219719906391223 0 -0.0066715062588464649 0.00081044078984294501 0 -0.0063664548347517414 0.0010519357131857385 0 -0.0063088910167237904 0.0007546235432246384 0 -0.0060945606137065072 0.00056718283460800516 0 -0.0060068396200035536 0.00085219719906391223 0 -0.0063088910167237904 0.0007546235432246384 0 -0.0063664548347517414 0.0010519357131857385 0 -0.0060581153675590841 0.0011397474217501988 0 -0.0060068396200035536 0.00085219719906391223 0 -0.0063664548347517414 0.0010519357131857385 0 -0.0060068396200035536 0.00085219719906391223 0 -0.0063088910167237904 0.0007546235432246384 0 -0.0039915154346947578 0.00024828049531604629 0 -0.0044385432850806974 0.00037383548026921978 0 -0.0049087469485269188 0.00054414144696867642 0 -0.00527526209689056 0.00022304173750824978 0 -0.005236616636112728 0.00071052700274088659 0 -0.0049087469485269188 0.00054414144696867642 0 -0.00527526209689056 0.00022304173750824978 0 -0.0044933120357777074 0.00041565041054350581 0 -0.0059594777198536614 0.00019887259379355296 0 -0.0057752609398490024 0.00050803703866162471 0 -0.00527526209689056 0.00022304173750824978 0 -0.0057752609398490024 0.00050803703866162471 0 -0.00527526209689056 0.00022304173750824978 0 -0.0054715365654843685 0.00055345965612860735 0 -0.00527526209689056 0.00022304173750824978 0 -0.0054715365654843685 0.00055345965612860735 0 -0.005236616636112728 0.00071052700274088659 0 -0.0054715365654843685 0.00055345965612860735 0 -0.0055708705820692057 0.0008253850506321392 0 -0.005236616636112728 0.00071052700274088659 0 -0.0057752609398490024 0.00050803703866162471 0 -0.0054715365654843685 0.00055345965612860735 0 -0.0055708705820692057 0.0008253850506321392 0 -0.0054895519650840132 0.0010492775525874586 0 -0.0057744353255359841 0.0010514531046671252 0 -0.0055708705820692057 0.0008253850506321392 0 -0.0054895519650840132 0.0010492775525874586 0 -0.0055708705820692057 0.0008253850506321392 0 -0.0052778646023578773 0.00086932607769972146 0 -0.005049233490779936 0.00094930687889054749 0 -0.0054895519650840132 0.0010492775525874586 0 -0.0052778646023578773 0.00086932607769972146 0 -0.0055708705820692057 0.0008253850506321392 0 -0.0052778646023578773 0.00086932607769972146 0 -0.005236616636112728 0.00071052700274088659 0 -0.005049233490779936 0.00094930687889054749 0 -0.0050075307663020674 0.00070926789383847554 0 -0.0048185076889217925 0.00040868611841427454 0 -0.005049233490779936 0.00094930687889054749 0 -0.0052778646023578773 0.00086932607769972146 0 -0.0050075307663020674 0.00070926789383847554 0 -0.0052778646023578773 0.00086932607769972146 0 -0.005236616636112728 0.00071052700274088659 0 -0.0050075307663020674 0.00070926789383847554 0 -0.0049087469485269188 0.00054414144696867642 0 -0.005236616636112728 0.00071052700274088659 0 -0.0050075307663020674 0.00070926789383847554 0 -0.0049087469485269188 0.00054414144696867642 0 -0.0050075307663020674 0.00070926789383847554 0 -0.0048185076889217925 0.00040868611841427454 0 -0.0053536460231883038 0.0012103224744108583 0 -0.0063100282710543175 0.00070182778979987245 0 -0.0048185076889217925 0.00040868611841427454 0 -0.0049401262870617047 0.00071227690819925297 0 -0.0052022852454692891 0.00055287002575406003 0 -0.0053536460231883038 0.0012103224744108583 0 -0.0048185076889217925 0.00040868611841427454 0 -0.0048548200836436815 0.00033387458578721161 0 -0.0048185076889217925 0.00040868611841427454 0 -0.0048548200836436815 0.00033387458578721161 0 -0.0048799534971190172 0.00049464875565778861 0 -0.0048185076889217925 0.00040868611841427454 0 -0.0048799534971190172 0.00049464875565778861 0 -0.0044933120357777074 0.00041565041054350581 0 -0.0048799534971190172 0.00049464875565778861 0 -0.0044933120357777074 0.00041565041054350581 0 -0.0046174913942644853 0.0011177543431024545 0 -0.0049087469485269188 0.00054414144696867642 0 -0.0048185076889217925 0.00040868611841427454 0 -0.0044933120357777074 0.00041565041054350581 0 -0.003723717606077885 0.001081487536663964 0 -0.0046174913942644853 0.0011177543431024545 0 -0.0037913046748344445 0.0018668029888406631 0 -0.0044933120357777074 0.00041565041054350581 0 -0.003723717606077885 0.001081487536663964 0 -0.0046174913942644853 0.0011177543431024545 0 -0.0048799534971190172 0.00049464875565778861 0 -0.0046174913942644853 0.0011177543431024545 0 -0.0053122677457661405 0.00089080713480554203 0 -0.0046174913942644853 0.0011177543431024545 0 -0.0044242592852596465 0.0021653196104804043 0 -0.0052623666445861927 0.0015080434553932003 0 -0.0046174913942644853 0.0011177543431024545 0 -0.0044242592852596465 0.0021653196104804043 0 -0.0037913046748344445 0.0018668029888406631 0 -0.0052783253490538626 0.0024248139730921525 0 -0.0061060754052499125 0.0020130225666660259 0 -0.0052623666445861927 0.0015080434553932003 0 -0.0061060754052499125 0.0020130225666660259 0 -0.0052623666445861927 0.0015080434553932003 0 -0.0060963623821495734 0.0010888957318012241 0 -0.0052783253490538626 0.0024248139730921525 0 -0.0044242592852596465 0.0021653196104804043 0 -0.0052623666445861927 0.0015080434553932003 0 -0.0046174913942644853 0.0011177543431024545 0 -0.0052623666445861927 0.0015080434553932003 0 -0.0053122677457661405 0.00089080713480554203 0 -0.0052623666445861927 0.0015080434553932003 0 -0.0053122677457661405 0.00089080713480554203 0 -0.0060963623821495734 0.0010888957318012241 0 -0.0053122677457661405 0.00089080713480554203 0 -0.0060963623821495734 0.0010888957318012241 0 -0.0058466981159579984 0.00028632720216406436 0 -0.0048799534971190172 0.00049464875565778861 0 -0.0053122677457661405 0.00089080713480554203 0 -0.0058466981159579984 0.00028632720216406436 0 -0.021801537100318007 0.0014475327753040131 0 -0.022119194011780866 0.0013018365430951856 0 -0.021723696423908277 0.0010939222990355697 0 -0.0048548200836436815 0.00033387458578721161 0 -0.0048799534971190172 0.00049464875565778861 0 -0.0058466981159579984 0.00028632720216406436 0 -0.011881613395892929 0.0005487582808000168 0 -0.014167363031067819 0.00081823969404810047 0 -0.021801537100318007 0.0014475327753040131 0 -0.021723696423908277 0.0010939222990355697 0 -0.021381407314711224 0.0011631856372248789 0 -0.021323082718586697 0.0014208066940817323 0 -0.021801537100318007 0.0014475327753040131 0 -0.021381407314711224 0.0011631856372248789 0 -0.021723696423908277 0.0010939222990355697 0 -0.021381407314711224 0.0011631856372248789 0 -0.021308823670447324 0.00076514471392289383 0 -0.0060963623821495734 0.0010888957318012241 0 -0.0058466981159579984 0.00028632720216406436 0 -0.0071821224900241558 0.00070587879689129672 0 -0.014167363031067819 0.00081823969404810047 0 -0.01406882996390519 0.00069486837927382531 0 -0.021381407314711224 0.0011631856372248789 0 -0.021308823670447324 0.00076514471392289383 0 -0.021009062843514923 0.0010255142877567105 0 -0.021308823670447324 0.00076514471392289383 0 -0.021009062843514923 0.0010255142877567105 0 -0.020464727609813747 0.00069433650644957676 0 -0.021381407314711224 0.0011631856372248789 0 -0.021009062843514923 0.0010255142877567105 0 -0.021111274102847299 0.0013554827819499838 0 -0.021323082718586697 0.0014208066940817323 0 -0.021381407314711224 0.0011631856372248789 0 -0.021111274102847299 0.0013554827819499838 0 -0.021382929119215469 0.0011968982538611303 0 -0.021323082718586697 0.0014208066940817323 0 -0.021111274102847299 0.0013554827819499838 0 -0.021382929119215469 0.0011968982538611303 0 -0.021111274102847299 0.0013554827819499838 0 -0.021726576706731726 0.0014645941777777078 0 -0.021495013420639968 0.0013202317397166569 0 -0.01992163323969864 0.0017607608288311726 0 -0.021111274102847299 0.0013554827819499838 0 -0.020312485208886455 0.0016143793206487404 0 -0.020556586846159432 0.0011287289422877923 0 -0.020312485208886455 0.0016143793206487404 0 -0.01998932827506561 0.00097787853848877696 0 -0.020556586846159432 0.0011287289422877923 0 -0.01992163323969864 0.0017607608288311726 0 -0.027536524868651283 0.00072125874368175085 0 -0.030852072542456893 0.00098545437754634009 0 -0.027536524868651283 0.00072125874368175085 0 -0.021382929119215469 0.0011968982538611303 0 -0.021726576706731726 0.0014645941777777078 0 -0.022745639740351035 0.0011592405149572268 0 -0.020312485208886455 0.0016143793206487404 0 -0.019703620408248659 0.0012624754284883185 0 -0.019673404212419501 0.0018224442382652176 0 -0.038758411118607346 0.00043063434942111021 0 -0.038986499651402766 0.00070242688286625214 0 -0.038657340520041078 0.0002807750174351244 0 -0.020312485208886455 0.0016143793206487404 0 -0.019703620408248659 0.0012624754284883185 0 -0.01998932827506561 0.00097787853848877696 0 -0.01998932827506561 0.00097787853848877696 0 -0.020464727609813747 0.00069433650644957676 0 -0.019412470760422067 0.00059559995867596363 0 -0.020380542418817735 0.00069940284546646172 0 -0.018936346604321953 0.00071740215537099722 0 -0.019703620408248659 0.0012624754284883185 0 -0.01998932827506561 0.00097787853848877696 0 -0.019412470760422067 0.00059559995867596363 0 -0.021009062843514923 0.0010255142877567105 0 -0.021111274102847299 0.0013554827819499838 0 -0.020556586846159432 0.0011287289422877923 0 -0.021009062843514923 0.0010255142877567105 0 -0.020556586846159432 0.0011287289422877923 0 -0.020464727609813747 0.00069433650644957676 0 -0.01998932827506561 0.00097787853848877696 0 -0.020556586846159432 0.0011287289422877923 0 -0.020464727609813747 0.00069433650644957676 0 -0.020464727609813747 0.00069433650644957676 0 -0.020240290432222221 3.7807414022195799e-05 0 -0.01921406327037864 0.00025038405407391563 0 -0.021308823670447324 0.00076514471392289383 0 -0.020464727609813747 0.00069433650644957676 0 -0.020240290432222221 3.7807414022195799e-05 0 -0.020464727609813747 0.00069433650644957676 0 -0.01921406327037864 0.00025038405407391563 0 -0.01842792091149385 0.00086729372856668993 0 -0.020240290432222221 3.7807414022195799e-05 0 -0.01921406327037864 0.00025038405407391563 0 -0.018901459081839128 -0.00020140354894921067 0 -0.014884900615546042 0.00063273527697909964 0 -0.011752421553530441 0.0017794135374693922 0 -0.0089221586276670341 0.0018622476062421242 0 -0.008974631508259551 0.002161853365928142 0 -0.009973131630012802 0.0020404250314080422 0 -0.0085692105228282172 0.0013199888287229811 0 -0.0089221586276670341 0.0018622476062421242 0 -0.009973131630012802 0.0020404250314080422 0 -0.020240290432222221 3.7807414022195799e-05 0 -0.018901459081839128 -0.00020140354894921067 0 -0.01852400953427713 -0.00067014150687168587 0 -0.008974631508259551 0.002161853365928142 0 -0.009973131630012802 0.0020404250314080422 0 -0.0087543468132583579 0.0027622090092417522 0 -0.0085692105228282172 0.0013199888287229811 0 -0.0083824986967512127 0.0020787669054353006 0 -0.0077196203149282059 0.0015637653896776881 0 -0.0085692105228282172 0.0013199888287229811 0 -0.0089221586276670341 0.0018622476062421242 0 -0.0083824986967512127 0.0020787669054353006 0 -0.008974631508259551 0.002161853365928142 0 -0.0083824986967512127 0.0020787669054353006 0 -0.0087543468132583579 0.0027622090092417522 0 -0.0089221586276670341 0.0018622476062421242 0 -0.008974631508259551 0.002161853365928142 0 -0.0083824986967512127 0.0020787669054353006 0 -0.0076673181997098366 0.0022947557559767975 0 -0.0068963731411623205 0.0016329247937240297 0 -0.0068357250206626382 0.0026127553792711536 0 -0.0083824986967512127 0.0020787669054353006 0 -0.0076673181997098366 0.0022947557559767975 0 -0.0077196203149282059 0.0015637653896776881 0 -0.0076673181997098366 0.0022947557559767975 0 -0.0077196203149282059 0.0015637653896776881 0 -0.0068963731411623205 0.0016329247937240297 0 -0.0061060754052499125 0.0020130225666660259 0 -0.0060963623821495734 0.0010888957318012241 0 -0.0068963731411623205 0.0016329247937240297 0 -0.0061060754052499125 0.0020130225666660259 0 -0.0068963731411623205 0.0016329247937240297 0 -0.0068357250206626382 0.0026127553792711536 0 -0.0060963623821495734 0.0010888957318012241 0 -0.0071821224900241558 0.00070587879689129672 0 -0.0068963731411623205 0.0016329247937240297 0 -0.0071821224900241558 0.00070587879689129672 0 -0.0077196203149282059 0.0015637653896776881 0 -0.0068963731411623205 0.0016329247937240297 0 -0.0071821224900241558 0.00070587879689129672 0 -0.0085692105228282172 0.0013199888287229811 0 -0.0077196203149282059 0.0015637653896776881 0 -0.01406882996390519 0.00069486837927382531 0 -0.014884900615546042 0.00063273527697909964 0 -0.016020852205393298 0.00060073741193853814 0 -0.016524029530583625 0.0016849601868703403 0 -0.01785284280693137 0.00051432632540738415 0 -0.016090195024960646 0.00060228456262894638 0 -0.017397837423817383 0.00061584007448277258 0 -0.026978714094058696 0.00030601011943299399 0 -0.026665059891042064 -0.00011760453758704807 0 -0.027433679118248597 -3.4715230352362892e-05 0 -0.016524029530583625 0.0016849601868703403 0 -0.01785284280693137 0.00051432632540738415 0 -0.018252349000483694 0.0018145142336143637 0 -0.021919941827198391 0.00079734441631971716 0 -0.021980410317592878 0.00088574169080061105 0 -0.01785284280693137 0.00051432632540738415 0 -0.018252349000483694 0.0018145142336143637 0 -0.019054728552619669 0.0012816639283222129 0 -0.017397837423817383 0.00061584007448277258 0 -0.018936346604321953 0.00071740215537099722 0 -0.01785284280693137 0.00051432632540738415 0 -0.019054728552619669 0.0012816639283222129 0 -0.019412470760422067 0.00059559995867596363 0 -0.027589200078844644 0.00018291390521329385 0 -0.027433679118248597 -3.4715230352362892e-05 0 -0.028185749546823659 8.3891444944528677e-05 0 -0.021980410317592878 0.00088574169080061105 0 -0.027536524868651283 0.00072125874368175085 0 -0.018252349000483694 0.0018145142336143637 0 -0.019054728552619669 0.0012816639283222129 0 -0.019673404212419501 0.0018224442382652176 0 -0.019703620408248659 0.0012624754284883185 0 -0.019054728552619669 0.0012816639283222129 0 -0.019673404212419501 0.0018224442382652176 0 -0.019703620408248659 0.0012624754284883185 0 -0.019054728552619669 0.0012816639283222129 0 -0.019412470760422067 0.00059559995867596363 0 -0.01921406327037864 0.00025038405407391563 0 -0.01842792091149385 0.00086729372856668993 0 -0.018377921242913289 5.4592988163603483e-05 0 -0.01842792091149385 0.00086729372856668993 0 -0.018377921242913289 5.4592988163603483e-05 0 -0.017697510181289546 0.00021608038307750698 0 -0.018377921242913289 5.4592988163603483e-05 0 -0.017882250646818584 -0.000260706767219298 0 -0.017697510181289546 0.00021608038307750698 0 -0.01921406327037864 0.00025038405407391563 0 -0.018901459081839128 -0.00020140354894921067 0 -0.018377921242913289 5.4592988163603483e-05 0 -0.018901459081839128 -0.00020140354894921067 0 -0.018377921242913289 5.4592988163603483e-05 0 -0.018322392128386093 -0.00050140948482798339 0 -0.018901459081839128 -0.00020140354894921067 0 -0.018322392128386093 -0.00050140948482798339 0 -0.01852400953427713 -0.00067014150687168587 0 -0.018465508563250927 -0.00058105965136069854 0 -0.017918394575825412 -0.00059126110479389431 0 -0.017298948630503758 -0.0010398188891530197 0 -0.01421525598676533 0.00047724567079188428 0 -0.011752421553530441 0.0017794135374693922 0 -0.018322392128386093 -0.00050140948482798339 0 -0.018465508563250927 -0.00058105965136069854 0 -0.017918394575825412 -0.00059126110479389431 0 -0.018377921242913289 5.4592988163603483e-05 0 -0.018322392128386093 -0.00050140948482798339 0 -0.017882250646818584 -0.000260706767219298 0 -0.018322392128386093 -0.00050140948482798339 0 -0.017918394575825412 -0.00059126110479389431 0 -0.017882250646818584 -0.000260706767219298 0 -0.017882250646818584 -0.000260706767219298 0 -0.017613574187414317 -0.00059796691301880142 0 -0.017165633006239502 -5.829056633686291e-05 0 -0.017918394575825412 -0.00059126110479389431 0 -0.017882250646818584 -0.000260706767219298 0 -0.017613574187414317 -0.00059796691301880142 0 -0.017918394575825412 -0.00059126110479389431 0 -0.017613574187414317 -0.00059796691301880142 0 -0.017298948630503758 -0.0010398188891530197 0 -0.017613574187414317 -0.00059796691301880142 0 -0.017165633006239502 -5.829056633686291e-05 0 -0.017064170263975279 -0.00052154524091681785 0 -0.017613574187414317 -0.00059796691301880142 0 -0.017064170263975279 -0.00052154524091681785 0 -0.01734415386761998 -0.00088342952008940397 0 -0.016960291206002721 0.00069587793676479542 0 -0.017697510181289546 0.00021608038307750698 0 -0.017165633006239502 -5.829056633686291e-05 0 -0.016960291206002721 0.00069587793676479542 0 -0.01842792091149385 0.00086729372856668993 0 -0.017697510181289546 0.00021608038307750698 0 -0.017882250646818584 -0.000260706767219298 0 -0.017697510181289546 0.00021608038307750698 0 -0.017165633006239502 -5.829056633686291e-05 0 -0.016960291206002721 0.00069587793676479542 0 -0.017165633006239502 -5.829056633686291e-05 0 -0.016508398365871774 0.00023138423709137968 0 -0.017165633006239502 -5.829056633686291e-05 0 -0.01650169868280825 -0.00029716634112934083 0 -0.016508398365871774 0.00023138423709137968 0 -0.017165633006239502 -5.829056633686291e-05 0 -0.017064170263975279 -0.00052154524091681785 0 -0.01650169868280825 -0.00029716634112934083 0 -0.017064170263975279 -0.00052154524091681785 0 -0.01650169868280825 -0.00029716634112934083 0 -0.016728315522125493 -0.00074622647773204957 0 -0.016012420280606121 0.0001058408887950193 0 -0.015890045907423659 -0.00035737949165000625 0 -0.01650169868280825 -0.00029716634112934083 0 -0.015890045907423659 -0.00035737949165000625 0 -0.01650169868280825 -0.00029716634112934083 0 -0.016220743863591153 -0.00069709073979348985 0 -0.01650169868280825 -0.00029716634112934083 0 -0.016220743863591153 -0.00069709073979348985 0 -0.016728315522125493 -0.00074622647773204957 0 -0.016020852205393298 0.00060073741193853814 0 -0.016012420280606121 0.0001058408887950193 0 -0.016508398365871774 0.00023138423709137968 0 -0.016020852205393298 0.00060073741193853814 0 -0.016960291206002721 0.00069587793676479542 0 -0.016508398365871774 0.00023138423709137968 0 -0.016012420280606121 0.0001058408887950193 0 -0.01650169868280825 -0.00029716634112934083 0 -0.016508398365871774 0.00023138423709137968 0 -0.0085423360327505811 0.0021924072481727124 0 -0.011954997530299522 0.00068572182952998846 0 -0.0049361949319703799 0.0041235172612537193 0 -0.0050917110207804551 0.0040527640624675922 0 -0.0048247845971472348 0.0039398547812012959 0 -0.0046290475066754089 0.0039820124397429539 0 -0.0049361949319703799 0.0041235172612537193 0 -0.0048247845971472348 0.0039398547812012959 0 -0.015612122494743802 -0.00079818069192128687 0 -0.011954997530299522 0.00068572182952998846 0 -0.015594118835320615 -0.00081840217878845949 0 -0.016466392773324429 -0.0012611142727499871 0 -0.016220743863591153 -0.00069709073979348985 0 -0.016466392773324429 -0.0012611142727499871 0 -0.016220743863591153 -0.00069709073979348985 0 -0.016728315522125493 -0.00074622647773204957 0 -0.017064170263975279 -0.00052154524091681785 0 -0.016728315522125493 -0.00074622647773204957 0 -0.01734415386761998 -0.00088342952008940397 0 -0.016466392773324429 -0.0012611142727499871 0 -0.016728315522125493 -0.00074622647773204957 0 -0.01734415386761998 -0.00088342952008940397 0 -0.011954997530299522 0.00068572182952998846 0 -0.012523759423101861 0.00063368071290980429 0 -0.0054986525451895304 0.0032521111565182617 0 -0.012523759423101861 0.00063368071290980429 0 -0.0041843399451839524 0.0030230316273240181 0 -0.0041266419869700095 0.0029738554249181919 0 -0.0046347407317125456 0.0037270574377124229 0 -0.01005379664341949 0.0012387774961225599 0 -0.010231309525968102 0.0011635665630169711 0 -0.010406664886335652 0.0014250959583000885 0 -0.011954997530299522 0.00068572182952998846 0 -0.0054986525451895304 0.0032521111565182617 0 -0.0041843399451839524 0.0030230316273240181 0 -0.0041266419869700095 0.0029738554249181919 0 -0.0039916448759110884 0.0031454659842778997 0 -0.0039868343831070269 0.0031505891796858982 0 -0.0039916448759110884 0.0031454659842778997 0 -0.0039595290024306952 0.0031938966303094105 0 -0.0039916448759110884 0.0031454659842778997 0 -0.0037962329095182997 0.0030747514741928041 0 -0.0038220081226835057 0.0032061485349915014 0 -0.0041843399451839524 0.0030230316273240181 0 -0.0047875498867035867 0.0032930762925822703 0 -0.0053800035242702587 0.0030261015177250826 0 -0.0041843399451839524 0.0030230316273240181 0 -0.0039916448759110884 0.0031454659842778997 0 -0.0037962329095182997 0.0030747514741928041 0 -0.0042144092522563214 0.0030257128440370116 0 -0.0045929175503847119 0.0030562198850416483 0 -0.0054986525451895304 0.0032521111565182617 0 -0.0037715643520710375 0.0033695710305357502 0 -0.0047875498867035867 0.0032930762925822703 0 -0.0049657013122130621 0.0035349832423794314 0 -0.0053800035242702587 0.0030261015177250826 0 -0.0041843399451839524 0.0030230316273240181 0 -0.0047875498867035867 0.0032930762925822703 0 -0.0046347407317125456 0.0037270574377124229 0 -0.016271098156371809 0.00026927262832187975 0 -0.012523759423101861 0.00063368071290980429 0 -0.0047875498867035867 0.0032930762925822703 0 -0.0046347407317125456 0.0037270574377124229 0 -0.0049657013122130621 0.0035349832423794314 0 -0.0046347407317125456 0.0037270574377124229 0 -0.0049657013122130621 0.0035349832423794314 0 -0.0053291234229564275 0.0036963438142106871 0 -0.005702897648054611 0.0042184265598339821 0 -0.0046347407317125456 0.0037270574377124229 0 -0.0053291234229564275 0.0036963438142106871 0 -0.0049657013122130621 0.0035349832423794314 0 -0.0053291234229564275 0.0036963438142106871 0 -0.0053800035242702587 0.0030261015177250826 0 -0.011752421553530441 0.0017794135374693922 0 -0.012523759423101861 0.00063368071290980429 0 -0.0053291234229564275 0.0036963438142106871 0 -0.0058611694024446361 0.0037599771454891501 0 -0.0058600812303818235 0.0034771177756743785 0 -0.005702897648054611 0.0042184265598339821 0 -0.0053291234229564275 0.0036963438142106871 0 -0.0058611694024446361 0.0037599771454891501 0 -0.0053291234229564275 0.0036963438142106871 0 -0.0053800035242702587 0.0030261015177250826 0 -0.0058600812303818235 0.0034771177756743785 0 -0.0038220081226835057 0.0032061485349915014 0 -0.0037507016202971062 0.0032752007860247434 0 -0.0037128972640225267 0.0031862506174172066 0 -0.0037962329095182997 0.0030747514741928041 0 -0.0038220081226835057 0.0032061485349915014 0 -0.0037128972640225267 0.0031862506174172066 0 -0.0038220081226835057 0.0032061485349915014 0 -0.0037507016202971062 0.0032752007860247434 0 -0.0038403150900110615 0.0032535312938318417 0 -0.0037507016202971062 0.0032752007860247434 0 -0.0036618443750252583 0.0033279068513709636 0 -0.003731053816595247 0.0033538833118473862 0 -0.0037507016202971062 0.0032752007860247434 0 -0.0038134659937029691 0.0033038813264295252 0 -0.003731053816595247 0.0033538833118473862 0 -0.0037507016202971062 0.0032752007860247434 0 -0.0038403150900110615 0.0032535312938318417 0 -0.0038134659937029691 0.0033038813264295252 0 -0.0038403150900110615 0.0032535312938318417 0 -0.0038134659937029691 0.0033038813264295252 0 -0.0039017021640083104 0.0032572042494977923 0 -0.0038134659937029691 0.0033038813264295252 0 -0.0039017021640083104 0.0032572042494977923 0 -0.0039202459742797031 0.0033114538102667762 0 -0.0039017021640083104 0.0032572042494977923 0 -0.003911097562397099 0.0032126349071619617 0 -0.0039595290024306952 0.0031938966303094105 0 -0.0038220081226835057 0.0032061485349915014 0 -0.0038403150900110615 0.0032535312938318417 0 -0.003911097562397099 0.0032126349071619617 0 -0.0038403150900110615 0.0032535312938318417 0 -0.0039017021640083104 0.0032572042494977923 0 -0.003911097562397099 0.0032126349071619617 0 -0.0039916448759110884 0.0031454659842778997 0 -0.0038220081226835057 0.0032061485349915014 0 -0.003911097562397099 0.0032126349071619617 0 -0.0039916448759110884 0.0031454659842778997 0 -0.003911097562397099 0.0032126349071619617 0 -0.0039595290024306952 0.0031938966303094105 0 -0.0039868343831070269 0.0031505891796858982 0 -0.0039595290024306952 0.0031938966303094105 0 -0.0040088730613555487 0.0032351376896338872 0 -0.0054986525451895304 0.0032521111565182617 0 -0.0042717608726906033 0.0035344931223854049 0 -0.0039017021640083104 0.0032572042494977923 0 -0.0039595290024306952 0.0031938966303094105 0 -0.0040088730613555487 0.0032351376896338872 0 -0.0039017021640083104 0.0032572042494977923 0 -0.0040088730613555487 0.0032351376896338872 0 -0.0039202459742797031 0.0033114538102667762 0 -0.0043316405286023107 0.0034312708473403903 0 -0.0042717608726906033 0.0035344931223854049 0 -0.0045692772168329024 0.0037618100375453262 0 -0.0048248704658624738 0.0037524930957571856 0 -0.0048247845971472348 0.0039398547812012959 0 -0.0050917110207804551 0.0040527640624675922 0 -0.0048248704658624738 0.0037524930957571856 0 -0.0048247845971472348 0.0039398547812012959 0 -0.0035729008448803956 0.0032109859762554484 0 -0.0036022829800371296 0.0032126571375275248 0 -0.003561404647544193 0.0032521197230209005 0 -0.004870065509283053 0.0033631937972929127 0 -0.0055396819929990687 0.0032262165781610968 0 -0.0036874932667796678 0.003415195849501815 0 -0.0036215649095430115 0.0032863580184845573 0 -0.0035305131227247452 0.0033903086100840266 0 -0.0028340818073584271 0.0034450463764898525 0 -0.0055396819929990687 0.0032262165781610968 0 -0.0060519941779233867 0.0033010606159617822 0 -0.0075881826370414194 0.0034134029675109926 0 -0.0068357250206626382 0.0026127553792711536 0 -0.0060519941779233867 0.0033010606159617822 0 -0.0061060754052499125 0.0020130225666660259 0 -0.0068357250206626382 0.0026127553792711536 0 -0.0076673181997098366 0.0022947557559767975 0 -0.0075881826370414194 0.0034134029675109926 0 -0.0068357250206626382 0.0026127553792711536 0 -0.0083824986967512127 0.0020787669054353006 0 -0.0076673181997098366 0.0022947557559767975 0 -0.0087543468132583579 0.0027622090092417522 0 -0.0055396819929990687 0.0032262165781610968 0 -0.0072022755716001511 0.003481834281537166 0 -0.0076673181997098366 0.0022947557559767975 0 -0.0075881826370414194 0.0034134029675109926 0 -0.0087543468132583579 0.0027622090092417522 0 -0.005702897648054611 0.0042184265598339821 0 -0.0065081449287562061 0.0036396085031135698 0 -0.0058611694024446361 0.0037599771454891501 0 -0.011752421553530441 0.0017794135374693922 0 -0.0072022755716001511 0.003481834281537166 0 -0.0065081449287562061 0.0036396085031135698 0 -0.0058600812303818235 0.0034771177756743785 0 -0.0063791875377253015 0.0031167176977792486 0 -0.0065081449287562061 0.0036396085031135698 0 -0.0058611694024446361 0.0037599771454891501 0 -0.0058600812303818235 0.0034771177756743785 0 -0.0037962329095182997 0.0030747514741928041 0 -0.003654963328233193 0.0031421934144413586 0 -0.0037128972640225267 0.0031862506174172066 0 -0.0053800035242702587 0.0030261015177250826 0 -0.0058600812303818235 0.0034771177756743785 0 -0.0063791875377253015 0.0031167176977792486 0 -0.0045929175503847119 0.0030562198850416483 0 -0.0049884374787172517 0.0031225232116991364 0 -0.003654963328233193 0.0031421934144413586 0 -0.0037128972640225267 0.0031862506174172066 0 -0.0036499196054942755 0.0031955197172889409 0 -0.0055396819929990687 0.0032262165781610968 0 -0.0049884374787172517 0.0031225232116991364 0 -0.0072249020029966568 0.0031624107517842824 0 -0.0065081449287562061 0.0036396085031135698 0 -0.0063791875377253015 0.0031167176977792486 0 -0.0035729008448803956 0.0032109859762554484 0 -0.003654963328233193 0.0031421934144413586 0 -0.0036022829800371296 0.0032126571375275248 0 -0.003654963328233193 0.0031421934144413586 0 -0.0036022829800371296 0.0032126571375275248 0 -0.0036499196054942755 0.0031955197172889409 0 -0.0036022829800371296 0.0032126571375275248 0 -0.0036375158152762055 0.0032401837078793812 0 -0.0036499196054942755 0.0031955197172889409 0 -0.0036022829800371296 0.0032126571375275248 0 -0.0036375158152762055 0.0032401837078793812 0 -0.0035872654603598202 0.003254886671358188 0 -0.0036375158152762055 0.0032401837078793812 0 -0.0035872654603598202 0.003254886671358188 0 -0.0036123498898001814 0.0032883264749238809 0 -0.0037507016202971062 0.0032752007860247434 0 -0.0037128972640225267 0.0031862506174172066 0 -0.0036762409071693703 0.0032713043235153292 0 -0.0036375158152762055 0.0032401837078793812 0 -0.0037128972640225267 0.0031862506174172066 0 -0.0036762409071693703 0.0032713043235153292 0 -0.0036375158152762055 0.0032401837078793812 0 -0.0037128972640225267 0.0031862506174172066 0 -0.0036499196054942755 0.0031955197172889409 0 -0.0037507016202971062 0.0032752007860247434 0 -0.0036762409071693703 0.0032713043235153292 0 -0.0036618443750252583 0.0033279068513709636 0 -0.0036375158152762055 0.0032401837078793812 0 -0.0036762409071693703 0.0032713043235153292 0 -0.0036123498898001814 0.0032883264749238809 0 -0.0036762409071693703 0.0032713043235153292 0 -0.0036618443750252583 0.0033279068513709636 0 -0.0036123498898001814 0.0032883264749238809 0 -0.0036618443750252583 0.0033279068513709636 0 -0.0036123498898001814 0.0032883264749238809 0 -0.003579903126037252 0.0033491965830693563 0 -0.0036123498898001814 0.0032883264749238809 0 -0.0035532294554990814 0.0032891040398080012 0 -0.003579903126037252 0.0033491965830693563 0 -0.0035872654603598202 0.003254886671358188 0 -0.0036123498898001814 0.0032883264749238809 0 -0.0035532294554990814 0.0032891040398080012 0 -0.0035532294554990814 0.0032891040398080012 0 -0.0035284863662937605 0.0032790830175028918 0 -0.0034997464056639306 0.0033535471746971904 0 -0.0035532294554990814 0.0032891040398080012 0 -0.003561404647544193 0.0032521197230209005 0 -0.0035284863662937605 0.0032790830175028918 0 -0.0035872654603598202 0.003254886671358188 0 -0.0035532294554990814 0.0032891040398080012 0 -0.003561404647544193 0.0032521197230209005 0 -0.0036022829800371296 0.0032126571375275248 0 -0.0035872654603598202 0.003254886671358188 0 -0.003561404647544193 0.0032521197230209005 0 -0.0036215649095430115 0.0032863580184845573 0 -0.003561404647544193 0.0032521197230209005 0 -0.0035284863662937605 0.0032790830175028918 0 -0.0036215649095430115 0.0032863580184845573 0 -0.0035729008448803956 0.0032109859762554484 0 -0.003561404647544193 0.0032521197230209005 0 -0.0036013774733104887 0.0032909745826242361 0 -0.0035284863662937605 0.0032790830175028918 0 -0.0034469231984406942 0.0033126086619503997 0 -0.0035284863662937605 0.0032790830175028918 0 -0.0034469231984406942 0.0033126086619503997 0 -0.0034997464056639306 0.0033535471746971904 0 -0.0034469231984406942 0.0033126086619503997 0 -0.0034142969242917181 0.0034482868236916492 0 -0.0032114817309490261 0.003358024712693107 0 -0.0034469231984406942 0.0033126086619503997 0 -0.0034142969242917181 0.0034482868236916492 0 -0.0034997464056639306 0.0033535471746971904 0 -0.0034142969242917181 0.0034482868236916492 0 -0.0035318949231062623 0.0034508437043356335 0 -0.0034609836844394287 0.0036031621042023195 0 -0.0034997464056639306 0.0033535471746971904 0 -0.003579903126037252 0.0033491965830693563 0 -0.0035318949231062623 0.0034508437043356335 0 -0.0035532294554990814 0.0032891040398080012 0 -0.0034997464056639306 0.0033535471746971904 0 -0.003579903126037252 0.0033491965830693563 0 -0.0034142969242917181 0.0034482868236916492 0 -0.0034997464056639306 0.0033535471746971904 0 -0.0035318949231062623 0.0034508437043356335 0 -0.003579903126037252 0.0033491965830693563 0 -0.0036447694437255918 0.0034261188811494565 0 -0.0035318949231062623 0.0034508437043356335 0 -0.0036618443750252583 0.0033279068513709636 0 -0.003579903126037252 0.0033491965830693563 0 -0.0036447694437255918 0.0034261188811494565 0 -0.0036618443750252583 0.0033279068513709636 0 -0.0036447694437255918 0.0034261188811494565 0 -0.003731053816595247 0.0033538833118473862 0 -0.0036338078183710365 0.0035148982803542899 0 -0.0036447694437255918 0.0034261188811494565 0 -0.0035619469998203687 0.0035582801206949341 0 -0.0035318949231062623 0.0034508437043356335 0 -0.0035619469998203687 0.0035582801206949341 0 -0.0034609836844394287 0.0036031621042023195 0 -0.0036447694437255918 0.0034261188811494565 0 -0.0035318949231062623 0.0034508437043356335 0 -0.0035619469998203687 0.0035582801206949341 0 -0.0035619469998203687 0.0035582801206949341 0 -0.0034866424350649119 0.0037198341647466976 0 -0.0034609836844394287 0.0036031621042023195 0 -0.0036338078183710365 0.0035148982803542899 0 -0.0035619469998203687 0.0035582801206949341 0 -0.0035895457026522211 0.0036297149506742035 0 -0.0035619469998203687 0.0035582801206949341 0 -0.0035895457026522211 0.0036297149506742035 0 -0.0034866424350649119 0.0037198341647466976 0 -0.0035895457026522211 0.0036297149506742035 0 -0.0034866424350649119 0.0037198341647466976 0 -0.0035396968777959203 0.0037250548069885469 0 -0.0034866424350649119 0.0037198341647466976 0 -0.0033333284132303987 0.0037876695827434919 0 -0.0034609836844394287 0.0036031621042023195 0 -0.0034866424350649119 0.0037198341647466976 0 -0.0033333284132303987 0.0037876695827434919 0 -0.0033285886003359541 0.0038923936147790303 0 -0.0033333284132303987 0.0037876695827434919 0 -0.0030773645770005818 0.0040505791046852148 0 -0.0032143508108945784 0.003720960114474045 0 -0.0033333284132303987 0.0037876695827434919 0 -0.0034609836844394287 0.0036031621042023195 0 -0.0032143508108945784 0.003720960114474045 0 -0.0034142969242917181 0.0034482868236916492 0 -0.0034609836844394287 0.0036031621042023195 0 -0.0032143508108945784 0.003720960114474045 0 -0.0040774026914378427 0.00332607999240526 0 -0.0039125096184969123 0.0033993428804345843 0 -0.0040284450816800025 0.0034439549274020635 0 -0.0040774026914378427 0.00332607999240526 0 -0.0040088730613555487 0.0032351376896338872 0 -0.0039202459742797031 0.0033114538102667762 0 -0.0040774026914378427 0.00332607999240526 0 -0.0039202459742797031 0.0033114538102667762 0 -0.0039125096184969123 0.0033993428804345843 0 -0.0039202459742797031 0.0033114538102667762 0 -0.0039125096184969123 0.0033993428804345843 0 -0.003822220931400101 0.0033613559154201749 0 -0.0039125096184969123 0.0033993428804345843 0 -0.0037804475808498731 0.003441513155119493 0 -0.0037989080445435357 0.0034892460673945623 0 -0.0039125096184969123 0.0033993428804345843 0 -0.0037804475808498731 0.003441513155119493 0 -0.003822220931400101 0.0033613559154201749 0 -0.0037804475808498731 0.003441513155119493 0 -0.003822220931400101 0.0033613559154201749 0 -0.0037362959469212404 0.0034047103323020978 0 -0.0038134659937029691 0.0033038813264295252 0 -0.0039202459742797031 0.0033114538102667762 0 -0.003822220931400101 0.0033613559154201749 0 -0.0036447694437255918 0.0034261188811494565 0 -0.0037362959469212404 0.0034047103323020978 0 -0.003731053816595247 0.0033538833118473862 0 -0.003822220931400101 0.0033613559154201749 0 -0.0037362959469212404 0.0034047103323020978 0 -0.003731053816595247 0.0033538833118473862 0 -0.0038134659937029691 0.0033038813264295252 0 -0.003822220931400101 0.0033613559154201749 0 -0.003731053816595247 0.0033538833118473862 0 -0.0036447694437255918 0.0034261188811494565 0 -0.0037362959469212404 0.0034047103323020978 0 -0.0037115540999926155 0.0034713107544367522 0 -0.0036338078183710365 0.0035148982803542899 0 -0.0036447694437255918 0.0034261188811494565 0 -0.0037115540999926155 0.0034713107544367522 0 -0.0037804475808498731 0.003441513155119493 0 -0.0037362959469212404 0.0034047103323020978 0 -0.0037115540999926155 0.0034713107544367522 0 -0.0037804475808498731 0.003441513155119493 0 -0.0037115540999926155 0.0034713107544367522 0 -0.0037000453392886335 0.0035343112797771993 0 -0.0035895457026522211 0.0036297149506742035 0 -0.0037000453392886335 0.0035343112797771993 0 -0.0036485456578574755 0.0036135509419237349 0 -0.0036338078183710365 0.0035148982803542899 0 -0.0037115540999926155 0.0034713107544367522 0 -0.0037000453392886335 0.0035343112797771993 0 -0.0036338078183710365 0.0035148982803542899 0 -0.0035895457026522211 0.0036297149506742035 0 -0.0037000453392886335 0.0035343112797771993 0 -0.0035895457026522211 0.0036297149506742035 0 -0.0035639515458507944 0.0036950621063048627 0 -0.0035396968777959203 0.0037250548069885469 0 -0.0035895457026522211 0.0036297149506742035 0 -0.0035639515458507944 0.0036950621063048627 0 -0.0036485456578574755 0.0036135509419237349 0 -0.0035639515458507944 0.0036950621063048627 0 -0.0036485456578574755 0.0036135509419237349 0 -0.0036904293430084362 0.0036520557191507047 0 -0.0036485456578574755 0.0036135509419237349 0 -0.0036904293430084362 0.0036520557191507047 0 -0.0037562625504079534 0.0035544533165804935 0 -0.0036904293430084362 0.0036520557191507047 0 -0.0037562625504079534 0.0035544533165804935 0 -0.0038332620942729033 0.0035671054886825112 0 -0.0037000453392886335 0.0035343112797771993 0 -0.0037562625504079534 0.0035544533165804935 0 -0.0037989080445435357 0.0034892460673945623 0 -0.0037000453392886335 0.0035343112797771993 0 -0.0036485456578574755 0.0036135509419237349 0 -0.0037562625504079534 0.0035544533165804935 0 -0.0037804475808498731 0.003441513155119493 0 -0.0037000453392886335 0.0035343112797771993 0 -0.0037989080445435357 0.0034892460673945623 0 -0.0039125096184969123 0.0033993428804345843 0 -0.0037989080445435357 0.0034892460673945623 0 -0.0038971327242685811 0.003484621279212985 0 -0.0039125096184969123 0.0033993428804345843 0 -0.0038971327242685811 0.003484621279212985 0 -0.0040284450816800025 0.0034439549274020635 0 -0.0037562625504079534 0.0035544533165804935 0 -0.0038971327242685811 0.003484621279212985 0 -0.0038332620942729033 0.0035671054886825112 0 -0.0037562625504079534 0.0035544533165804935 0 -0.0037989080445435357 0.0034892460673945623 0 -0.0038971327242685811 0.003484621279212985 0 -0.0036904293430084362 0.0036520557191507047 0 -0.0038332620942729033 0.0035671054886825112 0 -0.0038673723770316229 0.0036337511121213055 0 -0.0038332620942729033 0.0035671054886825112 0 -0.0038673723770316229 0.0036337511121213055 0 -0.0039490805331839464 0.0035289866271078739 0 -0.0038673723770316229 0.0036337511121213055 0 -0.0039490805331839464 0.0035289866271078739 0 -0.0039886913807242203 0.0035923311395490085 0 -0.0038971327242685811 0.003484621279212985 0 -0.0038332620942729033 0.0035671054886825112 0 -0.0039490805331839464 0.0035289866271078739 0 -0.0039490805331839464 0.0035289866271078739 0 -0.0040269908783929212 0.0035157663074556018 0 -0.0040284450816800025 0.0034439549274020635 0 -0.004104360727521795 0.0034776346781618768 0 -0.0040269908783929212 0.0035157663074556018 0 -0.0040284450816800025 0.0034439549274020635 0 -0.0039490805331839464 0.0035289866271078739 0 -0.0040269908783929212 0.0035157663074556018 0 -0.0039886913807242203 0.0035923311395490085 0 -0.004104360727521795 0.0034776346781618768 0 -0.0040269908783929212 0.0035157663074556018 0 -0.0040488226111572868 0.0035358734917353019 0 -0.0040269908783929212 0.0035157663074556018 0 -0.0040488226111572868 0.0035358734917353019 0 -0.0039886913807242203 0.0035923311395490085 0 -0.0038971327242685811 0.003484621279212985 0 -0.0039490805331839464 0.0035289866271078739 0 -0.0040284450816800025 0.0034439549274020635 0 0.0019489710563431861 0.003501532580817117 0 0.0021812435473013156 0.0030888699471423794 0 0.0019706238309795524 0.0038222619476750135 0 -0.0019129406877485603 0.0038124596159405427 0 0.0026018316160309912 0.0029945690681016483 0 0.0016150074549752588 0.0038598372805883599 0 0.0019489710563431861 0.003501532580817117 0 0.0018057172379875969 0.0037261210232531947 0 0.0019489710563431861 0.003501532580817117 0 0.0019706238309795524 0.0038222619476750135 0 0.0018057172379875969 0.0037261210232531947 0 0.0016150074549752588 0.0038598372805883599 0 0.0019489710563431861 0.003501532580817117 0 0.0017403173726519112 0.0033828021373075831 0 0.0019489710563431861 0.003501532580817117 0 0.0017403173726519112 0.0033828021373075831 0 0.0018958477999760906 0.0032459850781866085 0 -0.0041025417758906862 0.0034951942609672774 0 -0.0040488226111572868 0.0035358734917353019 0 -0.003983121134966891 0.003605892944192452 0 0.001232400238093721 0.0027538274759901491 0 0.0018958477999760906 0.0032459850781866085 0 0.0021812435473013156 0.0030888699471423794 0 -0.0012510783391174742 0.0030863188684596048 0 -0.0019129406877485603 0.0038124596159405427 0 -0.0039886913807242203 0.0035923311395490085 0 -0.003978311051189864 0.0037379210779704295 0 -0.0039042038643920915 0.0036828422543348717 0 -0.0029639802645336174 0.0035027517274149119 0 -0.0019129406877485603 0.0038124596159405427 0 -0.0040488226111572868 0.0035358734917353019 0 -0.0039886913807242203 0.0035923311395490085 0 -0.003983121134966891 0.003605892944192452 0 0.0019489710563431861 0.003501532580817117 0 0.0018958477999760906 0.0032459850781866085 0 0.0021812435473013156 0.0030888699471423794 0 -0.0019129406877485603 0.0038124596159405427 0 -0.003544762914225941 0.0038451147045602914 0 -0.002186229606870631 0.0039688396305767497 0 -0.0025858471278911721 0.0037447255351072072 0 -0.0025526702754035836 0.0033167070986539196 0 -0.002186229606870631 0.0039688396305767497 0 -0.0025858471278911721 0.0037447255351072072 0 -0.0029876554149245553 0.0039427662301654781 0 -0.003978311051189864 0.0037379210779704295 0 -0.0039042038643920915 0.0036828422543348717 0 -0.0037882796261548327 0.0037654090948821247 0 -0.0038673723770316229 0.0036337511121213055 0 -0.0039042038643920915 0.0036828422543348717 0 -0.0037882796261548327 0.0037654090948821247 0 -0.0038673723770316229 0.0036337511121213055 0 -0.0039886913807242203 0.0035923311395490085 0 -0.0039042038643920915 0.0036828422543348717 0 -0.0036904293430084362 0.0036520557191507047 0 -0.0038673723770316229 0.0036337511121213055 0 -0.0037882796261548327 0.0037654090948821247 0 -0.0025858471278911721 0.0037447255351072072 0 -0.0029876554149245553 0.0039427662301654781 0 -0.0028421371244401637 0.0035004919794470969 0 -0.0029876554149245553 0.0039427662301654781 0 -0.0028421371244401637 0.0035004919794470969 0 -0.0031938290896486045 0.003619956326901274 0 -0.002186229606870631 0.0039688396305767497 0 -0.0025526702754035836 0.0033167070986539196 0 -0.0022891654069383208 0.0025884418697409857 0 -0.0028421371244401637 0.0035004919794470969 0 -0.0031938290896486045 0.003619956326901274 0 -0.0029997477630522582 0.002786119821473163 0 -0.0025858471278911721 0.0037447255351072072 0 -0.0028421371244401637 0.0035004919794470969 0 -0.0025526702754035836 0.0033167070986539196 0 -0.0025526702754035836 0.0033167070986539196 0 -0.0029997477630522582 0.002786119821473163 0 -0.0022891654069383208 0.0025884418697409857 0 -0.0028421371244401637 0.0035004919794470969 0 -0.0025526702754035836 0.0033167070986539196 0 -0.0029997477630522582 0.002786119821473163 0 -0.0031938290896486045 0.003619956326901274 0 -0.0035063980481357111 0.0036241924848045451 0 -0.0030991060050293488 0.0034088336355505961 0 -0.002876500822037911 0.0039347173488044054 0 0.0033763422893423353 0.0032604436272556528 0 0.0039147079329693918 0.0044480665609525887 0 0.0033763422893423353 0.0032604436272556528 0 -0.0031938290896486045 0.003619956326901274 0 -0.0035081520129456993 0.0037713007804876381 0 -0.0035063980481357111 0.0036241924848045451 0 -0.0035639515458507944 0.0036950621063048627 0 -0.0036904293430084362 0.0036520557191507047 0 -0.0035081520129456993 0.0037713007804876381 0 -0.003544762914225941 0.0038451147045602914 0 -0.0034236911298672077 0.0038011323452794448 0 -0.0029876554149245553 0.0039427662301654781 0 -0.0031938290896486045 0.003619956326901274 0 -0.0035081520129456993 0.0037713007804876381 0 -0.0036904293430084362 0.0036520557191507047 0 -0.0037882796261548327 0.0037654090948821247 0 -0.0035081520129456993 0.0037713007804876381 0 -0.0035639515458507944 0.0036950621063048627 0 -0.0035081520129456993 0.0037713007804876381 0 -0.0035396968777959203 0.0037250548069885469 0 -0.0035081520129456993 0.0037713007804876381 0 -0.0035063980481357111 0.0036241924848045451 0 -0.0035396968777959203 0.0037250548069885469 0 0.010401075531319925 0.0036633389927788122 0 0.012418134882900748 0.0037531137328915575 0 0.011437401063030249 0.0043686887242181159 0 0.01077641296720642 0.0051743613682708016 0 0.010615212521378531 0.0044250062867039813 0 0.0097602612818838939 0.004485900157388944 0 0.01077641296720642 0.0051743613682708016 0 0.010615212521378531 0.0044250062867039813 0 0.011437401063030249 0.0043686887242181159 0 0.010615212521378531 0.0044250062867039813 0 0.010401075531319925 0.0036633389927788122 0 0.011437401063030249 0.0043686887242181159 0 0.011411181557372949 0.0037198864889172283 0 0.012356827189985204 0.00373842387579661 0 0.012386909252675701 0.0037413413497524731 0 0.012484792879508854 0.0036514894525216165 0 0.012258767921607695 0.0036458176875559098 0 0.012386909252675701 0.0037413413497524731 0 0.012484792879508854 0.0036514894525216165 0 0.012418134882900748 0.0037531137328915575 0 0.012461973216667227 0.0036582491339309368 0 0.012236530557832005 0.0036858029909609073 0 0.012484792879508854 0.0036514894525216165 0 0.012587157314800821 0.0035604890418514754 0 0.012418134882900748 0.0037531137328915575 0 0.012587157314800821 0.0035604890418514754 0 0.012418134882900748 0.0037531137328915575 0 0.012743769349202806 0.0035064473392518516 0 0.012418134882900748 0.0037531137328915575 0 0.011437401063030249 0.0043686887242181159 0 0.012487717854835266 0.0046987229495804089 0 0.01077641296720642 0.0051743613682708016 0 0.011437401063030249 0.0043686887242181159 0 0.012487717854835266 0.0046987229495804089 0 0.012418134882900748 0.0037531137328915575 0 0.012487717854835266 0.0046987229495804089 0 0.012743769349202806 0.0035064473392518516 0 0.0033763422893423353 0.0032604436272556528 0 0.010178155298252929 0.0034883790305454921 0 0.0026018316160309912 0.0029945690681016483 0 0.0059009461842946488 0.0035802005966066638 0 0.0059812917327862281 0.0032792429710590096 0 0.0059083352153434963 0.0033004910096139698 0 0.0060066450403982322 0.0034263899653539922 0 0.0033763422893423353 0.0032604436272556528 0 0.0026018316160309912 0.0029945690681016483 0 0.0059083352153434963 0.0033004910096139698 0 0.0060066450403982322 0.0034263899653539922 0 0.0059637065933855612 0.003419679411113903 0 0.012587157314800821 0.0035604890418514754 0 0.012743769349202806 0.0035064473392518516 0 0.012697202891677735 0.0034966425877626384 0 0.0057181397263065536 0.0036116520864811759 0 0.0055646158054990392 0.003719809946936917 0 0.0056155089890520113 0.003855466636459168 0 0.0055396507691462355 0.0035472711865162953 0 0.0053742140158748166 0.0034901674626202253 0 0.0055144463600890316 0.0032556634275349946 0 0.0057181397263065536 0.0036116520864811759 0 0.0055396507691462355 0.0035472711865162953 0 0.0055144463600890316 0.0032556634275349946 0 0.0057181397263065536 0.0036116520864811759 0 0.0055396507691462355 0.0035472711865162953 0 0.0055646158054990392 0.003719809946936917 0 0.0055396507691462355 0.0035472711865162953 0 0.0054288653528306472 0.0036742163186086222 0 0.0053742140158748166 0.0034901674626202253 0 0.0055396507691462355 0.0035472711865162953 0 0.0054288653528306472 0.0036742163186086222 0 0.0055646158054990392 0.003719809946936917 0 0.0051586770804089004 0.0037299838462531787 0 0.0054288653528306472 0.0036742163186086222 0 0.0053742140158748166 0.0034901674626202253 0 0.0051586770804089004 0.0037299838462531787 0 0.0054288653528306472 0.0036742163186086222 0 0.0054277671254836166 0.003887904717521244 0 0.0051586770804089004 0.0037299838462531787 0 0.005197147489952347 0.0034383306567239802 0 0.0053742140158748166 0.0034901674626202253 0 0.005197147489952347 0.0034383306567239802 0 0.0053742140158748166 0.0034901674626202253 0 0.0055144463600890316 0.0032556634275349946 0 0.0056893054081072645 0.0029630972894952937 0 0.0057181397263065536 0.0036116520864811759 0 0.0055144463600890316 0.0032556634275349946 0 0.0018071030370670883 0.0035376282883913912 0 0.0019706238309795524 0.0038222619476750135 0 0.0018057172379875969 0.0037261210232531947 0 0.0049960219641910133 0.0030073086382336571 0 0.005197147489952347 0.0034383306567239802 0 0.0055144463600890316 0.0032556634275349946 0 0.0036341593603443235 0.0032935845964985506 0 0.0026018316160309912 0.0029945690681016483 0 0.0049960219641910133 0.0030073086382336571 0 0.0056893054081072645 0.0029630972894952937 0 0.0055144463600890316 0.0032556634275349946 0 0.0082363584406209625 0.0052716575171149922 0 0.0092495789677037709 0.0052930326998039652 0 0.0083685238831777489 0.0046072547830083264 0 0.007796071193709773 0.0047721006359444079 0 0.0082363584406209625 0.0052716575171149922 0 0.0083685238831777489 0.0046072547830083264 0 -0.0033333284132303987 0.0037876695827434919 0 -0.0033285886003359541 0.0038923936147790303 0 -0.0030773645770005818 0.0040505791046852148 0 0.0024895801778338595 0.0045782436831683579 0 0.0022788508772428207 0.004614869636645166 0 0.007796071193709773 0.0047721006359444079 0 0.0082363584406209625 0.0052716575171149922 0 0.007573244365590385 0.0051850306129068184 0 0.0024895801778338595 0.0045782436831683579 0 0.00286427450433976 0.0045300078715640665 0 -0.0034866424350649119 0.0037198341647466976 0 -0.0033285886003359541 0.0038923936147790303 0 -0.003469087383476279 0.0037853469528735546 0 -0.0034866424350649119 0.0037198341647466976 0 -0.0035396968777959203 0.0037250548069885469 0 -0.003469087383476279 0.0037853469528735546 0 0.0039147079329693918 0.0044480665609525887 0 0.00286427450433976 0.0045300078715640665 0 -0.0035063980481357111 0.0036241924848045451 0 -0.0035396968777959203 0.0037250548069885469 0 -0.003469087383476279 0.0037853469528735546 0 0.01077641296720642 0.0051743613682708016 0 0.0092495789677037709 0.0052930326998039652 0 0.0097602612818838939 0.004485900157388944 0 0.0092495789677037709 0.0052930326998039652 0 0.0090515299525287096 0.0045752804306957067 0 0.0083685238831777489 0.0046072547830083264 0 0.0092495789677037709 0.0052930326998039652 0 0.0090515299525287096 0.0045752804306957067 0 0.0097602612818838939 0.004485900157388944 0 0.0090515299525287096 0.0045752804306957067 0 0.0088912182289337116 0.0039001029262101393 0 0.0083685238831777489 0.0046072547830083264 0 0.0090515299525287096 0.0045752804306957067 0 0.0097602612818838939 0.004485900157388944 0 0.0088912182289337116 0.0039001029262101393 0 0.010401075531319925 0.0036633389927788122 0 0.0097602612818838939 0.004485900157388944 0 0.0088912182289337116 0.0039001029262101393 0 0.010615212521378531 0.0044250062867039813 0 0.010401075531319925 0.0036633389927788122 0 0.0097602612818838939 0.004485900157388944 0 0.011411181557372949 0.0037198864889172283 0 0.010496799185620199 0.0038350311446082499 0 0.012386909252675701 0.0037413413497524731 0 0.012258767921607695 0.0036458176875559098 0 0.012093800842545971 0.003779358157294431 0 0.012258767921607695 0.0036458176875559098 0 0.012093800842545971 0.003779358157294431 0 0.012051669418793216 0.0037231921934911968 0 0.012093800842545971 0.003779358157294431 0 0.01202866411099643 0.003751880523962197 0 0.012051669418793216 0.0037231921934911968 0 0.010496799185620199 0.0038350311446082499 0 0.010054519977769769 0.0039554627804104089 0 0.0088912182289337116 0.0039001029262101393 0 0.0083685238831777489 0.0046072547830083264 0 0.0079428579163214798 0.0041496467561572504 0 0.007796071193709773 0.0047721006359444079 0 0.0083685238831777489 0.0046072547830083264 0 0.0079428579163214798 0.0041496467561572504 0 0.01202866411099643 0.003751880523962197 0 0.012060473453870948 0.0038169095062847522 0 0.012051669418793216 0.0037231921934911968 0 0.01202866411099643 0.003751880523962197 0 0.012157625881142362 0.0037898916262018279 0 0.012060473453870948 0.0038169095062847522 0 0.012157625881142362 0.0037898916262018279 0 0.01230873211887375 0.0038981750137001394 0 0.012060473453870948 0.0038169095062847522 0 0.01202866411099643 0.003751880523962197 0 0.012157625881142362 0.0037898916262018279 0 0.0122670629912371 0.0037200492665359617 0 0.010054519977769769 0.0039554627804104089 0 0.0096180787417357028 0.0039818876625047038 0 0.012157625881142362 0.0037898916262018279 0 0.0122670629912371 0.0037200492665359617 0 0.01230873211887375 0.0038981750137001394 0 0.0122670629912371 0.0037200492665359617 0 0.012416220836246314 0.0038348573077706311 0 0.01230873211887375 0.0038981750137001394 0 0.0074013118651948279 0.0043456591187265572 0 0.0075260462371138535 0.0045375319105558009 0 0.0072141478624335722 0.0045742887131054472 0 0.0079428579163214798 0.0041496467561572504 0 0.0074013118651948279 0.0043456591187265572 0 0.0075260462371138535 0.0045375319105558009 0 0.007796071193709773 0.0047721006359444079 0 0.0079428579163214798 0.0041496467561572504 0 0.0075260462371138535 0.0045375319105558009 0 0.012524917849504821 0.0042038470967179836 0 0.012545628774862469 0.0042512842739804418 0 0.012556899425505594 0.0041656871745296923 0 0.010796858671207252 0.0044552884797895726 0 0.012535987307987865 0.0038847833415390685 0 0.012478355459673735 0.0042530903585683566 0 0.012524917849504821 0.0042038470967179836 0 0.012545628774862469 0.0042512842739804418 0 0.012478355459673735 0.0042530903585683566 0 0.012524917849504821 0.0042038470967179836 0 0.012497569025920738 0.0042186926330239185 0 0.012805408359554666 0.0042927851501885807 0 0.010796858671207252 0.0044552884797895726 0 0.0122670629912371 0.0037200492665359617 0 0.012555335581761772 0.0037286872437491386 0 0.012416220836246314 0.0038348573077706311 0 0.012555335581761772 0.0037286872437491386 0 0.012416220836246314 0.0038348573077706311 0 0.012534058567737301 0.0038826671539473876 0 0.0096180787417357028 0.0039818876625047038 0 0.010796858671207252 0.0044552884797895726 0 0.0070616692134055931 0.0044280053168335954 0 0.0072141478624335722 0.0045742887131054472 0 0.0070113503660565214 0.0047205398253949721 0 0.0074013118651948279 0.0043456591187265572 0 0.0070616692134055931 0.0044280053168335954 0 0.0072141478624335722 0.0045742887131054472 0 0.010796858671207252 0.0044552884797895726 0 0.0096708488154807482 0.0044898195721287141 0 0.01245376158550484 0.0042567542515294949 0 0.012433288397998865 0.0042591176355481113 0 0.012454767257447305 0.00425674219624973 0 0.012478355459673735 0.0042530903585683566 0 0.01245376158550484 0.0042567542515294949 0 0.012454767257447305 0.00425674219624973 0 0.0070113503660565214 0.0047205398253949721 0 0.0072089645127060608 0.0047758277717101201 0 0.0071467094498784195 0.0049186945431252656 0 0.0072141478624335722 0.0045742887131054472 0 0.0070113503660565214 0.0047205398253949721 0 0.0072089645127060608 0.0047758277717101201 0 0.0072089645127060608 0.0047758277717101201 0 0.0071467094498784195 0.0049186945431252656 0 0.0072734005790831219 0.0049465926529279345 0 0.0071467094498784195 0.0049186945431252656 0 0.0072734005790831219 0.0049465926529279345 0 0.0071626665051955293 0.0050630941556710227 0 0.0071467094498784195 0.0049186945431252656 0 0.0071626665051955293 0.0050630941556710227 0 0.0071216646601275557 0.0049792632240528573 0 0.0071467094498784195 0.0049186945431252656 0 0.0070848855547382683 0.0049205524726927043 0 0.0071216646601275557 0.0049792632240528573 0 0.0096708488154807482 0.0044898195721287141 0 0.0093915785606824009 0.0045483671185785092 0 0.0070113503660565214 0.0047205398253949721 0 0.0070848855547382683 0.0049205524726927043 0 0.0070323176136326991 0.0049272299472188615 0 0.0070113503660565214 0.0047205398253949721 0 0.0071467094498784195 0.0049186945431252656 0 0.0070848855547382683 0.0049205524726927043 0 0.0070848855547382683 0.0049205524726927043 0 0.0070323176136326991 0.0049272299472188615 0 0.0071024822212590209 0.0049355908752027767 0 0.007796071193709773 0.0047721006359444079 0 0.0074016250694044763 0.0047814000589259543 0 0.007573244365590385 0.0051850306129068184 0 0.007796071193709773 0.0047721006359444079 0 0.0075260462371138535 0.0045375319105558009 0 0.0074016250694044763 0.0047814000589259543 0 0.0072141478624335722 0.0045742887131054472 0 0.0072089645127060608 0.0047758277717101201 0 0.0074016250694044763 0.0047814000589259543 0 0.0075260462371138535 0.0045375319105558009 0 0.0072141478624335722 0.0045742887131054472 0 0.0074016250694044763 0.0047814000589259543 0 0.0072089645127060608 0.0047758277717101201 0 0.0074016250694044763 0.0047814000589259543 0 0.0072734005790831219 0.0049465926529279345 0 0.0074016250694044763 0.0047814000589259543 0 0.0072734005790831219 0.0049465926529279345 0 0.007573244365590385 0.0051850306129068184 0 0.0072734005790831219 0.0049465926529279345 0 0.007573244365590385 0.0051850306129068184 0 0.0071626665051955293 0.0050630941556710227 0 -0.0030773645770005818 0.0040505791046852148 0 -0.0032143508108945784 0.003720960114474045 0 -0.0028975249906151909 0.0039376416324687878 0 -0.0032143508108945784 0.003720960114474045 0 -0.0028154561216571861 0.0037235437160247375 0 -0.0032114817309490261 0.003358024712693107 0 -0.0032143508108945784 0.003720960114474045 0 -0.0028154561216571861 0.0037235437160247375 0 -0.0028975249906151909 0.0039376416324687878 0 -0.0028154561216571861 0.0037235437160247375 0 -0.0024190513054709942 0.0037834739137314051 0 -0.0024561681200160673 0.0035507297987279751 0 -0.0028154561216571861 0.0037235437160247375 0 -0.0026018066725594898 0.0039198769609982585 0 -0.0028975249906151909 0.0039376416324687878 0 -0.0028154561216571861 0.0037235437160247375 0 -0.0026018066725594898 0.0039198769609982585 0 -0.0024190513054709942 0.0037834739137314051 0 -0.0026018066725594898 0.0039198769609982585 0 -0.0028975249906151909 0.0039376416324687878 0 -0.0025951916437251033 0.0042545341945712748 0 0.0022788508772428207 0.004614869636645166 0 0.0022980578540399152 0.0046537536982396242 0 -0.0030773645770005818 0.0040505791046852148 0 -0.0028975249906151909 0.0039376416324687878 0 -0.0025951916437251033 0.0042545341945712748 0 0.0071626665051955293 0.0050630941556710227 0 0.0071216646601275557 0.0049792632240528573 0 0.0070961437353225286 0.0048766649366330577 0 -0.0025951916437251033 0.0042545341945712748 0 -0.0021553835898767532 0.0039626685420816304 0 -0.0011304434098047367 0.0041273424238364364 0 0.0022980578540399152 0.0046537536982396242 0 0.003123163478915874 0.0044585238841520674 0 -0.0026018066725594898 0.0039198769609982585 0 -0.0025951916437251033 0.0042545341945712748 0 -0.0021553835898767532 0.0039626685420816304 0 0.0071676416236667439 0.0049605741139735716 0 0.0071556113264834081 0.0049130848368960159 0 0.0071024822212590209 0.0049355908752027767 0 0.0093915785606824009 0.0045483671185785092 0 0.0074702284636225993 0.0044165554834447885 0 0.0071556113264834081 0.0049130848368960159 0 0.0071024822212590209 0.0049355908752027767 0 0.0070961437353225286 0.0048766649366330577 0 0.0071216646601275557 0.0049792632240528573 0 0.0071024822212590209 0.0049355908752027767 0 0.0070961437353225286 0.0048766649366330577 0 0.0070848855547382683 0.0049205524726927043 0 0.0071216646601275557 0.0049792632240528573 0 0.0071024822212590209 0.0049355908752027767 0 -0.0021553835898767532 0.0039626685420816304 0 -0.0011304434098047367 0.0041273424238364364 0 -0.0013804087629224809 0.0030806038201066175 0 -0.0020889275021888278 0.0038395335849393739 0 -0.0014436179704754063 0.0039627530420137174 0 -0.0021553835898767532 0.0039626685420816304 0 -0.0020579498663932565 0.0037906127918789713 0 -0.0021364682152353255 0.003771423675600058 0 -0.0014436179704754063 0.0039627530420137174 0 -0.0020021923217445618 0.0038174246205889776 0 -0.0026018066725594898 0.0039198769609982585 0 -0.0021553835898767532 0.0039626685420816304 0 -0.0024190513054709942 0.0037834739137314051 0 -0.0021553835898767532 0.0039626685420816304 0 -0.0021364682152353255 0.003771423675600058 0 -0.0024190513054709942 0.0037834739137314051 0 -0.0021364682152353255 0.003771423675600058 0 -0.0024190513054709942 0.0037834739137314051 0 -0.0024561681200160673 0.0035507297987279751 0 -0.0021364682152353255 0.003771423675600058 0 -0.0024561681200160673 0.0035507297987279751 0 -0.0019787534013612582 0.0034944694976508659 0 -0.0019796465103783779 0.0038278463996713093 0 -0.0019787534013612582 0.0034944694976508659 0 -0.0014812209710737137 0.0035440511289628802 0 -0.0019796465103783779 0.0038278463996713093 0 -0.0021364682152353255 0.003771423675600058 0 -0.0019787534013612582 0.0034944694976508659 0 -0.0023777507456053844 0.0030792304602865819 0 -0.0016641809451717754 0.003244418955835307 0 -0.0019787534013612582 0.0034944694976508659 0 -0.0023777507456053844 0.0030792304602865819 0 -0.0024561681200160673 0.0035507297987279751 0 -0.0019787534013612582 0.0034944694976508659 0 -0.0023777507456053844 0.0030792304602865819 0 -0.0024561681200160673 0.0035507297987279751 0 -0.0032114817309490261 0.003358024712693107 0 -0.0036013774733104887 0.0032909745826242361 0 -0.0037401686575864947 0.0033397184164739623 0 -0.0032114817309490261 0.003358024712693107 0 -0.0030633470315503137 0.0032377191778864573 0 -0.0032344258980088404 0.0033675222463590733 0 -0.0036013774733104887 0.0032909745826242361 0 -0.0034469231984406942 0.0033126086619503997 0 -0.0032114817309490261 0.003358024712693107 0 -0.0034142969242917181 0.0034482868236916492 0 -0.0032143508108945784 0.003720960114474045 0 -0.0032114817309490261 0.003358024712693107 0 -0.0028154561216571861 0.0037235437160247375 0 -0.0024561681200160673 0.0035507297987279751 0 -0.0032114817309490261 0.003358024712693107 0 0.0029425677361070999 0.0038690668726475614 0 0.0021018302927966288 0.0041431041523799193 0 0.0026519182658540095 0.0048065073253603123 0 0.003595526928959189 0.0045320427953000697 0 0.0029425677361070999 0.0038690668726475614 0 0.0026519182658540095 0.0048065073253603123 0 0.0038824720389665584 0.0036031406219819814 0 0.003595526928959189 0.0045320427953000697 0 0.0029425677361070999 0.0038690668726475614 0 0.0038824720389665584 0.0036031406219819814 0 0.0033584995469024452 0.0029139294057906107 0 0.0029425677361070999 0.0038690668726475614 0 0.0021792848479905065 0.002885260431190743 0 0.0029425677361070999 0.0038690668726475614 0 0.0021018302927966288 0.0041431041523799193 0 0.0021792848479905065 0.002885260431190743 0 0.0033584995469024452 0.0029139294057906107 0 0.0029425677361070999 0.0038690668726475614 0 0.00071545590121008099 0.0029811510220035188 0 -1.9615646727390277e-05 0.0037292605002065939 0 0.0021792848479905065 0.002885260431190743 0 0.0012721537285308357 0.0038054765608559289 0 0.0021018302927966288 0.0041431041523799193 0 -0.0016641809451717754 0.003244418955835307 0 -0.00092905970879638171 0.0033475226968974624 0 -0.0014812209710737137 0.0035440511289628802 0 -0.0016641809451717754 0.003244418955835307 0 -0.0019787534013612582 0.0034944694976508659 0 -0.0014812209710737137 0.0035440511289628802 0 -0.0014436179704754063 0.0039627530420137174 0 -1.9615646727390277e-05 0.0037292605002065939 0 0.0012721537285308357 0.0038054765608559289 0 0.0021018302927966288 0.0041431041523799193 0 0.0017003818463632017 0.0050829384798734643 0 0.0035581933298262608 0.0043094617121398962 0 0.0037286806481627382 0.0043408470202784674 0 0.0021018302927966288 0.0041431041523799193 0 0.0017003818463632017 0.0050829384798734643 0 0.0026519182658540095 0.0048065073253603123 0 -0.0014436179704754063 0.0039627530420137174 0 0.0035581933298262608 0.0043094617121398962 0 0.00034131619829115171 0.0047490147197951768 0 0.0012721537285308357 0.0038054765608559289 0 0.0017003818463632017 0.0050829384798734643 0 -0.0011304434098047367 0.0041273424238364364 0 -0.0013804087629224809 0.0030806038201066175 0 0.00086240713943644962 0.0036010656539686957 0 0.0070961437353225286 0.0048766649366330577 0 0.007338006501947999 0.0047361977394634177 0 0.0072424919496374097 0.0048806431023141273 0 0.003123163478915874 0.0044585238841520674 0 0.0035581933298262608 0.0043094617121398962 0 0.0071676416236667439 0.0049605741139735716 0 0.0071556113264834081 0.0049130848368960159 0 0.0072424919496374097 0.0048806431023141273 0 0.0071556113264834081 0.0049130848368960159 0 0.0070961437353225286 0.0048766649366330577 0 0.0072424919496374097 0.0048806431023141273 0 0.007338006501947999 0.0047361977394634177 0 0.0072424919496374097 0.0048806431023141273 0 0.0074549969719003694 0.004900566293385868 0 0.007338006501947999 0.0047361977394634177 0 0.0075984657026145711 0.004775301285244035 0 0.0074549969719003694 0.004900566293385868 0 0.0075984657026145711 0.004775301285244035 0 0.0076572772780247166 0.0049111773596781615 0 0.0074549969719003694 0.004900566293385868 0 0.0037998485877181088 0.0041547450434078889 0 0.0050306172113927152 0.0037987653091671189 0 0.0054417165024814853 0.0045555789292827699 0 0.0035581933298262608 0.0043094617121398962 0 0.0068919136105399081 0.0048401822055196718 0 0.0065069142914650421 0.0042417115557206592 0 0.0062527775819328285 0.0034464606978893927 0 0.0054417165024814853 0.0045555789292827699 0 0.0046778412800684652 0.0040538865035955858 0 0.0037286806481627382 0.0043408470202784674 0 0.0062527775819328285 0.0034464606978893927 0 0.0050306172113927152 0.0037987653091671189 0 0.0054417165024814853 0.0045555789292827699 0 0.0078045138371151696 0.0048192307311845555 0 0.0075984657026145711 0.004775301285244035 0 0.0076572772780247166 0.0049111773596781615 0 0.0077846445226381761 0.0039942759999719007 0 0.0068919136105399081 0.0048401822055196718 0 0.0077724012119856105 0.0049628891210210264 0 0.0076572772780247166 0.0049111773596781615 0 0.0076933008529173228 0.0050049164685745436 0 0.0075689621523900704 0.0049943361842237025 0 0.0074549969719003694 0.004900566293385868 0 0.0074396415886438579 0.0050025961198253473 0 0.0076572772780247166 0.0049111773596781615 0 0.0075689621523900704 0.0049943361842237025 0 0.0074549969719003694 0.004900566293385868 0 0.0075689621523900704 0.0049943361842237025 0 0.0074978360237200952 0.0050691310151162365 0 0.0076303838237473942 0.0051049764813868052 0 0.0075689621523900704 0.0049943361842237025 0 0.0074396415886438579 0.0050025961198253473 0 0.0074978360237200952 0.0050691310151162365 0 0.0075689621523900704 0.0049943361842237025 0 0.0076933008529173228 0.0050049164685745436 0 0.0076303838237473942 0.0051049764813868052 0 0.0076572772780247166 0.0049111773596781615 0 0.0075689621523900704 0.0049943361842237025 0 0.0076933008529173228 0.0050049164685745436 0 0.0071676416236667439 0.0049605741139735716 0 0.007305752799577743 0.0049612362838924902 0 0.0073497227093601769 0.0050662630844044605 0 0.0093915785606824009 0.0045483671185785092 0 0.0099519259282384379 0.0046927817006799611 0 0.0071676416236667439 0.0049605741139735716 0 0.0072424919496374097 0.0048806431023141273 0 0.007305752799577743 0.0049612362838924902 0 0.0072424919496374097 0.0048806431023141273 0 0.007305752799577743 0.0049612362838924902 0 0.0074549969719003694 0.004900566293385868 0 0.007305752799577743 0.0049612362838924902 0 0.0074549969719003694 0.004900566293385868 0 0.0074396415886438579 0.0050025961198253473 0 0.007305752799577743 0.0049612362838924902 0 0.0074396415886438579 0.0050025961198253473 0 0.0073497227093601769 0.0050662630844044605 0 0.0074396415886438579 0.0050025961198253473 0 0.0074978360237200952 0.0050691310151162365 0 0.0073497227093601769 0.0050662630844044605 0 0.012433288397998865 0.0042591176355481113 0 0.012438482777811892 0.0042612098213479672 0 0.012454767257447305 0.00425674219624973 0 0.012433288397998865 0.0042591176355481113 0 0.012400351571936455 0.0042556265265395934 0 0.012438482777811892 0.0042612098213479672 0 0.012438482777811892 0.0042612098213479672 0 0.012454767257447305 0.00425674219624973 0 0.012465703793244048 0.0042528881347111726 0 0.012478355459673735 0.0042530903585683566 0 0.012454767257447305 0.00425674219624973 0 0.012465703793244048 0.0042528881347111726 0 0.0099519259282384379 0.0046927817006799611 0 0.0099549020604509948 0.0047123847479926071 0 0.012438482777811892 0.0042612098213479672 0 0.012465703793244048 0.0042528881347111726 0 0.012435131332661595 0.0042655281596147201 0 0.0074978360237200952 0.0050691310151162365 0 0.0073497227093601769 0.0050662630844044605 0 0.0075004735519383957 0.0051748605943332544 0 0.012435131332661595 0.0042655281596147201 0 0.012377218427263107 0.004248483765903561 0 0.012496397076034355 0.0042175811321136705 0 0.012465703793244048 0.0042528881347111726 0 0.012435131332661595 0.0042655281596147201 0 0.012496397076034355 0.0042175811321136705 0 0.012465703793244048 0.0042528881347111726 0 0.012497569025920738 0.0042186926330239185 0 0.012496397076034355 0.0042175811321136705 0 0.012478355459673735 0.0042530903585683566 0 0.012465703793244048 0.0042528881347111726 0 0.012497569025920738 0.0042186926330239185 0 0.0077829169357009689 0.0050481637396231818 0 0.0076303838237473942 0.0051049764813868052 0 0.0077513324582592236 0.0051962955310799154 0 0.0077829169357009689 0.0050481637396231818 0 0.0076933008529173228 0.0050049164685745436 0 0.0076303838237473942 0.0051049764813868052 0 0.0074978360237200952 0.0050691310151162365 0 0.0075004735519383957 0.0051748605943332544 0 0.0076303838237473942 0.0051049764813868052 0 0.0075004735519383957 0.0051748605943332544 0 0.0076303838237473942 0.0051049764813868052 0 0.007647945249268923 0.0053181416794565164 0 0.0099549020604509948 0.0047123847479926071 0 0.010003537465102253 0.004773039113173152 0 0.0077513324582592236 0.0051962955310799154 0 0.007647945249268923 0.0053181416794565164 0 0.0078184265682077064 0.0053189915719907147 0 0.0076303838237473942 0.0051049764813868052 0 0.0077513324582592236 0.0051962955310799154 0 0.007647945249268923 0.0053181416794565164 0 0.007647945249268923 0.0053181416794565164 0 0.0078071909173763878 0.0054621295995404785 0 0.0078184265682077064 0.0053189915719907147 0 0.010003537465102253 0.004773039113173152 0 0.010065972398487791 0.0048423111719133986 0 0.012377218427263107 0.004248483765903561 0 0.012248071997846126 0.0041617524754728507 0 0.01242004102424939 0.004105547582034753 0 0.012377218427263107 0.004248483765903561 0 0.012509151981631142 0.0041815381721316295 0 0.01242004102424939 0.004105547582034753 0 0.012496397076034355 0.0042175811321136705 0 0.0126251188840413 0.0041852634924290817 0 0.012552054816772676 0.0041439389908007468 0 0.012497569025920738 0.0042186926330239185 0 0.012496397076034355 0.0042175811321136705 0 0.012552054816772676 0.0041439389908007468 0 0.012377218427263107 0.004248483765903561 0 0.012496397076034355 0.0042175811321136705 0 0.012509151981631142 0.0041815381721316295 0 0.012509151981631142 0.0041815381721316295 0 0.012624967359078025 0.0040709624256688136 0 0.01242004102424939 0.004105547582034753 0 0.012496397076034355 0.0042175811321136705 0 0.012509151981631142 0.0041815381721316295 0 0.0126251188840413 0.0041852634924290817 0 0.012509151981631142 0.0041815381721316295 0 0.0126251188840413 0.0041852634924290817 0 0.012624967359078025 0.0040709624256688136 0 0.012624967359078025 0.0040709624256688136 0 0.012847022528689066 0.0039394338293626211 0 0.01281437682875591 0.0040817089132934642 0 0.0126251188840413 0.0041852634924290817 0 0.012624967359078025 0.0040709624256688136 0 0.01281437682875591 0.0040817089132934642 0 0.012624967359078025 0.0040709624256688136 0 0.012520040067097024 0.0039782503399202109 0 0.01242004102424939 0.004105547582034753 0 0.012520040067097024 0.0039782503399202109 0 0.012472280814278541 0.0038723376319432894 0 0.012663805595850572 0.0038463969870220827 0 0.012624967359078025 0.0040709624256688136 0 0.012520040067097024 0.0039782503399202109 0 0.012663805595850572 0.0038463969870220827 0 0.012624967359078025 0.0040709624256688136 0 0.012663805595850572 0.0038463969870220827 0 0.012847022528689066 0.0039394338293626211 0 0.012248071997846126 0.0041617524754728507 0 0.012297616806180127 0.004026354734169629 0 0.01242004102424939 0.004105547582034753 0 0.012248071997846126 0.0041617524754728507 0 0.012297616806180127 0.004026354734169629 0 0.01220742098622787 0.0040108891652329681 0 0.012297616806180127 0.004026354734169629 0 0.01242004102424939 0.004105547582034753 0 0.012397339131805921 0.0039702924012116466 0 0.012520040067097024 0.0039782503399202109 0 0.01242004102424939 0.004105547582034753 0 0.012397339131805921 0.0039702924012116466 0 0.012397339131805921 0.0039702924012116466 0 0.012472280814278541 0.0038723376319432894 0 0.012295367946908355 0.0038519217476853953 0 0.012520040067097024 0.0039782503399202109 0 0.012397339131805921 0.0039702924012116466 0 0.012472280814278541 0.0038723376319432894 0 0.011940521933336615 0.0043805944771075226 0 0.010637067467568852 0.0043460951242507689 0 0.01220742098622787 0.0040108891652329681 0 0.012295367946908355 0.0038519217476853953 0 0.012101885329193781 0.0039726514559162932 0 0.012297616806180127 0.004026354734169629 0 0.012397339131805921 0.0039702924012116466 0 0.012295367946908355 0.0038519217476853953 0 0.012297616806180127 0.004026354734169629 0 0.01220742098622787 0.0040108891652329681 0 0.012295367946908355 0.0038519217476853953 0 0.01131477468124914 0.0049301075243812185 0 0.011293530514512984 0.0045230423921317738 0 0.010787111975125828 0.004638097029706207 0 0.011293530514512984 0.0045230423921317738 0 0.011736669384252895 0.0042502487633455767 0 0.010640822436138772 0.0044093565245144134 0 0.011686414825616468 0.0042766513181666486 0 0.01126292988356453 0.0044836961562333324 0 0.011736669384252895 0.0042502487633455767 0 0.011817672841060405 0.0043795330532071649 0 0.011864690068701117 0.0045389714708780841 0 0.011293530514512984 0.0045230423921317738 0 0.011986608560331763 0.0043858501160928256 0 0.011736669384252895 0.0042502487633455767 0 0.011986608560331763 0.0043858501160928256 0 0.011807599334360956 0.0041848410895964422 0 0.012140953870876431 0.0041092729592120689 0 0.011986608560331763 0.0043858501160928256 0 0.011736669384252895 0.0042502487633455767 0 0.011807599334360956 0.0041848410895964422 0 0.012472280814278541 0.0038723376319432894 0 0.012295367946908355 0.0038519217476853953 0 0.012517121181357952 0.0037032069779425586 0 0.011940521933336615 0.0043805944771075226 0 0.012383955694874835 0.0041795793087377082 0 0.01131477468124914 0.0049301075243812185 0 0.011986608560331763 0.0043858501160928256 0 0.012286461884678581 0.0046670278927100272 0 0.01131477468124914 0.0049301075243812185 0 0.011293530514512984 0.0045230423921317738 0 0.011986608560331763 0.0043858501160928256 0 0.012472280814278541 0.0038723376319432894 0 0.012663805595850572 0.0038463969870220827 0 0.012517121181357952 0.0037032069779425586 0 0.012663805595850572 0.0038463969870220827 0 0.012816346848417098 0.0035508654491765591 0 0.012973160576326619 0.0037557163341595617 0 0.012663805595850572 0.0038463969870220827 0 0.012973160576326619 0.0037557163341595617 0 0.012847022528689066 0.0039394338293626211 0 0.012663805595850572 0.0038463969870220827 0 0.012816346848417098 0.0035508654491765591 0 0.012517121181357952 0.0037032069779425586 0 0.011986608560331763 0.0043858501160928256 0 0.012286461884678581 0.0046670278927100272 0 0.012557187376870305 0.0040282953612635281 0 0.013285979259890453 0.0041362028347632701 0 0.012286461884678581 0.0046670278927100272 0 0.012557187376870305 0.0040282953612635281 0 0.013050723642153325 0.0038346758411554106 0 0.012383955694874835 0.0041795793087377082 0 0.011986608560331763 0.0043858501160928256 0 0.012557187376870305 0.0040282953612635281 0 0.012140953870876431 0.0041092729592120689 0 0.012557187376870305 0.0040282953612635281 0 0.012140953870876431 0.0041092729592120689 0 0.012201073407425111 0.0038050388415626205 0 0.012557187376870305 0.0040282953612635281 0 0.012481296526771714 0.0033011831386105168 0 0.012201073407425111 0.0038050388415626205 0 0.012557187376870305 0.0040282953612635281 0 0.012972371314606554 0.0035251695970534161 0 0.012481296526771714 0.0033011831386105168 0 0.013285979259890453 0.0041362028347632701 0 0.012972371314606554 0.0035251695970534161 0 0.013492023493335926 0.0033784643287498705 0 0.013285979259890453 0.0041362028347632701 0 0.012557187376870305 0.0040282953612635281 0 0.012972371314606554 0.0035251695970534161 0 0.012972371314606554 0.0035251695970534161 0 0.013055283218184778 0.0031111827634989486 0 0.013492023493335926 0.0033784643287498705 0 0.013055283218184778 0.0031111827634989486 0 0.013492023493335926 0.0033784643287498705 0 0.01356576358536289 0.0028997729899133237 0 0.013055283218184778 0.0031111827634989486 0 0.012481296526771714 0.0033011831386105168 0 0.012741018263514007 0.0025756000169725765 0 0.012972371314606554 0.0035251695970534161 0 0.013055283218184778 0.0031111827634989486 0 0.012481296526771714 0.0033011831386105168 0 0.012481296526771714 0.0033011831386105168 0 0.012011601560374677 0.0034462008483245022 0 0.011965889483007981 0.0026691659075006838 0 0.012011601560374677 0.0034462008483245022 0 0.011563531974788257 0.0033976068610277357 0 0.011965889483007981 0.0026691659075006838 0 0.012481296526771714 0.0033011831386105168 0 0.012011601560374677 0.0034462008483245022 0 0.012201073407425111 0.0038050388415626205 0 0.01180959504089691 0.0044983704061134135 0 0.011904990537199829 0.0045544189379962529 0 0.01189362943632394 0.0045263021472066916 0 0.011193377664831004 0.0036140011221179554 0 0.017013350908856507 0.0036824386593324477 0 0.01180959504089691 0.0044983704061134135 0 0.011817672841060405 0.0043795330532071649 0 0.011807599334360956 0.0041848410895964422 0 0.01180959504089691 0.0044983704061134135 0 0.011817672841060405 0.0043795330532071649 0 0.01189362943632394 0.0045263021472066916 0 0.012011601560374677 0.0034462008483245022 0 0.011807599334360956 0.0041848410895964422 0 0.012201073407425111 0.0038050388415626205 0 0.011736669384252895 0.0042502487633455767 0 0.011817672841060405 0.0043795330532071649 0 0.011807599334360956 0.0041848410895964422 0 0.012011601560374677 0.0034462008483245022 0 0.011563531974788257 0.0033976068610277357 0 0.011807599334360956 0.0041848410895964422 0 0.011193377664831004 0.0036140011221179554 0 0.011937334235192018 0.0043502624349428245 0 0.011807599334360956 0.0041848410895964422 0 0.012140953870876431 0.0041092729592120689 0 0.012201073407425111 0.0038050388415626205 0 0.013478866550762122 0.0035168370458761077 0 0.013703461032101924 0.0036133991328254752 0 0.013685767437074198 0.0034727186258351468 0 0.013478866550762122 0.0035168370458761077 0 0.013703461032101924 0.0036133991328254752 0 0.013677202813090627 0.0036503037655711687 0 0.013474130233456243 0.0035217313853128126 0 0.013544774372245057 0.0036372792769096321 0 0.013703461032101924 0.0036133991328254752 0 0.013685767437074198 0.0034727186258351468 0 0.013741359418715886 0.0034835783798595212 0 0.013707184672434891 0.0036085742419940132 0 0.013691390569955818 0.0036329994658006858 0 0.013703461032101924 0.0036133991328254752 0 0.01367811131294496 0.0037345434225345979 0 0.013632491859547454 0.0036641646000405742 0 0.013741359418715886 0.0034835783798595212 0 0.013709578641113315 0.0034686781279397228 0 0.013762203531964983 0.0034596782005765002 0 0.013685767437074198 0.0034727186258351468 0 0.013741359418715886 0.0034835783798595212 0 0.013709578641113315 0.0034686781279397228 0 0.013685767437074198 0.0034727186258351468 0 0.013709578641113315 0.0034686781279397228 0 0.013755876052078966 0.0034035848030746518 0 0.013755876052078966 0.0034035848030746518 0 0.014117039871369379 0.0033296426265366115 0 0.013976896527421984 0.003487820740563924 0 0.013478866550762122 0.0035168370458761077 0 0.013755876052078966 0.0034035848030746518 0 0.01318589098753902 0.0034179745869036085 0 0.013478866550762122 0.0035168370458761077 0 0.013685767437074198 0.0034727186258351468 0 0.013755876052078966 0.0034035848030746518 0 0.014117039871369379 0.0033296426265366115 0 0.014125576948822527 0.0035839016617460954 0 0.013976896527421984 0.003487820740563924 0 0.013755876052078966 0.0034035848030746518 0 0.014117039871369379 0.0033296426265366115 0 0.014137333032190247 0.0034021512714329941 0 0.013733208249012087 0.0034061646426156874 0 0.013635297467004925 0.0034378167945750011 0 0.014117039871369379 0.0033296426265366115 0 0.013842442940451271 0.0032313016139952589 0 0.014137333032190247 0.0034021512714329941 0 0.014117039871369379 0.0033296426265366115 0 0.013842442940451271 0.0032313016139952589 0 0.01356576358536289 0.0028997729899133237 0 0.013842442940451271 0.0032313016139952589 0 0.013492023493335926 0.0033784643287498705 0 0.014137333032190247 0.0034021512714329941 0 0.014568793495977339 0.0034197069069030329 0 0.013392572252362379 0.0029134323458026366 0 0.013842442940451271 0.0032313016139952589 0 0.013492023493335926 0.0033784643287498705 0 0.01356576358536289 0.0028997729899133237 0 0.012816346848417098 0.0035508654491765591 0 0.01318589098753902 0.0034179745869036085 0 0.013160267698856712 0.0036033509318183824 0 0.013050723642153325 0.0038346758411554106 0 0.013635297467004925 0.0034378167945750011 0 0.013285979259890453 0.0041362028347632701 0 0.013492023493335926 0.0033784643287498705 0 0.014137333032190247 0.0034021512714329941 0 0.013478866550762122 0.0035168370458761077 0 0.01318589098753902 0.0034179745869036085 0 0.013160267698856712 0.0036033509318183824 0 0.013478866550762122 0.0035168370458761077 0 0.013160267698856712 0.0036033509318183824 0 0.013344959414026218 0.0036384705674352884 0 0.013160267698856712 0.0036033509318183824 0 0.013188019414590375 0.0037127457570101936 0 0.012973160576326619 0.0037557163341595617 0 0.013160267698856712 0.0036033509318183824 0 0.013188019414590375 0.0037127457570101936 0 0.013344959414026218 0.0036384705674352884 0 0.012816346848417098 0.0035508654491765591 0 0.013160267698856712 0.0036033509318183824 0 0.012973160576326619 0.0037557163341595617 0 0.012973160576326619 0.0037557163341595617 0 0.013148220293698401 0.0038518775295598891 0 0.012847022528689066 0.0039394338293626211 0 0.013188019414590375 0.0037127457570101936 0 0.012973160576326619 0.0037557163341595617 0 0.013148220293698401 0.0038518775295598891 0 0.013188019414590375 0.0037127457570101936 0 0.013148220293698401 0.0038518775295598891 0 0.013317254594702363 0.0037264697453173855 0 0.013148220293698401 0.0038518775295598891 0 0.01336766657981673 0.0038247688379955745 0 0.013317254594702363 0.0037264697453173855 0 0.01336766657981673 0.0038247688379955745 0 0.013317254594702363 0.0037264697453173855 0 0.013424319666679377 0.0036548002429861374 0 0.013188019414590375 0.0037127457570101936 0 0.013317254594702363 0.0037264697453173855 0 0.013344959414026218 0.0036384705674352884 0 0.013478866550762122 0.0035168370458761077 0 0.013344959414026218 0.0036384705674352884 0 0.013424319666679377 0.0036548002429861374 0 0.013317254594702363 0.0037264697453173855 0 0.013344959414026218 0.0036384705674352884 0 0.013424319666679377 0.0036548002429861374 0 0.013703461032101924 0.0036133991328254752 0 0.013677202813090627 0.0036503037655711687 0 0.013654663919627575 0.0036240635778956088 0 0.013677202813090627 0.0036503037655711687 0 0.013654663919627575 0.0036240635778956088 0 0.013661940679094898 0.0035536042274182836 0 0.01336766657981673 0.0038247688379955745 0 0.013424319666679377 0.0036548002429861374 0 0.013545559893020026 0.0038169491174018825 0 0.013544774372245057 0.0036372792769096321 0 0.013623056379374374 0.0036887818776370606 0 0.01336766657981673 0.0038247688379955745 0 0.013485296722093029 0.0039951385529500925 0 0.013545559893020026 0.0038169491174018825 0 0.013440967291616467 0.0040253381612173154 0 0.013251206664108126 0.0040001996234436824 0 0.013366264883398564 0.0040304599641153276 0 0.013245594823296727 0.0039983600289412941 0 0.013307409658983527 0.0040641150451724726 0 0.013148220293698401 0.0038518775295598891 0 0.01336766657981673 0.0038247688379955745 0 0.013245594823296727 0.0039983600289412941 0 0.01336766657981673 0.0038247688379955745 0 0.013485296722093029 0.0039951385529500925 0 0.013245594823296727 0.0039983600289412941 0 0.013245594823296727 0.0039983600289412941 0 0.013267916837074642 0.004155775789347442 0 0.013140490744478929 0.0040985471884808508 0 0.013245594823296727 0.0039983600289412941 0 0.013307409658983527 0.0040641150451724726 0 0.013267916837074642 0.004155775789347442 0 0.013366264883398564 0.0040304599641153276 0 0.013307409658983527 0.0040641150451724726 0 0.013394349919497081 0.0040963447700390612 0 0.012813210990183505 0.0041208957988588309 0 0.012792643966589998 0.0041076637815018928 0 0.013307409658983527 0.0040641150451724726 0 0.013267916837074642 0.004155775789347442 0 0.013394349919497081 0.0040963447700390612 0 0.013148220293698401 0.0038518775295598891 0 0.012847022528689066 0.0039394338293626211 0 0.013024158507376994 0.004019254664665981 0 0.012847022528689066 0.0039394338293626211 0 0.013024158507376994 0.004019254664665981 0 0.01281437682875591 0.0040817089132934642 0 0.013148220293698401 0.0038518775295598891 0 0.013245594823296727 0.0039983600289412941 0 0.013024158507376994 0.004019254664665981 0 0.013245594823296727 0.0039983600289412941 0 0.013140490744478929 0.0040985471884808508 0 0.013024158507376994 0.004019254664665981 0 0.013267916837074642 0.004155775789347442 0 0.013140490744478929 0.0040985471884808508 0 0.013010373984850056 0.0042229581480411017 0 0.013140490744478929 0.0040985471884808508 0 0.013024158507376994 0.004019254664665981 0 0.013010373984850056 0.0042229581480411017 0 0.013024158507376994 0.004019254664665981 0 0.01281437682875591 0.0040817089132934642 0 0.013010373984850056 0.0042229581480411017 0 0.0126251188840413 0.0041852634924290817 0 0.01281437682875591 0.0040817089132934642 0 0.013010373984850056 0.0042229581480411017 0 0.0126251188840413 0.0041852634924290817 0 0.012520518975313071 0.0041396388186029399 0 0.012552054816772676 0.0041439389908007468 0 0.012520518975313071 0.0041396388186029399 0 0.01251083369966495 0.0040809487624481272 0 0.012552054816772676 0.0041439389908007468 0 0.012648320366647443 0.0041872417227378075 0 0.012763816492230606 0.0041731216502607577 0 0.012520518975313071 0.0041396388186029399 0 0.01251083369966495 0.0040809487624481272 0 0.012371433456970312 0.0040245618950122712 0 0.012813210990183505 0.0041208957988588309 0 0.012763816492230606 0.0041731216502607577 0 0.012506267970999768 0.0041236320488501257 0 0.012535987307987865 0.0038847833415390685 0 0.01251083369966495 0.0040809487624481272 0 0.012420395330293509 0.0039475581123709523 0 0.012534058567737301 0.0038826671539473876 0 0.01251083369966495 0.0040809487624481272 0 0.012420395330293509 0.0039475581123709523 0 0.012371433456970312 0.0040245618950122712 0 0.012416220836246314 0.0038348573077706311 0 0.012420395330293509 0.0039475581123709523 0 0.012534058567737301 0.0038826671539473876 0 0.012524917849504821 0.0042038470967179836 0 0.012497569025920738 0.0042186926330239185 0 0.012552054816772676 0.0041439389908007468 0 0.01251083369966495 0.0040809487624481272 0 0.012556899425505594 0.0041656871745296923 0 0.012552054816772676 0.0041439389908007468 0 0.012524917849504821 0.0042038470967179836 0 0.012556899425505594 0.0041656871745296923 0 0.012552054816772676 0.0041439389908007468 0 0.01228431116524824 0.0040140344106459353 0 0.012218428149965559 0.0039534724999448923 0 0.012230003540062142 0.0040520763862244274 0 0.012345620957556354 0.0040912291442218637 0 0.01228431116524824 0.0040140344106459353 0 0.012230003540062142 0.0040520763862244274 0 0.01228431116524824 0.0040140344106459353 0 0.012271666716763868 0.0039480914705709814 0 0.012218428149965559 0.0039534724999448923 0 0.01228431116524824 0.0040140344106459353 0 0.012371433456970312 0.0040245618950122712 0 0.012271666716763868 0.0039480914705709814 0 0.012345620957556354 0.0040912291442218637 0 0.012520518975313071 0.0041396388186029399 0 0.012371433456970312 0.0040245618950122712 0 0.012345620957556354 0.0040912291442218637 0 0.01228431116524824 0.0040140344106459353 0 0.012371433456970312 0.0040245618950122712 0 0.012371433456970312 0.0040245618950122712 0 0.01230873211887375 0.0038981750137001394 0 0.012271666716763868 0.0039480914705709814 0 0.012420395330293509 0.0039475581123709523 0 0.012371433456970312 0.0040245618950122712 0 0.01230873211887375 0.0038981750137001394 0 0.012416220836246314 0.0038348573077706311 0 0.012420395330293509 0.0039475581123709523 0 0.01230873211887375 0.0038981750137001394 0 0.01230873211887375 0.0038981750137001394 0 0.012271666716763868 0.0039480914705709814 0 0.012216486324349424 0.0038588622910107613 0 0.012271666716763868 0.0039480914705709814 0 0.012216486324349424 0.0038588622910107613 0 0.012218428149965559 0.0039534724999448923 0 0.012298397920791349 0.0038873794359418059 0 0.012146199257854436 0.0038365898813118877 0 0.012146199257854436 0.0038365898813118877 0 0.012106189590956898 0.0037566554517275315 0 0.012184342124676005 0.0038591179246778942 0 0.012216486324349424 0.0038588622910107613 0 0.012218428149965559 0.0039534724999448923 0 0.012184342124676005 0.0038591179246778942 0 0.012216486324349424 0.0038588622910107613 0 0.012153454545989758 0.0037900016261700128 0 0.012184342124676005 0.0038591179246778942 0 0.012218428149965559 0.0039534724999448923 0 0.012167889912176898 0.003844013375333106 0 0.012236698834532475 0.0039403044906846305 0 0.012120545632391073 0.0039093811485461701 0 0.012218428149965559 0.0039534724999448923 0 0.012170948136672261 0.004004866522423471 0 0.01214504426894057 0.0039652476488063956 0 0.012218428149965559 0.0039534724999448923 0 0.012170948136672261 0.004004866522423471 0 0.012230003540062142 0.0040520763862244274 0 0.012120545632391073 0.0039093811485461701 0 0.012364161702579911 0.0037149775425322604 0 0.012134143661776668 0.0039941519849753526 0 0.01214504426894057 0.0039652476488063956 0 0.012081112759135999 0.0039607614620585938 0 0.012134143661776668 0.0039941519849753526 0 0.012081112759135999 0.0039607614620585938 0 0.012140767357511828 0.0040458661613439204 0 0.012170948136672261 0.004004866522423471 0 0.012134143661776668 0.0039941519849753526 0 0.01214504426894057 0.0039652476488063956 0 0.012184342124676005 0.0038591179246778942 0 0.012167889912176898 0.003844013375333106 0 0.012153454545989758 0.0037900016261700128 0 0.012167889912176898 0.003844013375333106 0 0.012153454545989758 0.0037900016261700128 0 0.012164280311273215 0.0037493783203133499 0 0.012236530557832005 0.0036858029909609073 0 0.012106189590956898 0.0037566554517275315 0 0.012167889912176898 0.003844013375333106 0 0.012164280311273215 0.0037493783203133499 0 0.012160038807476223 0.0037683136283401426 0 0.012203833287751606 0.0037192774471390111 0 0.012153454545989758 0.0037900016261700128 0 0.012164280311273215 0.0037493783203133499 0 0.012203833287751606 0.0037192774471390111 0 0.012164280311273215 0.0037493783203133499 0 0.012180329879409479 0.003679269370847788 0 0.012145796792385411 0.0036226777743746555 0 0.012364161702579911 0.0037149775425322604 0 0.012164280311273215 0.0037493783203133499 0 0.012180329879409479 0.003679269370847788 0 0.012160038807476223 0.0037683136283401426 0 0.012180329879409479 0.003679269370847788 0 0.012319867739606976 0.0034644149609704454 0 0.012037799806605807 0.0034956871809588811 0 0.012203833287751606 0.0037192774471390111 0 0.012336174584085683 0.0036218834233700948 0 0.012180329879409479 0.003679269370847788 0 0.012336174584085683 0.0036218834233700948 0 0.012180329879409479 0.003679269370847788 0 0.012319867739606976 0.0034644149609704454 0 0.012705693859623026 0.0034116572139177553 0 0.012364161702579911 0.0037149775425322604 0 0.013015080151397464 0.003371659129077905 0 0.013052948545464415 0.0034265020152338668 0 0.013076201912811244 0.0034059193692260624 0 0.013015080151397464 0.003371659129077905 0 0.013052948545464415 0.0034265020152338668 0 0.013024346937600184 0.0034417004606085311 0 0.013076201912811244 0.0034059193692260624 0 0.013072323727302668 0.0034430220799715507 0 0.013098480535007629 0.0034573163666490624 0 0.012364161702579911 0.0037149775425322604 0 0.01287051331414007 0.0037166904878592291 0 0.013052948545464415 0.0034265020152338668 0 0.013076201912811244 0.0034059193692260624 0 0.013072323727302668 0.0034430220799715507 0 0.013072323727302668 0.0034430220799715507 0 0.013083184218057745 0.0034566209031960593 0 0.013098480535007629 0.0034573163666490624 0 0.013072323727302668 0.0034430220799715507 0 0.013066845837841325 0.003456268026524384 0 0.013083184218057745 0.0034566209031960593 0 0.013072323727302668 0.0034430220799715507 0 0.013066845837841325 0.003456268026524384 0 0.013054178357132558 0.0034601917808652254 0 0.013066845837841325 0.003456268026524384 0 0.013054178357132558 0.0034601917808652254 0 0.013061838529071003 0.0034651920116977441 0 0.013066845837841325 0.003456268026524384 0 0.013083184218057745 0.0034566209031960593 0 0.013061838529071003 0.0034651920116977441 0 0.013054178357132558 0.0034601917808652254 0 0.013061838529071003 0.0034651920116977441 0 0.013094703392653307 0.0034577502542306651 0 0.013024346937600184 0.0034417004606085311 0 0.013054178357132558 0.0034601917808652254 0 0.013027720025381913 0.0034610946275722221 0 0.013052948545464415 0.0034265020152338668 0 0.013072323727302668 0.0034430220799715507 0 0.013054178357132558 0.0034601917808652254 0 0.013052948545464415 0.0034265020152338668 0 0.013024346937600184 0.0034417004606085311 0 0.013054178357132558 0.0034601917808652254 0 0.013054178357132558 0.0034601917808652254 0 0.013027720025381913 0.0034610946275722221 0 0.013094703392653307 0.0034577502542306651 0 0.01321981328601061 0.0034042389931013902 0 0.013118461155143212 0.0034598502038608986 0 0.013271561804511023 0.0034872164380681347 0 0.013094703392653307 0.0034577502542306651 0 0.013179432377705833 0.0035428814027808524 0 0.013271561804511023 0.0034872164380681347 0 0.013429792146418304 0.0034025573393680125 0 0.013094703392653307 0.0034577502542306651 0 0.013271561804511023 0.0034872164380681347 0 0.013373481117555474 0.0035020300112851292 0 0.013332748519275637 0.0035453705737366389 0 0.013271561804511023 0.0034872164380681347 0 0.013429792146418304 0.0034025573393680125 0 0.013373481117555474 0.0035020300112851292 0 0.013429792146418304 0.0034025573393680125 0 0.013373481117555474 0.0035020300112851292 0 0.013441343813890408 0.0034984851261420998 0 0.013429792146418304 0.0034025573393680125 0 0.013441343813890408 0.0034984851261420998 0 0.013514630021378692 0.003490280917588409 0 0.01321981328601061 0.0034042389931013902 0 0.013463266077791422 0.0037622114666068709 0 0.013514630021378692 0.003490280917588409 0 0.013597926696526491 0.0034380521538224943 0 0.013584505086151413 0.0035303531621080197 0 0.013429792146418304 0.0034025573393680125 0 0.013514630021378692 0.003490280917588409 0 0.013597926696526491 0.0034380521538224943 0 0.013083184218057745 0.0034566209031960593 0 0.013061838529071003 0.0034651920116977441 0 0.013125371785884358 0.0034810230432740881 0 0.013597926696526491 0.0034380521538224943 0 0.013661940679094898 0.0035536042274182836 0 0.013584505086151413 0.0035303531621080197 0 0.013485296722093029 0.0039951385529500925 0 0.013682660054173776 0.003994070836626536 0 0.013545559893020026 0.0038169491174018825 0 0.013440967291616467 0.0040253381612173154 0 0.013463266077791422 0.0037622114666068709 0 0.013463266077791422 0.0037622114666068709 0 0.013623056379374374 0.0036887818776370606 0 0.012170948136672261 0.004004866522423471 0 0.012230003540062142 0.0040520763862244274 0 0.012140767357511828 0.0040458661613439204 0 0.012792643966589998 0.0041076637815018928 0 0.01287051331414007 0.0037166904878592291 0 0.013447744629044332 0.0040362919860024967 0 0.013394349919497081 0.0040963447700390612 0 0.013471818894871432 0.0040709275269712464 0 0.013366264883398564 0.0040304599641153276 0 0.013447744629044332 0.0040362919860024967 0 0.013394349919497081 0.0040963447700390612 0 0.013083184218057745 0.0034566209031960593 0 0.013125371785884358 0.0034810230432740881 0 0.013106085771056911 0.0034546392710511123 0 0.012170948136672261 0.004004866522423471 0 0.012134143661776668 0.0039941519849753526 0 0.012140767357511828 0.0040458661613439204 0 0.013120700639474162 0.0035487342798082924 0 0.01287051331414007 0.0037166904878592291 0 0.013463266077791422 0.0037622114666068709 0 0.01287051331414007 0.0037166904878592291 0 0.0053844104841192057 0.004202139204889906 0 0.0055644431822747783 0.0042494676371789674 0 0.0054711619977457476 0.0043782228533017151 0 0.0053844104841192057 0.004202139204889906 0 0.0055644431822747783 0.0042494676371789674 0 0.0054922801267089155 0.0040702085633115741 0 0.0055644431822747783 0.0042494676371789674 0 0.0054922801267089155 0.0040702085633115741 0 0.0056159443099704836 0.0041088049111535421 0 0.0053844104841192057 0.004202139204889906 0 0.0053292554192197975 0.0040241928020340973 0 0.0052253847864603678 0.0041051624112255882 0 0.0053844104841192057 0.004202139204889906 0 0.0054922801267089155 0.0040702085633115741 0 0.0053292554192197975 0.0040241928020340973 0 0.0054922801267089155 0.0040702085633115741 0 0.0053292554192197975 0.0040241928020340973 0 0.0054277671254836166 0.003887904717521244 0 0.0053292554192197975 0.0040241928020340973 0 0.0054277671254836166 0.003887904717521244 0 0.00515329408869302 0.0039364958710474919 0 0.0051586770804089004 0.0037299838462531787 0 0.0054277671254836166 0.003887904717521244 0 0.00515329408869302 0.0039364958710474919 0 0.0054288653528306472 0.0036742163186086222 0 0.0055646158054990392 0.003719809946936917 0 0.0054277671254836166 0.003887904717521244 0 0.0055646158054990392 0.003719809946936917 0 0.0054277671254836166 0.003887904717521244 0 0.0056155089890520113 0.003855466636459168 0 0.0054277671254836166 0.003887904717521244 0 0.0056155089890520113 0.003855466636459168 0 0.0055779132245446159 0.0039996737021939918 0 0.0054922801267089155 0.0040702085633115741 0 0.0054277671254836166 0.003887904717521244 0 0.0055779132245446159 0.0039996737021939918 0 0.0054922801267089155 0.0040702085633115741 0 0.0055779132245446159 0.0039996737021939918 0 0.0056159443099704836 0.0041088049111535421 0 0.0055779132245446159 0.0039996737021939918 0 0.0057254695866190133 0.004068248155167392 0 0.0056159443099704836 0.0041088049111535421 0 0.0060066450403982322 0.0034263899653539922 0 0.0059637065933855612 0.003419679411113903 0 0.0060354707596007784 0.0035462297598903882 0 0.010178155298252929 0.0034883790305454921 0 0.0080888961257883779 0.003602460578214727 0 0.0059009461842946488 0.0035802005966066638 0 0.0080888961257883779 0.003602460578214727 0 0.0056155089890520113 0.003855466636459168 0 0.0055779132245446159 0.0039996737021939918 0 0.0057254695866190133 0.004068248155167392 0 0.0057181397263065536 0.0036116520864811759 0 0.0056155089890520113 0.003855466636459168 0 0.0057254695866190133 0.004068248155167392 0 0.012762702743636762 0.0034423758047860092 0 0.012735547655753379 0.0034620202258727412 0 0.012780739003963015 0.0034164249344401862 0 0.012743769349202806 0.0035064473392518516 0 0.012762702743636762 0.0034423758047860092 0 0.012735547655753379 0.0034620202258727412 0 0.012743769349202806 0.0035064473392518516 0 0.012697202891677735 0.0034966425877626384 0 0.012735547655753379 0.0034620202258727412 0 0.012697202891677735 0.0034966425877626384 0 0.012735547655753379 0.0034620202258727412 0 0.012714980302357142 0.003467017847492693 0 0.012735547655753379 0.0034620202258727412 0 0.01277567466389923 0.0034173884849335325 0 0.012714980302357142 0.003467017847492693 0 0.012735547655753379 0.0034620202258727412 0 0.012780739003963015 0.0034164249344401862 0 0.01277567466389923 0.0034173884849335325 0 0.0080888961257883779 0.003602460578214727 0 0.0089132045382295383 0.0036924425611539174 0 0.0055644431822747783 0.0042494676371789674 0 0.0056159443099704836 0.0041088049111535421 0 0.0056986769027031862 0.0041674785861967236 0 0.0057254695866190133 0.004068248155167392 0 0.0056159443099704836 0.0041088049111535421 0 0.0056986769027031862 0.0041674785861967236 0 0.012780739003963015 0.0034164249344401862 0 0.012819563431121011 0.003434782730663226 0 0.01277567466389923 0.0034173884849335325 0 0.012819563431121011 0.003434782730663226 0 0.01277567466389923 0.0034173884849335325 0 0.012851578916702966 0.0034337076394036024 0 0.01282568333593922 0.0034234929415415697 0 0.01277567466389923 0.0034173884849335325 0 0.012851578916702966 0.0034337076394036024 0 0.01282568333593922 0.0034234929415415697 0 0.012911593147718241 0.0034461104121629627 0 0.012851578916702966 0.0034337076394036024 0 0.01282568333593922 0.0034234929415415697 0 0.012939556405991696 0.0034514589753899282 0 0.012911593147718241 0.0034461104121629627 0 0.01282568333593922 0.0034234929415415697 0 0.012717753329417781 0.0034049351536446452 0 0.01277567466389923 0.0034173884849335325 0 0.01277567466389923 0.0034173884849335325 0 0.012714980302357142 0.003467017847492693 0 0.012655419404948557 0.0034994720810466685 0 0.012587157314800821 0.0035604890418514754 0 0.012714980302357142 0.003467017847492693 0 0.012655419404948557 0.0034994720810466685 0 0.012587157314800821 0.0035604890418514754 0 0.012697202891677735 0.0034966425877626384 0 0.012714980302357142 0.003467017847492693 0 0.012484792879508854 0.0036514894525216165 0 0.012587157314800821 0.0035604890418514754 0 0.012655419404948557 0.0034994720810466685 0 0.012717753329417781 0.0034049351536446452 0 0.01277567466389923 0.0034173884849335325 0 0.012655419404948557 0.0034994720810466685 0 0.012319867739606976 0.0034644149609704454 0 0.012717753329417781 0.0034049351536446452 0 0.012493492186079775 0.003551380741742171 0 0.012717753329417781 0.0034049351536446452 0 0.012655419404948557 0.0034994720810466685 0 0.012493492186079775 0.003551380741742171 0 0.012484792879508854 0.0036514894525216165 0 0.012203833287751606 0.0037192774471390111 0 0.012336174584085683 0.0036218834233700948 0 0.012484792879508854 0.0036514894525216165 0 0.012655419404948557 0.0034994720810466685 0 0.012493492186079775 0.003551380741742171 0 0.012484792879508854 0.0036514894525216165 0 0.012336174584085683 0.0036218834233700948 0 0.012493492186079775 0.003551380741742171 0 0.012336174584085683 0.0036218834233700948 0 0.012319867739606976 0.0034644149609704454 0 0.012493492186079775 0.003551380741742171 0 0.013015080151397464 0.003371659129077905 0 0.012717753329417781 0.0034049351536446452 0 0.012939556405991696 0.0034514589753899282 0 0.012705693859623026 0.0034116572139177553 0 0.012709866409496952 0.003409507553906994 0 0.01282568333593922 0.0034234929415415697 0 0.012717753329417781 0.0034049351536446452 0 0.012939556405991696 0.0034514589753899282 0 0.013015080151397464 0.003371659129077905 0 0.013024346937600184 0.0034417004606085311 0 0.012939556405991696 0.0034514589753899282 0 0.013024346937600184 0.0034417004606085311 0 0.012939556405991696 0.0034514589753899282 0 0.013027720025381913 0.0034610946275722221 0 0.012939556405991696 0.0034514589753899282 0 0.013032720597346769 0.0034626487412969115 0 0.012911593147718241 0.0034461104121629627 0 0.012939556405991696 0.0034514589753899282 0 0.013027720025381913 0.0034610946275722221 0 0.013032720597346769 0.0034626487412969115 0 0.013027720025381913 0.0034610946275722221 0 0.013032720597346769 0.0034626487412969115 0 0.013094703392653307 0.0034577502542306651 0 0.013073882146596029 0.0034694693866284061 0 0.013298812470995462 0.0036173057148211072 0 0.013032720597346769 0.0034626487412969115 0 0.013083586189192951 0.0036315447717814487 0 0.01343053109867271 0.0036874744391298159 0 0.013032720597346769 0.0034626487412969115 0 0.013094703392653307 0.0034577502542306651 0 0.013179432377705833 0.0035428814027808524 0 0.013032720597346769 0.0034626487412969115 0 0.013083586189192951 0.0036315447717814487 0 0.012934737926266128 0.003514710662678903 0 0.013083586189192951 0.0036315447717814487 0 0.012934737926266128 0.003514710662678903 0 0.012927149714481129 0.0036244072785703951 0 0.012934737926266128 0.003514710662678903 0 0.012921473593938086 0.0034596065093157953 0 0.012871311949131005 0.0034652337083856716 0 0.013032720597346769 0.0034626487412969115 0 0.012934737926266128 0.003514710662678903 0 0.012921473593938086 0.0034596065093157953 0 0.013032720597346769 0.0034626487412969115 0 0.012921473593938086 0.0034596065093157953 0 0.012911593147718241 0.0034461104121629627 0 0.012921473593938086 0.0034596065093157953 0 0.012911593147718241 0.0034461104121629627 0 0.012851578916702966 0.0034337076394036024 0 0.012921473593938086 0.0034596065093157953 0 0.012851578916702966 0.0034337076394036024 0 0.012871311949131005 0.0034652337083856716 0 0.012934737926266128 0.003514710662678903 0 0.012871311949131005 0.0034652337083856716 0 0.012802101029462975 0.0035030909282932534 0 0.012819563431121011 0.003434782730663226 0 0.012871311949131005 0.0034652337083856716 0 0.012802101029462975 0.0035030909282932534 0 0.0055644431822747783 0.0042494676371789674 0 0.0056986769027031862 0.0041674785861967236 0 0.00568214522606945 0.0045780549988802682 0 0.0089132045382295383 0.0036924425611539174 0 0.0089424877073305282 0.004136994910966094 0 0.012780739003963015 0.0034164249344401862 0 0.012819563431121011 0.003434782730663226 0 0.012802101029462975 0.0035030909282932534 0 0.012819563431121011 0.003434782730663226 0 0.012851578916702966 0.0034337076394036024 0 0.012871311949131005 0.0034652337083856716 0 0.012934737926266128 0.003514710662678903 0 0.012927149714481129 0.0036244072785703951 0 0.012802101029462975 0.0035030909282932534 0 0.012927149714481129 0.0036244072785703951 0 0.012802101029462975 0.0035030909282932534 0 0.012796675385560419 0.0037598862709713877 0 0.00568214522606945 0.0045780549988802682 0 0.005418723797477959 0.0045396872326728252 0 0.005452754051349866 0.004792045443624781 0 0.0089424877073305282 0.004136994910966094 0 0.012034104972441414 0.0042413602940356209 0 0.00568214522606945 0.0045780549988802682 0 0.0056910790804662039 0.0049926402370784832 0 0.005452754051349866 0.004792045443624781 0 0.00568214522606945 0.0045780549988802682 0 0.0054711619977457476 0.0043782228533017151 0 0.005418723797477959 0.0045396872326728252 0 0.0055644431822747783 0.0042494676371789674 0 0.00568214522606945 0.0045780549988802682 0 0.0054711619977457476 0.0043782228533017151 0 0.012034104972441414 0.0042413602940356209 0 0.016593267664148849 0.0027309521961055654 0 0.013807439537778153 0.0040337903195678589 0 0.014089847900768122 0.0049779017268617035 0 0.014349770560113389 0.0037775951313238059 0 0.018027381737887975 0.0027030333893584891 0 0.018210857231734785 0.0020935399394590073 0 0.01855141244674214 0.0024764548673736168 0 0.018027381737887975 0.0027030333893584891 0 0.0183475500841426 0.0030544955767302681 0 0.01855141244674214 0.0024764548673736168 0 0.012034104972441414 0.0042413602940356209 0 0.012021435506711444 0.0040520634497609193 0 0.012796675385560419 0.0037598862709713877 0 0.013011706408698663 0.0037499383570656392 0 0.013014943654812918 0.0038226660434796298 0 0.012927149714481129 0.0036244072785703951 0 0.012796675385560419 0.0037598862709713877 0 0.013011706408698663 0.0037499383570656392 0 0.013807439537778153 0.0040337903195678589 0 0.014089847900768122 0.0049779017268617035 0 0.013123857719345454 0.0039147655370913165 0 0.013014943654812918 0.0038226660434796298 0 0.013123857719345454 0.0039147655370913165 0 0.013098476710876513 0.003858025994662749 0 0.012796675385560419 0.0037598862709713877 0 0.013014943654812918 0.0038226660434796298 0 0.013123857719345454 0.0039147655370913165 0 0.012034104972441414 0.0042413602940356209 0 0.013565741876969436 0.0041312065509991527 0 0.013011706408698663 0.0037499383570656392 0 0.013014943654812918 0.0038226660434796298 0 0.013098476710876513 0.003858025994662749 0 0.013807439537778153 0.0040337903195678589 0 0.013123857719345454 0.0039147655370913165 0 0.013674383357175352 0.003489356338159973 0 0.013123857719345454 0.0039147655370913165 0 0.013098476710876513 0.003858025994662749 0 0.012971768403533063 0.0038052128670894975 0 0.013255382809672022 0.0038716565812014561 0 0.013305928461337067 0.0038014968017830745 0 0.013281052206047399 0.0038507773845739904 0 0.013098476710876513 0.003858025994662749 0 0.012971768403533063 0.0038052128670894975 0 0.013281052206047399 0.0038507773845739904 0 0.013411533855326511 0.0040013059043729447 0 0.013416864111560983 0.0040376400863862969 0 0.013281052206047399 0.0038507773845739904 0 0.013452761757388366 0.0039618347233861539 0 0.013411533855326511 0.0040013059043729447 0 0.013011706408698663 0.0037499383570656392 0 0.013281052206047399 0.0038507773845739904 0 0.013098476710876513 0.003858025994662749 0 0.013083586189192951 0.0036315447717814487 0 0.013011706408698663 0.0037499383570656392 0 0.013281052206047399 0.0038507773845739904 0 0.013083586189192951 0.0036315447717814487 0 0.012927149714481129 0.0036244072785703951 0 0.013011706408698663 0.0037499383570656392 0 0.013083586189192951 0.0036315447717814487 0 0.013281052206047399 0.0038507773845739904 0 0.01343053109867271 0.0036874744391298159 0 0.013281052206047399 0.0038507773845739904 0 0.01343053109867271 0.0036874744391298159 0 0.013499644206301051 0.0038628175005594552 0 0.013281052206047399 0.0038507773845739904 0 0.013499644206301051 0.0038628175005594552 0 0.013452761757388366 0.0039618347233861539 0 0.013499644206301051 0.0038628175005594552 0 0.013452761757388366 0.0039618347233861539 0 0.013570155988587605 0.0039497742850434243 0 0.013452761757388366 0.0039618347233861539 0 0.013570155988587605 0.0039497742850434243 0 0.013540100548011538 0.004017835413319697 0 0.013540100548011538 0.004017835413319697 0 0.013621299551299412 0.0040586810587022295 0 0.013635047112716047 0.0039998824998484003 0 0.013570155988587605 0.0039497742850434243 0 0.013540100548011538 0.004017835413319697 0 0.013635047112716047 0.0039998824998484003 0 0.013452761757388366 0.0039618347233861539 0 0.013540100548011538 0.004017835413319697 0 0.013467425224917798 0.0040501405916086655 0 0.013540100548011538 0.004017835413319697 0 0.013544607550614563 0.0040966677620001991 0 0.013467425224917798 0.0040501405916086655 0 0.013544607550614563 0.0040966677620001991 0 0.013621299551299412 0.0040586810587022295 0 0.013662755870122478 0.0041383914104241885 0 0.013540100548011538 0.004017835413319697 0 0.013544607550614563 0.0040966677620001991 0 0.013621299551299412 0.0040586810587022295 0 0.013662755870122478 0.0041383914104241885 0 0.01356537284180525 0.0042002466060102562 0 0.013743056882982987 0.0042705968719966266 0 0.013544607550614563 0.0040966677620001991 0 0.013662755870122478 0.0041383914104241885 0 0.01356537284180525 0.0042002466060102562 0 0.013544607550614563 0.0040966677620001991 0 0.01356537284180525 0.0042002466060102562 0 0.013475243589808594 0.0041315397648578334 0 0.01356537284180525 0.0042002466060102562 0 0.013475243589808594 0.0041315397648578334 0 0.013490018641095431 0.0042019924985276999 0 0.013544607550614563 0.0040966677620001991 0 0.013475243589808594 0.0041315397648578334 0 0.013467425224917798 0.0040501405916086655 0 0.013475243589808594 0.0041315397648578334 0 0.013446858050194107 0.0040759615389359414 0 0.013467425224917798 0.0040501405916086655 0 0.013446858050194107 0.0040759615389359414 0 0.013467425224917798 0.0040501405916086655 0 0.013411533855326511 0.0040013059043729447 0 0.013452761757388366 0.0039618347233861539 0 0.013467425224917798 0.0040501405916086655 0 0.013411533855326511 0.0040013059043729447 0 0.013446858050194107 0.0040759615389359414 0 0.013411533855326511 0.0040013059043729447 0 0.013416864111560983 0.0040376400863862969 0 0.012971768403533063 0.0038052128670894975 0 0.013674383357175352 0.003489356338159973 0 0.013636675812190238 0.0027542546739756429 0 0.013305928461337067 0.0038014968017830745 0 0.013096619924012695 0.0037493738976329309 0 0.013446858050194107 0.0040759615389359414 0 0.013416864111560983 0.0040376400863862969 0 0.013452746662191324 0.004134340147318975 0 0.013123857719345454 0.0039147655370913165 0 0.012971768403533063 0.0038052128670894975 0 0.013674383357175352 0.003489356338159973 0 0.013475243589808594 0.0041315397648578334 0 0.013452746662191324 0.004134340147318975 0 0.013490018641095431 0.0042019924985276999 0 0.013452746662191324 0.004134340147318975 0 0.013503196979687888 0.0041475301738383031 0 0.013490018641095431 0.0042019924985276999 0 0.013475243589808594 0.0041315397648578334 0 0.013446858050194107 0.0040759615389359414 0 0.013452746662191324 0.004134340147318975 0 0.013636675812190238 0.0027542546739756429 0 0.014673933253491759 0.0025497333304676973 0 0.014561151507551868 0.0016608333973295334 0 0.013096619924012695 0.0037493738976329309 0 0.01743511147628363 0.0023583974321715684 0 0.014673933253491759 0.0025497333304676973 0 0.014561151507551868 0.0016608333973295334 0 0.014737097599626655 0.0016851243441703362 0 0.013674383357175352 0.003489356338159973 0 0.013636675812190238 0.0027542546739756429 0 0.014673933253491759 0.0025497333304676973 0 0.013674383357175352 0.003489356338159973 0 0.014673933253491759 0.0025497333304676973 0 0.014349770560113389 0.0037775951313238059 0 0.016346656982572996 0.0021946655234227974 0 0.016593267664148849 0.0027309521961055654 0 0.013807439537778153 0.0040337903195678589 0 0.013674383357175352 0.003489356338159973 0 0.014349770560113389 0.0037775951313238059 0 0.01352414044012604 0.0036332509455468016 0 0.013594924610569697 0.0036411486898529711 0 0.013593186990656609 0.0035927617621852089 0 0.01352414044012604 0.0036332509455468016 0 0.013593186990656609 0.0035927617621852089 0 0.013522440360513577 0.0035721517371976289 0 0.01352414044012604 0.0036332509455468016 0 0.013594924610569697 0.0036411486898529711 0 0.013553481298454354 0.0036791577615929191 0 0.013594924610569697 0.0036411486898529711 0 0.013654663919627575 0.0036240635778956088 0 0.013632491859547454 0.0036641646000405742 0 0.013654663919627575 0.0036240635778956088 0 0.013593186990656609 0.0035927617621852089 0 0.013661940679094898 0.0035536042274182836 0 0.013594924610569697 0.0036411486898529711 0 0.013654663919627575 0.0036240635778956088 0 0.013593186990656609 0.0035927617621852089 0 0.013593186990656609 0.0035927617621852089 0 0.013661940679094898 0.0035536042274182836 0 0.013584505086151413 0.0035303531621080197 0 0.013593186990656609 0.0035927617621852089 0 0.013584505086151413 0.0035303531621080197 0 0.013522440360513577 0.0035721517371976289 0 0.013514630021378692 0.003490280917588409 0 0.013522440360513577 0.0035721517371976289 0 0.013460689342659838 0.0035589248772718257 0 0.013514630021378692 0.003490280917588409 0 0.013584505086151413 0.0035303531621080197 0 0.013522440360513577 0.0035721517371976289 0 0.013441343813890408 0.0034984851261420998 0 0.013514630021378692 0.003490280917588409 0 0.013460689342659838 0.0035589248772718257 0 0.013441343813890408 0.0034984851261420998 0 0.013460689342659838 0.0035589248772718257 0 0.013401215024964547 0.0035443581107122359 0 0.013373481117555474 0.0035020300112851292 0 0.013441343813890408 0.0034984851261420998 0 0.013401215024964547 0.0035443581107122359 0 0.013460689342659838 0.0035589248772718257 0 0.013405107192810023 0.0035947949216995991 0 0.013461731353277913 0.0036091553225179136 0 0.013460689342659838 0.0035589248772718257 0 0.013401215024964547 0.0035443581107122359 0 0.013405107192810023 0.0035947949216995991 0 0.013522440360513577 0.0035721517371976289 0 0.013460689342659838 0.0035589248772718257 0 0.013461731353277913 0.0036091553225179136 0 0.013179432377705833 0.0035428814027808524 0 0.01334690778108151 0.0035938941680216585 0 0.013458959668909193 0.0037095558015263009 0 0.013179432377705833 0.0035428814027808524 0 0.013332748519275637 0.0035453705737366389 0 0.01334690778108151 0.0035938941680216585 0 0.013271561804511023 0.0034872164380681347 0 0.013179432377705833 0.0035428814027808524 0 0.013332748519275637 0.0035453705737366389 0 0.013401215024964547 0.0035443581107122359 0 0.013332748519275637 0.0035453705737366389 0 0.013405107192810023 0.0035947949216995991 0 0.013373481117555474 0.0035020300112851292 0 0.013401215024964547 0.0035443581107122359 0 0.013332748519275637 0.0035453705737366389 0 0.013405107192810023 0.0035947949216995991 0 0.01334690778108151 0.0035938941680216585 0 0.013417995935131958 0.0036347485340163859 0 0.013332748519275637 0.0035453705737366389 0 0.013405107192810023 0.0035947949216995991 0 0.01334690778108151 0.0035938941680216585 0 0.01343053109867271 0.0036874744391298159 0 0.013499644206301051 0.0038628175005594552 0 0.013702765209676577 0.0039301591982907466 0 0.013417995935131958 0.0036347485340163859 0 0.013458959668909193 0.0037095558015263009 0 0.013950736708752923 0.0038219238651105007 0 0.013298812470995462 0.0036173057148211072 0 0.013589554068584607 0.0038198094882545639 0 0.01334690778108151 0.0035938941680216585 0 0.013417995935131958 0.0036347485340163859 0 0.013458959668909193 0.0037095558015263009 0 0.013405107192810023 0.0035947949216995991 0 0.013417995935131958 0.0036347485340163859 0 0.013434057016905443 0.0036208176126593604 0 0.013499644206301051 0.0038628175005594552 0 0.013570155988587605 0.0039497742850434243 0 0.013702765209676577 0.0039301591982907466 0 0.013570155988587605 0.0039497742850434243 0 0.013702765209676577 0.0039301591982907466 0 0.013635047112716047 0.0039998824998484003 0 0.01352414044012604 0.0036332509455468016 0 0.013461731353277913 0.0036091553225179136 0 0.013458587198481163 0.0036369949173561595 0 0.01352414044012604 0.0036332509455468016 0 0.013522440360513577 0.0035721517371976289 0 0.013461731353277913 0.0036091553225179136 0 0.013405107192810023 0.0035947949216995991 0 0.013461731353277913 0.0036091553225179136 0 0.013434057016905443 0.0036208176126593604 0 0.013461731353277913 0.0036091553225179136 0 0.013434057016905443 0.0036208176126593604 0 0.013458587198481163 0.0036369949173561595 0 0.013417995935131958 0.0036347485340163859 0 0.013434057016905443 0.0036208176126593604 0 0.013458587198481163 0.0036369949173561595 0 0.013460438619543647 0.0036311849191139451 0 0.013732465480832411 0.0037799190438590384 0 0.013417995935131958 0.0036347485340163859 0 0.013458587198481163 0.0036369949173561595 0 0.013479590326806875 0.0036784180688547263 0 0.01352414044012604 0.0036332509455468016 0 0.013458587198481163 0.0036369949173561595 0 0.013479590326806875 0.0036784180688547263 0 0.013950736708752923 0.0038219238651105007 0 0.013930469934905716 0.0040908570803856095 0 0.014341566960533897 0.0040859183633564526 0 0.013458959668909193 0.0037095558015263009 0 0.013950736708752923 0.0038219238651105007 0 0.013930469934905716 0.0040908570803856095 0 0.013589554068584607 0.0038198094882545639 0 0.013884263661460623 0.004079876870630491 0 0.013702765209676577 0.0039301591982907466 0 0.013731476301135158 0.004055950789279966 0 0.013930469934905716 0.0040908570803856095 0 0.013702765209676577 0.0039301591982907466 0 0.013635047112716047 0.0039998824998484003 0 0.013731476301135158 0.004055950789279966 0 0.013621299551299412 0.0040586810587022295 0 0.013635047112716047 0.0039998824998484003 0 0.013731476301135158 0.004055950789279966 0 0.013621299551299412 0.0040586810587022295 0 0.013662755870122478 0.0041383914104241885 0 0.013731476301135158 0.004055950789279966 0 0.013812765847674777 0.0041534959764042839 0 0.014042473872576202 0.0042978817297746738 0 0.013743056882982987 0.0042705968719966266 0 0.013662755870122478 0.0041383914104241885 0 0.013731476301135158 0.004055950789279966 0 0.013812765847674777 0.0041534959764042839 0 0.013731476301135158 0.004055950789279966 0 0.013812765847674777 0.0041534959764042839 0 0.013930469934905716 0.0040908570803856095 0 0.013662755870122478 0.0041383914104241885 0 0.013812765847674777 0.0041534959764042839 0 0.013743056882982987 0.0042705968719966266 0 0.013930469934905716 0.0040908570803856095 0 0.014341566960533897 0.0040859183633564526 0 0.014042473872576202 0.0042978817297746738 0 0.013812765847674777 0.0041534959764042839 0 0.013930469934905716 0.0040908570803856095 0 0.014042473872576202 0.0042978817297746738 0 0.014341566960533897 0.0040859183633564526 0 0.014683007100222913 0.0043480987326230073 0 0.01440612202409498 0.0044016221740551965 0 0.014341566960533897 0.0040859183633564526 0 0.01440612202409498 0.0044016221740551965 0 0.014042473872576202 0.0042978817297746738 0 0.013479590326806875 0.0036784180688547263 0 0.01356156112465336 0.0037426973311986576 0 0.013553481298454354 0.0036791577615929191 0 0.013732465480832411 0.0037799190438590384 0 0.013824864532759358 0.003850083907449473 0 0.01356156112465336 0.0037426973311986576 0 0.013553481298454354 0.0036791577615929191 0 0.013618341086706219 0.0037259678817868299 0 0.01352414044012604 0.0036332509455468016 0 0.013479590326806875 0.0036784180688547263 0 0.013553481298454354 0.0036791577615929191 0 0.013703461032101924 0.0036133991328254752 0 0.013654663919627575 0.0036240635778956088 0 0.013632491859547454 0.0036641646000405742 0 0.013594924610569697 0.0036411486898529711 0 0.013553481298454354 0.0036791577615929191 0 0.013632491859547454 0.0036641646000405742 0 0.013553481298454354 0.0036791577615929191 0 0.013632491859547454 0.0036641646000405742 0 0.013618341086706219 0.0037259678817868299 0 0.01367811131294496 0.0037345434225345979 0 0.013632491859547454 0.0036641646000405742 0 0.013618341086706219 0.0037259678817868299 0 0.013691390569955818 0.0036329994658006858 0 0.015089988853584341 0.0041358791134776494 0 0.01367811131294496 0.0037345434225345979 0 0.013618341086706219 0.0037259678817868299 0 0.013648047264592438 0.0038230030596434175 0 0.01356156112465336 0.0037426973311986576 0 0.013618341086706219 0.0037259678817868299 0 0.013648047264592438 0.0038230030596434175 0 0.013824864532759358 0.003850083907449473 0 0.015089988853584341 0.0041358791134776494 0 0.014683007100222913 0.0043480987326230073 0 0.0145833768842695 0.0046168744184037396 0 0.01440612202409498 0.0044016221740551965 0 0.018237996046280375 0.0050302030462362028 0 0.017977874761614377 0.0036704921007344169 0 0.018942604382741202 0.00358631497337335 0 0.015089988853584341 0.0041358791134776494 0 0.021558961284532371 0.0044571862029671658 0 0.018237996046280375 0.0050302030462362028 0 0.017977874761614377 0.0036704921007344169 0 0.01754443306863903 0.0043141295677576186 0 0.015089988853584341 0.0041358791134776494 0 0.015371974405002297 0.0044248744730255767 0 0.020282164660476359 0.0041031508973356388 0 0.015371974405002297 0.0044248744730255767 0 0.029956147794922297 0.0040778974822784945 0 0.030886813664804297 0.0042372944915505684 0 0.031677746267944978 0.0015921617190617085 0 0.02756486527316664 0.0034969919514408272 0 0.020282164660476359 0.0041031508973356388 0 0.020282164660476359 0.0041031508973356388 0 0.021558961284532371 0.0044571862029671658 0 0.023775179617108944 0.0036527921572548465 0 0.023565213094833146 0.0039626927662537266 0 0.024153628148018892 0.0039045411637085008 0 0.023775179617108944 0.0036527921572548465 0 0.024153628148018892 0.0039045411637085008 0 0.024239496940300254 0.0037286257520858161 0 0.021558961284532371 0.0044571862029671658 0 0.027517609986951345 0.0027328172654768465 0 0.02756486527316664 0.0034969919514408272 0 0.027517609986951345 0.0027328172654768465 0 0.032993040198261478 0.0050327287405538086 0 0.033123006886539477 0.0035254633245140345 0 0.032110077805160314 0.0041639415891853273 0 0.034819959504987112 0.0015248795517898395 0 0.034820359085285475 0.0017224879313855873 0 0.034936852483781616 0.0014575376248365404 0 0.03457383766231252 0.001692209317823696 0 0.034819959504987112 0.0015248795517898395 0 0.034820359085285475 0.0017224879313855873 0 0.027517609986951345 0.0027328172654768465 0 0.024703046434384167 0.0026134458918375485 0 0.025180711218950838 0.0025870847719615475 0 0.025115202090900603 0.0027294628073880186 0 0.024580024834774165 0.0026229615744069526 0 0.021558961284532371 0.0044571862029671658 0 0.024703046434384167 0.0026134458918375485 0 0.014356353309107771 0.0046280701162295127 0 0.01440612202409498 0.0044016221740551965 0 0.014042473872576202 0.0042978817297746738 0 0.0145833768842695 0.0046168744184037396 0 0.014356353309107771 0.0046280701162295127 0 0.01440612202409498 0.0044016221740551965 0 0.014356353309107771 0.0046280701162295127 0 0.014042473872576202 0.0042978817297746738 0 0.013899092734246839 0.0044999772488789284 0 0.014042473872576202 0.0042978817297746738 0 0.013743056882982987 0.0042705968719966266 0 0.013899092734246839 0.0044999772488789284 0 0.018126193477171756 0.0030600722291772809 0 0.019101062020513235 0.0029953316894768879 0 0.013743056882982987 0.0042705968719966266 0 0.013899092734246839 0.0044999772488789284 0 0.013612299513093737 0.0043350918366598188 0 0.024475886973074134 0.0017015126791711417 0 0.024466434413663411 0.0017563099540349452 0 0.02423478080522341 0.0016251628702491174 0 0.035311080403730571 0.0015561005190950382 0 0.035316037112950324 0.0014854223953184166 0 0.035283288703248074 0.0014639974456202615 0 0.024696976045156003 0.0018020847226791865 0 0.024475886973074134 0.0017015126791711417 0 0.024466434413663411 0.0017563099540349452 0 0.034820359085285475 0.0017224879313855873 0 0.035133404099240949 0.0014067039963369919 0 0.035283288703248074 0.0014639974456202615 0 0.034820359085285475 0.0017224879313855873 0 0.035133404099240949 0.0014067039963369919 0 0.034936852483781616 0.0014575376248365404 0 0.024703046434384167 0.0026134458918375485 0 0.031020330686427372 0.0015094637598486297 0 0.034820359085285475 0.0017224879313855873 0 0.035311080403730571 0.0015561005190950382 0 0.035283288703248074 0.0014639974456202615 0 0.024703046434384167 0.0026134458918375485 0 0.018126193477171756 0.0030600722291772809 0 0.035133404099240949 0.0014067039963369919 0 0.035048765133683338 0.0013390364823770461 0 0.034936852483781616 0.0014575376248365404 0 0.035133404099240949 0.0014067039963369919 0 0.035263864209361825 0.001295512852984731 0 0.035153618238004815 0.0012614388214300892 0 0.035133404099240949 0.0014067039963369919 0 0.035263864209361825 0.001295512852984731 0 0.035350587872266657 0.0013754883420254067 0 0.035048765133683338 0.0013390364823770461 0 0.035153618238004815 0.0012614388214300892 0 0.034958786064873709 0.0012354780397823479 0 0.035133404099240949 0.0014067039963369919 0 0.035048765133683338 0.0013390364823770461 0 0.035153618238004815 0.0012614388214300892 0 0.035316037112950324 0.0014854223953184166 0 0.035350587872266657 0.0013754883420254067 0 0.035505030528316273 0.0012705756384557452 0 0.035316037112950324 0.0014854223953184166 0 0.035283288703248074 0.0014639974456202615 0 0.035350587872266657 0.0013754883420254067 0 0.035133404099240949 0.0014067039963369919 0 0.035283288703248074 0.0014639974456202615 0 0.035350587872266657 0.0013754883420254067 0 0.035263864209361825 0.001295512852984731 0 0.035350587872266657 0.0013754883420254067 0 0.035399383851054879 0.0012094859362714425 0 0.035350587872266657 0.0013754883420254067 0 0.035505030528316273 0.0012705756384557452 0 0.035399383851054879 0.0012094859362714425 0 0.035505030528316273 0.0012705756384557452 0 0.035399383851054879 0.0012094859362714425 0 0.035601021500088009 0.0010905199284740284 0 0.035263864209361825 0.001295512852984731 0 0.035399383851054879 0.0012094859362714425 0 0.03529088382336959 0.0011964059018577942 0 0.035399383851054879 0.0012094859362714425 0 0.03529088382336959 0.0011964059018577942 0 0.035421007282541182 0.0010762852095581375 0 0.035399383851054879 0.0012094859362714425 0 0.035601021500088009 0.0010905199284740284 0 0.035421007282541182 0.0010762852095581375 0 0.03457810377707634 0.00098816069732413992 0 0.034334316090245127 0.00064484629228259138 0 0.035217105861258709 0.001143276841503698 0 0.034958786064873709 0.0012354780397823479 0 0.035195638962996864 0.001077289583148475 0 0.035153618238004815 0.0012614388214300892 0 0.035217105861258709 0.001143276841503698 0 0.034958786064873709 0.0012354780397823479 0 0.035153618238004815 0.0012614388214300892 0 0.03529088382336959 0.0011964059018577942 0 0.035217105861258709 0.001143276841503698 0 0.035263864209361825 0.001295512852984731 0 0.035153618238004815 0.0012614388214300892 0 0.03529088382336959 0.0011964059018577942 0 0.03529088382336959 0.0011964059018577942 0 0.035217105861258709 0.001143276841503698 0 0.035421007282541182 0.0010762852095581375 0 0.034554325347888243 0.0018947711870443491 0 0.034415466451638357 0.0027807954184284121 0 0.035101023872536143 0.0015003158051723748 0 0.032424845515895979 0.0011730022822999955 0 0.031677746267944978 0.0015921617190617085 0 0.033452121365356927 -0.0008352981947167932 0 0.033517105982938611 0.0021655825505872955 0 0.034334316090245127 0.00064484629228259138 0 0.034064226839319617 0.0023658706189982701 0 0.034269237700770699 0.0022090042028653752 0 0.034115228408045553 0.00188651109056645 0 0.034554325347888243 0.0018947711870443491 0 0.034269237700770699 0.0022090042028653752 0 0.034415466451638357 0.0027807954184284121 0 0.034064226839319617 0.0023658706189982701 0 0.034269237700770699 0.0022090042028653752 0 0.034415466451638357 0.0027807954184284121 0 0.034554325347888243 0.0018947711870443491 0 0.034269237700770699 0.0022090042028653752 0 0.034115228408045553 0.00188651109056645 0 0.034554325347888243 0.0018947711870443491 0 0.034115228408045553 0.00188651109056645 0 0.03416045663317361 0.0014473548559571338 0 0.034064226839319617 0.0023658706189982701 0 0.034115228408045553 0.00188651109056645 0 0.033569098505728763 0.0016443205156435067 0 0.034064226839319617 0.0023658706189982701 0 0.033569098505728763 0.0016443205156435067 0 0.033013694833285721 0.0021098338633583893 0 0.034024819754949726 0.0023713385607186197 0 0.032087667446951823 0.001858668194606939 0 0.034064226839319617 0.0023658706189982701 0 0.033123006886539477 0.0035254633245140345 0 0.034415466451638357 0.0027807954184284121 0 0.02756486527316664 0.0034969919514408272 0 0.033517105982938611 0.0021655825505872955 0 0.032993040198261478 0.0050327287405538086 0 0.033123006886539477 0.0035254633245140345 0 0.034415466451638357 0.0027807954184284121 0 0.034064226839319617 0.0023658706189982701 0 0.033123006886539477 0.0035254633245140345 0 0.031448186281269205 0.0018648430509273482 0 0.033123006886539477 0.0035254633245140345 0 0.032110077805160314 0.0041639415891853273 0 0.031526931760424218 0.0034312972163919714 0 0.027517609986951345 0.0027328172654768465 0 0.03457810377707634 0.00098816069732413992 0 0.030886813664804297 0.0042372944915505684 0 0.032424845515895979 0.0011730022822999955 0 0.031677746267944978 0.0015921617190617085 0 0.034819959504987112 0.0015248795517898395 0 0.034958786064873709 0.0012354780397823479 0 0.034936852483781616 0.0014575376248365404 0 0.03457383766231252 0.001692209317823696 0 0.034819959504987112 0.0015248795517898395 0 0.034958786064873709 0.0012354780397823479 0 0.035048765133683338 0.0013390364823770461 0 0.034958786064873709 0.0012354780397823479 0 0.034936852483781616 0.0014575376248365404 0 0.03004111331190721 0.0017112023287878526 0 0.027074898656245187 0.00021516410425899253 0 0.023830183530199084 0.0016386594971943697 0 0.023710371046338875 0.0017423095608396601 0 0.023703224892826915 0.0015916216819239989 0 0.023830183530199084 0.0016386594971943697 0 0.023951858321462093 0.0017462830164641991 0 0.023710371046338875 0.0017423095608396601 0 0.016346656982572996 0.0021946655234227974 0 0.019161860033771003 0.00068043152287796467 0 0.014673933253491759 0.0025497333304676973 0 0.014737097599626655 0.0016851243441703362 0 0.015025728246224458 0.0011569656530442734 0 0.023830183530199084 0.0016386594971943697 0 0.023741487708141086 0.0015251819789653923 0 0.023985043518260776 0.0015669632087883191 0 0.023830183530199084 0.0016386594971943697 0 0.023741487708141086 0.0015251819789653923 0 0.023703224892826915 0.0015916216819239989 0 0.014569806074662158 0.0016561181012170404 0 0.014737097599626655 0.0016851243441703362 0 0.015025728246224458 0.0011569656530442734 0 0.01743511147628363 0.0023583974321715684 0 0.019161860033771003 0.00068043152287796467 0 0.01743511147628363 0.0023583974321715684 0 0.016817785114409151 0.002239315791315873 0 0.01743511147628363 0.0023583974321715684 0 0.01895622810101057 0.0029532687159099357 0 0.023830183530199084 0.0016386594971943697 0 0.023985043518260776 0.0015669632087883191 0 0.023951858321462093 0.0017462830164641991 0 0.023985043518260776 0.0015669632087883191 0 0.023951858321462093 0.0017462830164641991 0 0.024212981203287815 0.0017455030071954522 0 0.03004111331190721 0.0017112023287878526 0 0.029325656912531382 0.0015959598063513404 0 0.035019761799772738 0.0014076923735653125 0 0.035155242745608377 0.0013984752676009494 0 0.035080705354581458 0.0014231717546389973 0 0.023985043518260776 0.0015669632087883191 0 0.02423478080522341 0.0016251628702491174 0 0.024212981203287815 0.0017455030071954522 0 0.01895622810101057 0.0029532687159099357 0 0.019101062020513235 0.0029953316894768879 0 0.01356537284180525 0.0042002466060102562 0 0.013490018641095431 0.0042019924985276999 0 0.013612299513093737 0.0043350918366598188 0 0.01356537284180525 0.0042002466060102562 0 0.013743056882982987 0.0042705968719966266 0 0.013612299513093737 0.0043350918366598188 0 0.035311080403730571 0.0015561005190950382 0 0.035316037112950324 0.0014854223953184166 0 0.035155242745608377 0.0013984752676009494 0 0.031020330686427372 0.0015094637598486297 0 0.029325656912531382 0.0015959598063513404 0 0.024466434413663411 0.0017563099540349452 0 0.02423478080522341 0.0016251628702491174 0 0.024212981203287815 0.0017455030071954522 0 0.035316037112950324 0.0014854223953184166 0 0.035155242745608377 0.0013984752676009494 0 0.035093894548157395 0.0014554403230974944 0 0.035316037112950324 0.0014854223953184166 0 0.035505030528316273 0.0012705756384557452 0 0.035821496063411798 0.0012100915980659376 0 0.035343299606867405 0.0014603615233726051 0 0.035453855690977559 0.0013168823735426173 0 0.035601021500088009 0.0010905199284740284 0 0.035821496063411798 0.0012100915980659376 0 0.035809083685227533 0.00093747846934159515 0 0.035505030528316273 0.0012705756384557452 0 0.035601021500088009 0.0010905199284740284 0 0.035821496063411798 0.0012100915980659376 0 0.035453855690977559 0.0013168823735426173 0 0.035505256942302089 0.0010854239298195517 0 0.035821496063411798 0.0012100915980659376 0 0.035991048601991239 0.00085937815259965779 0 0.035809083685227533 0.00093747846934159515 0 0.035093894548157395 0.0014554403230974944 0 0.035060402124087613 0.0014087251243875274 0 0.035026688142491463 0.0013094349114953182 0 0.035093894548157395 0.0014554403230974944 0 0.035080705354581458 0.0014231717546389973 0 0.035060402124087613 0.0014087251243875274 0 0.035155242745608377 0.0013984752676009494 0 0.035093894548157395 0.0014554403230974944 0 0.035080705354581458 0.0014231717546389973 0 0.035019761799772738 0.0014076923735653125 0 0.035080705354581458 0.0014231717546389973 0 0.035060402124087613 0.0014087251243875274 0 0.035019761799772738 0.0014076923735653125 0 0.035060402124087613 0.0014087251243875274 0 0.035073172882569344 0.0013985690937323785 0 0.035060402124087613 0.0014087251243875274 0 0.035113716153110708 0.0013330443543731264 0 0.035026688142491463 0.0013094349114953182 0 0.035060402124087613 0.0014087251243875274 0 0.035113716153110708 0.0013330443543731264 0 0.035073172882569344 0.0013985690937323785 0 0.035113716153110708 0.0013330443543731264 0 0.035073172882569344 0.0013985690937323785 0 0.035136562974459204 0.0013862554266764549 0 0.035019761799772738 0.0014076923735653125 0 0.035073172882569344 0.0013985690937323785 0 0.035062099994909959 0.001421116525589272 0 0.035314080292516571 0.0010089172247787859 0 0.035110776614282205 0.001074721151918678 0 0.035258719708291378 0.0011112853030592798 0 0.035110776614282205 0.001074721151918678 0 0.035258719708291378 0.0011112853030592798 0 0.035155991720852348 0.0012164700311037165 0 0.035258719708291378 0.0011112853030592798 0 0.035155991720852348 0.0012164700311037165 0 0.035258829908175825 0.0011960775894435611 0 0.035113716153110708 0.0013330443543731264 0 0.035155991720852348 0.0012164700311037165 0 0.035258829908175825 0.0011960775894435611 0 0.035110776614282205 0.001074721151918678 0 0.035155991720852348 0.0012164700311037165 0 0.035026688142491463 0.0013094349114953182 0 0.035113716153110708 0.0013330443543731264 0 0.035155991720852348 0.0012164700311037165 0 0.035026688142491463 0.0013094349114953182 0 0.035489160197234908 0.00090475134384506752 0 0.035505256942302089 0.0010854239298195517 0 0.035870248739686202 0.00069374705974540609 0 0.035991048601991239 0.00085937815259965779 0 0.035962560433421893 0.00073549965542245516 0 0.035991048601991239 0.00085937815259965779 0 0.035962560433421893 0.00073549965542245516 0 0.035918426782508173 0.00074842593314251155 0 0.035991048601991239 0.00085937815259965779 0 0.035809083685227533 0.00093747846934159515 0 0.035918426782508173 0.00074842593314251155 0 0.035809083685227533 0.00093747846934159515 0 0.035918426782508173 0.00074842593314251155 0 0.035704652938820219 0.00088823639659002215 0 0.035601021500088009 0.0010905199284740284 0 0.035809083685227533 0.00093747846934159515 0 0.035704652938820219 0.00088823639659002215 0 0.035918426782508173 0.00074842593314251155 0 0.036073306147565223 0.00077347415088203225 0 0.036014285575714185 0.00075645475715778812 0 0.036073306147565223 0.00077347415088203225 0 0.036188966226416291 0.00081264736425277063 0 0.03627393379163725 0.00085116092333629317 0 0.036073306147565223 0.00077347415088203225 0 0.036188966226416291 0.00081264736425277063 0 0.036014285575714185 0.00075645475715778812 0 0.035948949092664884 0.0008279867144341522 0 0.036047300094047593 0.00099967043144970715 0 0.03627393379163725 0.00085116092333629317 0 0.036073306147565223 0.00077347415088203225 0 0.035948949092664884 0.0008279867144341522 0 0.03627393379163725 0.00085116092333629317 0 0.035962560433421893 0.00073549965542245516 0 0.035918426782508173 0.00074842593314251155 0 0.036073306147565223 0.00077347415088203225 0 0.035962560433421893 0.00073549965542245516 0 0.036073306147565223 0.00077347415088203225 0 0.035948949092664884 0.0008279867144341522 0 0.035870248739686202 0.00069374705974540609 0 0.035948949092664884 0.0008279867144341522 0 0.035741279240476716 0.00086905289082047374 0 0.035870248739686202 0.00069374705974540609 0 0.035962560433421893 0.00073549965542245516 0 0.035948949092664884 0.0008279867144341522 0 0.035948949092664884 0.0008279867144341522 0 0.0356356368289431 0.0010024722252814117 0 0.036047300094047593 0.00099967043144970715 0 0.035948949092664884 0.0008279867144341522 0 0.0356356368289431 0.0010024722252814117 0 0.035741279240476716 0.00086905289082047374 0 0.0356356368289431 0.0010024722252814117 0 0.035741279240476716 0.00086905289082047374 0 0.035466352470674735 0.0008833065478581854 0 0.035489160197234908 0.00090475134384506752 0 0.035456697025748808 0.00089706532231201958 0 0.035314080292516571 0.0010089172247787859 0 0.035110776614282205 0.001074721151918678 0 0.035466352470674735 0.0008833065478581854 0 0.035870248739686202 0.00069374705974540609 0 0.035741279240476716 0.00086905289082047374 0 0.035466352470674735 0.0008833065478581854 0 0.034381698181828943 0.00053933555274037327 0 0.034095776152164123 0.00090212948963104545 0 0.034694623186866044 0.0010632954244960337 0 0.034381698181828943 0.00053933555274037327 0 0.034694623186866044 0.0010632954244960337 0 0.03493059265374137 0.00059959175466233665 0 0.034381698181828943 0.00053933555274037327 0 0.03493059265374137 0.00059959175466233665 0 0.034529847921770336 -2.4606629668586333e-05 0 0.03369649910870097 0.00048318109088685572 0 0.033546242003077278 0.00098284386983618589 0 0.033142140547757229 0.0002422435018500366 0 0.034381698181828943 0.00053933555274037327 0 0.03369649910870097 0.00048318109088685572 0 0.034002271246391373 2.7965478464066809e-05 0 0.03369649910870097 0.00048318109088685572 0 0.034002271246391373 2.7965478464066809e-05 0 0.033142140547757229 0.0002422435018500366 0 0.03369649910870097 0.00048318109088685572 0 0.034095776152164123 0.00090212948963104545 0 0.033546242003077278 0.00098284386983618589 0 0.034381698181828943 0.00053933555274037327 0 0.03369649910870097 0.00048318109088685572 0 0.034095776152164123 0.00090212948963104545 0 0.034095776152164123 0.00090212948963104545 0 0.033546242003077278 0.00098284386983618589 0 0.03416045663317361 0.0014473548559571338 0 0.033546242003077278 0.00098284386983618589 0 0.033569098505728763 0.0016443205156435067 0 0.03416045663317361 0.0014473548559571338 0 0.034115228408045553 0.00188651109056645 0 0.033569098505728763 0.0016443205156435067 0 0.03416045663317361 0.0014473548559571338 0 0.03416045663317361 0.0014473548559571338 0 0.034694623186866044 0.0010632954244960337 0 0.034622844098625594 0.0014718499293974445 0 0.034554325347888243 0.0018947711870443491 0 0.03416045663317361 0.0014473548559571338 0 0.034622844098625594 0.0014718499293974445 0 0.034095776152164123 0.00090212948963104545 0 0.03416045663317361 0.0014473548559571338 0 0.034694623186866044 0.0010632954244960337 0 0.034554325347888243 0.0018947711870443491 0 0.034622844098625594 0.0014718499293974445 0 0.035101023872536143 0.0015003158051723748 0 0.034694623186866044 0.0010632954244960337 0 0.034622844098625594 0.0014718499293974445 0 0.035101023872536143 0.0015003158051723748 0 0.035217105861258709 0.001143276841503698 0 0.035195638962996864 0.001077289583148475 0 0.035276480266272871 0.0010284678290365808 0 0.034334316090245127 0.00064484629228259138 0 0.034829582800603984 0.00094260209794829234 0 0.035217105861258709 0.001143276841503698 0 0.035276480266272871 0.0010284678290365808 0 0.035421007282541182 0.0010762852095581375 0 0.035276480266272871 0.0010284678290365808 0 0.035535324662141633 0.00090953743648138725 0 0.035365522120803267 0.00068753502876318495 0 0.035276480266272871 0.0010284678290365808 0 0.035421007282541182 0.0010762852095581375 0 0.035535324662141633 0.00090953743648138725 0 0.034694623186866044 0.0010632954244960337 0 0.035276480266272871 0.0010284678290365808 0 0.03493059265374137 0.00059959175466233665 0 0.034694623186866044 0.0010632954244960337 0 0.035101023872536143 0.0015003158051723748 0 0.035276480266272871 0.0010284678290365808 0 0.035601021500088009 0.0010905199284740284 0 0.035421007282541182 0.0010762852095581375 0 0.035704652938820219 0.00088823639659002215 0 0.035421007282541182 0.0010762852095581375 0 0.035535324662141633 0.00090953743648138725 0 0.035704652938820219 0.00088823639659002215 0 0.035918426782508173 0.00074842593314251155 0 0.035798213489002119 0.00064870407271354921 0 0.036014285575714185 0.00075645475715778812 0 0.035918426782508173 0.00074842593314251155 0 0.035704652938820219 0.00088823639659002215 0 0.035798213489002119 0.00064870407271354921 0 0.035535324662141633 0.00090953743648138725 0 0.035798213489002119 0.00064870407271354921 0 0.035365522120803267 0.00068753502876318495 0 0.035535324662141633 0.00090953743648138725 0 0.035704652938820219 0.00088823639659002215 0 0.035798213489002119 0.00064870407271354921 0 0.035276480266272871 0.0010284678290365808 0 0.03493059265374137 0.00059959175466233665 0 0.035365522120803267 0.00068753502876318495 0 0.035798213489002119 0.00064870407271354921 0 0.035365522120803267 0.00068753502876318495 0 0.035164125387407409 -4.39866689245741e-05 0 0.03493059265374137 0.00059959175466233665 0 0.035365522120803267 0.00068753502876318495 0 0.035164125387407409 -4.39866689245741e-05 0 0.035798213489002119 0.00064870407271354921 0 0.036101453583467329 0.00073136737422019066 0 0.036046072840785377 0.00078044446719580812 0 0.035807163293206254 0.00060387071767163973 0 0.035597407099041335 0.00034180819051322133 0 0.036101453583467329 0.00073136737422019066 0 0.036046072840785377 0.00078044446719580812 0 0.036105137718645791 0.00080991998097060139 0 0.036101453583467329 0.00073136737422019066 0 0.036125540840352438 0.00079217876843116456 0 0.036105137718645791 0.00080991998097060139 0 0.035798213489002119 0.00064870407271354921 0 0.036046072840785377 0.00078044446719580812 0 0.036014285575714185 0.00075645475715778812 0 0.036188966226416291 0.00081264736425277063 0 0.036014285575714185 0.00075645475715778812 0 0.036129436831895852 0.00082770721743798332 0 0.036046072840785377 0.00078044446719580812 0 0.036014285575714185 0.00075645475715778812 0 0.036129436831895852 0.00082770721743798332 0 0.036209758379598687 0.00082465532656407362 0 0.036129436831895852 0.00082770721743798332 0 0.036053506333680152 0.00076649722008527194 0 0.036188966226416291 0.00081264736425277063 0 0.036209758379598687 0.00082465532656407362 0 0.036129436831895852 0.00082770721743798332 0 0.036125540840352438 0.00079217876843116456 0 0.036105137718645791 0.00080991998097060139 0 0.036129590089681619 0.00081928244515543894 0 0.036046072840785377 0.00078044446719580812 0 0.036129436831895852 0.00082770721743798332 0 0.036105137718645791 0.00080991998097060139 0 0.036129436831895852 0.00082770721743798332 0 0.036105137718645791 0.00080991998097060139 0 0.036112882806854443 0.00081966968013280053 0 0.036150398527965859 0.00077717439777961561 0 0.036170844137138114 0.00070655020436544147 0 0.036105137718645791 0.00080991998097060139 0 0.036129590089681619 0.00081928244515543894 0 0.036112882806854443 0.00081966968013280053 0 0.036247274721157692 0.00039389932321931266 0 0.036170844137138114 0.00070655020436544147 0 0.036247274721157692 0.00039389932321931266 0 0.036134163146670603 0.00028999355767112163 0 0.036536224444704703 9.7850577096972809e-05 0 0.036931747912317875 -7.459025257175312e-05 0 0.036878817490148381 0.000366151858087638 0 0.034295396510600526 -0.00078809838253974401 0 0.034385138724293808 -0.00050670024866416447 0 0.034133171381394059 -0.0003851112299361574 0 0.036134163146670603 0.00028999355767112163 0 0.035478818323053746 0.00013634298606877019 0 0.034295396510600526 -0.00078809838253974401 0 0.034494303558117979 -0.00062511125783828699 0 0.034385138724293808 -0.00050670024866416447 0 0.035478818323053746 0.00013634298606877019 0 0.035333460696633984 9.80298577561095e-05 0 0.036125540840352438 0.00079217876843116456 0 0.036129590089681619 0.00081928244515543894 0 0.036164065064038603 0.00079168337412882303 0 0.036059846650105726 0.00022460033302951159 0 0.035823981153744348 0.0003262500627018945 0 0.035907584145539767 0.00039456715315726705 0 0.036247274721157692 0.00039389932321931266 0 0.035478818323053746 0.00013634298606877019 0 0.035597407099041335 0.00034180819051322133 0 0.035478818323053746 0.00013634298606877019 0 0.036101453583467329 0.00073136737422019066 0 0.036125540840352438 0.00079217876843116456 0 0.036164065064038603 0.00079168337412882303 0 0.035164125387407409 -4.39866689245741e-05 0 0.034491657462437084 -0.00062375946534479784 0 0.034529847921770336 -2.4606629668586333e-05 0 0.034385138724293808 -0.00050670024866416447 0 0.034287241305845866 -0.00021107428236268286 0 0.034529847921770336 -2.4606629668586333e-05 0 0.034491657462437084 -0.00062375946534479784 0 0.034385138724293808 -0.00050670024866416447 0 0.034529847921770336 -2.4606629668586333e-05 0 0.034385138724293808 -0.00050670024866416447 0 0.034287241305845866 -0.00021107428236268286 0 0.034133171381394059 -0.0003851112299361574 0 0.034287241305845866 -0.00021107428236268286 0 0.034529847921770336 -2.4606629668586333e-05 0 0.034002271246391373 2.7965478464066809e-05 0 0.034381698181828943 0.00053933555274037327 0 0.034529847921770336 -2.4606629668586333e-05 0 0.034002271246391373 2.7965478464066809e-05 0 0.03493059265374137 0.00059959175466233665 0 0.035164125387407409 -4.39866689245741e-05 0 0.034529847921770336 -2.4606629668586333e-05 0 0.035917565526598215 0.00016356540346383876 0 0.033917833399559394 0.0006554385397384545 0 0.034002271246391373 2.7965478464066809e-05 0 0.033783726584092046 -0.00057486588040666633 0 0.033142140547757229 0.0002422435018500366 0 0.034002271246391373 2.7965478464066809e-05 0 0.034133171381394059 -0.0003851112299361574 0 0.033783726584092046 -0.00057486588040666633 0 0.034287241305845866 -0.00021107428236268286 0 0.034002271246391373 2.7965478464066809e-05 0 0.034133171381394059 -0.0003851112299361574 0 0.037446093268180394 0.00065514874684097484 0 0.03746673308836658 0.00066779394053162499 0 0.037436346632708839 0.00070635897656151343 0 0.037265593283218115 0.00062214259685840385 0 0.037531321689697063 0.00068657283029367017 0 0.03761115936380989 0.00083802512422179198 0 0.037446093268180394 0.00065514874684097484 0 0.03746673308836658 0.00066779394053162499 0 0.037396581148510556 0.00062618091177951978 0 0.037265593283218115 0.00062214259685840385 0 0.037396581148510556 0.00062618091177951978 0 0.037531321689697063 0.00068657283029367017 0 0.036134163146670603 0.00028999355767112163 0 0.037755959039082757 0.00068648547697037284 0 0.037265593283218115 0.00062214259685840385 0 0.037435540931880229 0.00057884925997144876 0 0.037396581148510556 0.00062618091177951978 0 0.036134163146670603 0.00028999355767112163 0 0.035917565526598215 0.00016356540346383876 0 0.034295396510600526 -0.00078809838253974401 0 0.034133171381394059 -0.0003851112299361574 0 0.033783726584092046 -0.00057486588040666633 0 0.035917565526598215 0.00016356540346383876 0 0.036273629467222367 0.00010784849959484241 0 0.03746673308836658 0.00066779394053162499 0 0.037396581148510556 0.00062618091177951978 0 0.037531321689697063 0.00068657283029367017 0 0.037446093268180394 0.00065514874684097484 0 0.037436346632708839 0.00070635897656151343 0 0.037392499527121675 0.00079432014562343502 0 0.037467302448226367 0.00068671101821148918 0 0.037389662122213431 0.00066178834116486357 0 0.037436346632708839 0.00070635897656151343 0 0.037531321689697063 0.00068657283029367017 0 0.037467302448226367 0.00068671101821148918 0 0.037389662122213431 0.00066178834116486357 0 0.03746673308836658 0.00066779394053162499 0 0.037467302448226367 0.00068671101821148918 0 0.037436346632708839 0.00070635897656151343 0 0.03746673308836658 0.00066779394053162499 0 0.037531321689697063 0.00068657283029367017 0 0.037467302448226367 0.00068671101821148918 0 0.037389662122213431 0.00066178834116486357 0 0.0373627991354036 0.0007012374201660124 0 0.037436346632708839 0.00070635897656151343 0 0.037389662122213431 0.00066178834116486357 0 0.0373627991354036 0.0007012374201660124 0 0.037319609739534083 0.00067005231222773507 0 0.037369384754327321 0.000744078837222285 0 0.037436346632708839 0.00070635897656151343 0 0.037392499527121675 0.00079432014562343502 0 0.0373627991354036 0.0007012374201660124 0 0.037369384754327321 0.000744078837222285 0 0.037436346632708839 0.00070635897656151343 0 0.037369384754327321 0.000744078837222285 0 0.037304360997446807 0.00074498824880943153 0 0.037336883492268873 0.00078430213569688966 0 0.0373627991354036 0.0007012374201660124 0 0.037369384754327321 0.000744078837222285 0 0.037304360997446807 0.00074498824880943153 0 0.037183350949969267 0.00079920150171671281 0 0.037277638215862628 0.0010192005015896355 0 0.037281711230044277 0.00079880541417248134 0 0.03715865182471343 0.00079501860306137383 0 0.037500939032604257 0.001321302161348083 0 0.037209297024189764 0.0006913102434874818 0 0.03715865182471343 0.00079501860306137383 0 0.037140483268542128 0.0006215261974255869 0 0.037209297024189764 0.0006913102434874818 0 0.037140483268542128 0.0006215261974255869 0 0.037241793275287829 0.0006166053390099179 0 0.037209297024189764 0.0006913102434874818 0 0.037259024565548853 0.00066433032562678669 0 0.037241793275287829 0.0006166053390099179 0 0.037389662122213431 0.00066178834116486357 0 0.037319609739534083 0.00067005231222773507 0 0.037241793275287829 0.0006166053390099179 0 0.037209297024189764 0.0006913102434874818 0 0.037259024565548853 0.00066433032562678669 0 0.037280014991935048 0.00070144716540231967 0 0.037259024565548853 0.00066433032562678669 0 0.037319609739534083 0.00067005231222773507 0 0.037241793275287829 0.0006166053390099179 0 0.037259024565548853 0.00066433032562678669 0 0.037319609739534083 0.00067005231222773507 0 0.037280014991935048 0.00070144716540231967 0 0.0373627991354036 0.0007012374201660124 0 0.037319609739534083 0.00067005231222773507 0 0.037280014991935048 0.00070144716540231967 0 0.0373627991354036 0.0007012374201660124 0 0.037280014991935048 0.00070144716540231967 0 0.037304360997446807 0.00074498824880943153 0 0.037280014991935048 0.00070144716540231967 0 0.037304360997446807 0.00074498824880943153 0 0.03723968497417543 0.00074556148281030828 0 0.037304360997446807 0.00074498824880943153 0 0.03723968497417543 0.00074556148281030828 0 0.037252357571905939 0.00080986381743599104 0 0.037209297024189764 0.0006913102434874818 0 0.037280014991935048 0.00070144716540231967 0 0.03723968497417543 0.00074556148281030828 0 0.037209297024189764 0.0006913102434874818 0 0.03723968497417543 0.00074556148281030828 0 0.03715865182471343 0.00079501860306137383 0 0.037252357571905939 0.00080986381743599104 0 0.037364890944996357 0.00084266651302930518 0 0.037079989812576868 0.00098516780899805508 0 0.036415845729184701 0.0010923263168556424 0 0.035649896591390881 0.0021462078346279017 0 0.034923318750267135 0.0017441806336015893 0 0.036338991170876772 0.00082481457130304881 0 0.036365117236651229 0.0021069808848723521 0 0.03715865182471343 0.00079501860306137383 0 0.037252357571905939 0.00080986381743599104 0 0.037079989812576868 0.00098516780899805508 0 0.03715865182471343 0.00079501860306137383 0 0.037079989812576868 0.00098516780899805508 0 0.037123427711169957 0.00094840469564983789 0 0.037281711230044277 0.00079880541417248134 0 0.03715865182471343 0.00079501860306137383 0 0.037123427711169957 0.00094840469564983789 0 0.03723968497417543 0.00074556148281030828 0 0.03715865182471343 0.00079501860306137383 0 0.037252357571905939 0.00080986381743599104 0 0.037304360997446807 0.00074498824880943153 0 0.037252357571905939 0.00080986381743599104 0 0.037336883492268873 0.00078430213569688966 0 0.036338991170876772 0.00082481457130304881 0 0.034682580673382445 0.001779737987822672 0 0.035917565526598215 0.00016356540346383876 0 0.036338991170876772 0.00082481457130304881 0 0.037446093268180394 0.00065514874684097484 0 0.037392499527121675 0.00079432014562343502 0 0.037387508498390752 0.00082033559723217783 0 0.034551467896100772 0.00037583955347365243 0 0.034943280112198452 0.001045315118145756 0 0.033778733315796838 0.0014159408478393875 0 0.035852947558857928 -0.00018444892130068454 0 0.034551467896100772 0.00037583955347365243 0 0.034943280112198452 0.001045315118145756 0 0.037252357571905939 0.00080986381743599104 0 0.037336883492268873 0.00078430213569688966 0 0.037364890944996357 0.00084266651302930518 0 0.037369384754327321 0.000744078837222285 0 0.037336883492268873 0.00078430213569688966 0 0.037392499527121675 0.00079432014562343502 0 0.037336883492268873 0.00078430213569688966 0 0.037392499527121675 0.00079432014562343502 0 0.037364890944996357 0.00084266651302930518 0 0.036489004040664595 0.00072695377630956418 0 0.036338991170876772 0.00082481457130304881 0 0.034943280112198452 0.001045315118145756 0 0.033778733315796838 0.0014159408478393875 0 0.034017342470637896 0.0022929749932380896 0 0.033546242003077278 0.00098284386983618589 0 0.033142140547757229 0.0002422435018500366 0 0.032503903283007521 0.0010776940113548458 0 0.033917833399559394 0.0006554385397384545 0 0.033448479857296903 0.0015759225118289787 0 0.035649896591390881 0.0021462078346279017 0 0.034878751171488594 0.0032020571588918258 0 0.034923318750267135 0.0017441806336015893 0 0.033778733315796838 0.0014159408478393875 0 0.034017342470637896 0.0022929749932380896 0 0.032997325440279723 0.0024674880291626748 0 0.034682580673382445 0.001779737987822672 0 0.034174882823654162 0.0034269341719658022 0 0.034017342470637896 0.0022929749932380896 0 0.032997325440279723 0.0024674880291626748 0 0.033075006776831145 0.0035493285229209848 0 0.033448479857296903 0.0015759225118289787 0 0.031046203073925242 0.0028377493354869985 0 0.033546242003077278 0.00098284386983618589 0 0.033569098505728763 0.0016443205156435067 0 0.032503903283007521 0.0010776940113548458 0 0.033569098505728763 0.0016443205156435067 0 0.032503903283007521 0.0010776940113548458 0 0.033013694833285721 0.0021098338633583893 0 0.034686835949370748 0.005345515039900329 0 0.032324515673430143 0.0059329606492538479 0 0.035260860949881095 0.0064936530354952702 0 0.033729618552000198 0.0048638447500281914 0 0.034686835949370748 0.005345515039900329 0 0.032324515673430143 0.0059329606492538479 0 0.033729618552000198 0.0048638447500281914 0 0.03520396107575529 0.0043874182478562075 0 0.033822327591199422 0.0039052067116082277 0 0.033729618552000198 0.0048638447500281914 0 0.034686835949370748 0.005345515039900329 0 0.03520396107575529 0.0043874182478562075 0 0.033729618552000198 0.0048638447500281914 0 0.032596203125637595 0.0045313414687095177 0 0.032324515673430143 0.0059329606492538479 0 0.033729618552000198 0.0048638447500281914 0 0.033822327591199422 0.0039052067116082277 0 0.032596203125637595 0.0045313414687095177 0 0.034686835949370748 0.005345515039900329 0 0.036438305604659264 0.0048409983192626337 0 0.035260860949881095 0.0064936530354952702 0 0.034174882823654162 0.0034269341719658022 0 0.031139007250401734 0.0033345564194510236 0 0.034174882823654162 0.0034269341719658022 0 0.031325016119713597 0.0048804687470123866 0 0.032634665822793389 0.0032869542505538792 0 0.032596986272209236 0.0043783773302783135 0 0.031918513098978675 0.0042561641343640665 0 0.032997325440279723 0.0024674880291626748 0 0.033075006776831145 0.0035493285229209848 0 0.032957396113077596 0.0035278619380008187 0 0.034686835949370748 0.005345515039900329 0 0.036438305604659264 0.0048409983192626337 0 0.03520396107575529 0.0043874182478562075 0 0.036438305604659264 0.0048409983192626337 0 0.03520396107575529 0.0043874182478562075 0 0.036488903841993693 0.0024282307890650949 0 0.036365117236651229 0.0021069808848723521 0 0.034947912390568658 0.0031556821264351028 0 0.036886623313982229 0.0025039952581727963 0 0.034650029431902027 0.0032467168795393868 0 0.0355305396484423 0.0023918810991807211 0 0.034174882823654162 0.0034269341719658022 0 0.036365117236651229 0.0021069808848723521 0 0.03520396107575529 0.0043874182478562075 0 0.036488903841993693 0.0024282307890650949 0 0.034650029431902027 0.0032467168795393868 0 0.033892708769456908 0.0031948467221308823 0 0.034650029431902027 0.0032467168795393868 0 0.034129309169338894 0.0021390348939153885 0 0.034650029431902027 0.0032467168795393868 0 0.034129309169338894 0.0021390348939153885 0 0.0355305396484423 0.0023918810991807211 0 0.03520396107575529 0.0043874182478562075 0 0.034650029431902027 0.0032467168795393868 0 0.033822327591199422 0.0039052067116082277 0 0.033892708769456908 0.0031948467221308823 0 0.034650029431902027 0.0032467168795393868 0 0.033822327591199422 0.0039052067116082277 0 0.033822327591199422 0.0039052067116082277 0 0.032963763009187116 0.0034653055939030683 0 0.032596203125637595 0.0045313414687095177 0 0.033892708769456908 0.0031948467221308823 0 0.033822327591199422 0.0039052067116082277 0 0.032963763009187116 0.0034653055939030683 0 0.033892708769456908 0.0031948467221308823 0 0.032963763009187116 0.0034653055939030683 0 0.034129309169338894 0.0021390348939153885 0 0.038464570774086167 0.00063992076761852277 0 0.03817782241214196 0.0004725474306407142 0 0.038265414552163042 0.00079909292950971762 0 0.038464570774086167 0.00063992076761852277 0 0.03817782241214196 0.0004725474306407142 0 0.038679253388962484 0.00052849193941640867 0 0.03817782241214196 0.0004725474306407142 0 0.037918995391526156 0.00075496083582870046 0 0.038265414552163042 0.00079909292950971762 0 0.037918995391526156 0.00075496083582870046 0 0.038265414552163042 0.00079909292950971762 0 0.037926108090763022 0.00094411472745385813 0 0.038464570774086167 0.00063992076761852277 0 0.038265414552163042 0.00079909292950971762 0 0.038647691564890993 0.00077409519868912834 0 0.037281711230044277 0.00079880541417248134 0 0.034129309169338894 0.0021390348939153885 0 0.037123427711169957 0.00094840469564983789 0 0.037281711230044277 0.00079880541417248134 0 0.03817782241214196 0.0004725474306407142 0 0.037918995391526156 0.00075496083582870046 0 0.037281711230044277 0.00079880541417248134 0 0.037918995391526156 0.00075496083582870046 0 0.037926108090763022 0.00094411472745385813 0 0.034129309169338894 0.0021390348939153885 0 0.036066683970019338 0.0019078359638594236 0 0.037123427711169957 0.00094840469564983789 0 0.037162864557128111 0.00082091797782601385 0 0.036156931419933355 0.0013587666216907633 0 0.036886623313982229 0.0025039952581727963 0 0.036066683970019338 0.0019078359638594236 0 0.037123427711169957 0.00094840469564983789 0 0.036365117236651229 0.0021069808848723521 0 0.036986906084029554 0.00095286266614418578 0 0.036886623313982229 0.0025039952581727963 0 0.036066683970019338 0.0019078359638594236 0 0.0355305396484423 0.0023918810991807211 0 0.034129309169338894 0.0021390348939153885 0 0.036066683970019338 0.0019078359638594236 0 0.0355305396484423 0.0023918810991807211 0 0.037281711230044277 0.00079880541417248134 0 0.037662111480405457 0.001075630425128232 0 0.037926108090763022 0.00094411472745385813 0 0.037662111480405457 0.001075630425128232 0 0.037926108090763022 0.00094411472745385813 0 0.03789859675425352 0.0012564895916381716 0 0.037662111480405457 0.001075630425128232 0 0.037500939032604257 0.001321302161348083 0 0.03789859675425352 0.0012564895916381716 0 0.037281711230044277 0.00079880541417248134 0 0.037662111480405457 0.001075630425128232 0 0.037500939032604257 0.001321302161348083 0 0.038265414552163042 0.00079909292950971762 0 0.037926108090763022 0.00094411472745385813 0 0.038281043138203436 0.0013050135031821752 0 0.038265414552163042 0.00079909292950971762 0 0.038281043138203436 0.0013050135031821752 0 0.038647691564890993 0.00077409519868912834 0 0.037926108090763022 0.00094411472745385813 0 0.03789859675425352 0.0012564895916381716 0 0.038281043138203436 0.0013050135031821752 0 0.039338819929465647 5.277555837822332e-05 0 0.039326717521566336 7.8436029691657111e-05 0 0.039316585173815886 3.7207662739732042e-05 0 0.039330140902002035 2.6844376933818003e-05 0 0.039312409329638295 -0.00013671647387258825 0 0.039360339439503129 4.2736793726454258e-05 0 0.039338819929465647 5.277555837822332e-05 0 0.039378694577876336 0.00013862385340152506 0 0.0388456784995313 0.00071531768624210203 0 0.039010499115182 0.00045088575966817932 0 0.039338819929465647 5.277555837822332e-05 0 0.039326717521566336 7.8436029691657111e-05 0 0.039378694577876336 0.00013862385340152506 0 0.039059054807554526 -9.9823486452216246e-05 0 0.039195705400518942 -1.4224921144424136e-05 0 0.039295323922301256 -0.00037011848028218941 0 0.039326717521566336 7.8436029691657111e-05 0 0.039195705400518942 -1.4224921144424136e-05 0 0.039295323922301256 -0.00037011848028218941 0 0.039059054807554526 -9.9823486452216246e-05 0 0.039017181767093977 -0.00037426035170911318 0 0.039295323922301256 -0.00037011848028218941 0 0.039059054807554526 -9.9823486452216246e-05 0 0.039195705400518942 -1.4224921144424136e-05 0 0.03910267119813373 0.00010671558286632321 0 0.039059054807554526 -9.9823486452216246e-05 0 0.03910267119813373 0.00010671558286632321 0 0.038976382298491104 0.00012828222240781701 0 0.039193926338048156 0.00016356296423810789 0 0.03910267119813373 0.00010671558286632321 0 0.039071779644032002 0.00027335842252549996 0 0.039326717521566336 7.8436029691657111e-05 0 0.039195705400518942 -1.4224921144424136e-05 0 0.039193926338048156 0.00016356296423810789 0 0.039195705400518942 -1.4224921144424136e-05 0 0.039193926338048156 0.00016356296423810789 0 0.03910267119813373 0.00010671558286632321 0 0.03910267119813373 0.00010671558286632321 0 0.039071779644032002 0.00027335842252549996 0 0.038976382298491104 0.00012828222240781701 0 0.039071779644032002 0.00027335842252549996 0 0.038924156905980091 0.00035452719706013361 0 0.039001084637618096 0.00042119722645619874 0 0.039071779644032002 0.00027335842252549996 0 0.038976382298491104 0.00012828222240781701 0 0.038924156905980091 0.00035452719706013361 0 0.039193926338048156 0.00016356296423810789 0 0.039071779644032002 0.00027335842252549996 0 0.039183132557677386 0.00028471055095014665 0 0.039071779644032002 0.00027335842252549996 0 0.039183132557677386 0.00028471055095014665 0 0.039065816858428304 0.00039998672740799377 0 0.038647691564890993 0.00077409519868912834 0 0.038679253388962484 0.00052849193941640867 0 0.038860496998220487 0.00050014149043056113 0 0.039010499115182 0.00045088575966817932 0 0.039055700830045607 0.00044939187140292589 0 0.039183132557677386 0.00028471055095014665 0 0.039378694577876336 0.00013862385340152506 0 0.039052093511905528 0.00047690896392051812 0 0.038464570774086167 0.00063992076761852277 0 0.038647691564890993 0.00077409519868912834 0 0.038679253388962484 0.00052849193941640867 0 0.039183132557677386 0.00028471055095014665 0 0.039378694577876336 0.00013862385340152506 0 0.039270349314368506 0.00016295877934028295 0 0.039326717521566336 7.8436029691657111e-05 0 0.039378694577876336 0.00013862385340152506 0 0.039270349314368506 0.00016295877934028295 0 0.039326717521566336 7.8436029691657111e-05 0 0.039193926338048156 0.00016356296423810789 0 0.039270349314368506 0.00016295877934028295 0 0.039193926338048156 0.00016356296423810789 0 0.039183132557677386 0.00028471055095014665 0 0.039270349314368506 0.00016295877934028295 0 0.038573259952012731 -0.0003797301033092341 0 0.038679527767269163 -1.081114498301866e-05 0 0.038890177840810183 -0.00023041503562128824 0 0.038445270139357911 -5.1198524654848382e-05 0 0.038573259952012731 -0.0003797301033092341 0 0.038679527767269163 -1.081114498301866e-05 0 0.038679527767269163 -1.081114498301866e-05 0 0.038890177840810183 -0.00023041503562128824 0 0.038887005973913091 2.253976135009363e-06 0 0.039059054807554526 -9.9823486452216246e-05 0 0.038890177840810183 -0.00023041503562128824 0 0.039017181767093977 -0.00037426035170911318 0 0.039059054807554526 -9.9823486452216246e-05 0 0.038890177840810183 -0.00023041503562128824 0 0.038887005973913091 2.253976135009363e-06 0 0.039059054807554526 -9.9823486452216246e-05 0 0.038887005973913091 2.253976135009363e-06 0 0.038976382298491104 0.00012828222240781701 0 0.038887005973913091 2.253976135009363e-06 0 0.038976382298491104 0.00012828222240781701 0 0.038816945510339942 0.00021771547469522372 0 0.038924156905980091 0.00035452719706013361 0 0.038816945510339942 0.00021771547469522372 0 0.038791922546338183 0.00048536258504232674 0 0.038976382298491104 0.00012828222240781701 0 0.038924156905980091 0.00035452719706013361 0 0.038816945510339942 0.00021771547469522372 0 0.038816945510339942 0.00021771547469522372 0 0.038645772432565735 0.00032733649643047855 0 0.038791922546338183 0.00048536258504232674 0 0.038679527767269163 -1.081114498301866e-05 0 0.038887005973913091 2.253976135009363e-06 0 0.038816945510339942 0.00021771547469522372 0 0.038679527767269163 -1.081114498301866e-05 0 0.038645772432565735 0.00032733649643047855 0 0.038495794467203567 0.00021551154641852327 0 0.038679527767269163 -1.081114498301866e-05 0 0.038816945510339942 0.00021771547469522372 0 0.038645772432565735 0.00032733649643047855 0 0.038645772432565735 0.00032733649643047855 0 0.038403834933421761 0.00047690188707562509 0 0.038495794467203567 0.00021551154641852327 0 0.038445270139357911 -5.1198524654848382e-05 0 0.038679527767269163 -1.081114498301866e-05 0 0.038495794467203567 0.00021551154641852327 0 0.038469353532742376 0.00065739924864199374 0 0.038466612788121239 0.00085038984780541236 0 0.038275729944835427 0.00074601500774496292 0 0.038469353532742376 0.00065739924864199374 0 0.038582973321522995 0.00071857226937486877 0 0.038466612788121239 0.00085038984780541236 0 0.038403834933421761 0.00047690188707562509 0 0.038469353532742376 0.00065739924864199374 0 0.038640360883793849 0.00054622868582768138 0 0.038645772432565735 0.00032733649643047855 0 0.038640360883793849 0.00054622868582768138 0 0.038791922546338183 0.00048536258504232674 0 0.038645772432565735 0.00032733649643047855 0 0.038403834933421761 0.00047690188707562509 0 0.038640360883793849 0.00054622868582768138 0 0.038640360883793849 0.00054622868582768138 0 0.038582973321522995 0.00071857226937486877 0 0.038731992985146062 0.00070237780479181719 0 0.038469353532742376 0.00065739924864199374 0 0.038640360883793849 0.00054622868582768138 0 0.038582973321522995 0.00071857226937486877 0 0.038640360883793849 0.00054622868582768138 0 0.038731992985146062 0.00070237780479181719 0 0.038791922546338183 0.00048536258504232674 0 0.038924156905980091 0.00035452719706013361 0 0.038791922546338183 0.00048536258504232674 0 0.038909694841489879 0.00055078702335809948 0 0.038731992985146062 0.00070237780479181719 0 0.038909694841489879 0.00055078702335809948 0 0.038873162889404927 0.00068151440740805991 0 0.038731992985146062 0.00070237780479181719 0 0.038791922546338183 0.00048536258504232674 0 0.038909694841489879 0.00055078702335809948 0 0.038731992985146062 0.00070237780479181719 0 0.038879640495453296 0.00086556197258784158 0 0.038561505317060589 0.00092152750694070946 0 0.034169059363670463 0.0035882039462916153 0 0.036204354650835671 0.0019476595849472588 0 0.038873162889404927 0.00068151440740805991 0 0.038879640495453296 0.00086556197258784158 0 0.038953711745710128 0.00060972295139691518 0 0.038731992985146062 0.00070237780479181719 0 0.038873162889404927 0.00068151440740805991 0 0.038879640495453296 0.00086556197258784158 0 0.036204354650835671 0.0019476595849472588 0 0.035910270220490495 0.0020314605556798421 0 0.038561505317060589 0.00092152750694070946 0 0.038466612788121239 0.00085038984780541236 0 0.038243314292268273 0.00093754835098813142 0 0.038582973321522995 0.00071857226937486877 0 0.038561505317060589 0.00092152750694070946 0 0.038466612788121239 0.00085038984780541236 0 0.038582973321522995 0.00071857226937486877 0 0.038731992985146062 0.00070237780479181719 0 0.038561505317060589 0.00092152750694070946 0 0.032963763009187116 0.0034653055939030683 0 0.034129309169338894 0.0021390348939153885 0 0.031162446823734605 0.0039566980672072361 0 0.038647691564890993 0.00077409519868912834 0 0.038860496998220487 0.00050014149043056113 0 0.039052093511905528 0.00047690896392051812 0 0.03817782241214196 0.0004725474306407142 0 0.039010678645022986 0.00043439097133760171 0 0.038679253388962484 0.00052849193941640867 0 0.036156931419933355 0.0013587666216907633 0 0.035030644950887313 0.0021412058771131844 0 0.039010678645022986 0.00043439097133760171 0 0.038860496998220487 0.00050014149043056113 0 0.039052093511905528 0.00047690896392051812 0 0.032963763009187116 0.0034653055939030683 0 0.031162446823734605 0.0039566980672072361 0 0.032596203125637595 0.0045313414687095177 0 0.039010678645022986 0.00043439097133760171 0 0.038679253388962484 0.00052849193941640867 0 0.038860496998220487 0.00050014149043056113 0 0.039183132557677386 0.00028471055095014665 0 0.039065816858428304 0.00039998672740799377 0 0.039052093511905528 0.00047690896392051812 0 0.039065816858428304 0.00039998672740799377 0 0.039052093511905528 0.00047690896392051812 0 0.039015211019119082 0.00051089537830800833 0 0.039065816858428304 0.00039998672740799377 0 0.039001084637618096 0.00042119722645619874 0 0.039015211019119082 0.00051089537830800833 0 0.038924156905980091 0.00035452719706013361 0 0.038909694841489879 0.00055078702335809948 0 0.039001084637618096 0.00042119722645619874 0 0.039071779644032002 0.00027335842252549996 0 0.039065816858428304 0.00039998672740799377 0 0.039001084637618096 0.00042119722645619874 0 0.038909694841489879 0.00055078702335809948 0 0.039001084637618096 0.00042119722645619874 0 0.039015211019119082 0.00051089537830800833 0 0.038909694841489879 0.00055078702335809948 0 0.039015211019119082 0.00051089537830800833 0 0.038953711745710128 0.00060972295139691518 0 0.038909694841489879 0.00055078702335809948 0 0.038873162889404927 0.00068151440740805991 0 0.038953711745710128 0.00060972295139691518 0 0.039010678645022986 0.00043439097133760171 0 0.039052093511905528 0.00047690896392051812 0 0.039015211019119082 0.00051089537830800833 0 0.039010678645022986 0.00043439097133760171 0 0.039015211019119082 0.00051089537830800833 0 0.038953711745710128 0.00060972295139691518 0 0.028940688362107045 0.0053014211883794567 0 0.031162446823734605 0.0039566980672072361 0 0.029610990084201219 0.0051077979792404299 0 0.034169059363670463 0.0035882039462916153 0 0.035030644950887313 0.0021412058771131844 0 0.038879640495453296 0.00086556197258784158 0 0.039010678645022986 0.00043439097133760171 0 0.038953711745710128 0.00060972295139691518 0 0.028940688362107045 0.0053014211883794567 0 0.029610990084201219 0.0051077979792404299 0 0.029266727944584937 0.0052538510976478945 0 0.029610990084201219 0.0051077979792404299 0 0.028899687271048646 0.0053582839981093019 0 0.029151425519956562 0.0051858304613455718 0 0.031162446823734605 0.0039566980672072361 0 0.032596203125637595 0.0045313414687095177 0 0.032324515673430143 0.0059329606492538479 0 0.029595834489176104 0.0051737396351996387 0 0.030769473721616203 0.0057112608187695974 0 0.031162446823734605 0.0039566980672072361 0 0.029610990084201219 0.0051077979792404299 0 0.032324515673430143 0.0059329606492538479 0 0.028899687271048646 0.0053582839981093019 0 0.028871130947178771 0.0052101867044706349 0 0.029151425519956562 0.0051858304613455718 0 0.028871130947178771 0.0052101867044706349 0 0.028920726396723176 0.0051250658788325491 0 0.028811912994388702 0.0051263685320541395 0 0.028871130947178771 0.0052101867044706349 0 0.028920726396723176 0.0051250658788325491 0 0.029151425519956562 0.0051858304613455718 0 0.028920726396723176 0.0051250658788325491 0 0.029046749745101449 0.0051305551028011489 0 0.029151425519956562 0.0051858304613455718 0 0.029151425519956562 0.0051858304613455718 0 0.029266727944584937 0.0052538510976478945 0 0.029184726931441467 0.0052057486411453387 0 0.029610990084201219 0.0051077979792404299 0 0.029151425519956562 0.0051858304613455718 0 0.029266727944584937 0.0052538510976478945 0 0.029266727944584937 0.0052538510976478945 0 0.029184726931441467 0.0052057486411453387 0 0.029076164140381579 0.0052359194416479408 0 0.029184726931441467 0.0052057486411453387 0 0.029113490287514532 0.0051618811385309802 0 0.029076164140381579 0.0052359194416479408 0 0.029184726931441467 0.0052057486411453387 0 0.029113490287514532 0.0051618811385309802 0 0.029114097507625423 0.0051591633555615884 0 0.029151425519956562 0.0051858304613455718 0 0.029184726931441467 0.0052057486411453387 0 0.029114097507625423 0.0051591633555615884 0 0.029046749745101449 0.0051305551028011489 0 0.029151425519956562 0.0051858304613455718 0 0.029114097507625423 0.0051591633555615884 0 0.029060538388837827 0.0051084323125453641 0 0.028995512363476431 0.0050187937595798293 0 0.028968245503471414 0.0050714498903552023 0 0.029046749745101449 0.0051305551028011489 0 0.029060538388837827 0.0051084323125453641 0 0.028968245503471414 0.0050714498903552023 0 0.029046749745101449 0.0051305551028011489 0 0.029114097507625423 0.0051591633555615884 0 0.029060538388837827 0.0051084323125453641 0 0.029113490287514532 0.0051618811385309802 0 0.029114097507625423 0.0051591633555615884 0 0.029060538388837827 0.0051084323125453641 0 0.029113490287514532 0.0051618811385309802 0 0.029060538388837827 0.0051084323125453641 0 0.029069505031433376 0.0050659686206412907 0 0.029113490287514532 0.0051618811385309802 0 0.029069505031433376 0.0050659686206412907 0 0.029129446330891276 0.0050816279795530515 0 0.029069505031433376 0.0050659686206412907 0 0.028995512363476431 0.0050187937595798293 0 0.02904106398712929 0.0049540689185488852 0 0.029069505031433376 0.0050659686206412907 0 0.029129446330891276 0.0050816279795530515 0 0.02904106398712929 0.0049540689185488852 0 0.029060538388837827 0.0051084323125453641 0 0.029069505031433376 0.0050659686206412907 0 0.028995512363476431 0.0050187937595798293 0 0.028995512363476431 0.0050187937595798293 0 0.028893172307121875 0.0050023594705253379 0 0.028968245503471414 0.0050714498903552023 0 0.028893172307121875 0.0050023594705253379 0 0.028878838098789165 0.0050559638167032685 0 0.028968245503471414 0.0050714498903552023 0 0.028893172307121875 0.0050023594705253379 0 0.028807957763462656 0.0050199644549947468 0 0.028815745381945305 0.00495291437112165 0 0.028807957763462656 0.0050199644549947468 0 0.028736536409060771 0.0049902407230185478 0 0.028743844053992572 0.0050390576429969617 0 0.028807957763462656 0.0050199644549947468 0 0.028815745381945305 0.00495291437112165 0 0.028736536409060771 0.0049902407230185478 0 0.028807957763462656 0.0050199644549947468 0 0.028878838098789165 0.0050559638167032685 0 0.028808869883191313 0.0050621000852120171 0 0.028807957763462656 0.0050199644549947468 0 0.028808869883191313 0.0050621000852120171 0 0.028743844053992572 0.0050390576429969617 0 0.028893172307121875 0.0050023594705253379 0 0.028807957763462656 0.0050199644549947468 0 0.028878838098789165 0.0050559638167032685 0 0.028920726396723176 0.0051250658788325491 0 0.028878838098789165 0.0050559638167032685 0 0.028808869883191313 0.0050621000852120171 0 0.028920726396723176 0.0051250658788325491 0 0.028808869883191313 0.0050621000852120171 0 0.028811912994388702 0.0051263685320541395 0 0.028920726396723176 0.0051250658788325491 0 0.029046749745101449 0.0051305551028011489 0 0.028968245503471414 0.0050714498903552023 0 0.028920726396723176 0.0051250658788325491 0 0.028878838098789165 0.0050559638167032685 0 0.028968245503471414 0.0050714498903552023 0 0.034779683184293676 0.0032525756588998637 0 0.033331220576166991 0.0029880365020253452 0 0.033062469651868889 0.0044069452650037783 0 0.033331220576166991 0.0029880365020253452 0 0.033062469651868889 0.0044069452650037783 0 0.031849640335972408 0.0039508285325124759 0 0.029113490287514532 0.0051618811385309802 0 0.029076164140381579 0.0052359194416479408 0 0.029129446330891276 0.0050816279795530515 0 0.034169059363670463 0.0035882039462916153 0 0.031125555957049203 0.0048932772950237551 0 0.029282382601077007 0.0051724750482096656 0 0.029076164140381579 0.0052359194416479408 0 0.029129446330891276 0.0050816279795530515 0 0.028940688362107045 0.0053014211883794567 0 0.029282382601077007 0.0051724750482096656 0 0.029076164140381579 0.0052359194416479408 0 0.028940688362107045 0.0053014211883794567 0 0.029266727944584937 0.0052538510976478945 0 0.029076164140381579 0.0052359194416479408 0 0.029282382601077007 0.0051724750482096656 0 0.029129446330891276 0.0050816279795530515 0 0.029280727222882993 0.0050472545317018789 0 0.029129446330891276 0.0050816279795530515 0 0.029280727222882993 0.0050472545317018789 0 0.029192672538745149 0.0049127728418558387 0 0.029280727222882993 0.0050472545317018789 0 0.029192672538745149 0.0049127728418558387 0 0.029373614055409978 0.0050172680155910268 0 0.021097781886456786 0.0049629050107646011 0 0.022204159913667997 0.0037691684674998121 0 0.02340590317054304 0.0058621463889573008 0 0.026166317535705252 0.00514365951300144 0 0.025662270092059597 0.0053821703465450326 0 0.029192672538745149 0.0049127728418558387 0 0.02904106398712929 0.0049540689185488852 0 0.028935997728017943 0.0047373974176576255 0 0.029129446330891276 0.0050816279795530515 0 0.029192672538745149 0.0049127728418558387 0 0.02904106398712929 0.0049540689185488852 0 0.021097781886456786 0.0049629050107646011 0 0.020513127506905426 0.0039259509353476987 0 0.018845165816147105 0.0040599094341279207 0 0.026166317535705252 0.00514365951300144 0 0.019735843635937188 0.0039570039834386792 0 0.021097781886456786 0.0049629050107646011 0 0.020513127506905426 0.0039259509353476987 0 0.022204159913667997 0.0037691684674998121 0 0.015475926551786786 0.0032957365155246846 0 0.017013350908856507 0.0036824386593324477 0 0.011563531974788257 0.0033976068610277357 0 0.011965889483007981 0.0026691659075006838 0 0.011289471665839329 0.0027571954422698245 0 0.02889063883819452 0.0048816944695712228 0 0.028733861255551506 0.0048628361099648156 0 0.028626520152254982 0.0046544649576306116 0 0.02889063883819452 0.0048816944695712228 0 0.028733861255551506 0.0048628361099648156 0 0.028815745381945305 0.00495291437112165 0 0.028733861255551506 0.0048628361099648156 0 0.028815745381945305 0.00495291437112165 0 0.028736536409060771 0.0049902407230185478 0 0.028893172307121875 0.0050023594705253379 0 0.02889063883819452 0.0048816944695712228 0 0.028815745381945305 0.00495291437112165 0 0.028995512363476431 0.0050187937595798293 0 0.028893172307121875 0.0050023594705253379 0 0.02889063883819452 0.0048816944695712228 0 0.02889063883819452 0.0048816944695712228 0 0.02904106398712929 0.0049540689185488852 0 0.028935997728017943 0.0047373974176576255 0 0.028995512363476431 0.0050187937595798293 0 0.02889063883819452 0.0048816944695712228 0 0.02904106398712929 0.0049540689185488852 0 0.012481296526771714 0.0033011831386105168 0 0.011965889483007981 0.0026691659075006838 0 0.012741018263514007 0.0025756000169725765 0 0.015475926551786786 0.0032957365155246846 0 0.019735843635937188 0.0039570039834386792 0 0.016796839633130733 0.0039878746233174616 0 0.015301265507694268 0.0034467969503993775 0 0.015166436562864875 0.0040729921270457265 0 0.013055283218184778 0.0031111827634989486 0 0.012741018263514007 0.0025756000169725765 0 0.01356576358536289 0.0028997729899133237 0 0.02889063883819452 0.0048816944695712228 0 0.028935997728017943 0.0047373974176576255 0 0.028626520152254982 0.0046544649576306116 0 0.019735843635937188 0.0039570039834386792 0 0.013392572252362379 0.0029134323458026366 0 0.019735843635937188 0.0039570039834386792 0 0.022644778872203626 0.0043952572954530931 0 0.015301265507694268 0.0034467969503993775 0 0.015166436562864875 0.0040729921270457265 0 0.014449581304776086 0.0036984247930985951 0 0.014117039871369379 0.0033296426265366115 0 0.015301265507694268 0.0034467969503993775 0 0.014449581304776086 0.0036984247930985951 0 0.028733861255551506 0.0048628361099648156 0 0.028626520152254982 0.0046544649576306116 0 0.028475565037993499 0.0047921275114920937 0 0.028626520152254982 0.0046544649576306116 0 0.028475565037993499 0.0047921275114920937 0 0.02798074697022087 0.0046114538688779684 0 0.028733861255551506 0.0048628361099648156 0 0.028475565037993499 0.0047921275114920937 0 0.028588181236875593 0.0048995550486940166 0 0.028475565037993499 0.0047921275114920937 0 0.028588181236875593 0.0048995550486940166 0 0.028356802912674638 0.0048835230561710408 0 0.028588181236875593 0.0048995550486940166 0 0.028356802912674638 0.0048835230561710408 0 0.028691300710505574 0.0050815206331901626 0 0.028733861255551506 0.0048628361099648156 0 0.028588181236875593 0.0048995550486940166 0 0.028736536409060771 0.0049902407230185478 0 0.028588181236875593 0.0048995550486940166 0 0.028736536409060771 0.0049902407230185478 0 0.028691300710505574 0.0050815206331901626 0 0.027973790449581495 0.0050573165918371731 0 0.028356802912674638 0.0048835230561710408 0 0.028691300710505574 0.0050815206331901626 0 0.028475565037993499 0.0047921275114920937 0 0.028356802912674638 0.0048835230561710408 0 0.02798074697022087 0.0046114538688779684 0 0.027156918071626027 0.0049089908662242974 0 0.020468045439389869 0.0039681358314093773 0 0.027973790449581495 0.0050573165918371731 0 0.028356802912674638 0.0048835230561710408 0 0.02798074697022087 0.0046114538688779684 0 0.015166436562864875 0.0040729921270457265 0 0.014035566479849854 0.0039732215372104583 0 0.014449581304776086 0.0036984247930985951 0 0.020468045439389869 0.0039681358314093773 0 0.019426233032072637 0.0039452640859498241 0 0.022644778872203626 0.0043952572954530931 0 0.020468045439389869 0.0039681358314093773 0 0.014035566479849854 0.0039732215372104583 0 0.014041569604765462 0.0037743556257054463 0 0.014449581304776086 0.0036984247930985951 0 0.014047202461750331 0.0038211969681635344 0 0.014041569604765462 0.0037743556257054463 0 0.013953620748112646 0.0036382939740343357 0 0.014117039871369379 0.0033296426265366115 0 0.014449581304776086 0.0036984247930985951 0 0.014125576948822527 0.0035839016617460954 0 0.014041569604765462 0.0037743556257054463 0 0.014449581304776086 0.0036984247930985951 0 0.014125576948822527 0.0035839016617460954 0 0.014041569604765462 0.0037743556257054463 0 0.014125576948822527 0.0035839016617460954 0 0.013953620748112646 0.0036382939740343357 0 0.014125576948822527 0.0035839016617460954 0 0.013976896527421984 0.003487820740563924 0 0.013953620748112646 0.0036382939740343357 0 0.014047202461750331 0.0038211969681635344 0 0.013846978039592384 0.0036302211670624788 0 0.013772909916228487 0.0036858129221544844 0 0.013755876052078966 0.0034035848030746518 0 0.013953620748112646 0.0036382939740343357 0 0.013846978039592384 0.0036302211670624788 0 0.020468045439389869 0.0039681358314093773 0 0.017847715707030348 0.0041620855730967344 0 0.013755876052078966 0.0034035848030746518 0 0.013976896527421984 0.003487820740563924 0 0.013953620748112646 0.0036382939740343357 0 0.013755876052078966 0.0034035848030746518 0 0.013846978039592384 0.0036302211670624788 0 0.013724277668546421 0.0035926161869347236 0 0.013846978039592384 0.0036302211670624788 0 0.013724277668546421 0.0035926161869347236 0 0.013772909916228487 0.0036858129221544844 0 0.014047202461750331 0.0038211969681635344 0 0.013953620748112646 0.0036382939740343357 0 0.013846978039592384 0.0036302211670624788 0 0.013670960435926588 0.0036589343105656548 0 0.01367355627502231 0.0036241244236205989 0 0.013772909916228487 0.0036858129221544844 0 0.013709578641113315 0.0034686781279397228 0 0.013724277668546421 0.0035926161869347236 0 0.01367355627502231 0.0036241244236205989 0 0.013873028988408673 0.0036364939236633717 0 0.015371974405002297 0.0044248744730255767 0 0.013709578641113315 0.0034686781279397228 0 0.013762203531964983 0.0034596782005765002 0 0.013745047972247716 0.0034417959185649312 0 0.013709578641113315 0.0034686781279397228 0 0.013755876052078966 0.0034035848030746518 0 0.013724277668546421 0.0035926161869347236 0 0.013724277668546421 0.0035926161869347236 0 0.01367355627502231 0.0036241244236205989 0 0.013772909916228487 0.0036858129221544844 0 0.023330201641212772 0.0044793744277933159 0 0.023305656496900303 0.0045041276868140164 0 0.023239393810402732 0.0044828499072078875 0 0.020282164660476359 0.0041031508973356388 0 0.017847715707030348 0.0041620855730967344 0 0.023305656496900303 0.0045041276868140164 0 0.023216212425976514 0.0045173681703644048 0 0.023239393810402732 0.0044828499072078875 0 0.032993040198261478 0.0050327287405538086 0 0.030803602734581784 0.0046620703324681389 0 0.032110077805160314 0.0041639415891853273 0 0.02756486527316664 0.0034969919514408272 0 0.026921861359558513 0.0046055928603420436 0 0.02317315118144463 0.0045167673101031963 0 0.023216212425976514 0.0045173681703644048 0 0.023204722865266231 0.0045013066086005259 0 0.023199137395752634 0.0044877729174151422 0 0.023239393810402732 0.0044828499072078875 0 0.023204722865266231 0.0045013066086005259 0 0.027156918071626027 0.0049089908662242974 0 0.026921861359558513 0.0046055928603420436 0 0.023199137395752634 0.0044877729174151422 0 0.02317315118144463 0.0045167673101031963 0 0.023204722865266231 0.0045013066086005259 0 0.023216212425976514 0.0045173681703644048 0 0.023239393810402732 0.0044828499072078875 0 0.023204722865266231 0.0045013066086005259 0 0.02865530330987618 0.004295875196158633 0 0.030025834287389853 0.0028785621701185116 0 0.028743782915410885 0.0016687134328327363 0 0.02865530330987618 0.004295875196158633 0 0.030803602734581784 0.0046620703324681389 0 0.030025834287389853 0.0028785621701185116 0 0.030803602734581784 0.0046620703324681389 0 0.030025834287389853 0.0028785621701185116 0 0.031526931760424218 0.0034312972163919714 0 0.033123006886539477 0.0035254633245140345 0 0.031526931760424218 0.0034312972163919714 0 0.031448186281269205 0.0018648430509273482 0 0.030803602734581784 0.0046620703324681389 0 0.032110077805160314 0.0041639415891853273 0 0.031526931760424218 0.0034312972163919714 0 0.030025834287389853 0.0028785621701185116 0 0.031526931760424218 0.0034312972163919714 0 0.031448186281269205 0.0018648430509273482 0 0.032503903283007521 0.0010776940113548458 0 0.033013694833285721 0.0021098338633583893 0 0.031880897469003022 0.0019115802504394378 0 0.030025834287389853 0.0028785621701185116 0 0.031448186281269205 0.0018648430509273482 0 0.028923174344948614 0.0014257692740441957 0 0.032087667446951823 0.001858668194606939 0 0.031046203073925242 0.0028377493354869985 0 0.030025834287389853 0.0028785621701185116 0 0.028923174344948614 0.0014257692740441957 0 0.028743782915410885 0.0016687134328327363 0 0.029316956997796663 0.0045032186051634799 0 0.029115445734780081 0.0046579518669383523 0 0.029073707970484568 0.0044651089847828852 0 0.031139007250401734 0.0033345564194510236 0 0.031325016119713597 0.0048804687470123866 0 0.029316956997796663 0.0045032186051634799 0 0.029313724279900057 0.0045720808032465995 0 0.029115445734780081 0.0046579518669383523 0 0.030641364330427943 0.0028953432885447691 0 0.030543481463945307 0.0028776285558894665 0 0.030538832711776404 0.0030343008476518764 0 0.031046203073925242 0.0028377493354869985 0 0.031139007250401734 0.0033345564194510236 0 0.031139007250401734 0.0033345564194510236 0 0.030423992953344615 0.0034415744771586361 0 0.031046203073925242 0.0028377493354869985 0 0.030423992953344615 0.0034415744771586361 0 0.030423992953344615 0.0034415744771586361 0 0.029149105439657524 0.0049253407794552072 0 0.029313724279900057 0.0045720808032465995 0 0.029144258075779299 0.0047831307165344759 0 0.029115445734780081 0.0046579518669383523 0 0.029115445734780081 0.0046579518669383523 0 0.029073707970484568 0.0044651089847828852 0 0.028720487623529658 0.0050224636844258116 0 0.028899687271048646 0.0053582839981093019 0 0.028607879159998871 0.0052818994757218669 0 0.028744640750203599 0.0052025725263462148 0 0.030769473721616203 0.0057112608187695974 0 0.031325016119713597 0.0048804687470123866 0 0.028607879159998871 0.0052818994757218669 0 0.028744640750203599 0.0052025725263462148 0 0.028720487623529658 0.0050224636844258116 0 0.031325016119713597 0.0048804687470123866 0 0.027998659915438234 0.0052352873579240393 0 0.028899687271048646 0.0053582839981093019 0 0.028871130947178771 0.0052101867044706349 0 0.028744640750203599 0.0052025725263462148 0 0.028871130947178771 0.0052101867044706349 0 0.028744640750203599 0.0052025725263462148 0 0.028811912994388702 0.0051263685320541395 0 0.029115445734780081 0.0046579518669383523 0 0.028720487623529658 0.0050224636844258116 0 0.028822286987116703 0.0050243038443123353 0 0.028808869883191313 0.0050621000852120171 0 0.028811912994388702 0.0051263685320541395 0 0.028720487623529658 0.0050224636844258116 0 0.028744640750203599 0.0052025725263462148 0 0.028811912994388702 0.0051263685320541395 0 0.028720487623529658 0.0050224636844258116 0 0.028808869883191313 0.0050621000852120171 0 0.028743844053992572 0.0050390576429969617 0 0.028720487623529658 0.0050224636844258116 0 0.028743844053992572 0.0050390576429969617 0 0.028720487623529658 0.0050224636844258116 0 0.028691300710505574 0.0050815206331901626 0 0.028720487623529658 0.0050224636844258116 0 0.028691300710505574 0.0050815206331901626 0 0.028822286987116703 0.0050243038443123353 0 0.028736536409060771 0.0049902407230185478 0 0.028743844053992572 0.0050390576429969617 0 0.028691300710505574 0.0050815206331901626 0 0.028691300710505574 0.0050815206331901626 0 0.028822286987116703 0.0050243038443123353 0 0.028959012535002354 0.0049958241921947873 0 0.029274467323576813 0.0052119146237248172 0 0.028691300710505574 0.0050815206331901626 0 0.028959012535002354 0.0049958241921947873 0 0.027156918071626027 0.0049089908662242974 0 0.030423992953344615 0.0034415744771586361 0 0.029274467323576813 0.0052119146237248172 0 0.029307795812038875 0.0045643210446819774 0 0.029144258075779299 0.0047831307165344759 0 0.029274467323576813 0.0052119146237248172 0 0.029144258075779299 0.0047831307165344759 0 0.028959012535002354 0.0049958241921947873 0 0.027156918071626027 0.0049089908662242974 0 0.029272095625171593 0.0051904622341462179 0 0.029115445734780081 0.0046579518669383523 0 0.028822286987116703 0.0050243038443123353 0 0.028959012535002354 0.0049958241921947873 0 0.029144258075779299 0.0047831307165344759 0 0.029115445734780081 0.0046579518669383523 0 0.028959012535002354 0.0049958241921947873 0 0.0076551166101517737 0.00015967945708041665 0 0.0085799266907448258 0.00018344484937461562 0 0.0076830705552186395 0.00024680245091293688 0 0.0085799266907448258 0.00018344484937461562 0 0.010306342676719423 -2.1217693154478711e-06 0 0.0078760391086988239 1.399416268432055e-06 0 0.010311041047299819 -1.3454830466993423e-07 0 0.010550599263914964 -0.0003649541363194031 0 0.0085799266907448258 0.00018344484937461562 0 0.010306342676719423 -2.1217693154478711e-06 0 0.0079533023147974752 -0.00087801729976389842 0 0.0076551166101517737 0.00015967945708041665 0 0.0085799266907448258 0.00018344484937461562 0 0.0079533023147974752 -0.00087801729976389842 0 0.007166535313916195 -0.00050306737639471883 0 0.0073171087212802292 -0.00011983804231446713 0 0.0079533023147974752 -0.00087801729976389842 0 0.0076551166101517737 0.00015967945708041665 0 0.0073171087212802292 -0.00011983804231446713 0 0.0079533023147974752 -0.00087801729976389842 0 0.007166535313916195 -0.00050306737639471883 0 0.0069827222904451135 3.5536101750393287e-05 0 0.0067877647594380714 -0.00058813692906392232 0 0.007166535313916195 -0.00050306737639471883 0 0.0067877647594380714 -0.00058813692906392232 0 0.0069786243189756646 -0.00069060594028515362 0 0.007166535313916195 -0.00050306737639471883 0 0.0069827222904451135 3.5536101750393287e-05 0 0.0073171087212802292 -0.00011983804231446713 0 0.0069827222904451135 3.5536101750393287e-05 0 0.0073171087212802292 -0.00011983804231446713 0 0.0072566999532431859 0.00022721746531790656 0 0.0076551166101517737 0.00015967945708041665 0 0.0073171087212802292 -0.00011983804231446713 0 0.0072566999532431859 0.00022721746531790656 0 0.0076551166101517737 0.00015967945708041665 0 0.0072566999532431859 0.00022721746531790656 0 0.0073162433155591145 0.00036001703592850943 0 0.0072566999532431859 0.00022721746531790656 0 0.0072430034025428207 0.00036045186108824256 0 0.0072052038096137227 0.00042084407753115047 0 0.0072566999532431859 0.00022721746531790656 0 0.0072430034025428207 0.00036045186108824256 0 0.0073162433155591145 0.00036001703592850943 0 0.0072430034025428207 0.00036045186108824256 0 0.0072072516751669697 0.00036814402643765512 0 0.0073162433155591145 0.00036001703592850943 0 0.0040969228958823017 -1.1468028634086078e-05 0 0.0038517388196138789 -0.00076642173696752204 0 0.004300461074740438 -0.00038180840659758083 0 0.0069827222904451135 3.5536101750393287e-05 0 0.0072566999532431859 0.00022721746531790656 0 0.0072052038096137227 0.00042084407753115047 0 0.0056610806766983447 7.9169661375983006e-05 0 0.0046786785379186648 -0.0001080777391800575 0 -0.00011190539691988384 -0.00072917316609278748 0 0.0013661774376351249 -0.00068262989564023312 0 0.0010667308969258928 0.0003009025658992312 0 0.0040969228958823017 -1.1468028634086078e-05 0 0.0038517388196138789 -0.00076642173696752204 0 0.0036556159896583107 -0.00077079098904465036 0 0.00042268310224936932 -0.00088046903351224619 0 0.0026976286359176554 -2.4024024695305804e-05 0 -0.0033709484663376277 -0.0021229979343753412 0 -0.0034831978333996314 -0.0011408800268969401 0 -0.0047547863298763194 -0.0020432814667883949 0 0.00042268310224936932 -0.00088046903351224619 0 -0.002805250344923012 -0.0014165016985641886 0 0.00042268310224936932 -0.00088046903351224619 0 0.0046786785379186648 -0.0001080777391800575 0 -0.0033709484663376277 -0.0021229979343753412 0 -0.0023648950480014662 -0.0013751367882642418 0 -0.0034831978333996314 -0.0011408800268969401 0 0.0072072516751669697 0.00036814402643765512 0 0.0070488113288116024 0.00032686679043182404 0 0.0073162433155591145 0.00036001703592850943 0 0.0071978542408165256 0.00031843841658464248 0 0.0072072516751669697 0.00036814402643765512 0 0.0072324154292987197 0.00038114701640548605 0 0.0071978542408165256 0.00031843841658464248 0 0.0072072516751669697 0.00036814402643765512 0 0.0070488113288116024 0.00032686679043182404 0 0.0072430034025428207 0.00036045186108824256 0 0.0072072516751669697 0.00036814402643765512 0 0.0072324154292987197 0.00038114701640548605 0 0.0021490210953620447 -0.00022071162403597568 0 0.0019094310568695269 -0.00022877416978233546 0 0.0016934842245696535 -0.00063174279945582871 0 0.0072430034025428207 0.00036045186108824256 0 0.0072324154292987197 0.00038114701640548605 0 0.0072052038096137227 0.00042084407753115047 0 0.0057325606961990813 -2.4631089561412487e-05 0 0.0046786785379186648 -0.0001080777391800575 0 0.0071978542408165256 0.00031843841658464248 0 0.0072324154292987197 0.00038114701640548605 0 0.0072927693246380909 0.00038348314589185632 0 0.0046786785379186648 -0.0001080777391800575 0 0.0010069304894277384 -0.00069626132833516959 0 0.0071978542408165256 0.00031843841658464248 0 0.0072927693246380909 0.00038348314589185632 0 0.0072257548229731315 0.00016470766986266183 0 0.00042268310224936932 -0.00088046903351224619 0 0.0010069304894277384 -0.00069626132833516959 0 0.0072257548229731315 0.00016470766986266183 0 0.0066863855897342723 0.00017672828533948367 0 0.0070488113288116024 0.00032686679043182404 0 0.0071978542408165256 0.00031843841658464248 0 0.0072257548229731315 0.00016470766986266183 0 0.0070488113288116024 0.00032686679043182404 0 0.0066863855897342723 0.00017672828533948367 0 0.0068668160191265818 0.00031893416580382482 0 0.0070488113288116024 0.00032686679043182404 0 0.0066863855897342723 0.00017672828533948367 0 0.0068668160191265818 0.00031893416580382482 0 0.0060068994177294088 8.9248063354163356e-05 0 0.0068668160191265818 0.00031893416580382482 0 0.0070488113288116024 0.00032686679043182404 0 0.0073162433155591145 0.00036001703592850943 0 0.0076551166101517737 0.00015967945708041665 0 0.0073162433155591145 0.00036001703592850943 0 0.0076830705552186395 0.00024680245091293688 0 0.0068668160191265818 0.00031893416580382482 0 0.0073162433155591145 0.00036001703592850943 0 0.0076830705552186395 0.00024680245091293688 0 0.0068668160191265818 0.00031893416580382482 0 0.0076830705552186395 0.00024680245091293688 0 0.0078760391086988239 1.399416268432055e-06 0 0.0085799266907448258 0.00018344484937461562 0 0.0076830705552186395 0.00024680245091293688 0 0.0078760391086988239 1.399416268432055e-06 0 0.0068668160191265818 0.00031893416580382482 0 0.005440075327464578 7.002890030148431e-07 0 0.0060068994177294088 8.9248063354163356e-05 0 0.0068668160191265818 0.00031893416580382482 0 0.0078760391086988239 1.399416268432055e-06 0 0.005440075327464578 7.002890030148431e-07 0 0.005440075327464578 7.002890030148431e-07 0 0.0049450189346801317 -5.1461745949429424e-05 0 0.003007564394042261 -2.0071088698916679e-06 0 0.005440075327464578 7.002890030148431e-07 0 0.0060068994177294088 8.9248063354163356e-05 0 0.0049450189346801317 -5.1461745949429424e-05 0 0.0060068994177294088 8.9248063354163356e-05 0 0.0049450189346801317 -5.1461745949429424e-05 0 0.0062942938671888202 -0.00025959651547306621 0 -0.0020560917657591049 -0.0012294664895761073 0 -0.0007869202398541451 -0.00011645225645165695 0 -0.0013235410013504119 0.00024357851842485834 0 0.0072257548229731315 0.00016470766986266183 0 0.0066863855897342723 0.00017672828533948367 0 0.0062942938671888202 -0.00025959651547306621 0 0.0010069304894277384 -0.00069626132833516959 0 0.0030174560338638288 2.6576994326470452e-05 0 0.0066863855897342723 0.00017672828533948367 0 0.0060068994177294088 8.9248063354163356e-05 0 0.0062942938671888202 -0.00025959651547306621 0 -0.0013235410013504119 0.00024357851842485834 0 -0.0014367369486190935 0.00074337295297652447 0 -0.00013541452254287376 0.0010077995401177981 0 -0.0013235410013504119 0.00024357851842485834 0 -0.0014367369486190935 0.00074337295297652447 0 -0.0019065267211109144 -0.0004893326334128573 0 -0.0007869202398541451 -0.00011645225645165695 0 -0.0013235410013504119 0.00024357851842485834 0 -0.00013541452254287376 0.0010077995401177981 0 -0.0020492023471703614 -0.00026154271584068471 0 0.0008524880498703304 0.00023723881509584793 0 0.0049450189346801317 -5.1461745949429424e-05 0 0.0062942938671888202 -0.00025959651547306621 0 0.0039539154384783341 -0.0003245167332170961 0 -0.0007869202398541451 -0.00011645225645165695 0 -0.00013541452254287376 0.0010077995401177981 0 0.00074010605861596856 0.0011619244699284023 0 0.0030174560338638288 2.6576994326470452e-05 0 0.0022683113035165876 0.00031522966929695736 0 0.0008524880498703304 0.00023723881509584793 0 0.0022683113035165876 0.00031522966929695736 0 0.0049450189346801317 -5.1461745949429424e-05 0 0.0039539154384783341 -0.0003245167332170961 0 0.003007564394042261 -2.0071088698916679e-06 0 0.0022683113035165876 0.00031522966929695736 0 0.0030040697746531015 6.2728751725843456e-07 0 0.0030016352450745478 -1.7619719310285797e-06 0 0.0013900293534287289 6.9421085072026245e-05 0 0.00085683945478843551 1.2531355579488885e-06 0 0.0021584592492620981 -0.00040260051795321377 0 0.0030016352450745478 -1.7619719310285797e-06 0 0.0013900293534287289 6.9421085072026245e-05 0 0.0013900293534287289 6.9421085072026245e-05 0 0.00083922131205962827 0.00016928432078341203 0 0.00085683945478843551 1.2531355579488885e-06 0 0.0012635106266811746 -0.00053823532224702808 0 0.0021584592492620981 -0.00040260051795321377 0 0.0013900293534287289 6.9421085072026245e-05 0 0.0012635106266811746 -0.00053823532224702808 0 0.0013900293534287289 6.9421085072026245e-05 0 0.00083922131205962827 0.00016928432078341203 0 -0.0020492023471703614 -0.00026154271584068471 0 -0.0022827337333700022 8.0548990493954788e-05 0 0.00068115203145806735 -0.00065318335159818589 0 0.0012635106266811746 -0.00053823532224702808 0 0.00083922131205962827 0.00016928432078341203 0 -0.0026836772724414476 0.00029612370234044397 0 -0.0022827337333700022 8.0548990493954788e-05 0 -0.005419494899889769 0.00020310320339474682 0 -0.0051603033467131345 0.00028344221017924539 0 -0.0052389293062530748 1.2594666179433093e-05 0 -0.0003342408910407822 0.00022868358032900155 0 0.00083922131205962827 0.00016928432078341203 0 0.00085683945478843551 1.2531355579488885e-06 0 -0.005419494899889769 0.00020310320339474682 0 -0.0056039039116016712 5.9872347598919089e-05 0 -0.0054507271347529742 -6.3266456928524315e-05 0 -0.005419494899889769 0.00020310320339474682 0 -0.0052389293062530748 1.2594666179433093e-05 0 -0.0054507271347529742 -6.3266456928524315e-05 0 -0.0053026763282653933 -0.00021170487132252233 0 -0.0052389293062530748 1.2594666179433093e-05 0 -0.0054507271347529742 -6.3266456928524315e-05 0 -0.0056039039116016712 5.9872347598919089e-05 0 -0.0054507271347529742 -6.3266456928524315e-05 0 -0.0056000233921614075 -0.00013428844811555493 0 -0.0054507271347529742 -6.3266456928524315e-05 0 -0.0055069207967665566 -0.00024201802605378151 0 -0.0056000233921614075 -0.00013428844811555493 0 -0.0015339940281220927 0.00072901867434574711 0 -0.0035788576100750551 0.00028885043661431605 0 -0.0019065267211109144 -0.0004893326334128573 0 -0.0020492023471703614 -0.00026154271584068471 0 -0.0048293121864402301 2.238658686875309e-05 0 -0.0053026763282653933 -0.00021170487132252233 0 -0.0054507271347529742 -6.3266456928524315e-05 0 -0.0055069207967665566 -0.00024201802605378151 0 -0.0020492023471703614 -0.00026154271584068471 0 -0.0017656577917070607 -1.2818241626498803e-05 0 0.0010069304894277384 -0.00069626132833516959 0 -0.0020954439374981475 -0.00039001116436958343 0 -0.0023648950480014662 -0.0013751367882642418 0 -0.0013235410013504119 0.00024357851842485834 0 -0.0019065267211109144 -0.0004893326334128573 0 -0.0023648950480014662 -0.0013751367882642418 0 -0.0019065267211109144 -0.0004893326334128573 0 -0.0034831978333996314 -0.0011408800268969401 0 -0.0035788576100750551 0.00028885043661431605 0 -0.0019065267211109144 -0.0004893326334128573 0 -0.0034831978333996314 -0.0011408800268969401 0 -0.0035788576100750551 0.00028885043661431605 0 -0.0034831978333996314 -0.0011408800268969401 0 -0.0045844517774492237 -0.00093006043238565996 0 -0.0035788576100750551 0.00028885043661431605 0 -0.0045844517774492237 -0.00093006043238565996 0 -0.005497399037060092 -0.00035344072644618246 0 -0.0045844517774492237 -0.00093006043238565996 0 -0.005497399037060092 -0.00035344072644618246 0 -0.0053774354890374649 -0.0012069777160121588 0 -0.005497399037060092 -0.00035344072644618246 0 -0.006038973668025133 -0.00070056079304598373 0 -0.0053774354890374649 -0.0012069777160121588 0 -0.005497399037060092 -0.00035344072644618246 0 -0.006038973668025133 -0.00070056079304598373 0 -0.0057480497743994325 -0.0001555527451336181 0 -0.006038973668025133 -0.00070056079304598373 0 -0.0057480497743994325 -0.0001555527451336181 0 -0.0060383037941294238 -0.0002099854181812239 0 -0.0048293121864402301 2.238658686875309e-05 0 -0.0053193152693199776 -0.00029037397723082243 0 -0.005497399037060092 -0.00035344072644618246 0 -0.0057480497743994325 -0.0001555527451336181 0 -0.0056000233921614075 -0.00013428844811555493 0 -0.0055069207967665566 -0.00024201802605378151 0 -0.005497399037060092 -0.00035344072644618246 0 -0.0056000233921614075 -0.00013428844811555493 0 -0.0057480497743994325 -0.0001555527451336181 0 -0.0056000233921614075 -0.00013428844811555493 0 -0.0057785135972545183 2.5826442668253039e-05 0 -0.0056039039116016712 5.9872347598919089e-05 0 -0.0056000233921614075 -0.00013428844811555493 0 -0.0057785135972545183 2.5826442668253039e-05 0 -0.0057480497743994325 -0.0001555527451336181 0 -0.0059147378532571114 -2.1905793993243888e-06 0 -0.0060383037941294238 -0.0002099854181812239 0 -0.0057480497743994325 -0.0001555527451336181 0 -0.0059147378532571114 -2.1905793993243888e-06 0 -0.0057785135972545183 2.5826442668253039e-05 0 -0.0060156576610340693 0.00023819118293574173 0 -0.0059147378532571114 -2.1905793993243888e-06 0 -0.0057785135972545183 2.5826442668253039e-05 0 -0.0058017403703064163 0.00022081268452068544 0 -0.0060156576610340693 0.00023819118293574173 0 -0.0057785135972545183 2.5826442668253039e-05 0 -0.0058017403703064163 0.00022081268452068544 0 -0.0056039039116016712 5.9872347598919089e-05 0 -0.0057785135972545183 2.5826442668253039e-05 0 -8.2673968066327471e-05 0.0012927155921672786 0 -6.102050899846208e-05 0.0012867325736509415 0 -6.2396536439148382e-05 0.0012802194000890784 0 -6.102050899846208e-05 0.0012867325736509415 0 -7.770798745938552e-05 0.0012881798196066525 0 -4.0777220681456073e-05 0.0012953918572787123 0 -8.2673968066327471e-05 0.0012927155921672786 0 -6.102050899846208e-05 0.0012867325736509415 0 -7.770798745938552e-05 0.0012881798196066525 0 -0.0063813455352544598 0.00015786263651471394 0 -0.0060156576610340693 0.00023819118293574173 0 -0.0062750715288238676 -8.5826401010280634e-05 0 -0.0078591701066755091 7.6029370304072372e-05 0 -0.00082635898205589843 -0.00074226009871025775 0 -0.0032347755223181627 0.00074391201186815858 0 -0.00082635898205589843 -0.00074226009871025775 0 -0.0060156576610340693 0.00023819118293574173 0 -0.0059147378532571114 -2.1905793993243888e-06 0 -0.0060482452748848838 2.2141873521290688e-05 0 0.0085282553223075108 -0.0039121468373748336 0 0.0080206265042745833 -0.0022893638293747225 0 0.008490525861988299 -0.0026425946980991499 0 -0.0059147378532571114 -2.1905793993243888e-06 0 -0.0060482452748848838 2.2141873521290688e-05 0 -0.0060383037941294238 -0.0002099854181812239 0 -0.00082635898205589843 -0.00074226009871025775 0 0.0011911955923355417 -0.0015663213731243774 0 0.006053300675232339 -0.0009960968945087168 0 0.0096361482095042254 -0.0028467825761529487 0 0.0085282553223075108 -0.0039121468373748336 0 0.0093942929195954608 -0.0029509606892851818 0 0.008490525861988299 -0.0026425946980991499 0 0.0099807533477824645 -0.003220572915433539 0 0.0093927929552247748 -0.002507927876263289 0 0.008490525861988299 -0.0026425946980991499 0 -6.102050899846208e-05 0.0012867325736509415 0 -6.2396536439148382e-05 0.0012802194000890784 0 -3.2952376225206634e-05 0.0012966971757293255 0 -0.00082635898205589843 -0.00074226009871025775 0 0.006053300675232339 -0.0009960968945087168 0 -6.102050899846208e-05 0.0012867325736509415 0 -3.2952376225206634e-05 0.0012966971757293255 0 -4.0777220681456073e-05 0.0012953918572787123 0 0.006053300675232339 -0.0009960968945087168 0 0.010517841265501225 -0.00030450438349967422 0 0.010634081866357484 -0.0025478418083153789 0 0.010297850686574211 -0.0023876317170329975 0 0.010216829674938031 -0.001874026416955656 0 0.010297850686574211 -0.0023876317170329975 0 0.0098304698678233406 -0.0023579378342459103 0 0.010216829674938031 -0.001874026416955656 0 0.0099807533477824645 -0.003220572915433539 0 0.010297850686574211 -0.0023876317170329975 0 0.0098304698678233406 -0.0023579378342459103 0 0.0099807533477824645 -0.003220572915433539 0 0.010623021630720981 -0.0025370035841742887 0 0.010297850686574211 -0.0023876317170329975 0 0.010517841265501225 -0.00030450438349967422 0 0.010661831482008829 -0.00056287133162144856 0 0.0099807533477824645 -0.003220572915433539 0 0.0098304698678233406 -0.0023579378342459103 0 0.0093927929552247748 -0.002507927876263289 0 0.0093927929552247748 -0.002507927876263289 0 0.0095789112958870049 -0.0019004978896356797 0 0.0089172904355861015 -0.0021394610132040174 0 0.0098304698678233406 -0.0023579378342459103 0 0.0095789112958870049 -0.0019004978896356797 0 0.010216829674938031 -0.001874026416955656 0 0.0098304698678233406 -0.0023579378342459103 0 0.0093927929552247748 -0.002507927876263289 0 0.0095789112958870049 -0.0019004978896356797 0 0.0095789112958870049 -0.0019004978896356797 0 0.0099670754143307075 -0.0012782240049919443 0 0.010216829674938031 -0.001874026416955656 0 0.0095789112958870049 -0.0019004978896356797 0 0.0091888090277684742 -0.0013640110834434393 0 0.0099670754143307075 -0.0012782240049919443 0 0.0095789112958870049 -0.0019004978896356797 0 0.0091888090277684742 -0.0013640110834434393 0 0.0089172904355861015 -0.0021394610132040174 0 0.0091888090277684742 -0.0013640110834434393 0 0.0099670754143307075 -0.0012782240049919443 0 0.0097283108039024173 -0.00048779038400145205 0 0.0099670754143307075 -0.0012782240049919443 0 0.010216829674938031 -0.001874026416955656 0 0.01084456307905249 -0.0007435707291790581 0 0.010634081866357484 -0.0025478418083153789 0 0.010216829674938031 -0.001874026416955656 0 0.01084456307905249 -0.0007435707291790581 0 0.0091888090277684742 -0.0013640110834434393 0 0.0080206265042745833 -0.0022893638293747225 0 0.0085800488956173024 -0.00050101034611955075 0 0.00044297835501746531 -0.00029502367234375619 0 0.0011911955923355417 -0.0015663213731243774 0 0.0091888090277684742 -0.0013640110834434393 0 0.0080206265042745833 -0.0022893638293747225 0 0.0089172904355861015 -0.0021394610132040174 0 0.0080206265042745833 -0.0022893638293747225 0 0.008490525861988299 -0.0026425946980991499 0 0.0089172904355861015 -0.0021394610132040174 0 0.0093927929552247748 -0.002507927876263289 0 0.008490525861988299 -0.0026425946980991499 0 0.0089172904355861015 -0.0021394610132040174 0 0.0072914190829978477 -4.7475117146899754e-05 0 0.0080206265042745833 -0.0022893638293747225 0 0.0085800488956173024 -0.00050101034611955075 0 0.0072914190829978477 -4.7475117146899754e-05 0 0.0085800488956173024 -0.00050101034611955075 0 0.0092676274193904309 0.00051170841940243828 0 0.0099670754143307075 -0.0012782240049919443 0 0.01084456307905249 -0.0007435707291790581 0 0.0097283108039024173 -0.00048779038400145205 0 0.01084456307905249 -0.0007435707291790581 0 0.0097283108039024173 -0.00048779038400145205 0 0.010374693990416791 0.00023512537352338766 0 0.0091888090277684742 -0.0013640110834434393 0 0.0085800488956173024 -0.00050101034611955075 0 0.0097283108039024173 -0.00048779038400145205 0 0.0097283108039024173 -0.00048779038400145205 0 0.0092676274193904309 0.00051170841940243828 0 0.010374693990416791 0.00023512537352338766 0 0.0092676274193904309 0.00051170841940243828 0 0.010374693990416791 0.00023512537352338766 0 0.010389431597211273 0.0012087599076031927 0 0.0085800488956173024 -0.00050101034611955075 0 0.0097283108039024173 -0.00048779038400145205 0 0.0092676274193904309 0.00051170841940243828 0 0.01084456307905249 -0.0007435707291790581 0 0.010374693990416791 0.00023512537352338766 0 0.01162469674106038 0.00070197009461591233 0 0.010389431597211273 0.0012087599076031927 0 0.0090060510764798842 0.0022857759610566322 0 0.011446585044335433 0.002240474577453353 0 0.010374693990416791 0.00023512537352338766 0 0.010389431597211273 0.0012087599076031927 0 0.01162469674106038 0.00070197009461591233 0 0.0096415167485959831 0.0010259384995148382 0 0.011983737993247224 0.00068717766217313769 0 0.0092676274193904309 0.00051170841940243828 0 0.010389431597211273 0.0012087599076031927 0 0.0090060510764798842 0.0022857759610566322 0 0.012277510481514438 0.0012578777676478471 0 0.013583236764043436 0.00089807475267991352 0 0.013445467184766611 0.00069823246462055581 0 0.008994371604480399 0.0013227846007183943 0 0.0090584681662807618 -0.00033236237610923279 0 0.011429296428226534 -0.0002593536164081032 0 0.010901782622283649 0.0013425007210404944 0 0.011983737993247224 0.00068717766217313769 0 0.012277510481514438 0.0012578777676478471 0 0.012745730449831801 0.0017730342725684755 0 0.013583236764043436 0.00089807475267991352 0 0.013247975016230738 0.0014477896859711977 0 0.01353691758596969 0.00089621763353479671 0 0.0080059851916878429 0.00048500317073838168 0 0.0090584681662807618 -0.00033236237610923279 0 0.0066993661663353743 -0.00038804502025213065 0 0.008994371604480399 0.0013227846007183943 0 0.0080059851916878429 0.00048500317073838168 0 0.0072751558283838122 0.0013353577076456321 0 0.008994371604480399 0.0013227846007183943 0 0.0080059851916878429 0.00048500317073838168 0 0.0090584681662807618 -0.00033236237610923279 0 0.0072914190829978477 -4.7475117146899754e-05 0 0.0092676274193904309 0.00051170841940243828 0 0.0090060510764798842 0.0022857759610566322 0 0.0072914190829978477 -4.7475117146899754e-05 0 0.0090060510764798842 0.0022857759610566322 0 0.0065467458132057342 0.0022318408506015017 0 0.0096415167485959831 0.0010259384995148382 0 0.0028647197610754591 0.00047628653481465055 0 -0.006038973668025133 -0.00070056079304598373 0 -0.0053774354890374649 -0.0012069777160121588 0 -0.0058212876352707011 -0.0019106446068213536 0 0.0028647197610754591 0.00047628653481465055 0 -0.002805250344923012 -0.0014165016985641886 0 -0.0053774354890374649 -0.0012069777160121588 0 -0.0058212876352707011 -0.0019106446068213536 0 -0.0047547863298763194 -0.0020432814667883949 0 0.00044297835501746531 -0.00029502367234375619 0 0.0028647197610754591 0.00047628653481465055 0 -0.0034831978333996314 -0.0011408800268969401 0 -0.0045844517774492237 -0.00093006043238565996 0 -0.0047547863298763194 -0.0020432814667883949 0 -0.0045844517774492237 -0.00093006043238565996 0 -0.0053774354890374649 -0.0012069777160121588 0 -0.0047547863298763194 -0.0020432814667883949 0 0.0028546424604318494 -0.00063611807413737644 0 0.0010667308969258928 0.0003009025658992312 0 0.0022542223342356411 0.0013226559859806151 0 0.0028546424604318494 -0.00063611807413737644 0 0.0013661774376351249 -0.00068262989564023312 0 0.0010667308969258928 0.0003009025658992312 0 0.0026976286359176554 -2.4024024695305804e-05 0 0.0049338645678855438 0.00061226038325216438 0 0.0028647197610754591 0.00047628653481465055 0 0.0049338645678855438 0.00061226038325216438 0 0.0066993661663353743 -0.00038804502025213065 0 0.0072751558283838122 0.0013353577076456321 0 0.0058778257165937702 0.0022565588882648372 0 0.0080059851916878429 0.00048500317073838168 0 0.0066993661663353743 -0.00038804502025213065 0 0.0072751558283838122 0.0013353577076456321 0 0.0072751558283838122 0.0013353577076456321 0 0.0058778257165937702 0.0022565588882648372 0 0.0065945235024816055 0.0028778317915734274 0 0.0067168757232780726 -0.0002163772054316357 0 0.0066942962526387291 -0.00035435408622496464 0 0.0066173412341878233 -0.00029938678865580414 0 0.0049338645678855438 0.00061226038325216438 0 0.0075165801767126898 0.0011297484926542968 0 0.0073125072996967659 0.00068034241155740958 0 0.0075165801767126898 0.0011297484926542968 0 0.0040969228958823017 -1.1468028634086078e-05 0 0.004300461074740438 -0.00038180840659758083 0 0.0047325519466173372 -5.2347924688167139e-06 0 0.0040969228958823017 -1.1468028634086078e-05 0 0.0047325519466173372 -5.2347924688167139e-06 0 0.0045175993395280868 0.00070765970145200447 0 0.0049338645678855438 0.00061226038325216438 0 0.0056853188439220659 -0.00023262325607471059 0 0.0067168757232780726 -0.0002163772054316357 0 0.0066942962526387291 -0.00035435408622496464 0 0.0068107538362723622 -0.00059181276449983349 0 0.0056610806766983447 7.9169661375983006e-05 0 0.0056853188439220659 -0.00023262325607471059 0 0.0066942962526387291 -0.00035435408622496464 0 0.0067398867535025412 -0.00056063018803376153 0 0.0068107538362723622 -0.00059181276449983349 0 0.0067398867535025412 -0.00056063018803376153 0 0.0068107538362723622 -0.00059181276449983349 0 0.006766871909974579 -0.00061707761698229918 0 0.0066442900700592923 -0.00051883234505681493 0 0.006462052731677193 -0.00047951920238290517 0 0.0066296454343523995 -0.00073466523857970863 0 0.0075165801767126898 0.0011297484926542968 0 0.01103193857788101 0.0011222203746840411 0 0.0066351225536051489 -0.0003096866263811042 0 0.0066442900700592923 -0.00051883234505681493 0 0.006462052731677193 -0.00047951920238290517 0 0.0066942962526387291 -0.00035435408622496464 0 0.0067398867535025412 -0.00056063018803376153 0 0.0066442900700592923 -0.00051883234505681493 0 0.0066942962526387291 -0.00035435408622496464 0 0.0066351225536051489 -0.0003096866263811042 0 0.0066442900700592923 -0.00051883234505681493 0 0.0067398867535025412 -0.00056063018803376153 0 0.0066442900700592923 -0.00051883234505681493 0 0.0067262283407343408 -0.00067421908141756506 0 0.012727197622840436 0.0018599836183472154 0 0.012846430784879301 0.0021621770525038398 0 0.012647117160080748 0.0025306875459135329 0 0.012687982197159432 0.0018128993457673308 0 0.013046078817637256 0.00187621469076265 0 0.01330249989753951 0.0014798595536701256 0 0.012727197622840436 0.0018599836183472154 0 0.012826940703190712 0.0019426537545014957 0 0.012846430784879301 0.0021621770525038398 0 0.012687982197159432 0.0018128993457673308 0 0.013046078817637256 0.00187621469076265 0 0.012826940703190712 0.0019426537545014957 0 0.013046078817637256 0.00187621469076265 0 0.012826940703190712 0.0019426537545014957 0 0.01301959841092021 0.0020913207370613757 0 0.01103193857788101 0.0011222203746840411 0 0.011485409211618447 0.0014513600365039774 0 0.012826940703190712 0.0019426537545014957 0 0.012846430784879301 0.0021621770525038398 0 0.01301959841092021 0.0020913207370613757 0 0.013046078817637256 0.00187621469076265 0 0.01301959841092021 0.0020913207370613757 0 0.013316703102029932 0.0020607716043902252 0 0.01301959841092021 0.0020913207370613757 0 0.013316703102029932 0.0020607716043902252 0 0.013032596459694883 0.0023929105858538913 0 0.012687982197159432 0.0018128993457673308 0 0.01330249989753951 0.0014798595536701256 0 0.013550261550370559 0.00087606406392487057 0 0.013316703102029932 0.0020607716043902252 0 0.013731313432575901 0.0018592827409486803 0 0.01330249989753951 0.0014798595536701256 0 0.013046078817637256 0.00187621469076265 0 0.013316703102029932 0.0020607716043902252 0 0.01330249989753951 0.0014798595536701256 0 0.013316703102029932 0.0020607716043902252 0 0.013731313432575901 0.0018592827409486803 0 0.013665349954774758 0.0023665405293459459 0 0.013731313432575901 0.0018592827409486803 0 0.013723836260521221 0.0012719610412390678 0 0.01330249989753951 0.0014798595536701256 0 0.013731313432575901 0.0018592827409486803 0 0.013723836260521221 0.0012719610412390678 0 0.014077568721008064 0.0016125911549797923 0 0.013723836260521221 0.0012719610412390678 0 0.01330249989753951 0.0014798595536701256 0 0.013550261550370559 0.00087606406392487057 0 0.013723836260521221 0.0012719610412390678 0 0.013550261550370559 0.00087606406392487057 0 0.01385922904528218 0.00079758388152355027 0 0.012277510481514438 0.0012578777676478471 0 0.012745730449831801 0.0017730342725684755 0 0.0119789001338439 0.001982382966935895 0 0.012277510481514438 0.0012578777676478471 0 0.010979164871633714 0.0020332329918133674 0 0.0119789001338439 0.001982382966935895 0 0.010979164871633714 0.0020332329918133674 0 0.011837191172730214 0.0027636168405284433 0 0.0119789001338439 0.001982382966935895 0 0.011837191172730214 0.0027636168405284433 0 0.012745730449831801 0.0017730342725684755 0 0.0119789001338439 0.001982382966935895 0 0.008994371604480399 0.0013227846007183943 0 0.0072751558283838122 0.0013353577076456321 0 0.0065945235024816055 0.0028778317915734274 0 0.010901782622283649 0.0013425007210404944 0 0.0075165801767126898 0.0011297484926542968 0 0.01103193857788101 0.0011222203746840411 0 0.013247975016230738 0.0014477896859711977 0 0.01385922904528218 0.00079758388152355027 0 0.014998068376875321 0.0018098402403854395 0 0.016519894031968511 0.00055332791672171877 0 0.01385922904528218 0.00079758388152355027 0 0.013418821319554847 0.00078506141670172985 0 0.013571628100664052 0.00088832851462699171 0 0.013927108349526599 0.00075286387974659913 0 0.015025975150927991 0.00071651033422100868 0 0.013418821319554847 0.00078506141670172985 0 0.013571628100664052 0.00088832851462699171 0 0.01345412217972786 0.00093549816518660343 0 0.01385922904528218 0.00079758388152355027 0 0.013571628100664052 0.00088832851462699171 0 0.013695067080776816 0.00086418131116740499 0 0.013550261550370559 0.00087606406392487057 0 0.01385922904528218 0.00079758388152355027 0 0.013695067080776816 0.00086418131116740499 0 0.013723836260521221 0.0012719610412390678 0 0.01385922904528218 0.00079758388152355027 0 0.014077568721008064 0.0016125911549797923 0 0.01385922904528218 0.00079758388152355027 0 0.014077568721008064 0.0016125911549797923 0 0.014998068376875321 0.0018098402403854395 0 0.013731313432575901 0.0018592827409486803 0 0.014077568721008064 0.0016125911549797923 0 0.014147271226092432 0.0024018506495540959 0 0.014077568721008064 0.0016125911549797923 0 0.014998068376875321 0.0018098402403854395 0 0.014147271226092432 0.0024018506495540959 0 0.014998068376875321 0.0018098402403854395 0 0.016519894031968511 0.00055332791672171877 0 0.016746980958940009 0.0025239734123670798 0 0.018052882865838393 0.0013338409621908858 0 0.016519894031968511 0.00055332791672171877 0 0.016746980958940009 0.0025239734123670798 0 0.019227802873152518 0.0013850708058815199 0 0.018308411476761897 0.0018938288021545251 0 0.018052882865838393 0.0013338409621908858 0 0.019256644629949599 0.0013679998560375498 0 0.016746980958940009 0.0025239734123670798 0 0.019458517758565441 0.0012876042076423128 0 0.019256644629949599 0.0013679998560375498 0 0.019855333950820727 0.0013162173810343067 0 0.019458517758565441 0.0012876042076423128 0 0.019470017094918468 0.0012745565683029692 0 0.019498328171900114 0.0012600779958187836 0 0.019458517758565441 0.0012876042076423128 0 0.019256644629949599 0.0013679998560375498 0 0.019470017094918468 0.0012745565683029692 0 0.018052882865838393 0.0013338409621908858 0 0.019256644629949599 0.0013679998560375498 0 0.019586921888160864 0.0010028258261651232 0 0.019256644629949599 0.0013679998560375498 0 0.019470017094918468 0.0012745565683029692 0 0.019586921888160864 0.0010028258261651232 0 0.018052882865838393 0.0013338409621908858 0 0.019586921888160864 0.0010028258261651232 0 0.016519894031968511 0.00055332791672171877 0 0.0162332463418953 0.0008269315393654214 0 0.015025975150927991 0.00071651033422100868 0 0.013302381205591527 0.00081718295014922184 0 0.013338170078258426 0.00084881499484193727 0 0.013418821319554847 0.00078506141670172985 0 0.013338170078258426 0.00084881499484193727 0 0.013353875730760974 0.00090809940433141784 0 0.013276846724895843 0.00088693139291160146 0 0.013302381205591527 0.00081718295014922184 0 0.013338170078258426 0.00084881499484193727 0 0.013276846724895843 0.00088693139291160146 0 0.013338170078258426 0.00084881499484193727 0 0.013418821319554847 0.00078506141670172985 0 0.013353875730760974 0.00090809940433141784 0 0.013418821319554847 0.00078506141670172985 0 0.013353875730760974 0.00090809940433141784 0 0.01345412217972786 0.00093549816518660343 0 0.013353875730760974 0.00090809940433141784 0 0.013374921492587431 0.00099197244386711237 0 0.01345412217972786 0.00093549816518660343 0 0.013486718350301926 0.0010497597412635832 0 0.013374921492587431 0.00099197244386711237 0 0.01345412217972786 0.00093549816518660343 0 0.013353875730760974 0.00090809940433141784 0 0.013266428708997592 0.0010030818685928683 0 0.013276846724895843 0.00088693139291160146 0 0.013353875730760974 0.00090809940433141784 0 0.013266428708997592 0.0010030818685928683 0 0.013374921492587431 0.00099197244386711237 0 0.013266428708997592 0.0010030818685928683 0 0.013331817630105932 0.0010678809172142559 0 0.013243659286235816 0.0011296721631117452 0 0.013266428708997592 0.0010030818685928683 0 0.013331817630105932 0.0010678809172142559 0 0.013374921492587431 0.00099197244386711237 0 0.013331817630105932 0.0010678809172142559 0 0.013486718350301926 0.0010497597412635832 0 0.013364004189430553 0.0011066727759267655 0 0.013331817630105932 0.0010678809172142559 0 0.013486718350301926 0.0010497597412635832 0 0.013374921492587431 0.00099197244386711237 0 0.013486718350301926 0.0010497597412635832 0 0.013364004189430553 0.0011066727759267655 0 0.013372387111524693 0.0010966202273686131 0 0.013486718350301926 0.0010497597412635832 0 0.013078655652660949 0.00077165238593651176 0 0.012782163664713121 -0.00017513840959981723 0 0.013359043786520039 0.0009435655894564428 0 0.013328660519099584 0.00050489707754533281 0 0.013078655652660949 0.00077165238593651176 0 0.013409093780673653 0.00094210234337902205 0 0.013426959041491687 0.00085830976862771152 0 0.013486718350301926 0.0010497597412635832 0 0.013078655652660949 0.00077165238593651176 0 0.013409093780673653 0.00094210234337902205 0 0.013486718350301926 0.0010497597412635832 0 0.013409093780673653 0.00094210234337902205 0 0.01345412217972786 0.00093549816518660343 0 0.013409093780673653 0.00094210234337902205 0 0.013484391100772274 0.00091626381301058491 0 0.01345412217972786 0.00093549816518660343 0 0.013409093780673653 0.00094210234337902205 0 0.013522931497235442 0.00090002057828415685 0 0.013426959041491687 0.00085830976862771152 0 0.013409093780673653 0.00094210234337902205 0 0.013484391100772274 0.00091626381301058491 0 0.013522931497235442 0.00090002057828415685 0 0.013484391100772274 0.00091626381301058491 0 0.013571628100664052 0.00088832851462699171 0 0.013522931497235442 0.00090002057828415685 0 0.013484391100772274 0.00091626381301058491 0 0.013571628100664052 0.00088832851462699171 0 0.01345412217972786 0.00093549816518660343 0 0.013550261550370559 0.00087606406392487057 0 0.013695067080776816 0.00086418131116740499 0 0.013583236764043436 0.00089807475267991352 0 0.013571628100664052 0.00088832851462699171 0 0.013695067080776816 0.00086418131116740499 0 0.013522931497235442 0.00090002057828415685 0 0.013695067080776816 0.00086418131116740499 0 0.013522931497235442 0.00090002057828415685 0 0.013583236764043436 0.00089807475267991352 0 0.013522931497235442 0.00090002057828415685 0 0.013426959041491687 0.00085830976862771152 0 0.013583236764043436 0.00089807475267991352 0 0.013426959041491687 0.00085830976862771152 0 0.013583236764043436 0.00089807475267991352 0 0.013495700305708297 0.00078913942112604854 0 0.013583236764043436 0.00089807475267991352 0 0.013445467184766611 0.00069823246462055581 0 0.013495700305708297 0.00078913942112604854 0 0.013083832931692808 0.00095532696484742022 0 0.011983737993247224 0.00068717766217313769 0 0.013078655652660949 0.00077165238593651176 0 0.011446585044335433 0.002240474577453353 0 0.01162469674106038 0.00070197009461591233 0 0.013078655652660949 0.00077165238593651176 0 0.013552198618089244 0.00081131452012714843 0 0.013495700305708297 0.00078913942112604854 0 0.011983737993247224 0.00068717766217313769 0 0.012241341661676829 0.00069641364139437013 0 0.013078655652660949 0.00077165238593651176 0 0.013426959041491687 0.00085830976862771152 0 0.013495700305708297 0.00078913942112604854 0 0.010389431597211273 0.0012087599076031927 0 0.011446585044335433 0.002240474577453353 0 0.01162469674106038 0.00070197009461591233 0 0.01084456307905249 -0.0007435707291790581 0 0.01162469674106038 0.00070197009461591233 0 0.012782163664713121 -0.00017513840959981723 0 0.013078655652660949 0.00077165238593651176 0 0.01162469674106038 0.00070197009461591233 0 0.012782163664713121 -0.00017513840959981723 0 0.013486718350301926 0.0010497597412635832 0 0.013338998747520673 0.0010935296205663914 0 0.013372387111524693 0.0010966202273686131 0 0.013486718350301926 0.0010497597412635832 0 0.013326396320739989 0.0010693493566767218 0 0.013338998747520673 0.0010935296205663914 0 0.013326396320739989 0.0010693493566767218 0 0.013217957800259762 0.0011192231886849909 0 0.013408870265056607 0.0013497418626923522 0 0.013326396320739989 0.0010693493566767218 0 0.013338998747520673 0.0010935296205663914 0 0.013217957800259762 0.0011192231886849909 0 0.013338998747520673 0.0010935296205663914 0 0.013217957800259762 0.0011192231886849909 0 0.013332354300926748 0.0011272087969056493 0 0.013217957800259762 0.0011192231886849909 0 0.013187110062913393 0.0015408463365247623 0 0.012688244205526193 0.0017749796018355583 0 0.013217957800259762 0.0011192231886849909 0 0.013187110062913393 0.0015408463365247623 0 0.013408870265056607 0.0013497418626923522 0 0.013856224514674748 0.0014213693047749442 0 0.01131750145162347 0.0020919642250518803 0 0.013187110062913393 0.0015408463365247623 0 0.013480342225895255 0.0015742185016344001 0 0.012954397167003579 0.001981433130275741 0 0.013187110062913393 0.0015408463365247623 0 0.012688244205526193 0.0017749796018355583 0 0.012954397167003579 0.001981433130275741 0 0.010517841265501225 -0.00030450438349967422 0 0.013328660519099584 0.00050489707754533281 0 0.013871867257288036 0.001570996561513322 0 0.013326396320739989 0.0010693493566767218 0 0.013408870265056607 0.0013497418626923522 0 0.010634081866357484 -0.0025478418083153789 0 0.01084456307905249 -0.0007435707291790581 0 0.012782163664713121 -0.00017513840959981723 0 0.013871867257288036 0.001570996561513322 0 0.013408870265056607 0.0013497418626923522 0 0.013480342225895255 0.0015742185016344001 0 0.013187110062913393 0.0015408463365247623 0 0.013408870265056607 0.0013497418626923522 0 0.013480342225895255 0.0015742185016344001 0 0.006053300675232339 -0.0009960968945087168 0 0.0028504163399225885 0.0021422593393393098 0 -3.2952376225206634e-05 0.0012966971757293255 0 7.9252091795232795e-06 0.0013134755840928211 0 -4.0777220681456073e-05 0.0012953918572787123 0 0.013871867257288036 0.001570996561513322 0 0.013480342225895255 0.0015742185016344001 0 0.013108533077094437 0.0019773351794621329 0 0.0084451683403823433 0.00037138207411615605 0 0.0078409820812664049 -0.00028463515795679515 0 0.0053624950623034637 0.001408725226723667 0 0.0078409820812664049 -0.00028463515795679515 0 0.0050727365417432531 0.001030976286212725 0 0.0053624950623034637 0.001408725226723667 0 0.010517841265501225 -0.00030450438349967422 0 0.0079117218386287255 0.0024770762579530564 0 0.0081704642873261703 0.002298019881392656 0 0.0088087058441264129 0.0031282675529683067 0 0.0061612677263678016 0.0043697388009373865 0 0.0079117218386287255 0.0024770762579530564 0 0.001803961815901863 0.0049679425561451303 0 0.013480342225895255 0.0015742185016344001 0 0.012953999649883247 0.0017865964282940427 0 0.013108533077094437 0.0019773351794621329 0 0.0028504163399225885 0.0021422593393393098 0 -0.0016919291483398573 0.0052189577926259542 0 0.0050974749290710851 0.0023534035419226305 0 0.0058219047755016171 0.003291804319437641 0 0.0008184538197968977 0.0049544123481899318 0 0.012127906466705765 0.0022912685108309348 0 0.01131750145162347 0.0020919642250518803 0 0.01131750145162347 0.0020919642250518803 0 0.0079117218386287255 0.0024770762579530564 0 0.0079117218386287255 0.0024770762579530564 0 0.0028504163399225885 0.0021422593393393098 0 -0.00080613665444356699 0.003942030368501907 0 -0.00091032113486027807 0.0038145995546460345 0 -0.00063752665353083526 0.0038994515575811015 0 -0.0060386681571327934 0.0065478492563784615 0 -0.0076297890819654315 0.0072501954161661624 0 -0.0054563336114193421 0.0078616997091867351 0 -0.0027370801999724004 0.0035338565452950042 0 -0.0016919291483398573 0.0052189577926259542 0 7.9252091795232795e-06 0.0013134755840928211 0 -3.2630521323819574e-05 0.0012865342153248682 0 -4.0777220681456073e-05 0.0012953918572787123 0 -0.0027370801999724004 0.0035338565452950042 0 -0.00033822337655212484 0.0026042423996238146 0 -3.2630521323819574e-05 0.0012865342153248682 0 -7.770798745938552e-05 0.0012881798196066525 0 -4.0777220681456073e-05 0.0012953918572787123 0 0.0028504163399225885 0.0021422593393393098 0 -0.0027370801999724004 0.0035338565452950042 0 -0.003584292742516319 0.0061311093208818515 0 -0.0042142603644029419 0.0075126872449085419 0 -0.0028849979499860523 0.0069498299108065762 0 0.0013291332492094687 0.0053985675218547694 0 0.0010703706359847642 0.0051048017350224864 0 0.0013209322413476018 0.004989931394595741 0 0.0013291332492094687 0.0053985675218547694 0 0.0019159454591267224 0.0051227008813649142 0 0.0013209322413476018 0.004989931394595741 0 0.0013291332492094687 0.0053985675218547694 0 0.0010703706359847642 0.0051048017350224864 0 0.00097945691048283222 0.0054974500309671664 0 0.0010703706359847642 0.0051048017350224864 0 0.00097945691048283222 0.0054974500309671664 0 0.0005222908697337785 0.0055780278080340782 0 0.0012848090139379485 0.0054008219868944543 0 0.00097945691048283222 0.0054974500309671664 0 0.00062692756235166816 0.0056982807305982789 0 -0.00094260993561291187 0.0060960529481298873 0 -0.0015206463639588922 0.0065014060853944627 0 -0.00094260993561291187 0.0060960529481298873 0 0.00089919632049333814 0.0055074586370770879 0 -0.0047076505886719001 0.0060608666368358304 0 -0.0042142603644029419 0.0075126872449085419 0 -0.0051051407946272886 0.006996351767602293 0 -0.0060386681571327934 0.0065478492563784615 0 -0.0051051407946272886 0.006996351767602293 0 -0.0054563336114193421 0.0078616997091867351 0 -0.0016919291483398573 0.0052189577926259542 0 0.001803961815901863 0.0049679425561451303 0 -0.0042142603644029419 0.0075126872449085419 0 -0.0051051407946272886 0.006996351767602293 0 -0.0054563336114193421 0.0078616997091867351 0 -0.00091860679998109047 0.0057945709930722717 0 0.00031252064196730771 0.0053523897431965676 0 6.9171360045244045e-05 0.0052997835770847686 0 -0.00094260993561291187 0.0060960529481298873 0 -0.0016919291483398573 0.0052189577926259542 0 -0.00094260993561291187 0.0060960529481298873 0 0.001803961815901863 0.0049679425561451303 0 0.0081704642873261703 0.002298019881392656 0 0.0061612677263678016 0.0043697388009373865 0 0.0043711744225426747 0.0039498534738050175 0 0.0050974749290710851 0.0023534035419226305 0 0.0008184538197968977 0.0049544123481899318 0 -1.0843647554200606e-05 0.0047611364744650359 0 0.011862499035598658 0.0022786401759552475 0 0.011178821519239594 0.0026088147125791499 0 0.010905998963657825 0.0032667335188116134 0 0.001803961815901863 0.0049679425561451303 0 0.0057996609602805338 0.003930809860190676 0 0.013075655010422522 0.0022688356491615174 0 0.011862499035598658 0.0022786401759552475 0 0.010905998963657825 0.0032667335188116134 0 0.01131750145162347 0.0020919642250518803 0 0.0057996609602805338 0.003930809860190676 0 0.012688244205526193 0.0017749796018355583 0 0.013075655010422522 0.0022688356491615174 0 0.011862499035598658 0.0022786401759552475 0 0.011862499035598658 0.0022786401759552475 0 0.011503521186534983 0.002065432865102261 0 0.011178821519239594 0.0026088147125791499 0 0.011862499035598658 0.0022786401759552475 0 0.011503521186534983 0.002065432865102261 0 0.011930113783056223 0.0018386392891510423 0 0.011503521186534983 0.002065432865102261 0 0.010901953979909184 0.0023440716710479113 0 0.011178821519239594 0.0026088147125791499 0 0.010901953979909184 0.0023440716710479113 0 0.010747801329681974 0.0032346063614744642 0 0.0096965005576307179 0.0018129353010168468 0 0.010901953979909184 0.0023440716710479113 0 0.011178821519239594 0.0026088147125791499 0 0.010747801329681974 0.0032346063614744642 0 0.011178821519239594 0.0026088147125791499 0 0.010747801329681974 0.0032346063614744642 0 0.010905998963657825 0.0032667335188116134 0 0.0033066926458254083 0.0047854440654500983 0 0.0057996609602805338 0.003930809860190676 0 0.0041151596846210553 0.0046584410413855375 0 0.0053148547643954791 0.0036866265937557396 0 0.0059900544336424387 0.0038449779291305445 0 0.0061908906249572831 0.0038966672138786955 0 0.0057996609602805338 0.003930809860190676 0 0.0033066926458254083 0.0047854440654500983 0 0.0061908906249572831 0.0038966672138786955 0 0.012315135999781835 0.0012680949213943473 0 0.012262574975229704 0.0013622546374260675 0 0.013353786410096994 0.0011189800270550135 0 0.013354818708727461 0.0011334222272263645 0 0.01332317579148963 0.0011213700631672358 0 0.010901953979909184 0.0023440716710479113 0 0.011597221600649812 0.0013147661981690909 0 0.0096965005576307179 0.0018129353010168468 0 0.013354818708727461 0.0011334222272263645 0 0.013314832208821214 0.0011166987261427284 0 0.01322801160292302 0.0012764688021396889 0 0.013723227058584196 0.0010000265497512213 0 0.012262574975229704 0.0013622546374260675 0 0.013217957800259762 0.0011192231886849909 0 0.012688244205526193 0.0017749796018355583 0 0.011597221600649812 0.0013147661981690909 0 0.013198520606461388 0.0010957121738660374 0 0.012315135999781835 0.0012680949213943473 0 0.013217957800259762 0.0011192231886849909 0 0.013353786410096994 0.0011189800270550135 0 0.013332354300926748 0.0011272087969056493 0 0.012688244205526193 0.0017749796018355583 0 0.011862499035598658 0.0022786401759552475 0 0.011930113783056223 0.0018386392891510423 0 0.012688244205526193 0.0017749796018355583 0 0.011930113783056223 0.0018386392891510423 0 0.011597221600649812 0.0013147661981690909 0 0.011503521186534983 0.002065432865102261 0 0.010901953979909184 0.0023440716710479113 0 0.011597221600649812 0.0013147661981690909 0 0.011503521186534983 0.002065432865102261 0 0.011930113783056223 0.0018386392891510423 0 0.011597221600649812 0.0013147661981690909 0 0.013353786410096994 0.0011189800270550135 0 0.013332354300926748 0.0011272087969056493 0 0.013354818708727461 0.0011334222272263645 0 0.013332354300926748 0.0011272087969056493 0 0.013354818708727461 0.0011334222272263645 0 0.013364004189430553 0.0011066727759267655 0 0.013354818708727461 0.0011334222272263645 0 0.013364004189430553 0.0011066727759267655 0 0.013314832208821214 0.0011166987261427284 0 0.013338998747520673 0.0010935296205663914 0 0.013332354300926748 0.0011272087969056493 0 0.013372387111524693 0.0010966202273686131 0 0.013332354300926748 0.0011272087969056493 0 0.013364004189430553 0.0011066727759267655 0 0.013372387111524693 0.0010966202273686131 0 0.013314832208821214 0.0011166987261427284 0 0.013243659286235816 0.0011296721631117452 0 0.01322801160292302 0.0012764688021396889 0 0.013331817630105932 0.0010678809172142559 0 0.013364004189430553 0.0011066727759267655 0 0.013314832208821214 0.0011166987261427284 0 0.013331817630105932 0.0010678809172142559 0 0.013314832208821214 0.0011166987261427284 0 0.013243659286235816 0.0011296721631117452 0 0.013175719849024402 0.0011752685942069412 0 0.013243659286235816 0.0011296721631117452 0 0.013186126660325318 0.0010773761488066067 0 0.013175719849024402 0.0011752685942069412 0 0.013109462269139401 0.0011579146922557197 0 0.013186126660325318 0.0010773761488066067 0 0.013109462269139401 0.0011579146922557197 0 0.013017392699258654 0.0011436046918028965 0 0.013110729952347929 0.0010391103307591078 0 0.013109462269139401 0.0011579146922557197 0 0.013110729952347929 0.0010391103307591078 0 0.013186126660325318 0.0010773761488066067 0 0.013109462269139401 0.0011579146922557197 0 0.013026219774813308 0.0012414399152562156 0 0.013017392699258654 0.0011436046918028965 0 0.013114258032001704 0.0012450343189481414 0 0.01322801160292302 0.0012764688021396889 0 0.013019987179244139 0.0013520491299076098 0 0.013109462269139401 0.0011579146922557197 0 0.013026219774813308 0.0012414399152562156 0 0.013114258032001704 0.0012450343189481414 0 0.013175719849024402 0.0011752685942069412 0 0.013109462269139401 0.0011579146922557197 0 0.013114258032001704 0.0012450343189481414 0 0.013026219774813308 0.0012414399152562156 0 0.013114258032001704 0.0012450343189481414 0 0.013019987179244139 0.0013520491299076098 0 0.013026219774813308 0.0012414399152562156 0 0.013008436264505137 0.0013490744825944692 0 0.013019987179244139 0.0013520491299076098 0 0.013175719849024402 0.0011752685942069412 0 0.013243659286235816 0.0011296721631117452 0 0.01322801160292302 0.0012764688021396889 0 0.013175719849024402 0.0011752685942069412 0 0.013114258032001704 0.0012450343189481414 0 0.01322801160292302 0.0012764688021396889 0 0.0046824080532272905 0.003910307115248369 0 0.0046740196195371106 0.0039183261119796189 0 0.0047627643454699548 0.0039371605122436228 0 0.010747801329681974 0.0032346063614744642 0 0.0096965005576307179 0.0018129353010168468 0 0.0084303600217032898 0.0027103701427250953 0 0.012262574975229704 0.0013622546374260675 0 0.0084754465499130086 0.0031996702100872848 0 0.0061908906249572831 0.0038966672138786955 0 0.0068900188825317217 0.0034638040898814014 0 0.012262574975229704 0.0013622546374260675 0 0.0068900188825317217 0.0034638040898814014 0 0.0068900188825317217 0.0034638040898814014 0 0.0045711361158722215 0.0041432369526542712 0 0.01141723785089151 0.0017529276123198012 0 0.0092190485089606901 0.0033319979145094471 0 0.0074814365076170267 0.0029267507366062574 0 0.0068900188825317217 0.0034638040898814014 0 0.0084754465499130086 0.0031996702100872848 0 0.005048678412153799 0.0040394883401279006 0 0.005008981456456351 0.0040365415916783793 0 0.0049686365257500332 0.0040357468493587871 0 0.005048678412153799 0.0040394883401279006 0 0.005008981456456351 0.0040365415916783793 0 0.0050087340132787964 0.0040277860792332252 0 0.005008981456456351 0.0040365415916783793 0 0.0049983963550322306 0.0040395143046215295 0 0.0049889504565869928 0.0040430000983828545 0 0.005008981456456351 0.0040365415916783793 0 0.0050072853803945563 0.0040265665331359248 0 0.0050087340132787964 0.0040277860792332252 0 0.0069817587989879403 0.0034557043088095569 0 0.0084754465499130086 0.0031996702100872848 0 0.0065161959387186929 0.0033367501989156169 0 0.0069817587989879403 0.0034557043088095569 0 0.005008981456456351 0.0040365415916783793 0 0.0049686365257500332 0.0040357468493587871 0 0.0049889504565869928 0.0040430000983828545 0 0.0048191967661437218 0.0038173531009396697 0 0.0047403933411222744 0.0038773777115579571 0 0.0048155770441606332 0.0038959890957051824 0 0.003920364571402395 0.0039878018828531873 0 0.0032040708704824802 0.0042267114711190615 0 0.0047627643454699548 0.0039371605122436228 0 0.0047403933411222744 0.0038773777115579571 0 0.0048155770441606332 0.0038959890957051824 0 7.0346859176908039e-05 0.00594478213222742 0 0.0005222908697337785 0.0055780278080340782 0 0.00062692756235166816 0.0056982807305982789 0 0.002051619027295891 0.0039896492135237634 0 0.0017964026143855373 0.0045980783265930445 0 0.0014883750536134135 0.0045288898427787196 0 0.0033066926458254083 0.0047854440654500983 0 0.0032040708704824802 0.0042267114711190615 0 0.001000239123418394 0.0049209343215679095 0 0.0017964026143855373 0.0045980783265930445 0 0.0014883750536134135 0.0045288898427787196 0 0.0046824080532272905 0.003910307115248369 0 0.0047627643454699548 0.0039371605122436228 0 0.0047403933411222744 0.0038773777115579571 0 0.00097945691048283222 0.0054974500309671664 0 0.0005222908697337785 0.0055780278080340782 0 0.00062692756235166816 0.0056982807305982789 0 0.0033066926458254083 0.0047854440654500983 0 0.00079643075664409177 0.0052398193440815824 0 0.00515329408869302 0.0039364958710474919 0 0.0049875639485714206 0.0039916956614034424 0 0.0052253847864603678 0.0041051624112255882 0 0.0053292554192197975 0.0040241928020340973 0 0.00515329408869302 0.0039364958710474919 0 0.0052253847864603678 0.0041051624112255882 0 0.0051586770804089004 0.0037299838462531787 0 0.00515329408869302 0.0039364958710474919 0 0.0049111712643097787 0.0038219581290562525 0 0.00515329408869302 0.0039364958710474919 0 0.0049111712643097787 0.0038219581290562525 0 0.0049875639485714206 0.0039916956614034424 0 0.0049111712643097787 0.0038219581290562525 0 0.0049686365257500332 0.0040357468493587871 0 0.0049875639485714206 0.0039916956614034424 0 0.0050466063702573546 0.0037657469155367093 0 0.0045711361158722215 0.0041432369526542712 0 0.0048191967661437218 0.0038173531009396697 0 0.0049111712643097787 0.0038219581290562525 0 0.0048155770441606332 0.0038959890957051824 0 0.0049686365257500332 0.0040357468493587871 0 0.0049875639485714206 0.0039916956614034424 0 0.0049853012943697024 0.0040354998468755459 0 0.0049853012943697024 0.0040354998468755459 0 0.0050107313639010595 0.0040780689213605961 0 0.0050707987765463806 0.0041015764739440195 0 0.0049875639485714206 0.0039916956614034424 0 0.0049853012943697024 0.0040354998468755459 0 0.0050707987765463806 0.0041015764739440195 0 0.0049983963550322306 0.0040395143046215295 0 0.0050107313639010595 0.0040780689213605961 0 0.0049889504565869928 0.0040430000983828545 0 0.0049686365257500332 0.0040357468493587871 0 0.0049853012943697024 0.0040354998468755459 0 0.0049889504565869928 0.0040430000983828545 0 0.0049853012943697024 0.0040354998468755459 0 0.0050107313639010595 0.0040780689213605961 0 0.0049889504565869928 0.0040430000983828545 0 0.0069817587989879403 0.0034557043088095569 0 0.0046904818936095317 0.0038336947144277304 0 0.0049168184242158576 0.0041143541704478769 0 0.0050107313639010595 0.0040780689213605961 0 0.0050642596184314959 0.0041542913715824845 0 0.0069817587989879403 0.0034557043088095569 0 0.0048138623796110391 0.0041977757851033781 0 0.0050107313639010595 0.0040780689213605961 0 0.0050642596184314959 0.0041542913715824845 0 0.0050707987765463806 0.0041015764739440195 0 0.0050707987765463806 0.0041015764739440195 0 0.0052253847864603678 0.0041051624112255882 0 0.0051491309396124807 0.0041873820029091433 0 0.0050642596184314959 0.0041542913715824845 0 0.0050707987765463806 0.0041015764739440195 0 0.0051491309396124807 0.0041873820029091433 0 0.0049875639485714206 0.0039916956614034424 0 0.0050707987765463806 0.0041015764739440195 0 0.0052253847864603678 0.0041051624112255882 0 0.0053844104841192057 0.004202139204889906 0 0.0052253847864603678 0.0041051624112255882 0 0.0052600113684784459 0.0043700716035880126 0 0.0053844104841192057 0.004202139204889906 0 0.0054711619977457476 0.0043782228533017151 0 0.0052600113684784459 0.0043700716035880126 0 0.005305417303470332 0.0039881695804512424 0 0.005254046441355238 0.0048215731944747974 0 0.0054711619977457476 0.0043782228533017151 0 0.0052600113684784459 0.0043700716035880126 0 0.005418723797477959 0.0045396872326728252 0 0.0050642596184314959 0.0041542913715824845 0 0.0051491309396124807 0.0041873820029091433 0 0.0051403900652552612 0.0042527443313234783 0 0.005254046441355238 0.0048215731944747974 0 0.010959123639431361 0.0028869249381938472 0 0.0052600113684784459 0.0043700716035880126 0 0.005418723797477959 0.0045396872326728252 0 0.0052409764209462549 0.0045855423868676618 0 0.0069817587989879403 0.0034557043088095569 0 0.010959123639431361 0.0028869249381938472 0 0.0050084696822913543 0.0041325315425629157 0 0.0050642596184314959 0.0041542913715824845 0 0.0051403900652552612 0.0042527443313234783 0 0.013026219774813308 0.0012414399152562156 0 0.013008436264505137 0.0013490744825944692 0 0.012899442585761811 0.0011990102281006633 0 0.013017392699258654 0.0011436046918028965 0 0.012899442585761811 0.0011990102281006633 0 0.012998180069733944 0.0010445243594941443 0 0.010959123639431361 0.0028869249381938472 0 0.016445333643495749 0.0016305310971760382 0 0.013026219774813308 0.0012414399152562156 0 0.013017392699258654 0.0011436046918028965 0 0.012899442585761811 0.0011990102281006633 0 0.005418723797477959 0.0045396872326728252 0 0.0052409764209462549 0.0045855423868676618 0 0.005452754051349866 0.004792045443624781 0 0.018638255149488782 0.0034014231029277928 0 0.0183475500841426 0.0030544955767302681 0 0.018934913626654427 0.0028072128054058261 0 0.010959123639431361 0.0028869249381938472 0 0.012021435506711444 0.0040520634497609193 0 0.0183475500841426 0.0030544955767302681 0 0.01855141244674214 0.0024764548673736168 0 0.018934913626654427 0.0028072128054058261 0 0.018210857231734785 0.0020935399394590073 0 0.01855141244674214 0.0024764548673736168 0 0.018773260787874762 0.0019287710247255648 0 0.01855141244674214 0.0024764548673736168 0 0.019232664424582591 0.0021860989219027937 0 0.018773260787874762 0.0019287710247255648 0 0.016064896016755096 0.0015480311189516862 0 0.016445333643495749 0.0016305310971760382 0 0.01855141244674214 0.0024764548673736168 0 0.019232664424582591 0.0021860989219027937 0 0.018934913626654427 0.0028072128054058261 0 0.013091321544479397 0.00091208522967948559 0 0.012998180069733944 0.0010445243594941443 0 0.013110729952347929 0.0010391103307591078 0 0.013017392699258654 0.0011436046918028965 0 0.012998180069733944 0.0010445243594941443 0 0.013110729952347929 0.0010391103307591078 0 0.013110729952347929 0.0010391103307591078 0 0.013186126660325318 0.0010773761488066067 0 0.013186984541677564 0.00095040035378937606 0 0.013266428708997592 0.0010030818685928683 0 0.013186126660325318 0.0010773761488066067 0 0.013186984541677564 0.00095040035378937606 0 0.013266428708997592 0.0010030818685928683 0 0.013243659286235816 0.0011296721631117452 0 0.013186126660325318 0.0010773761488066067 0 0.013266428708997592 0.0010030818685928683 0 0.013186984541677564 0.00095040035378937606 0 0.013276846724895843 0.00088693139291160146 0 0.013186984541677564 0.00095040035378937606 0 0.013276846724895843 0.00088693139291160146 0 0.013213488224014329 0.00088037242282905143 0 0.013091321544479397 0.00091208522967948559 0 0.013186984541677564 0.00095040035378937606 0 0.013163063772075751 0.00087423504779947641 0 0.013091321544479397 0.00091208522967948559 0 0.013110729952347929 0.0010391103307591078 0 0.013186984541677564 0.00095040035378937606 0 0.013186984541677564 0.00095040035378937606 0 0.013163063772075751 0.00087423504779947641 0 0.013213488224014329 0.00088037242282905143 0 0.016064896016755096 0.0015480311189516862 0 0.016963135126174016 0.0017004724715356712 0 0.013091321544479397 0.00091208522967948559 0 0.013163063772075751 0.00087423504779947641 0 0.013171525752504173 0.0008051034160559185 0 0.013163063772075751 0.00087423504779947641 0 0.013213488224014329 0.00088037242282905143 0 0.013216082483151778 0.00084064767385969724 0 0.013163063772075751 0.00087423504779947641 0 0.013216082483151778 0.00084064767385969724 0 0.013171525752504173 0.0008051034160559185 0 0.013302381205591527 0.00081718295014922184 0 0.013216082483151778 0.00084064767385969724 0 0.013171525752504173 0.0008051034160559185 0 0.013302381205591527 0.00081718295014922184 0 0.013250709982100685 0.00085348327632317326 0 0.013216082483151778 0.00084064767385969724 0 0.013302381205591527 0.00081718295014922184 0 0.013276846724895843 0.00088693139291160146 0 0.013250709982100685 0.00085348327632317326 0 0.013276846724895843 0.00088693139291160146 0 0.013250709982100685 0.00085348327632317326 0 0.013213488224014329 0.00088037242282905143 0 0.013250709982100685 0.00085348327632317326 0 0.013213488224014329 0.00088037242282905143 0 0.013216082483151778 0.00084064767385969724 0 0.019586921888160864 0.0010028258261651232 0 0.019448733561025146 0.0014275954738444375 0 0.019490623423865802 0.0013223231914200782 0 0.019586921888160864 0.0010028258261651232 0 0.019525717450671512 0.0012346054264140301 0 0.019490623423865802 0.0013223231914200782 0 0.0162332463418953 0.0008269315393654214 0 0.016963135126174016 0.0017004724715356712 0 0.019586921888160864 0.0010028258261651232 0 0.019539998264078848 0.0012084981729903893 0 0.019525717450671512 0.0012346054264140301 0 0.019470017094918468 0.0012745565683029692 0 0.019539998264078848 0.0012084981729903893 0 0.019498328171900114 0.0012600779958187836 0 0.019470017094918468 0.0012745565683029692 0 0.019586921888160864 0.0010028258261651232 0 0.019539998264078848 0.0012084981729903893 0 0.019539998264078848 0.0012084981729903893 0 0.01952740898819199 0.0012447412683337868 0 0.019498328171900114 0.0012600779958187836 0 0.019539998264078848 0.0012084981729903893 0 0.019525717450671512 0.0012346054264140301 0 0.019524524155571071 0.0012417812463798349 0 0.019539998264078848 0.0012084981729903893 0 0.019524524155571071 0.0012417812463798349 0 0.01952740898819199 0.0012447412683337868 0 0.019525717450671512 0.0012346054264140301 0 0.01951599165294873 0.001265394886341312 0 0.019490623423865802 0.0013223231914200782 0 0.019524524155571071 0.0012417812463798349 0 0.01951599165294873 0.001265394886341312 0 0.01952740898819199 0.0012447412683337868 0 0.019525717450671512 0.0012346054264140301 0 0.019524524155571071 0.0012417812463798349 0 0.01951599165294873 0.001265394886341312 0 0.019519290658481167 0.0012300474524463733 0 0.01952740898819199 0.0012447412683337868 0 0.019508994590184313 0.0012493869712499408 0 0.01951599165294873 0.001265394886341312 0 0.019519290658481167 0.0012300474524463733 0 0.019492752208139341 0.001263324123589829 0 0.01951599165294873 0.001265394886341312 0 0.019519290658481167 0.0012300474524463733 0 0.01952740898819199 0.0012447412683337868 0 0.019458517758565441 0.0012876042076423128 0 0.019508994590184313 0.0012493869712499408 0 0.019498328171900114 0.0012600779958187836 0 0.01952740898819199 0.0012447412683337868 0 0.019508994590184313 0.0012493869712499408 0 0.019498328171900114 0.0012600779958187836 0 0.019459945748093659 0.0013609414484373797 0 0.019429515294132119 0.0013392554184874727 0 0.019448733561025146 0.0014275954738444375 0 0.019459945748093659 0.0013609414484373797 0 0.019457264441342149 0.0013903455985102048 0 0.019470400936957906 0.0013657906357342439 0 0.019459945748093659 0.0013609414484373797 0 0.019429515294132119 0.0013392554184874727 0 0.019469869946462496 0.001324464375619624 0 0.019429515294132119 0.0013392554184874727 0 0.01936890229622874 0.0013689087762450926 0 0.019448733561025146 0.0014275954738444375 0 0.019459945748093659 0.0013609414484373797 0 0.019448733561025146 0.0014275954738444375 0 0.019457264441342149 0.0013903455985102048 0 0.019448733561025146 0.0014275954738444375 0 0.019457264441342149 0.0013903455985102048 0 0.019470400936957906 0.0013657906357342439 0 0.019448733561025146 0.0014275954738444375 0 0.019470400936957906 0.0013657906357342439 0 0.019490623423865802 0.0013223231914200782 0 0.01951599165294873 0.001265394886341312 0 0.019490623423865802 0.0013223231914200782 0 0.019491949237305631 0.0013001684894796051 0 0.019459945748093659 0.0013609414484373797 0 0.019482473148058919 0.0013287359182807712 0 0.019469869946462496 0.001324464375619624 0 0.019459945748093659 0.0013609414484373797 0 0.019470400936957906 0.0013657906357342439 0 0.019482473148058919 0.0013287359182807712 0 0.019470400936957906 0.0013657906357342439 0 0.019490623423865802 0.0013223231914200782 0 0.019482473148058919 0.0013287359182807712 0 0.019490623423865802 0.0013223231914200782 0 0.019491949237305631 0.0013001684894796051 0 0.019482473148058919 0.0013287359182807712 0 0.019491949237305631 0.0013001684894796051 0 0.019482473148058919 0.0013287359182807712 0 0.019469869946462496 0.001324464375619624 0 0.019469869946462496 0.001324464375619624 0 0.019492752208139341 0.001263324123589829 0 0.019454835965432526 0.0012878990774537196 0 0.019491949237305631 0.0013001684894796051 0 0.019469869946462496 0.001324464375619624 0 0.019492752208139341 0.001263324123589829 0 0.01951599165294873 0.001265394886341312 0 0.019491949237305631 0.0013001684894796051 0 0.019492752208139341 0.001263324123589829 0 0.019519290658481167 0.0012300474524463733 0 0.019492752208139341 0.001263324123589829 0 0.019492357731139252 0.0012068573584381203 0 0.019492752208139341 0.001263324123589829 0 0.019460715408412547 0.0012413006007963849 0 0.019454835965432526 0.0012878990774537196 0 0.019492752208139341 0.001263324123589829 0 0.019460715408412547 0.0012413006007963849 0 0.019492357731139252 0.0012068573584381203 0 0.019460715408412547 0.0012413006007963849 0 0.01940525155099013 0.001270353266247373 0 0.019443036464527878 0.0011798698315081293 0 0.019460715408412547 0.0012413006007963849 0 0.019454835965432526 0.0012878990774537196 0 0.01940525155099013 0.001270353266247373 0 0.019429515294132119 0.0013392554184874727 0 0.019454835965432526 0.0012878990774537196 0 0.01940525155099013 0.001270353266247373 0 0.019429515294132119 0.0013392554184874727 0 0.019469869946462496 0.001324464375619624 0 0.019454835965432526 0.0012878990774537196 0 0.019429515294132119 0.0013392554184874727 0 0.01936890229622874 0.0013689087762450926 0 0.01940525155099013 0.001270353266247373 0 0.01936890229622874 0.0013689087762450926 0 0.019266756264344192 0.0012500048669273408 0 0.019195836000315221 0.001513726466684033 0 0.01936890229622874 0.0013689087762450926 0 0.01940525155099013 0.001270353266247373 0 0.019266756264344192 0.0012500048669273408 0 0.016963135126174016 0.0017004724715356712 0 0.019590920479629605 0.0016988933674388629 0 0.01936890229622874 0.0013689087762450926 0 0.019448733561025146 0.0014275954738444375 0 0.019195836000315221 0.001513726466684033 0 0.019195836000315221 0.001513726466684033 0 0.018927719137940658 0.0012644954926204841 0 0.018834521251821425 0.0015497667375764074 0 0.019266756264344192 0.0012500048669273408 0 0.019195836000315221 0.001513726466684033 0 0.018927719137940658 0.0012644954926204841 0 0.018420946767054077 0.001505058443796839 0 0.018927719137940658 0.0012644954926204841 0 0.018834521251821425 0.0015497667375764074 0 0.018420946767054077 0.001505058443796839 0 0.018210857231734785 0.0020935399394590073 0 0.018773260787874762 0.0019287710247255648 0 0.018420946767054077 0.001505058443796839 0 0.018834521251821425 0.0015497667375764074 0 0.018773260787874762 0.0019287710247255648 0 0.019232664424582591 0.0021860989219027937 0 0.019490892253735698 0.0015559146536869384 0 0.019195836000315221 0.001513726466684033 0 0.019232664424582591 0.0021860989219027937 0 0.019195836000315221 0.001513726466684033 0 0.018773260787874762 0.0019287710247255648 0 0.019195836000315221 0.001513726466684033 0 0.018834521251821425 0.0015497667375764074 0 0.018773260787874762 0.0019287710247255648 0 0.019620315865414711 0.00019783218062100201 0 0.019327471231888868 0.0010190878152978404 0 0.020052238772037486 -4.1078182651913487e-05 0 0.019327471231888868 0.0010190878152978404 0 0.019420213053716346 0.00099939735077777354 0 0.019413489294455299 0.00090002966920559513 0 0.019379659582144763 0.00097454123156486699 0 0.019710890649305153 0.00044231440255192996 0 0.019620315865414711 0.00019783218062100201 0 0.019100682600960522 0.00036749617070015462 0 0.019327471231888868 0.0010190878152978404 0 0.019100682600960522 0.00036749617070015462 0 0.018986714000667902 0.00092549025779051588 0 0.019327471231888868 0.0010190878152978404 0 0.027074898656245187 0.00021516410425899253 0 0.019161860033771003 0.00068043152287796467 0 0.020371989826977216 -0.00045998682647521434 0 0.020537399020209499 -0.00038617243104775581 0 0.020335197751997606 -0.00020541000301073161 0 0.020371989826977216 -0.00045998682647521434 0 0.020541206781673746 -0.00042056210284801323 0 0.020630174879225471 -0.00072019709757399446 0 0.020569432281744598 -0.00039399018858241893 0 0.020541206781673746 -0.00042056210284801323 0 0.020630174879225471 -0.00072019709757399446 0 0.020371989826977216 -0.00045998682647521434 0 0.020537399020209499 -0.00038617243104775581 0 0.020541206781673746 -0.00042056210284801323 0 0.025446926660834219 -0.0001153748910570152 0 0.025320395073876768 -9.5625806404230982e-05 0 0.027074898656245187 0.00021516410425899253 0 0.025446926660834219 -0.0001153748910570152 0 0.020569432281744598 -0.00039399018858241893 0 0.020542809776946072 -0.0003935388568326114 0 0.020541206781673746 -0.00042056210284801323 0 0.019100682600960522 0.00036749617070015462 0 0.018986714000667902 0.00092549025779051588 0 0.018594229756382436 0.00093797346645658889 0 0.019842967012723856 -0.00013018994490225828 0 0.019161860033771003 0.00068043152287796467 0 0.018420946767054077 0.001505058443796839 0 0.018927719137940658 0.0012644954926204841 0 0.018594229756382436 0.00093797346645658889 0 0.018927719137940658 0.0012644954926204841 0 0.018986714000667902 0.00092549025779051588 0 0.018594229756382436 0.00093797346645658889 0 0.019266756264344192 0.0012500048669273408 0 0.018927719137940658 0.0012644954926204841 0 0.019327471231888868 0.0010190878152978404 0 0.018927719137940658 0.0012644954926204841 0 0.018986714000667902 0.00092549025779051588 0 0.019327471231888868 0.0010190878152978404 0 0.019327471231888868 0.0010190878152978404 0 0.019363285942336404 0.0011274851561531966 0 0.01941201597845902 0.0010707940691499773 0 0.019327471231888868 0.0010190878152978404 0 0.01941201597845902 0.0010707940691499773 0 0.019420213053716346 0.00099939735077777354 0 0.01940525155099013 0.001270353266247373 0 0.019266756264344192 0.0012500048669273408 0 0.019363285942336404 0.0011274851561531966 0 0.019266756264344192 0.0012500048669273408 0 0.019327471231888868 0.0010190878152978404 0 0.019363285942336404 0.0011274851561531966 0 0.01940525155099013 0.001270353266247373 0 0.019363285942336404 0.0011274851561531966 0 0.019443036464527878 0.0011798698315081293 0 0.019363285942336404 0.0011274851561531966 0 0.019443036464527878 0.0011798698315081293 0 0.01941201597845902 0.0010707940691499773 0 0.019443036464527878 0.0011798698315081293 0 0.019492357731139252 0.0012068573584381203 0 0.019462786916583777 0.0011174603869730955 0 0.019460715408412547 0.0012413006007963849 0 0.019443036464527878 0.0011798698315081293 0 0.019492357731139252 0.0012068573584381203 0 0.019492357731139252 0.0012068573584381203 0 0.019462786916583777 0.0011174603869730955 0 0.019506266476356789 0.0011573029332794635 0 0.019462786916583777 0.0011174603869730955 0 0.01941201597845902 0.0010707940691499773 0 0.019479328233915898 0.001052748582020379 0 0.019462786916583777 0.0011174603869730955 0 0.019506266476356789 0.0011573029332794635 0 0.019479328233915898 0.001052748582020379 0 0.019443036464527878 0.0011798698315081293 0 0.019462786916583777 0.0011174603869730955 0 0.01941201597845902 0.0010707940691499773 0 0.019519290658481167 0.0012300474524463733 0 0.019508994590184313 0.0012493869712499408 0 0.019533452673927022 0.001192551734270151 0 0.019458517758565441 0.0012876042076423128 0 0.019508994590184313 0.0012493869712499408 0 0.019533452673927022 0.001192551734270151 0 0.019519290658481167 0.0012300474524463733 0 0.019533452673927022 0.001192551734270151 0 0.019506266476356789 0.0011573029332794635 0 0.019519290658481167 0.0012300474524463733 0 0.019492357731139252 0.0012068573584381203 0 0.019506266476356789 0.0011573029332794635 0 0.019506266476356789 0.0011573029332794635 0 0.019528757611313289 0.0010980189790135474 0 0.019479328233915898 0.001052748582020379 0 0.019533452673927022 0.001192551734270151 0 0.019506266476356789 0.0011573029332794635 0 0.019528757611313289 0.0010980189790135474 0 0.019533452673927022 0.001192551734270151 0 0.019528757611313289 0.0010980189790135474 0 0.019582194431316074 0.0010755410019382588 0 0.019533452673927022 0.001192551734270151 0 0.019582194431316074 0.0010755410019382588 0 0.019637142045246084 0.0011375630529778039 0 0.019528757611313289 0.0010980189790135474 0 0.019548250878194215 0.0010075201791451781 0 0.019479328233915898 0.001052748582020379 0 0.019528757611313289 0.0010980189790135474 0 0.019582194431316074 0.0010755410019382588 0 0.019548250878194215 0.0010075201791451781 0 0.019548250878194215 0.0010075201791451781 0 0.019488128505625524 0.00095802436698439581 0 0.019575642316040559 0.0009096024235082619 0 0.019582194431316074 0.0010755410019382588 0 0.019548250878194215 0.0010075201791451781 0 0.019681256921825874 0.0009411476965708993 0 0.019548250878194215 0.0010075201791451781 0 0.019575642316040559 0.0009096024235082619 0 0.019681256921825874 0.0009411476965708993 0 0.01941201597845902 0.0010707940691499773 0 0.019420213053716346 0.00099939735077777354 0 0.019479328233915898 0.001052748582020379 0 0.019420213053716346 0.00099939735077777354 0 0.019479328233915898 0.001052748582020379 0 0.019488128505625524 0.00095802436698439581 0 0.019548250878194215 0.0010075201791451781 0 0.019479328233915898 0.001052748582020379 0 0.019488128505625524 0.00095802436698439581 0 0.019420213053716346 0.00099939735077777354 0 0.019488128505625524 0.00095802436698439581 0 0.019413489294455299 0.00090002966920559513 0 0.019413489294455299 0.00090002966920559513 0 0.019540197595690683 0.0008388403899965164 0 0.019595041504486096 0.00063578656996626153 0 0.020052238772037486 -4.1078182651913487e-05 0 0.020009886915165705 0.00011387316452052406 0 0.020023745953994709 -0.00010228376564949026 0 0.019488128505625524 0.00095802436698439581 0 0.019413489294455299 0.00090002966920559513 0 0.019540197595690683 0.0008388403899965164 0 0.019488128505625524 0.00095802436698439581 0 0.019540197595690683 0.0008388403899965164 0 0.019575642316040559 0.0009096024235082619 0 0.019629320278120928 0.00077417328217011135 0 0.019759214194446803 0.00071491396310466619 0 0.019681256921825874 0.0009411476965708993 0 0.019575642316040559 0.0009096024235082619 0 0.019629320278120928 0.00077417328217011135 0 0.019681256921825874 0.0009411476965708993 0 0.019540197595690683 0.0008388403899965164 0 0.019575642316040559 0.0009096024235082619 0 0.019629320278120928 0.00077417328217011135 0 0.019629320278120928 0.00077417328217011135 0 0.019595041504486096 0.00063578656996626153 0 0.019759214194446803 0.00071491396310466619 0 0.019595041504486096 0.00063578656996626153 0 0.019795010900956506 0.00057166565742705329 0 0.019759214194446803 0.00071491396310466619 0 0.019540197595690683 0.0008388403899965164 0 0.019629320278120928 0.00077417328217011135 0 0.019595041504486096 0.00063578656996626153 0 0.019710890649305153 0.00044231440255192996 0 0.01981077497631992 0.00038666317225581723 0 0.020009886915165705 0.00011387316452052406 0 0.020186427916890352 9.4388932593362132e-05 0 0.020023745953994709 -0.00010228376564949026 0 0.020009886915165705 0.00011387316452052406 0 0.020186427916890352 9.4388932593362132e-05 0 0.020278521596776053 0.00025961318472737956 0 0.020186427916890352 9.4388932593362132e-05 0 0.020292523599990391 -4.7776550507193057e-06 0 0.020439055370139809 0.0001609054305151335 0 0.020186427916890352 9.4388932593362132e-05 0 0.020439055370139809 0.0001609054305151335 0 0.020278521596776053 0.00025961318472737956 0 0.020186427916890352 9.4388932593362132e-05 0 0.020292523599990391 -4.7776550507193057e-06 0 0.020023745953994709 -0.00010228376564949026 0 0.020292523599990391 -4.7776550507193057e-06 0 0.020023745953994709 -0.00010228376564949026 0 0.020335197751997606 -0.00020541000301073161 0 0.019842967012723856 -0.00013018994490225828 0 0.019913414299970806 -5.4590453295931631e-05 0 0.020371989826977216 -0.00045998682647521434 0 0.020023745953994709 -0.00010228376564949026 0 0.020335197751997606 -0.00020541000301073161 0 0.019620315865414711 0.00019783218062100201 0 0.019100682600960522 0.00036749617070015462 0 0.020023745953994709 -0.00010228376564949026 0 0.019620315865414711 0.00019783218062100201 0 0.020052238772037486 -4.1078182651913487e-05 0 0.020023745953994709 -0.00010228376564949026 0 0.02688893094676616 0.00054626952396005356 0 0.026919134476041936 0.00054357359850322625 0 0.026961159143072538 0.00024661995521501126 0 0.035073172882569344 0.0013985690937323785 0 0.035062099994909959 0.001421116525589272 0 0.035136562974459204 0.0013862554266764549 0 0.025446926660834219 -0.0001153748910570152 0 0.027569080677118114 0.00052989912607696095 0 0.020537399020209499 -0.00038617243104775581 0 0.020335197751997606 -0.00020541000301073161 0 0.020482905880196668 -5.673890377557954e-05 0 0.027074898656245187 0.00021516410425899253 0 0.027569080677118114 0.00052989912607696095 0 0.020292523599990391 -4.7776550507193057e-06 0 0.020335197751997606 -0.00020541000301073161 0 0.020482905880196668 -5.673890377557954e-05 0 0.035113716153110708 0.0013330443543731264 0 0.035136562974459204 0.0013862554266764549 0 0.035233172150384996 0.0013057636192999478 0 0.027569080677118114 0.00052989912607696095 0 0.027627400567388855 0.00073844458032111136 0 0.020292523599990391 -4.7776550507193057e-06 0 0.020482905880196668 -5.673890377557954e-05 0 0.020439055370139809 0.0001609054305151335 0 0.035233172150384996 0.0013057636192999478 0 0.035258829908175825 0.0011960775894435611 0 0.035384484677320638 0.0010754572312525149 0 0.027627400567388855 0.00073844458032111136 0 0.030100036552713091 0.0010063008059070962 0 0.035113716153110708 0.0013330443543731264 0 0.035233172150384996 0.0013057636192999478 0 0.035258829908175825 0.0011960775894435611 0 0.020439055370139809 0.0001609054305151335 0 0.020278521596776053 0.00025961318472737956 0 0.020483309079833697 0.00045632307123050323 0 0.035384484677320638 0.0010754572312525149 0 0.035364117714326397 0.0010166997776188131 0 0.035334471034656707 0.0009040928682567085 0 0.02026931716994974 0.00057898020787636346 0 0.020483309079833697 0.00045632307123050323 0 0.020146961718858766 0.00042390440240926402 0 0.020278521596776053 0.00025961318472737956 0 0.020483309079833697 0.00045632307123050323 0 0.020146961718858766 0.00042390440240926402 0 0.035258719708291378 0.0011112853030592798 0 0.035258829908175825 0.0011960775894435611 0 0.035303757970136525 0.0011122589768859999 0 0.035258719708291378 0.0011112853030592798 0 0.035303757970136525 0.0011122589768859999 0 0.035320741149960574 0.0010441935605331851 0 0.035384484677320638 0.0010754572312525149 0 0.035303757970136525 0.0011122589768859999 0 0.035338037784304006 0.0010634250363579277 0 0.035258829908175825 0.0011960775894435611 0 0.035384484677320638 0.0010754572312525149 0 0.035303757970136525 0.0011122589768859999 0 0.035384484677320638 0.0010754572312525149 0 0.035338037784304006 0.0010634250363579277 0 0.035356111298292255 0.0010440915007622247 0 0.035303757970136525 0.0011122589768859999 0 0.035338037784304006 0.0010634250363579277 0 0.035320741149960574 0.0010441935605331851 0 0.035347479346435319 0.0010245085397742925 0 0.035320741149960574 0.0010441935605331851 0 0.035353943538765892 0.00096085541850236659 0 0.035338037784304006 0.0010634250363579277 0 0.035347479346435319 0.0010245085397742925 0 0.035356111298292255 0.0010440915007622247 0 0.035338037784304006 0.0010634250363579277 0 0.035347479346435319 0.0010245085397742925 0 0.035320741149960574 0.0010441935605331851 0 0.035384484677320638 0.0010754572312525149 0 0.035356111298292255 0.0010440915007622247 0 0.035364117714326397 0.0010166997776188131 0 0.035347479346435319 0.0010245085397742925 0 0.035356111298292255 0.0010440915007622247 0 0.035364117714326397 0.0010166997776188131 0 0.035347479346435319 0.0010245085397742925 0 0.035364117714326397 0.0010166997776188131 0 0.035355163165738113 0.00099044482553841957 0 0.035347479346435319 0.0010245085397742925 0 0.035355163165738113 0.00099044482553841957 0 0.035353943538765892 0.00096085541850236659 0 0.035314080292516571 0.0010089172247787859 0 0.035258719708291378 0.0011112853030592798 0 0.035320741149960574 0.0010441935605331851 0 0.035314080292516571 0.0010089172247787859 0 0.035320741149960574 0.0010441935605331851 0 0.035353943538765892 0.00096085541850236659 0 0.035364117714326397 0.0010166997776188131 0 0.035355029207931529 0.0009651812521429007 0 0.035334471034656707 0.0009040928682567085 0 0.035314080292516571 0.0010089172247787859 0 0.035466352470674735 0.0008833065478581854 0 0.035353943538765892 0.00096085541850236659 0 0.035466352470674735 0.0008833065478581854 0 0.035370104449161652 0.00090585625387733227 0 0.035353943538765892 0.00096085541850236659 0 0.029843570033151107 0.00023569788391100043 0 0.03721205997322103 0.00097067947510161062 0 0.035351970031478525 0.00093413059455284861 0 0.035355029207931529 0.0009651812521429007 0 0.035334471034656707 0.0009040928682567085 0 0.035334471034656707 0.0009040928682567085 0 0.035324164167802208 0.00090115082712901402 0 0.035396345165624274 0.00096428647291690167 0 0.035370104449161652 0.00090585625387733227 0 0.035334471034656707 0.0009040928682567085 0 0.035396345165624274 0.00096428647291690167 0 0.035370104449161652 0.00090585625387733227 0 0.035351970031478525 0.00093413059455284861 0 0.035334471034656707 0.0009040928682567085 0 0.035370104449161652 0.00090585625387733227 0 0.035351970031478525 0.00093413059455284861 0 0.03535591017209469 0.00094374649564577722 0 0.035351970031478525 0.00093413059455284861 0 0.03535591017209469 0.00094374649564577722 0 0.035355029207931529 0.0009651812521429007 0 0.035370104449161652 0.00090585625387733227 0 0.03535591017209469 0.00094374649564577722 0 0.035353943538765892 0.00096085541850236659 0 0.03535591017209469 0.00094374649564577722 0 0.035353943538765892 0.00096085541850236659 0 0.035355029207931529 0.0009651812521429007 0 0.035355163165738113 0.00099044482553841957 0 0.035353943538765892 0.00096085541850236659 0 0.035355029207931529 0.0009651812521429007 0 0.035364117714326397 0.0010166997776188131 0 0.035355163165738113 0.00099044482553841957 0 0.035355029207931529 0.0009651812521429007 0 0.033057638338050838 -0.0038592884289384375 0 0.033071807059010874 -0.003904925389607869 0 0.033429488062248616 -0.0039229034931588785 0 0.030100036552713091 0.0010063008059070962 0 0.029843570033151107 0.00023569788391100043 0 0.034956818027699725 0.00090025493600864068 0 0.035334471034656707 0.0009040928682567085 0 0.035324164167802208 0.00090115082712901402 0 0.02026931716994974 0.00057898020787636346 0 0.020483309079833697 0.00045632307123050323 0 0.020513191569255598 0.00087768023268472786 0 0.030100036552713091 0.0010063008059070962 0 0.036158655202252303 0.00082606935188593003 0 0.029843570033151107 0.00023569788391100043 0 0.035455947245154433 -0.00097279269778031551 0 0.039438064418140732 0.00013882717290314195 0 0.03938728247840189 4.1205118926856952e-05 0 0.039390329988365468 -0.00019037798696894322 0 0.032542498062969057 -0.0004736193173918025 0 0.032283923257717811 0.00090164632488812344 0 0.036586856047851606 0.0013683411053796121 0 0.03938728247840189 4.1205118926856952e-05 0 0.039439492401580081 0.00014992449626821761 0 0.039390329988365468 -0.00019037798696894322 0 0.035455947245154433 -0.00097279269778031551 0 0.039273344844779755 -0.00030747039922600323 0 0.039542494961961362 -0.0010124872069535295 0 0.038922134106972366 -0.00074763529418731434 0 0.039390329988365468 -0.00019037798696894322 0 0.03938728247840189 4.1205118926856952e-05 0 0.039375828294569939 0.00013544263852255942 0 0.039439492401580081 0.00014992449626821761 0 0.039402628155319676 0.00037203246969041011 0 0.039375828294569939 0.00013544263852255942 0 0.039439492401580081 0.00014992449626821761 0 0.0356356368289431 0.0010024722252814117 0 0.035370104449161652 0.00090585625387733227 0 0.035396345165624274 0.00096428647291690167 0 0.0356356368289431 0.0010024722252814117 0 0.035466352470674735 0.0008833065478581854 0 0.035370104449161652 0.00090585625387733227 0 0.037461804307114051 0.00068144541902758198 0 0.03721205997322103 0.00097067947510161062 0 0.035455947245154433 -0.00097279269778031551 0 0.03721205997322103 0.00097067947510161062 0 0.039438064418140732 0.00013882717290314195 0 0.03938728247840189 4.1205118926856952e-05 0 0.039375828294569939 0.00013544263852255942 0 0.038384314958130279 -0.0007776459047526196 0 0.037617800317166127 -0.00072432220296053229 0 0.0385770725432786 -0.00039000090073564991 0 0.038384314958130279 -0.0007776459047526196 0 0.038394934203029217 -0.0013707797786048296 0 0.037617800317166127 -0.00072432220296053229 0 0.038384314958130279 -0.0007776459047526196 0 0.038922134106972366 -0.00074763529418731434 0 0.038921120352339397 -0.00038658953757111003 0 0.039542494961961362 -0.0010124872069535295 0 0.038922134106972366 -0.00074763529418731434 0 0.038394934203029217 -0.0013707797786048296 0 0.038922134106972366 -0.00074763529418731434 0 0.038921120352339397 -0.00038658953757111003 0 0.039390329988365468 -0.00019037798696894322 0 0.038384314958130279 -0.0007776459047526196 0 0.038922134106972366 -0.00074763529418731434 0 0.038394934203029217 -0.0013707797786048296 0 0.033057638338050838 -0.0038592884289384375 0 0.033429488062248616 -0.0039229034931588785 0 0.033366830270428353 -0.0037886124486325159 0 0.02026931716994974 0.00057898020787636346 0 0.020513191569255598 0.00087768023268472786 0 0.019925318423369941 0.00057858752932850668 0 0.029843570033151107 0.00023569788391100043 0 0.025933960896345178 -0.0019960566935271137 0 0.035455947245154433 -0.00097279269778031551 0 0.036083004066591665 -0.0028549645817872718 0 0.033429488062248616 -0.0039229034931588785 0 0.033366830270428353 -0.0037886124486325159 0 0.033570072013543846 -0.0038472136368183645 0 0.025933960896345178 -0.0019960566935271137 0 0.026952955554332466 -0.0015840996636949331 0 0.033366830270428353 -0.0037886124486325159 0 0.033680560080793474 -0.0038118557337946386 0 0.033570072013543846 -0.0038472136368183645 0 0.019881997703123714 0.00052288159370998297 0 0.019925318423369941 0.00057858752932850668 0 0.019881732428455413 0.00048777776488529394 0 0.019881997703123714 0.00052288159370998297 0 0.020146961718858766 0.00042390440240926402 0 0.019925318423369941 0.00057858752932850668 0 0.02026931716994974 0.00057898020787636346 0 0.020146961718858766 0.00042390440240926402 0 0.019925318423369941 0.00057858752932850668 0 0.020009886915165705 0.00011387316452052406 0 0.019881997703123714 0.00052288159370998297 0 0.020146961718858766 0.00042390440240926402 0 0.020009886915165705 0.00011387316452052406 0 0.020278521596776053 0.00025961318472737956 0 0.020146961718858766 0.00042390440240926402 0 0.019881997703123714 0.00052288159370998297 0 0.019795010900956506 0.00057166565742705329 0 0.019881732428455413 0.00048777776488529394 0 0.01981077497631992 0.00038666317225581723 0 0.019857134587762258 0.00051808424886792674 0 0.019595041504486096 0.00063578656996626153 0 0.019881997703123714 0.00052288159370998297 0 0.019795010900956506 0.00057166565742705329 0 0.019795010900956506 0.00057166565742705329 0 0.019881732428455413 0.00048777776488529394 0 0.019935990197740942 0.00061904132346992475 0 0.019881732428455413 0.00048777776488529394 0 0.020159052838275189 0.00054448905713151588 0 0.019935990197740942 0.00061904132346992475 0 0.026952955554332466 -0.0015840996636949331 0 0.026844451842877249 -0.0018651574831165107 0 0.033702886769922676 -0.0038844819559782163 0 0.033680560080793474 -0.0038118557337946386 0 0.033739437214469835 -0.0042208190806535513 0 0.033702886769922676 -0.0038844819559782163 0 0.033680560080793474 -0.0038118557337946386 0 0.033693369609850699 -0.00384516859236564 0 0.033702886769922676 -0.0038844819559782163 0 0.03373253158369964 -0.003867512012899952 0 0.033655930124116537 -0.0038328597052558664 0 0.033702886769922676 -0.0038844819559782163 0 0.033693369609850699 -0.00384516859236564 0 0.03373253158369964 -0.003867512012899952 0 0.033680560080793474 -0.0038118557337946386 0 0.033693369609850699 -0.00384516859236564 0 0.033570072013543846 -0.0038472136368183645 0 0.038394934203029217 -0.0013707797786048296 0 0.03702500730244692 -0.0017454957868430945 0 0.037617800317166127 -0.00072432220296053229 0 0.033429488062248616 -0.0039229034931588785 0 0.033570072013543846 -0.0038472136368183645 0 0.03373253158369964 -0.003867512012899952 0 0.036083004066591665 -0.0028549645817872718 0 0.035306812928872319 -0.0027583411422921885 0 0.033693369609850699 -0.00384516859236564 0 0.033570072013543846 -0.0038472136368183645 0 0.03373253158369964 -0.003867512012899952 0 0.03702500730244692 -0.0017454957868430945 0 0.03652927904752145 -0.0013523932674374697 0 0.037617800317166127 -0.00072432220296053229 0 0.03702500730244692 -0.0017454957868430945 0 0.03652927904752145 -0.0013523932674374697 0 0.035364411290937349 -0.0021298929913389211 0 0.036778923596395466 -0.0021219134573795778 0 0.036289239540501887 -0.0016531964613119422 0 0.036698743415194669 -0.001041743854115361 0 0.036793433344338974 -0.001666808187713605 0 0.037640431957168957 -0.0010163481733725414 0 0.036778923596395466 -0.0021219134573795778 0 0.037741147494544901 -0.0012473788134892039 0 0.036698743415194669 -0.001041743854115361 0 0.035006640437610897 -0.00177075768331717 0 0.034212643946567534 -0.0014271598026740732 0 0.034229632025565955 -0.0022177920167787994 0 0.035006640437610897 -0.00177075768331717 0 0.034212643946567534 -0.0014271598026740732 0 0.035126093973395306 -0.0011168193191123681 0 0.034212643946567534 -0.0014271598026740732 0 0.035126093973395306 -0.0011168193191123681 0 0.034766723917591502 -0.00050260368929796442 0 0.035006640437610897 -0.00177075768331717 0 0.035126093973395306 -0.0011168193191123681 0 0.03580620432243431 -0.0013635602324420545 0 0.035126093973395306 -0.0011168193191123681 0 0.03580620432243431 -0.0013635602324420545 0 0.035823817326738838 -0.00068334301031477279 0 0.03580620432243431 -0.0013635602324420545 0 0.036289239540501887 -0.0016531964613119422 0 0.036698743415194669 -0.001041743854115361 0 0.03580620432243431 -0.0013635602324420545 0 0.036289239540501887 -0.0016531964613119422 0 0.035721838963788374 -0.0021099275091132647 0 0.036778923596395466 -0.0021219134573795778 0 0.036289239540501887 -0.0016531964613119422 0 0.035721838963788374 -0.0021099275091132647 0 0.035006640437610897 -0.00177075768331717 0 0.03580620432243431 -0.0013635602324420545 0 0.035721838963788374 -0.0021099275091132647 0 0.03373253158369964 -0.003867512012899952 0 0.033655930124116537 -0.0038328597052558664 0 0.033555902032820779 -0.0037234922999644254 0 0.036793433344338974 -0.001666808187713605 0 0.034555597908741124 -0.0030441129830099216 0 0.035306812928872319 -0.0027583411422921885 0 0.034555597908741124 -0.0030441129830099216 0 0.036778923596395466 -0.0021219134573795778 0 0.035721838963788374 -0.0021099275091132647 0 0.035310403372936824 -0.0032916871490162331 0 0.035721838963788374 -0.0021099275091132647 0 0.03490291506557279 -0.002455970318682802 0 0.035310403372936824 -0.0032916871490162331 0 0.03490291506557279 -0.002455970318682802 0 0.03414550823729566 -0.002849281614543018 0 0.035310403372936824 -0.0032916871490162331 0 0.03414550823729566 -0.002849281614543018 0 0.035310403372936824 -0.0032916871490162331 0 0.033303005854694846 -0.0034930864432908626 0 0.035006640437610897 -0.00177075768331717 0 0.03490291506557279 -0.002455970318682802 0 0.034229632025565955 -0.0022177920167787994 0 0.035006640437610897 -0.00177075768331717 0 0.035721838963788374 -0.0021099275091132647 0 0.03490291506557279 -0.002455970318682802 0 0.03490291506557279 -0.002455970318682802 0 0.034229632025565955 -0.0022177920167787994 0 0.03414550823729566 -0.002849281614543018 0 0.033458772503514013 -0.0037095043559656755 0 0.033337580972165042 -0.0037403049736697146 0 0.033303005854694846 -0.0034930864432908626 0 0.033458772503514013 -0.0037095043559656755 0 0.033510132598428728 -0.003752144068606281 0 0.033303005854694846 -0.0034930864432908626 0 0.034555597908741124 -0.0030441129830099216 0 0.033337527516916585 -0.0035775042406184583 0 0.033458772503514013 -0.0037095043559656755 0 0.03346927334177454 -0.0038021759053382806 0 0.033555902032820779 -0.0037234922999644254 0 0.033887319709718484 -0.0034724604481099451 0 0.034555597908741124 -0.0030441129830099216 0 0.033458772503514013 -0.0037095043559656755 0 0.03346927334177454 -0.0038021759053382806 0 0.033337580972165042 -0.0037403049736697146 0 0.03346927334177454 -0.0038021759053382806 0 0.033337580972165042 -0.0037403049736697146 0 0.033365034228692053 -0.0040374761775155707 0 0.03346927334177454 -0.0038021759053382806 0 0.033600000806613753 -0.0039076295164450665 0 0.033365034228692053 -0.0040374761775155707 0 0.033337580972165042 -0.0037403049736697146 0 0.033365034228692053 -0.0040374761775155707 0 0.032803661618920552 -0.0039631005598469472 0 0.03346927334177454 -0.0038021759053382806 0 0.033555902032820779 -0.0037234922999644254 0 0.033600000806613753 -0.0039076295164450665 0 0.033655930124116537 -0.0038328597052558664 0 0.033555902032820779 -0.0037234922999644254 0 0.033600000806613753 -0.0039076295164450665 0 0.033702886769922676 -0.0038844819559782163 0 0.033655930124116537 -0.0038328597052558664 0 0.033600000806613753 -0.0039076295164450665 0 0.033600000806613753 -0.0039076295164450665 0 0.033739437214469835 -0.0042208190806535513 0 0.033365034228692053 -0.0040374761775155707 0 0.033702886769922676 -0.0038844819559782163 0 0.033600000806613753 -0.0039076295164450665 0 0.033739437214469835 -0.0042208190806535513 0 0.033739437214469835 -0.0042208190806535513 0 0.033365034228692053 -0.0040374761775155707 0 0.033021228707994475 -0.0044747319506740465 0 0.033365034228692053 -0.0040374761775155707 0 0.033021228707994475 -0.0044747319506740465 0 0.032803661618920552 -0.0039631005598469472 0 0.020159052838275189 0.00054448905713151588 0 0.020219066694750161 0.00087210962022920635 0 0.020486694117869395 0.00066340919595631227 0 0.033739437214469835 -0.0042208190806535513 0 0.033021228707994475 -0.0044747319506740465 0 0.032925020258224462 -0.0052620540602311408 0 0.026844451842877249 -0.0018651574831165107 0 0.026910685155990668 -0.0024097938130705496 0 0.020219066694750161 0.00087210962022920635 0 0.020455737464959954 0.0008542168429864675 0 0.020486694117869395 0.00066340919595631227 0 0.020219066694750161 0.00087210962022920635 0 0.020506489855211658 0.0010466687921821397 0 0.020455737464959954 0.0008542168429864675 0 0.020219066694750161 0.00087210962022920635 0 0.019953471989081858 0.0008009149436167157 0 0.01989238552903011 0.0010484253928632599 0 0.020159052838275189 0.00054448905713151588 0 0.020219066694750161 0.00087210962022920635 0 0.019953471989081858 0.0008009149436167157 0 0.020159052838275189 0.00054448905713151588 0 0.019935990197740942 0.00061904132346992475 0 0.019953471989081858 0.0008009149436167157 0 0.019795010900956506 0.00057166565742705329 0 0.019935990197740942 0.00061904132346992475 0 0.019759214194446803 0.00071491396310466619 0 0.019935990197740942 0.00061904132346992475 0 0.019759214194446803 0.00071491396310466619 0 0.019953471989081858 0.0008009149436167157 0 0.019759214194446803 0.00071491396310466619 0 0.019953471989081858 0.0008009149436167157 0 0.019681256921825874 0.0009411476965708993 0 0.019953471989081858 0.0008009149436167157 0 0.01989238552903011 0.0010484253928632599 0 0.019681256921825874 0.0009411476965708993 0 0.01989238552903011 0.0010484253928632599 0 0.019681256921825874 0.0009411476965708993 0 0.019637142045246084 0.0011375630529778039 0 0.019582194431316074 0.0010755410019382588 0 0.019681256921825874 0.0009411476965708993 0 0.019637142045246084 0.0011375630529778039 0 0.019458517758565441 0.0012876042076423128 0 0.019637142045246084 0.0011375630529778039 0 0.019855333950820727 0.0013162173810343067 0 0.019458517758565441 0.0012876042076423128 0 0.019533452673927022 0.001192551734270151 0 0.019637142045246084 0.0011375630529778039 0 0.01989238552903011 0.0010484253928632599 0 0.019637142045246084 0.0011375630529778039 0 0.019855333950820727 0.0013162173810343067 0 0.014998068376875321 0.0018098402403854395 0 0.016746980958940009 0.0025239734123670798 0 0.014886218543071917 0.003104513014282286 0 0.018308411476761897 0.0018938288021545251 0 0.017694910250150346 0.0020611031664095766 0 0.01989238552903011 0.0010484253928632599 0 0.019855333950820727 0.0013162173810343067 0 0.020188107410237625 0.0011937753655827455 0 0.014998068376875321 0.0018098402403854395 0 0.014886218543071917 0.003104513014282286 0 0.014147271226092432 0.0024018506495540959 0 0.014886218543071917 0.003104513014282286 0 0.014147271226092432 0.0024018506495540959 0 0.01382414670963482 0.0028399255460035233 0 0.017694910250150346 0.0020611031664095766 0 0.016516533542967702 0.0026102610882104914 0 0.020219066694750161 0.00087210962022920635 0 0.020188107410237625 0.0011937753655827455 0 0.020506489855211658 0.0010466687921821397 0 0.014886218543071917 0.003104513014282286 0 0.013696316450569308 0.0034373429450943781 0 0.01382414670963482 0.0028399255460035233 0 0.020219066694750161 0.00087210962022920635 0 0.01989238552903011 0.0010484253928632599 0 0.020188107410237625 0.0011937753655827455 0 0.012724249570367755 0.0034925464133892296 0 0.012516621638363661 0.0031378963330529592 0 0.012527680022341912 0.0038091046815981883 0 0.013008595290859303 0.0032871073413587976 0 0.013696316450569308 0.0034373429450943781 0 0.01281963868312215 0.0038586455378308774 0 0.013008595290859303 0.0032871073413587976 0 0.01335762687372739 0.0030443604680208368 0 0.012979760520154364 0.0028295121614693463 0 0.013008595290859303 0.0032871073413587976 0 0.012979760520154364 0.0028295121614693463 0 0.012516621638363661 0.0031378963330529592 0 0.013008595290859303 0.0032871073413587976 0 0.012724249570367755 0.0034925464133892296 0 0.01281963868312215 0.0038586455378308774 0 0.013008595290859303 0.0032871073413587976 0 0.012724249570367755 0.0034925464133892296 0 0.012516621638363661 0.0031378963330529592 0 0.013696316450569308 0.0034373429450943781 0 0.01335762687372739 0.0030443604680208368 0 0.01382414670963482 0.0028399255460035233 0 0.013008595290859303 0.0032871073413587976 0 0.013696316450569308 0.0034373429450943781 0 0.01335762687372739 0.0030443604680208368 0 0.01335762687372739 0.0030443604680208368 0 0.013363897316130635 0.0026639968829601495 0 0.01382414670963482 0.0028399255460035233 0 0.01335762687372739 0.0030443604680208368 0 0.013363897316130635 0.0026639968829601495 0 0.012979760520154364 0.0028295121614693463 0 0.013363897316130635 0.0026639968829601495 0 0.01382414670963482 0.0028399255460035233 0 0.013665349954774758 0.0023665405293459459 0 0.014147271226092432 0.0024018506495540959 0 0.01382414670963482 0.0028399255460035233 0 0.013665349954774758 0.0023665405293459459 0 0.013731313432575901 0.0018592827409486803 0 0.014147271226092432 0.0024018506495540959 0 0.013665349954774758 0.0023665405293459459 0 0.013316703102029932 0.0020607716043902252 0 0.013363897316130635 0.0026639968829601495 0 0.013665349954774758 0.0023665405293459459 0 0.013316703102029932 0.0020607716043902252 0 0.013363897316130635 0.0026639968829601495 0 0.013032596459694883 0.0023929105858538913 0 0.012727197622840436 0.0018599836183472154 0 0.012647117160080748 0.0025306875459135329 0 0.012167722384223497 0.0026492823671012198 0 0.012846430784879301 0.0021621770525038398 0 0.013032596459694883 0.0023929105858538913 0 0.012647117160080748 0.0025306875459135329 0 0.012846430784879301 0.0021621770525038398 0 0.01301959841092021 0.0020913207370613757 0 0.013032596459694883 0.0023929105858538913 0 0.013363897316130635 0.0026639968829601495 0 0.013032596459694883 0.0023929105858538913 0 0.012979760520154364 0.0028295121614693463 0 0.013032596459694883 0.0023929105858538913 0 0.012979760520154364 0.0028295121614693463 0 0.012647117160080748 0.0025306875459135329 0 0.012979760520154364 0.0028295121614693463 0 0.012647117160080748 0.0025306875459135329 0 0.012516621638363661 0.0031378963330529592 0 0.01103193857788101 0.0011222203746840411 0 0.0089102199783998911 0.0011690428940960334 0 0.0066442900700592923 -0.00051883234505681493 0 0.0067262283407343408 -0.00067421908141756506 0 0.0066296454343523995 -0.00073466523857970863 0 0.012647117160080748 0.0025306875459135329 0 0.012167722384223497 0.0026492823671012198 0 0.012516621638363661 0.0031378963330529592 0 0.0067262283407343408 -0.00067421908141756506 0 0.0066296454343523995 -0.00073466523857970863 0 0.0068749891211433677 -0.00083327551356012712 0 0.0067877647594380714 -0.00058813692906392232 0 0.0068088271202350892 -0.00061562768734044237 0 0.0069786243189756646 -0.00069060594028515362 0 0.0068088271202350892 -0.00061562768734044237 0 0.0068749891211433677 -0.00083327551356012712 0 0.0069786243189756646 -0.00069060594028515362 0 0.0067262283407343408 -0.00067421908141756506 0 0.0068088271202350892 -0.00061562768734044237 0 0.0068749891211433677 -0.00083327551356012712 0 0.0056853188439220659 -0.00023262325607471059 0 0.0057306531496764497 -0.00029090100935752082 0 0.0068107538362723622 -0.00059181276449983349 0 0.0068088271202350892 -0.00061562768734044237 0 0.006766871909974579 -0.00061707761698229918 0 0.0067398867535025412 -0.00056063018803376153 0 0.0067262283407343408 -0.00067421908141756506 0 0.006766871909974579 -0.00061707761698229918 0 0.0067262283407343408 -0.00067421908141756506 0 0.0068088271202350892 -0.00061562768734044237 0 0.006766871909974579 -0.00061707761698229918 0 0.0066296454343523995 -0.00073466523857970863 0 0.0068749891211433677 -0.00083327551356012712 0 0.0068670002558963239 -0.0010333809448880035 0 0.011672003361947538 0.00081883691822941934 0 0.019650777192152972 -0.0027884362276500768 0 0.011672003361947538 0.00081883691822941934 0 0.022504337436432629 -0.0010475371530148029 0 0.0089102199783998911 0.0011690428940960334 0 0.011672003361947538 0.00081883691822941934 0 0.011594473806092451 0.0033237938340722377 0 0.012516621638363661 0.0031378963330529592 0 0.012527680022341912 0.0038091046815981883 0 0.012167722384223497 0.0026492823671012198 0 0.011594473806092451 0.0033237938340722377 0 0.012516621638363661 0.0031378963330529592 0 0.030673432492233144 -0.006738185120000525 0 0.029687358794765906 -0.0061951811743641613 0 0.028354522436608409 -0.0071734611658201388 0 0.022504337436432629 -0.0010475371530148029 0 0.019650777192152972 -0.0027884362276500768 0 0.029687358794765906 -0.0061951811743641613 0 0.03034840232294125 -0.0061920320901616421 0 0.030435957122941924 -0.0056112094617029517 0 0.030673432492233144 -0.006738185120000525 0 0.029687358794765906 -0.0061951811743641613 0 0.03034840232294125 -0.0061920320901616421 0 0.03034840232294125 -0.0061920320901616421 0 0.030435957122941924 -0.0056112094617029517 0 0.030817226916781876 -0.0063729691017885082 0 0.030673432492233144 -0.006738185120000525 0 0.03034840232294125 -0.0061920320901616421 0 0.030817226916781876 -0.0063729691017885082 0 0.029687358794765906 -0.0061951811743641613 0 0.028354522436608409 -0.0071734611658201388 0 0.028357709903394989 -0.0057165014233911907 0 0.016920027850032344 -0.0024006892378592316 0 0.021283341281114799 -0.00018671802436226665 0 0.015743521259552348 -0.0011022665042312884 0 0.029687358794765906 -0.0061951811743641613 0 0.028357709903394989 -0.0057165014233911907 0 0.029232777241329468 -0.0050938101672086591 0 0.029232777241329468 -0.0050938101672086591 0 0.029114354784759516 -0.0043532318390797631 0 0.028167978193451584 -0.0046891939298293059 0 0.028357709903394989 -0.0057165014233911907 0 0.029232777241329468 -0.0050938101672086591 0 0.028167978193451584 -0.0046891939298293059 0 0.029687358794765906 -0.0061951811743641613 0 0.029232777241329468 -0.0050938101672086591 0 0.030012171112709853 -0.0051362414427594981 0 0.029687358794765906 -0.0061951811743641613 0 0.030435957122941924 -0.0056112094617029517 0 0.030012171112709853 -0.0051362414427594981 0 0.029232777241329468 -0.0050938101672086591 0 0.030012171112709853 -0.0051362414427594981 0 0.029993573503224898 -0.0044563542623116629 0 0.030012171112709853 -0.0051362414427594981 0 0.030844137782517947 -0.0049325770057243113 0 0.029993573503224898 -0.0044563542623116629 0 0.030435957122941924 -0.0056112094617029517 0 0.030012171112709853 -0.0051362414427594981 0 0.030844137782517947 -0.0049325770057243113 0 0.030844137782517947 -0.0049325770057243113 0 0.031382466139006769 -0.0055609005180960649 0 0.032000733940303186 -0.0046578887978697137 0 0.031382466139006769 -0.0055609005180960649 0 0.031072235820982338 -0.0064983910724786247 0 0.032925020258224462 -0.0052620540602311408 0 0.030435957122941924 -0.0056112094617029517 0 0.031382466139006769 -0.0055609005180960649 0 0.030817226916781876 -0.0063729691017885082 0 0.030435957122941924 -0.0056112094617029517 0 0.030844137782517947 -0.0049325770057243113 0 0.031382466139006769 -0.0055609005180960649 0 0.031382466139006769 -0.0055609005180960649 0 0.030817226916781876 -0.0063729691017885082 0 0.031072235820982338 -0.0064983910724786247 0 0.020915107302073112 0.00081595236309631516 0 0.020877123040879082 0.00084219123256296059 0 0.020615468850308544 0.00083553188005146446 0 0.027306752576816615 -0.0035024776785036378 0 0.024791204499629134 -0.0018848607085767361 0 0.019607438646559918 0.00062417932270834582 0 0.021006890940915908 0.00089034211539758181 0 0.012724249570367755 0.0034925464133892296 0 0.012527680022341912 0.0038091046815981883 0 0.01281963868312215 0.0038586455378308774 0 0.022504337436432629 -0.0010475371530148029 0 0.024791204499629134 -0.0018848607085767361 0 0.02218458584622731 -0.00062471884631622719 0 0.023048408375495238 -0.00017019512935795148 0 0.023437031167655602 -0.00040029596711879911 0 0.022504337436432629 -0.0010475371530148029 0 0.019607438646559918 0.00062417932270834582 0 0.030673432492233144 -0.006738185120000525 0 0.030817226916781876 -0.0063729691017885082 0 0.031052937559301368 -0.0065167214393367732 0 0.024791204499629134 -0.0018848607085767361 0 0.019607438646559918 0.00062417932270834582 0 0.024791204499629134 -0.0018848607085767361 0 0.026910685155990668 -0.0024097938130705496 0 0.016516533542967702 0.0026102610882104914 0 0.019607438646559918 0.00062417932270834582 0 0.020915107302073112 0.00081595236309631516 0 0.020615468850308544 0.00083553188005146446 0 0.020486694117869395 0.00066340919595631227 0 0.020506489855211658 0.0010466687921821397 0 0.020802118391059034 0.00086799285993863641 0 0.020615468850308544 0.00083553188005146446 0 0.020506489855211658 0.0010466687921821397 0 0.020455737464959954 0.0008542168429864675 0 0.020615468850308544 0.00083553188005146446 0 0.020455737464959954 0.0008542168429864675 0 0.020615468850308544 0.00083553188005146446 0 0.020486694117869395 0.00066340919595631227 0 0.031382466139006769 -0.0055609005180960649 0 0.032925020258224462 -0.0052620540602311408 0 0.032000733940303186 -0.0046578887978697137 0 0.033021228707994475 -0.0044747319506740465 0 0.032925020258224462 -0.0052620540602311408 0 0.032000733940303186 -0.0046578887978697137 0 0.033021228707994475 -0.0044747319506740465 0 0.032000733940303186 -0.0046578887978697137 0 0.032803661618920552 -0.0039631005598469472 0 0.032000733940303186 -0.0046578887978697137 0 0.031892138575047538 -0.003910417321436245 0 0.032803661618920552 -0.0039631005598469472 0 0.030844137782517947 -0.0049325770057243113 0 0.032000733940303186 -0.0046578887978697137 0 0.031052479815939029 -0.0041416147523172572 0 0.032000733940303186 -0.0046578887978697137 0 0.031892138575047538 -0.003910417321436245 0 0.031052479815939029 -0.0041416147523172572 0 0.031892138575047538 -0.003910417321436245 0 0.031052479815939029 -0.0041416147523172572 0 0.031101782550762982 -0.0035000123744625268 0 0.031892138575047538 -0.003910417321436245 0 0.031101782550762982 -0.0035000123744625268 0 0.032249988358675791 -0.0034101629793555485 0 0.031101782550762982 -0.0035000123744625268 0 0.032249988358675791 -0.0034101629793555485 0 0.031363228290114301 -0.0028824547302902766 0 0.033337580972165042 -0.0037403049736697146 0 0.032803661618920552 -0.0039631005598469472 0 0.033303005854694846 -0.0034930864432908626 0 0.032249988358675791 -0.0034101629793555485 0 0.032803661618920552 -0.0039631005598469472 0 0.033303005854694846 -0.0034930864432908626 0 0.031892138575047538 -0.003910417321436245 0 0.032249988358675791 -0.0034101629793555485 0 0.032803661618920552 -0.0039631005598469472 0 0.03414550823729566 -0.002849281614543018 0 0.033303005854694846 -0.0034930864432908626 0 0.033002236820908477 -0.0024203686886834727 0 0.032249988358675791 -0.0034101629793555485 0 0.033303005854694846 -0.0034930864432908626 0 0.033002236820908477 -0.0024203686886834727 0 0.034229632025565955 -0.0022177920167787994 0 0.03414550823729566 -0.002849281614543018 0 0.033002236820908477 -0.0024203686886834727 0 0.032249988358675791 -0.0034101629793555485 0 0.033002236820908477 -0.0024203686886834727 0 0.031363228290114301 -0.0028824547302902766 0 0.033002236820908477 -0.0024203686886834727 0 0.031399080644074838 -0.0019601425920634428 0 0.031363228290114301 -0.0028824547302902766 0 0.031399080644074838 -0.0019601425920634428 0 0.033167286553835017 -0.0010849631160032591 0 0.031508651230429174 -0.00052604257043976758 0 0.033002236820908477 -0.0024203686886834727 0 0.031399080644074838 -0.0019601425920634428 0 0.033167286553835017 -0.0010849631160032591 0 0.034212643946567534 -0.0014271598026740732 0 0.033002236820908477 -0.0024203686886834727 0 0.033167286553835017 -0.0010849631160032591 0 0.034212643946567534 -0.0014271598026740732 0 0.033167286553835017 -0.0010849631160032591 0 0.034766723917591502 -0.00050260368929796442 0 0.034212643946567534 -0.0014271598026740732 0 0.034229632025565955 -0.0022177920167787994 0 0.033002236820908477 -0.0024203686886834727 0 0.029412235390176775 -0.0016436739626591325 0 0.028301117641345987 -0.0017779046618857819 0 0.027920453626760978 -0.0011603475734711681 0 0.029412235390176775 -0.0016436739626591325 0 0.027920453626760978 -0.0011603475734711681 0 0.028824185942637155 -0.00063994686118376825 0 0.029412235390176775 -0.0016436739626591325 0 0.028824185942637155 -0.00063994686118376825 0 0.031508651230429174 -0.00052604257043976758 0 0.031399080644074838 -0.0019601425920634428 0 0.029412235390176775 -0.0016436739626591325 0 0.031508651230429174 -0.00052604257043976758 0 0.031399080644074838 -0.0019601425920634428 0 0.031363228290114301 -0.0028824547302902766 0 0.030188682076890017 -0.0027859342730656932 0 0.031399080644074838 -0.0019601425920634428 0 0.029412235390176775 -0.0016436739626591325 0 0.030188682076890017 -0.0027859342730656932 0 0.029412235390176775 -0.0016436739626591325 0 0.029005957749517943 -0.0024065696812476936 0 0.028301117641345987 -0.0017779046618857819 0 0.029412235390176775 -0.0016436739626591325 0 0.029005957749517943 -0.0024065696812476936 0 0.030188682076890017 -0.0027859342730656932 0 0.029005957749517943 -0.0024065696812476936 0 0.028006036568227522 -0.0026591999150938177 0 0.028301117641345987 -0.0017779046618857819 0 0.029005957749517943 -0.0024065696812476936 0 0.029265217963399939 -0.0031967342283672879 0 0.028006036568227522 -0.0026591999150938177 0 0.029005957749517943 -0.0024065696812476936 0 0.029265217963399939 -0.0031967342283672879 0 0.030188682076890017 -0.0027859342730656932 0 0.029265217963399939 -0.0031967342283672879 0 0.028556707510902411 -0.0036595383693395428 0 0.028006036568227522 -0.0026591999150938177 0 0.031101782550762982 -0.0035000123744625268 0 0.031363228290114301 -0.0028824547302902766 0 0.030188682076890017 -0.0027859342730656932 0 0.029265217963399939 -0.0031967342283672879 0 0.030209433571882379 -0.0036516383864097007 0 0.029498246648359417 -0.0038678194997153244 0 0.029265217963399939 -0.0031967342283672879 0 0.030188682076890017 -0.0027859342730656932 0 0.030209433571882379 -0.0036516383864097007 0 0.031052479815939029 -0.0041416147523172572 0 0.031101782550762982 -0.0035000123744625268 0 0.030209433571882379 -0.0036516383864097007 0 0.031101782550762982 -0.0035000123744625268 0 0.030188682076890017 -0.0027859342730656932 0 0.030209433571882379 -0.0036516383864097007 0 0.031052479815939029 -0.0041416147523172572 0 0.030209433571882379 -0.0036516383864097007 0 0.029993573503224898 -0.0044563542623116629 0 0.030209433571882379 -0.0036516383864097007 0 0.029993573503224898 -0.0044563542623116629 0 0.029498246648359417 -0.0038678194997153244 0 0.030844137782517947 -0.0049325770057243113 0 0.031052479815939029 -0.0041416147523172572 0 0.029993573503224898 -0.0044563542623116629 0 0.029265217963399939 -0.0031967342283672879 0 0.028556707510902411 -0.0036595383693395428 0 0.029498246648359417 -0.0038678194997153244 0 0.028556707510902411 -0.0036595383693395428 0 0.029498246648359417 -0.0038678194997153244 0 0.029114354784759516 -0.0043532318390797631 0 0.029993573503224898 -0.0044563542623116629 0 0.029498246648359417 -0.0038678194997153244 0 0.029114354784759516 -0.0043532318390797631 0 0.029232777241329468 -0.0050938101672086591 0 0.029993573503224898 -0.0044563542623116629 0 0.029114354784759516 -0.0043532318390797631 0 0.028556707510902411 -0.0036595383693395428 0 0.029114354784759516 -0.0043532318390797631 0 0.028167978193451584 -0.0046891939298293059 0 0.026905930983178193 -0.0042288914274777999 0 0.027493950891036244 -0.0033789341731523992 0 0.028167978193451584 -0.0046891939298293059 0 0.028556707510902411 -0.0036595383693395428 0 0.027493950891036244 -0.0033789341731523992 0 0.028167978193451584 -0.0046891939298293059 0 0.026905930983178193 -0.0042288914274777999 0 0.027493950891036244 -0.0033789341731523992 0 0.026131036027559465 -0.0031816499484854906 0 0.027493950891036244 -0.0033789341731523992 0 0.026131036027559465 -0.0031816499484854906 0 0.026592938490530939 -0.0025359023772430463 0 0.023638817694571792 -0.0025276557567025125 0 0.021483639130748137 -0.0014284302722823814 0 0.025689080592575072 -0.0047065846849055079 0 0.026131036027559465 -0.0031816499484854906 0 0.023638817694571792 -0.0025276557567025125 0 0.025689080592575072 -0.0047065846849055079 0 0.022233553684372635 -0.0019148571762365064 0 0.020649186143624234 -0.0025342623542659319 0 0.026714156839299209 -0.0029403191116002207 0 0.020649186143624234 -0.0025342623542659319 0 0.026905930983178193 -0.0042288914274777999 0 0.026131036027559465 -0.0031816499484854906 0 0.025689080592575072 -0.0047065846849055079 0 0.026131036027559465 -0.0031816499484854906 0 0.025448675989392173 -0.0023575768657621305 0 0.026592938490530939 -0.0025359023772430463 0 0.026131036027559465 -0.0031816499484854906 0 0.023638817694571792 -0.0025276557567025125 0 0.025448675989392173 -0.0023575768657621305 0 0.023638817694571792 -0.0025276557567025125 0 0.025448675989392173 -0.0023575768657621305 0 0.025616491380144952 -0.0020348085299218494 0 0.025448675989392173 -0.0023575768657621305 0 0.026592938490530939 -0.0025359023772430463 0 0.026378349528445606 -0.0020322520795863696 0 0.026592938490530939 -0.0025359023772430463 0 0.026378349528445606 -0.0020322520795863696 0 0.027279798774833899 -0.001982224214367711 0 0.025448675989392173 -0.0023575768657621305 0 0.026378349528445606 -0.0020322520795863696 0 0.025616491380144952 -0.0020348085299218494 0 0.028556707510902411 -0.0036595383693395428 0 0.027493950891036244 -0.0033789341731523992 0 0.028006036568227522 -0.0026591999150938177 0 0.027493950891036244 -0.0033789341731523992 0 0.026592938490530939 -0.0025359023772430463 0 0.028006036568227522 -0.0026591999150938177 0 0.026592938490530939 -0.0025359023772430463 0 0.028006036568227522 -0.0026591999150938177 0 0.027279798774833899 -0.001982224214367711 0 0.028006036568227522 -0.0026591999150938177 0 0.028301117641345987 -0.0017779046618857819 0 0.027279798774833899 -0.001982224214367711 0 0.028301117641345987 -0.0017779046618857819 0 0.027279798774833899 -0.001982224214367711 0 0.027920453626760978 -0.0011603475734711681 0 0.027279798774833899 -0.001982224214367711 0 0.026587195599618176 -0.0017232247598317739 0 0.027920453626760978 -0.0011603475734711681 0 0.026378349528445606 -0.0020322520795863696 0 0.025616491380144952 -0.0020348085299218494 0 0.026587195599618176 -0.0017232247598317739 0 0.026378349528445606 -0.0020322520795863696 0 0.027279798774833899 -0.001982224214367711 0 0.026587195599618176 -0.0017232247598317739 0 0.026587195599618176 -0.0017232247598317739 0 0.027270586696510203 -0.0012248580884637722 0 0.027920453626760978 -0.0011603475734711681 0 0.026534705787116048 -0.0014729489658339664 0 0.026688163023600452 -0.0015353524205069943 0 0.026253420874914335 -0.0018371312907823694 0 0.026534705787116048 -0.0014729489658339664 0 0.026688163023600452 -0.0015353524205069943 0 0.026906380746342402 -0.0013038424086008274 0 0.022014984370322371 -2.732078025513408e-07 0 0.021053733616684885 -1.831270978161454e-09 0 0.022628939984598386 -5.0323517336866141e-10 0 0.022413246978534297 -0.00026212852341047125 0 0.022629030561111926 -8.0292715044246409e-08 0 0.026587195599618176 -0.0017232247598317739 0 0.027270586696510203 -0.0012248580884637722 0 0.026688163023600452 -0.0015353524205069943 0 0.027270586696510203 -0.0012248580884637722 0 0.026688163023600452 -0.0015353524205069943 0 0.026906380746342402 -0.0013038424086008274 0 0.025616491380144952 -0.0020348085299218494 0 0.026587195599618176 -0.0017232247598317739 0 0.026253420874914335 -0.0018371312907823694 0 0.026587195599618176 -0.0017232247598317739 0 0.026688163023600452 -0.0015353524205069943 0 0.026253420874914335 -0.0018371312907823694 0 0.022413246978534297 -0.00026212852341047125 0 0.019477581768073907 1.3696676148177301e-06 0 0.019478647323274142 0.00059812201417395853 0 0.019452744783369877 0.00086541133173488941 0 0.019475094548609802 3.0906294170085038e-06 0 0.022413246978534297 -0.00026212852341047125 0 0.023030800565268988 -0.00072322853291330899 0 0.022014984370322371 -2.732078025513408e-07 0 0.021053733616684885 -1.831270978161454e-09 0 0.019478524198308606 4.594363276745244e-10 0 0.019452744783369877 0.00086541133173488941 0 0.019475094548609802 3.0906294170085038e-06 0 0.019153385020002738 -0.00013698500551418997 0 0.019475094548609802 3.0906294170085038e-06 0 0.019153385020002738 -0.00013698500551418997 0 0.017478336644923407 -8.519849513739372e-07 0 0.019452744783369877 0.00086541133173488941 0 0.019153385020002738 -0.00013698500551418997 0 0.021483639130748137 -0.0014284302722823814 0 0.023638817694571792 -0.0025276557567025125 0 0.025616491380144952 -0.0020348085299218494 0 0.026253420874914335 -0.0018371312907823694 0 0.023638817694571792 -0.0025276557567025125 0 0.019452744783369877 0.00086541133173488941 0 0.021483639130748137 -0.0014284302722823814 0 0.023707454518467605 -0.0025660180751251498 0 0.023030800565268988 -0.00072322853291330899 0 0.019153385020002738 -0.00013698500551418997 0 0.021483639130748137 -0.0014284302722823814 0 0.019088175504084409 -0.00072631748811610188 0 0.021483639130748137 -0.0014284302722823814 0 0.020559821985160157 -0.0012822437277251121 0 0.019088175504084409 -0.00072631748811610188 0 0.021483639130748137 -0.0014284302722823814 0 0.020559821985160157 -0.0012822437277251121 0 0.020775964678271471 -0.0013026345280315334 0 0.019153385020002738 -0.00013698500551418997 0 0.019088175504084409 -0.00072631748811610188 0 0.017478336644923407 -8.519849513739372e-07 0 0.019088175504084409 -0.00072631748811610188 0 0.017478336644923407 -8.519849513739372e-07 0 0.015479047643300315 -3.6064410105879355e-06 0 0.01547725736703952 -2.4665132108613883e-07 0 0.016245289004267846 -0.00091086130285965078 0 0.019088175504084409 -0.00072631748811610188 0 0.015479047643300315 -3.6064410105879355e-06 0 0.019654142241674558 -0.0015558105648494774 0 0.01547230815442859 -1.7484008458407243e-06 0 0.013777783626920342 0.00016401349126005262 0 0.013855376549024582 -0.00059677680760150448 0 0.01547230815442859 -1.7484008458407243e-06 0 0.013777783626920342 0.00016401349126005262 0 0.012893000347179405 1.8786632839099237e-06 0 0.013777783626920342 0.00016401349126005262 0 0.013855376549024582 -0.00059677680760150448 0 0.013402548876492107 -0.00021805670663667471 0 0.013777783626920342 0.00016401349126005262 0 0.013402548876492107 -0.00021805670663667471 0 0.013369900902548321 0.00011498818130811127 0 0.013855376549024582 -0.00059677680760150448 0 0.013381315253500991 -0.00065976965869287958 0 0.013402548876492107 -0.00021805670663667471 0 0.020559821985160157 -0.0012822437277251121 0 0.019654142241674558 -0.0015558105648494774 0 0.020775964678271471 -0.0013026345280315334 0 0.016245289004267846 -0.00091086130285965078 0 0.020649186143624234 -0.0025342623542659319 0 0.020559821985160157 -0.0012822437277251121 0 0.019088175504084409 -0.00072631748811610188 0 0.019654142241674558 -0.0015558105648494774 0 0.013381315253500991 -0.00065976965869287958 0 0.013168958207859774 -0.00029081482253598266 0 0.013402548876492107 -0.00021805670663667471 0 0.026905930983178193 -0.0042288914274777999 0 0.025873319492937547 -0.0046063243503577283 0 0.027326425218362514 -0.0050528908526736764 0 0.020649186143624234 -0.0025342623542659319 0 0.020254847313715199 -0.0032519847145124413 0 0.028357709903394989 -0.0057165014233911907 0 0.028167978193451584 -0.0046891939298293059 0 0.027326425218362514 -0.0050528908526736764 0 0.026905930983178193 -0.0042288914274777999 0 0.028167978193451584 -0.0046891939298293059 0 0.027326425218362514 -0.0050528908526736764 0 0.025873319492937547 -0.0046063243503577283 0 0.027326425218362514 -0.0050528908526736764 0 0.027197884942725774 -0.0059776539015533202 0 0.028357709903394989 -0.0057165014233911907 0 0.027326425218362514 -0.0050528908526736764 0 0.027197884942725774 -0.0059776539015533202 0 0.013079721977446472 -9.9530093185596518e-05 0 0.013168958207859774 -0.00029081482253598266 0 0.013196012992618871 -2.6106819473223275e-05 0 0.028354522436608409 -0.0071734611658201388 0 0.028357709903394989 -0.0057165014233911907 0 0.027197884942725774 -0.0059776539015533202 0 0.019650777192152972 -0.0027884362276500768 0 0.020254847313715199 -0.0032519847145124413 0 0.013402548876492107 -0.00021805670663667471 0 0.013369900902548321 0.00011498818130811127 0 0.013196012992618871 -2.6106819473223275e-05 0 0.013168958207859774 -0.00029081482253598266 0 0.013402548876492107 -0.00021805670663667471 0 0.013196012992618871 -2.6106819473223275e-05 0 0.013369900902548321 0.00011498818130811127 0 0.013483343049744457 0.00011531343842080743 0 0.013447829045593497 -2.7685622407790966e-05 0 0.013658730968143589 0.00013267172677207013 0 0.012447617803692967 -0.0001993979709310516 0 0.011672003361947538 0.00081883691822941934 0 0.010044420899874444 -0.00072263362920100074 0 0.019650777192152972 -0.0027884362276500768 0 0.012447617803692967 -0.0001993979709310516 0 0.013706193719854117 7.0200424478050161e-05 0 0.013655044619340339 0.00013368894031096258 0 0.013483343049744457 0.00011531343842080743 0 0.013706193719854117 7.0200424478050161e-05 0 0.013483343049744457 0.00011531343842080743 0 0.013447829045593497 -2.7685622407790966e-05 0 0.0068749891211433677 -0.00083327551356012712 0 0.0068670002558963239 -0.0010333809448880035 0 0.0072921443891682891 -0.00093246460123442795 0 0.0068749891211433677 -0.00083327551356012712 0 0.0072921443891682891 -0.00093246460123442795 0 0.0069786243189756646 -0.00069060594028515362 0 0.007166535313916195 -0.00050306737639471883 0 0.0072921443891682891 -0.00093246460123442795 0 0.0069786243189756646 -0.00069060594028515362 0 0.010044420899874444 -0.00072263362920100074 0 0.010550599263914964 -0.0003649541363194031 0 0.013369900902548321 0.00011498818130811127 0 0.013447829045593497 -2.7685622407790966e-05 0 0.012925269934654279 -8.530491382679674e-05 0 0.007166535313916195 -0.00050306737639471883 0 0.0072921443891682891 -0.00093246460123442795 0 0.0079533023147974752 -0.00087801729976389842 0 0.01031494270161974 -2.1786691418717983e-06 0 0.012925269934654279 -8.530491382679674e-05 0 0.012893000347179405 1.8786632839099237e-06 0 0.012925269934654279 -8.530491382679674e-05 0 0.012893000347179405 1.8786632839099237e-06 0 0.013253699684271253 5.8149450072256958e-05 0 0.013777783626920342 0.00016401349126005262 0 0.012893000347179405 1.8786632839099237e-06 0 0.013253699684271253 5.8149450072256958e-05 0 0.013777783626920342 0.00016401349126005262 0 0.013369900902548321 0.00011498818130811127 0 0.013253699684271253 5.8149450072256958e-05 0 0.013369900902548321 0.00011498818130811127 0 0.012925269934654279 -8.530491382679674e-05 0 0.013253699684271253 5.8149450072256958e-05 0 0.031267633843064697 0.00044698574468721104 0 0.032391346791286732 0.00053433246284683594 0 0.032154250563487363 0.00073848507229666376 0 0.031267633843064697 0.00044698574468721104 0 0.032930479180599583 5.2098907475409304e-07 0 0.030355426370337352 8.2398588020192492e-07 0 0.031267633843064697 0.00044698574468721104 0 0.032930479180599583 5.2098907475409304e-07 0 0.032391346791286732 0.00053433246284683594 0 0.032930479180599583 5.2098907475409304e-07 0 0.032391346791286732 0.00053433246284683594 0 0.034075588966012288 -0.00026668749498354356 0 0.032391346791286732 0.00053433246284683594 0 0.032154250563487363 0.00073848507229666376 0 0.032735898245919624 0.0010969336302016047 0 0.033300069007109481 0.0010597446058021962 0 0.032154250563487363 0.00073848507229666376 0 0.032735898245919624 0.0010969336302016047 0 0.033300069007109481 0.0010597446058021962 0 0.032154250563487363 0.00073848507229666376 0 0.031842891207803217 0.00051293440382234854 0 0.033300069007109481 0.0010597446058021962 0 0.031842891207803217 0.00051293440382234854 0 0.033195838464391024 0.00052739677269829453 0 0.031267633843064697 0.00044698574468721104 0 0.032154250563487363 0.00073848507229666376 0 0.031842891207803217 0.00051293440382234854 0 0.031842891207803217 0.00051293440382234854 0 0.031395735260896139 0.00010826204522240133 0 0.033195838464391024 0.00052739677269829453 0 0.031395735260896139 0.00010826204522240133 0 0.031739792116944707 -0.00067651907110127265 0 0.032681261126221946 -0.00013135656341345059 0 0.031395735260896139 0.00010826204522240133 0 0.032681261126221946 -0.00013135656341345059 0 0.033195838464391024 0.00052739677269829453 0 0.031395735260896139 0.00010826204522240133 0 0.03002993224325122 0.00022737421961852811 0 0.029846344159796052 -0.00016187549949978845 0 0.031842891207803217 0.00051293440382234854 0 0.031395735260896139 0.00010826204522240133 0 0.03002993224325122 0.00022737421961852811 0 0.031267633843064697 0.00044698574468721104 0 0.031842891207803217 0.00051293440382234854 0 0.03002993224325122 0.00022737421961852811 0 0.031267633843064697 0.00044698574468721104 0 0.03002993224325122 0.00022737421961852811 0 0.030355426370337352 8.2398588020192492e-07 0 0.03002993224325122 0.00022737421961852811 0 0.030355426370337352 8.2398588020192492e-07 0 0.02778088559210784 3.0492800835172942e-07 0 0.03002993224325122 0.00022737421961852811 0 0.02778088559210784 3.0492800835172942e-07 0 0.027993517354980551 -0.00020870298541943324 0 0.03002993224325122 0.00022737421961852811 0 0.027993517354980551 -0.00020870298541943324 0 0.029846344159796052 -0.00016187549949978845 0 0.027993517354980551 -0.00020870298541943324 0 0.027707681525306924 -0.00068339915368256191 0 0.028797756087748583 -0.00090273013304797772 0 0.027993517354980551 -0.00020870298541943324 0 0.028797756087748583 -0.00090273013304797772 0 0.029846344159796052 -0.00016187549949978845 0 0.027993517354980551 -0.00020870298541943324 0 0.026229688924796088 -0.0003118108302403303 0 0.027707681525306924 -0.00068339915368256191 0 0.02778088559210784 3.0492800835172942e-07 0 0.027993517354980551 -0.00020870298541943324 0 0.025206323863112532 -1.117418418591215e-06 0 0.027993517354980551 -0.00020870298541943324 0 0.025206323863112532 -1.117418418591215e-06 0 0.026229688924796088 -0.0003118108302403303 0 0.025956463869835664 -9.4199875750770483e-05 0 0.025322740220982236 -0.00051553269563738328 0 0.026229688924796088 -0.0003118108302403303 0 0.027090243930835214 -0.0009903647891127854 0 0.026620334707371872 -0.0012167804945636971 0 0.025206323863112532 -1.117418418591215e-06 0 0.026229688924796088 -0.0003118108302403303 0 0.023849304500733273 -5.5672557591403359e-05 0 0.026229688924796088 -0.0003118108302403303 0 0.027707681525306924 -0.00068339915368256191 0 0.027090243930835214 -0.0009903647891127854 0 0.027707681525306924 -0.00068339915368256191 0 0.027660583798771315 -0.00094940669177033651 0 0.028797756087748583 -0.00090273013304797772 0 0.027707681525306924 -0.00068339915368256191 0 0.027660583798771315 -0.00094940669177033651 0 0.027090243930835214 -0.0009903647891127854 0 0.027270586696510203 -0.0012248580884637722 0 0.027660583798771315 -0.00094940669177033651 0 0.026906380746342402 -0.0013038424086008274 0 0.027660583798771315 -0.00094940669177033651 0 0.027090243930835214 -0.0009903647891127854 0 0.026906380746342402 -0.0013038424086008274 0 0.025206323863112532 -1.117418418591215e-06 0 0.022630763429538979 -2.8029616007655673e-07 0 0.023849304500733273 -5.5672557591403359e-05 0 0.026534705787116048 -0.0014729489658339664 0 0.026906380746342402 -0.0013038424086008274 0 0.026620334707371872 -0.0012167804945636971 0 0.022413246978534297 -0.00026212852341047125 0 0.025322740220982236 -0.00051553269563738328 0 0.022504110791132188 -0.00013164478949947241 0 0.022630763429538979 -2.8029616007655673e-07 0 0.023849304500733273 -5.5672557591403359e-05 0 0.027090243930835214 -0.0009903647891127854 0 0.026906380746342402 -0.0013038424086008274 0 0.026620334707371872 -0.0012167804945636971 0 0.027920453626760978 -0.0011603475734711681 0 0.02842433697523904 -0.00057137361017384821 0 0.028824185942637155 -0.00063994686118376825 0 0.027920453626760978 -0.0011603475734711681 0 0.028017354075761947 -0.00073885867145897306 0 0.02842433697523904 -0.00057137361017384821 0 0.027270586696510203 -0.0012248580884637722 0 0.027920453626760978 -0.0011603475734711681 0 0.028017354075761947 -0.00073885867145897306 0 0.027270586696510203 -0.0012248580884637722 0 0.027660583798771315 -0.00094940669177033651 0 0.028017354075761947 -0.00073885867145897306 0 0.028017354075761947 -0.00073885867145897306 0 0.028307601461824553 -0.00062458795240661106 0 0.028797756087748583 -0.00090273013304797772 0 0.027660583798771315 -0.00094940669177033651 0 0.028017354075761947 -0.00073885867145897306 0 0.028797756087748583 -0.00090273013304797772 0 0.028017354075761947 -0.00073885867145897306 0 0.02842433697523904 -0.00057137361017384821 0 0.028307601461824553 -0.00062458795240661106 0 0.031223883632937686 -0.0020017090453528278 0 0.028797756087748583 -0.00090273013304797772 0 0.031739792116944707 -0.00067651907110127265 0 0.029654198292683322 -0.0013289502636350244 0 0.028967813020702688 -0.0009862126119636592 0 0.028797756087748583 -0.00090273013304797772 0 0.029846344159796052 -0.00016187549949978845 0 0.031739792116944707 -0.00067651907110127265 0 0.031395735260896139 0.00010826204522240133 0 0.029846344159796052 -0.00016187549949978845 0 0.031739792116944707 -0.00067651907110127265 0 0.031739792116944707 -0.00067651907110127265 0 0.033196288593117074 -0.00079321544477564134 0 0.032681261126221946 -0.00013135656341345059 0 0.035155494864482231 0.00037584586491626581 0 0.035191435813574472 0.0003411864865394288 0 0.035255147675607321 0.00033124895152025259 0 0.034435767965505792 -0.00030595320185496062 0 0.031459608449552798 -0.00023821235135580636 0 0.035155494864482231 0.00037584586491626581 0 0.035191435813574472 0.0003411864865394288 0 0.035149341302412693 0.00032364495664990219 0 0.031223883632937686 -0.0020017090453528278 0 0.031739792116944707 -0.00067651907110127265 0 0.032790134306862187 -0.0022983460795625446 0 0.031739792116944707 -0.00067651907110127265 0 0.033196288593117074 -0.00079321544477564134 0 0.032790134306862187 -0.0022983460795625446 0 0.029441899373222672 0.0019325302025592988 0 0.030303839013368656 0.00048900932853290899 0 0.028824185942637155 -0.00063994686118376825 0 0.02842433697523904 -0.00057137361017384821 0 0.028553254227508134 -0.00049335011097665878 0 0.028824185942637155 -0.00063994686118376825 0 0.02842433697523904 -0.00057137361017384821 0 0.028307601461824553 -0.00062458795240661106 0 0.028553254227508134 -0.00049335011097665878 0 0.031459608449552798 -0.00023821235135580636 0 0.028324394744920361 -0.00030465017085403031 0 0.029654198292683322 -0.0013289502636350244 0 0.031459608449552798 -0.00023821235135580636 0 0.035191435813574472 0.0003411864865394288 0 0.035149341302412693 0.00032364495664990219 0 0.035188102420126668 0.00036834207861324749 0 0.029441899373222672 0.0019325302025592988 0 0.030303839013368656 0.00048900932853290899 0 0.031733259997602264 0.0014372677113175065 0 0.031459608449552798 -0.00023821235135580636 0 0.033588515840989097 0.00094139451113055533 0 0.030303839013368656 0.00048900932853290899 0 0.028824185942637155 -0.00063994686118376825 0 0.031508651230429174 -0.00052604257043976758 0 0.030303839013368656 0.00048900932853290899 0 0.031508651230429174 -0.00052604257043976758 0 0.031733259997602264 0.0014372677113175065 0 0.033167286553835017 -0.0010849631160032591 0 0.03452919740023376 0.00042526094834890776 0 0.034766723917591502 -0.00050260368929796442 0 0.033167286553835017 -0.0010849631160032591 0 0.031508651230429174 -0.00052604257043976758 0 0.03452919740023376 0.00042526094834890776 0 0.035188102420126668 0.00036834207861324749 0 0.03452919740023376 0.00042526094834890776 0 0.03509761132384645 0.00030624082703748873 0 0.033588515840989097 0.00094139451113055533 0 0.034383010087387061 0.00051020666420028844 0 0.031508651230429174 -0.00052604257043976758 0 0.031733259997602264 0.0014372677113175065 0 0.03452919740023376 0.00042526094834890776 0 0.03509761132384645 0.00030624082703748873 0 0.035650035997235117 0.00048977930707162743 0 0.03559328357492323 0.00034476298516112903 0 0.03452919740023376 0.00042526094834890776 0 0.03509761132384645 0.00030624082703748873 0 0.03559328357492323 0.00034476298516112903 0 0.03509761132384645 0.00030624082703748873 0 0.035255147675607321 0.00033124895152025259 0 0.035650035997235117 0.00048977930707162743 0 0.035191435813574472 0.0003411864865394288 0 0.035188102420126668 0.00036834207861324749 0 0.035255147675607321 0.00033124895152025259 0 0.035188102420126668 0.00036834207861324749 0 0.03509761132384645 0.00030624082703748873 0 0.035255147675607321 0.00033124895152025259 0 0.035255147675607321 0.00033124895152025259 0 0.035650035997235117 0.00048977930707162743 0 0.035365160579535287 0.00048307385130591122 0 0.035155494864482231 0.00037584586491626581 0 0.035255147675607321 0.00033124895152025259 0 0.035365160579535287 0.00048307385130591122 0 0.035650035997235117 0.00048977930707162743 0 0.035691990328250475 0.00070996413771845773 0 0.036398375586762517 0.00088219045826978999 0 0.035691990328250475 0.00070996413771845773 0 0.036451287156131794 0.0011685560274343129 0 0.035830120975337408 0.0010123947720380049 0 0.035691990328250475 0.00070996413771845773 0 0.036451287156131794 0.0011685560274343129 0 0.036398375586762517 0.00088219045826978999 0 0.035691990328250475 0.00070996413771845773 0 0.034991593952825716 0.00086461235121515229 0 0.035830120975337408 0.0010123947720380049 0 0.035691990328250475 0.00070996413771845773 0 0.035167671919219066 0.00061857673195225892 0 0.034991593952825716 0.00086461235121515229 0 0.035650035997235117 0.00048977930707162743 0 0.035691990328250475 0.00070996413771845773 0 0.035365160579535287 0.00048307385130591122 0 0.035691990328250475 0.00070996413771845773 0 0.035365160579535287 0.00048307385130591122 0 0.035167671919219066 0.00061857673195225892 0 0.033196288593117074 -0.00079321544477564134 0 0.033802737743861541 8.9292881503244227e-06 0 0.032681261126221946 -0.00013135656341345059 0 0.035155494864482231 0.00037584586491626581 0 0.035365160579535287 0.00048307385130591122 0 0.035167671919219066 0.00061857673195225892 0 0.034435767965505792 -0.00030595320185496062 0 0.034498474579092192 0.00037761719627808977 0 0.033802737743861541 8.9292881503244227e-06 0 0.032681261126221946 -0.00013135656341345059 0 0.033195838464391024 0.00052739677269829453 0 0.034498474579092192 0.00037761719627808977 0 0.034923393129756494 0.00090182477987473008 0 0.033802737743861541 8.9292881503244227e-06 0 0.033195838464391024 0.00052739677269829453 0 0.034991593952825716 0.00086461235121515229 0 0.033195838464391024 0.00052739677269829453 0 0.034991593952825716 0.00086461235121515229 0 0.034729426071022536 0.0012958898538340141 0 0.033300069007109481 0.0010597446058021962 0 0.033195838464391024 0.00052739677269829453 0 0.034729426071022536 0.0012958898538340141 0 0.033300069007109481 0.0010597446058021962 0 0.034729426071022536 0.0012958898538340141 0 0.03436386940483261 0.0018609834604093195 0 0.034991593952825716 0.00086461235121515229 0 0.034729426071022536 0.0012958898538340141 0 0.036046813037517764 0.0013622303576195382 0 0.034729426071022536 0.0012958898538340141 0 0.036046813037517764 0.0013622303576195382 0 0.035856178259136208 0.0018269246816617628 0 0.036046813037517764 0.0013622303576195382 0 0.036824479861671623 0.0015775933978528162 0 0.036639627820227588 0.0018254693097435849 0 0.036046813037517764 0.0013622303576195382 0 0.036451287156131794 0.0011685560274343129 0 0.035830120975337408 0.0010123947720380049 0 0.036046813037517764 0.0013622303576195382 0 0.036824479861671623 0.0015775933978528162 0 0.036451287156131794 0.0011685560274343129 0 0.034991593952825716 0.00086461235121515229 0 0.036046813037517764 0.0013622303576195382 0 0.035830120975337408 0.0010123947720380049 0 0.037201702048895273 0.0016398163953510046 0 0.037538902842288863 0.0015186633170076519 0 0.036943961814669204 0.0012493280533219741 0 0.036824479861671623 0.0015775933978528162 0 0.036451287156131794 0.0011685560274343129 0 0.037201702048895273 0.0016398163953510046 0 0.036451287156131794 0.0011685560274343129 0 0.037201702048895273 0.0016398163953510046 0 0.036943961814669204 0.0012493280533219741 0 0.037201702048895273 0.0016398163953510046 0 0.037721093234204257 0.0020710568262737807 0 0.037289261837095744 0.0019374387239207975 0 0.036824479861671623 0.0015775933978528162 0 0.037201702048895273 0.0016398163953510046 0 0.037289261837095744 0.0019374387239207975 0 0.037201702048895273 0.0016398163953510046 0 0.037823913988445097 0.0019798205988538421 0 0.037538902842288863 0.0015186633170076519 0 0.037201702048895273 0.0016398163953510046 0 0.037823913988445097 0.0019798205988538421 0 0.037721093234204257 0.0020710568262737807 0 0.037905412555715841 0.0018195574989416407 0 0.037823913988445097 0.0019798205988538421 0 0.037538902842288863 0.0015186633170076519 0 0.037823913988445097 0.0019798205988538421 0 0.038202498755459668 0.0020762149733826543 0 0.038154301628728272 0.0022468864616993467 0 0.037905412555715841 0.0018195574989416407 0 0.037823913988445097 0.0019798205988538421 0 0.038202498755459668 0.0020762149733826543 0 0.037905412555715841 0.0018195574989416407 0 0.038202498755459668 0.0020762149733826543 0 0.038171662335868203 0.0017152583181349167 0 0.038202498755459668 0.0020762149733826543 0 0.038494337634636368 0.0020033920246588476 0 0.038397301859884325 0.0022864394520305314 0 0.038202498755459668 0.0020762149733826543 0 0.038171662335868203 0.0017152583181349167 0 0.038494337634636368 0.0020033920246588476 0 0.038171662335868203 0.0017152583181349167 0 0.037538902842288863 0.0015186633170076519 0 0.037968449381142584 0.001200203289782646 0 0.037905412555715841 0.0018195574989416407 0 0.038171662335868203 0.0017152583181349167 0 0.037538902842288863 0.0015186633170076519 0 0.037538902842288863 0.0015186633170076519 0 0.037968449381142584 0.001200203289782646 0 0.037112521205458347 0.0010253296411553657 0 0.038171662335868203 0.0017152583181349167 0 0.037968449381142584 0.001200203289782646 0 0.038357940440486689 0.0014965160975614312 0 0.037968449381142584 0.001200203289782646 0 0.037431194437432459 0.0006880652187959543 0 0.038315649424352789 0.00070568536506121656 0 0.037968449381142584 0.001200203289782646 0 0.037431194437432459 0.0006880652187959543 0 0.037112521205458347 0.0010253296411553657 0 0.037431194437432459 0.0006880652187959543 0 0.037112521205458347 0.0010253296411553657 0 0.036452647631968579 0.0006219194221557205 0 0.037112521205458347 0.0010253296411553657 0 0.036398375586762517 0.00088219045826978999 0 0.036452647631968579 0.0006219194221557205 0 0.037112521205458347 0.0010253296411553657 0 0.036943961814669204 0.0012493280533219741 0 0.036398375586762517 0.00088219045826978999 0 0.037538902842288863 0.0015186633170076519 0 0.037112521205458347 0.0010253296411553657 0 0.036943961814669204 0.0012493280533219741 0 0.036451287156131794 0.0011685560274343129 0 0.036943961814669204 0.0012493280533219741 0 0.036398375586762517 0.00088219045826978999 0 0.035650035997235117 0.00048977930707162743 0 0.036398375586762517 0.00088219045826978999 0 0.036452647631968579 0.0006219194221557205 0 0.035650035997235117 0.00048977930707162743 0 0.036452647631968579 0.0006219194221557205 0 0.03559328357492323 0.00034476298516112903 0 0.037431194437432459 0.0006880652187959543 0 0.036452647631968579 0.0006219194221557205 0 0.036750288835776398 0.00021654293715921361 0 0.036452647631968579 0.0006219194221557205 0 0.03559328357492323 0.00034476298516112903 0 0.036750288835776398 0.00021654293715921361 0 0.03559328357492323 0.00034476298516112903 0 0.035692214038072656 -4.3901554027323901e-06 0 0.036750288835776398 0.00021654293715921361 0 0.03452919740023376 0.00042526094834890776 0 0.03559328357492323 0.00034476298516112903 0 0.035692214038072656 -4.3901554027323901e-06 0 0.03452919740023376 0.00042526094834890776 0 0.035692214038072656 -4.3901554027323901e-06 0 0.034766723917591502 -0.00050260368929796442 0 0.035692214038072656 -4.3901554027323901e-06 0 0.036540685126048397 -0.00032476950321093563 0 0.036750288835776398 0.00021654293715921361 0 0.036540685126048397 -0.00032476950321093563 0 0.035823817326738838 -0.00068334301031477279 0 0.036698743415194669 -0.001041743854115361 0 0.035692214038072656 -4.3901554027323901e-06 0 0.036540685126048397 -0.00032476950321093563 0 0.035823817326738838 -0.00068334301031477279 0 0.03580620432243431 -0.0013635602324420545 0 0.035823817326738838 -0.00068334301031477279 0 0.036698743415194669 -0.001041743854115361 0 0.035126093973395306 -0.0011168193191123681 0 0.035823817326738838 -0.00068334301031477279 0 0.034766723917591502 -0.00050260368929796442 0 0.035692214038072656 -4.3901554027323901e-06 0 0.035823817326738838 -0.00068334301031477279 0 0.034766723917591502 -0.00050260368929796442 0 0.037741147494544901 -0.0012473788134892039 0 0.037405314962538544 -0.00027616815500614657 0 0.0385770725432786 -0.00039000090073564991 0 0.036540685126048397 -0.00032476950321093563 0 0.036698743415194669 -0.001041743854115361 0 0.037405314962538544 -0.00027616815500614657 0 0.037741147494544901 -0.0012473788134892039 0 0.036698743415194669 -0.001041743854115361 0 0.037405314962538544 -0.00027616815500614657 0 0.036540685126048397 -0.00032476950321093563 0 0.037405314962538544 -0.00027616815500614657 0 0.036750288835776398 0.00021654293715921361 0 0.037510431601388401 -0.00026839170855650995 0 0.038516807044473474 -4.1901236142223028e-05 0 0.037405314962538544 -0.00027616815500614657 0 0.037871424839174467 0.00019455541721134724 0 0.038543319023941244 -0.00039748613598772098 0 0.037405314962538544 -0.00027616815500614657 0 0.037871424839174467 0.00019455541721134724 0 0.036750288835776398 0.00021654293715921361 0 0.037431194437432459 0.0006880652187959543 0 0.037871424839174467 0.00019455541721134724 0 0.036750288835776398 0.00021654293715921361 0 0.037431194437432459 0.0006880652187959543 0 0.037871424839174467 0.00019455541721134724 0 0.038315649424352789 0.00070568536506121656 0 0.037871424839174467 0.00019455541721134724 0 0.038911801664904877 0.00023434834332931805 0 0.038315649424352789 0.00070568536506121656 0 0.038911801664904877 0.00023434834332931805 0 0.039631134724791288 -0.00017428854781039059 0 0.03964900681937486 0.00031845365733656556 0 0.038911801664904877 0.00023434834332931805 0 0.03964900681937486 0.00031845365733656556 0 0.039364683567916399 0.00070844849409923676 0 0.038911801664904877 0.00023434834332931805 0 0.038543319023941244 -0.00039748613598772098 0 0.039631134724791288 -0.00017428854781039059 0 0.038516807044473474 -4.1901236142223028e-05 0 0.039460362458502186 0.00011190716438083235 0 0.037871424839174467 0.00019455541721134724 0 0.038911801664904877 0.00023434834332931805 0 0.038543319023941244 -0.00039748613598772098 0 0.037405314962538544 -0.00027616815500614657 0 0.038488340318285609 0.00030679704508673695 0 0.0385770725432786 -0.00039000090073564991 0 0.038488340318285609 0.00030679704508673695 0 0.039161020699680721 1.187038886144175e-05 0 0.039334781307739784 0.00042242293145274825 0 0.038488340318285609 0.00030679704508673695 0 0.039161020699680721 1.187038886144175e-05 0 0.0385770725432786 -0.00039000090073564991 0 0.039161020699680721 1.187038886144175e-05 0 0.038921120352339397 -0.00038658953757111003 0 0.0385770725432786 -0.00039000090073564991 0 0.038384314958130279 -0.0007776459047526196 0 0.038921120352339397 -0.00038658953757111003 0 0.0385770725432786 -0.00039000090073564991 0 0.037640431957168957 -0.0010163481733725414 0 0.038510225497473981 -0.00043521214963707035 0 0.039439492401580081 0.00014992449626821761 0 0.039528544363567557 0.00021669958327018429 0 0.039370927860697492 0.00041423845591716078 0 0.039439492401580081 0.00014992449626821761 0 0.039444474808887707 6.9247565366625934e-05 0 0.039528544363567557 0.00021669958327018429 0 0.039439492401580081 0.00014992449626821761 0 0.039390329988365468 -0.00019037798696894322 0 0.039444474808887707 6.9247565366625934e-05 0 0.039161020699680721 1.187038886144175e-05 0 0.038921120352339397 -0.00038658953757111003 0 0.039390329988365468 -0.00019037798696894322 0 0.039161020699680721 1.187038886144175e-05 0 0.039390329988365468 -0.00019037798696894322 0 0.039444474808887707 6.9247565366625934e-05 0 0.039161020699680721 1.187038886144175e-05 0 0.039444474808887707 6.9247565366625934e-05 0 0.039497525774143817 0.00019462927475684153 0 0.039161020699680721 1.187038886144175e-05 0 0.039497525774143817 0.00019462927475684153 0 0.039334781307739784 0.00042242293145274825 0 0.039444474808887707 6.9247565366625934e-05 0 0.039497525774143817 0.00019462927475684153 0 0.039528544363567557 0.00021669958327018429 0 0.039497525774143817 0.00019462927475684153 0 0.039528544363567557 0.00021669958327018429 0 0.039706734147029493 0.00018335938476248255 0 0.039528544363567557 0.00021669958327018429 0 0.039706734147029493 0.00018335938476248255 0 0.039448276337760477 0.00030641565706731401 0 0.039497525774143817 0.00019462927475684153 0 0.039706734147029493 0.00018335938476248255 0 0.039334781307739784 0.00042242293145274825 0 0.039460362458502186 0.00011190716438083235 0 0.039876067852126065 0.00012075428678064542 0 0.039706734147029493 0.00018335938476248255 0 0.039334781307739784 0.00042242293145274825 0 0.039937948122169296 0.00011109729696612558 0 0.039631134724791288 -0.00017428854781039059 0 0.03964900681937486 0.00031845365733656556 0 0.04001468995749749 0.00022239162708378706 0 0.03964900681937486 0.00031845365733656556 0 0.04001468995749749 0.00022239162708378706 0 0.040191219241402197 0.00072885544077750156 0 0.039631134724791288 -0.00017428854781039059 0 0.039937948122169296 0.00011109729696612558 0 0.04001468995749749 0.00022239162708378706 0 0.039937948122169296 0.00011109729696612558 0 0.04001468995749749 0.00022239162708378706 0 0.040093342932805011 3.3468358402166891e-05 0 0.04001468995749749 0.00022239162708378706 0 0.04040454441891151 0.00048593403209793346 0 0.040093342932805011 3.3468358402166891e-05 0 0.04040454441891151 0.00048593403209793346 0 0.040814072837534833 0.001155194323363348 0 0.040191219241402197 0.00072885544077750156 0 0.04001468995749749 0.00022239162708378706 0 0.04040454441891151 0.00048593403209793346 0 0.040191219241402197 0.00072885544077750156 0 0.040814072837534833 0.001155194323363348 0 0.040363688623181682 0.0013242742011079975 0 0.040191219241402197 0.00072885544077750156 0 0.040363688623181682 0.0013242742011079975 0 0.040191219241402197 0.00072885544077750156 0 0.039364683567916399 0.00070844849409923676 0 0.03964900681937486 0.00031845365733656556 0 0.040191219241402197 0.00072885544077750156 0 0.039364683567916399 0.00070844849409923676 0 0.039364683567916399 0.00070844849409923676 0 0.038315649424352789 0.00070568536506121656 0 0.038796377232370359 0.0013026212904827996 0 0.038911801664904877 0.00023434834332931805 0 0.039364683567916399 0.00070844849409923676 0 0.038315649424352789 0.00070568536506121656 0 0.037968449381142584 0.001200203289782646 0 0.038796377232370359 0.0013026212904827996 0 0.038357940440486689 0.0014965160975614312 0 0.037968449381142584 0.001200203289782646 0 0.038315649424352789 0.00070568536506121656 0 0.038796377232370359 0.0013026212904827996 0 0.040363688623181682 0.0013242742011079975 0 0.039364683567916399 0.00070844849409923676 0 0.038796377232370359 0.0013026212904827996 0 0.040465722790800178 0.0013159322498718232 0 0.040429211367226901 0.0016348059495651462 0 0.040363688623181682 0.0013242742011079975 0 0.038796377232370359 0.0013026212904827996 0 0.039103774962764772 0.0020863198990571084 0 0.038796377232370359 0.0013026212904827996 0 0.039103774962764772 0.0020863198990571084 0 0.038599427582794527 0.0017393084140613334 0 0.039103774962764772 0.0020863198990571084 0 0.038599427582794527 0.0017393084140613334 0 0.038494337634636368 0.0020033920246588476 0 0.038171662335868203 0.0017152583181349167 0 0.038357940440486689 0.0014965160975614312 0 0.038599427582794527 0.0017393084140613334 0 0.038796377232370359 0.0013026212904827996 0 0.038357940440486689 0.0014965160975614312 0 0.038599427582794527 0.0017393084140613334 0 0.038171662335868203 0.0017152583181349167 0 0.038599427582794527 0.0017393084140613334 0 0.038494337634636368 0.0020033920246588476 0 0.040429211367226901 0.0016348059495651462 0 0.039728536012011359 0.0019599398212621941 0 0.041817278145123385 0.0013128667143878228 0 0.041828491128048713 0.0015090871202915613 0 0.041078534179671722 0.0015950308451121965 0 0.039103774962764772 0.0020863198990571084 0 0.038494337634636368 0.0020033920246588476 0 0.038397301859884325 0.0022864394520305314 0 0.041817278145123385 0.0013128667143878228 0 0.041686093182987542 0.0013303683964241688 0 0.041229446938691523 0.0013184444906589835 0 0.041817278145123385 0.0013128667143878228 0 0.041828491128048713 0.0015090871202915613 0 0.041686093182987542 0.0013303683964241688 0 0.041828491128048713 0.0015090871202915613 0 0.041686093182987542 0.0013303683964241688 0 0.041915707345456792 0.0013047182387064561 0 0.041686093182987542 0.0013303683964241688 0 0.041503102039079261 0.0013102609666939646 0 0.041915707345456792 0.0013047182387064561 0 0.041503102039079261 0.0013102609666939646 0 0.04110532934718375 0.0013448142150350631 0 0.041229446938691523 0.0013184444906589835 0 0.041686093182987542 0.0013303683964241688 0 0.041503102039079261 0.0013102609666939646 0 0.041229446938691523 0.0013184444906589835 0 0.041503102039079261 0.0013102609666939646 0 0.04110532934718375 0.0013448142150350631 0 0.041459835473563855 0.0012796452689161906 0 0.040814072837534833 0.001155194323363348 0 0.040363688623181682 0.0013242742011079975 0 0.04110532934718375 0.0013448142150350631 0 0.040363688623181682 0.0013242742011079975 0 0.041817278145123385 0.0013128667143878228 0 0.041229446938691523 0.0013184444906589835 0 0.040363688623181682 0.0013242742011079975 0 0.04110532934718375 0.0013448142150350631 0 0.041229446938691523 0.0013184444906589835 0 0.041899117737951547 0.0010461726863315007 0 0.041775918650873663 0.0012214244051990805 0 0.042262089547179353 0.0010685924160568966 0 0.041899117737951547 0.0010461726863315007 0 0.042262089547179353 0.0010685924160568966 0 0.042400897956733345 0.00082726132498063662 0 0.041899117737951547 0.0010461726863315007 0 0.041459835473563855 0.0012796452689161906 0 0.0415819152845609 0.001111634379828909 0 0.041899117737951547 0.0010461726863315007 0 0.041459835473563855 0.0012796452689161906 0 0.041775918650873663 0.0012214244051990805 0 0.041503102039079261 0.0013102609666939646 0 0.041459835473563855 0.0012796452689161906 0 0.041775918650873663 0.0012214244051990805 0 0.041775918650873663 0.0012214244051990805 0 0.041915707345456792 0.0013047182387064561 0 0.042262089547179353 0.0010685924160568966 0 0.041503102039079261 0.0013102609666939646 0 0.041775918650873663 0.0012214244051990805 0 0.041915707345456792 0.0013047182387064561 0 0.041828491128048713 0.0015090871202915613 0 0.041915707345456792 0.0013047182387064561 0 0.042381978587011003 0.0012203114735498182 0 0.041915707345456792 0.0013047182387064561 0 0.042381978587011003 0.0012203114735498182 0 0.042262089547179353 0.0010685924160568966 0 0.041828491128048713 0.0015090871202915613 0 0.041078534179671722 0.0015950308451121965 0 0.040615106510033964 0.0020563372362427863 0 0.041828491128048713 0.0015090871202915613 0 0.042381978587011003 0.0012203114735498182 0 0.043225676129119865 0.0012447694142650252 0 0.041896539553454869 0.0014847956674876991 0 0.041925709580204779 0.0015922201451305394 0 0.042889800517713357 0.00093987977732651524 0 0.042381978587011003 0.0012203114735498182 0 0.043225676129119865 0.0012447694142650252 0 0.042889800517713357 0.00093987977732651524 0 0.04341687113084159 0.00074468459039235351 0 0.043225676129119865 0.0012447694142650252 0 0.042889800517713357 0.00093987977732651524 0 0.042262089547179353 0.0010685924160568966 0 0.042729070489824036 0.00078124174184606527 0 0.042889800517713357 0.00093987977732651524 0 0.042381978587011003 0.0012203114735498182 0 0.042262089547179353 0.0010685924160568966 0 0.042262089547179353 0.0010685924160568966 0 0.042729070489824036 0.00078124174184606527 0 0.042400897956733345 0.00082726132498063662 0 0.042729070489824036 0.00078124174184606527 0 0.042868730158723105 0.00053984787464602204 0 0.042400897956733345 0.00082726132498063662 0 0.042889800517713357 0.00093987977732651524 0 0.042729070489824036 0.00078124174184606527 0 0.0432684662090995 0.00056165267835169182 0 0.042889800517713357 0.00093987977732651524 0 0.0432684662090995 0.00056165267835169182 0 0.04341687113084159 0.00074468459039235351 0 0.0432684662090995 0.00056165267835169182 0 0.043459304524542615 0.00032446004543269574 0 0.043677266890098133 0.00032322369707490743 0 0.0432684662090995 0.00056165267835169182 0 0.042868730158723105 0.00053984787464602204 0 0.043459304524542615 0.00032446004543269574 0 0.042729070489824036 0.00078124174184606527 0 0.0432684662090995 0.00056165267835169182 0 0.042868730158723105 0.00053984787464602204 0 0.042868730158723105 0.00053984787464602204 0 0.042400897956733345 0.00082726132498063662 0 0.042220517736899672 0.0006952657160755511 0 0.042868730158723105 0.00053984787464602204 0 0.042220517736899672 0.0006952657160755511 0 0.042438931243330341 0.00039932874989785704 0 0.041899117737951547 0.0010461726863315007 0 0.042220517736899672 0.0006952657160755511 0 0.041783857936587447 0.0009061660582761952 0 0.041899117737951547 0.0010461726863315007 0 0.042400897956733345 0.00082726132498063662 0 0.042220517736899672 0.0006952657160755511 0 0.042220517736899672 0.0006952657160755511 0 0.042438931243330341 0.00039932874989785704 0 0.041813046093184432 0.00065817416838974418 0 0.042438931243330341 0.00039932874989785704 0 0.043180884077670546 0.00021397655724738249 0 0.042301608849456787 1.8491951142906704e-05 0 0.042868730158723105 0.00053984787464602204 0 0.042438931243330341 0.00039932874989785704 0 0.043180884077670546 0.00021397655724738249 0 0.043180884077670546 0.00021397655724738249 0 0.042782824838790992 -0.0001786516635946502 0 0.043604609334509187 -5.2297817874840767e-05 0 0.043180884077670546 0.00021397655724738249 0 0.042782824838790992 -0.0001786516635946502 0 0.042301608849456787 1.8491951142906704e-05 0 0.042782824838790992 -0.0001786516635946502 0 0.042953120152424348 -0.00066558889662848874 0 0.04193660158097437 -0.00058229316350695624 0 0.044998660895852707 -5.6869826771820815e-07 0 0.045011750631160162 -2.4693897535781152e-05 0 0.044995786433195961 -9.5175415188130881e-06 0 0.043604609334509187 -5.2297817874840767e-05 0 0.042953120152424348 -0.00066558889662848874 0 0.044738279060986229 -9.9802105456860344e-05 0 0.042782824838790992 -0.0001786516635946502 0 0.043604609334509187 -5.2297817874840767e-05 0 0.042953120152424348 -0.00066558889662848874 0 0.043977857209748825 -0.00031120854094156112 0 0.044647681530409496 -0.00014866808376202108 0 0.044998660895852707 -5.6869826771820815e-07 0 0.045011750631160162 -2.4693897535781152e-05 0 0.044738279060986229 -9.9802105456860344e-05 0 0.043977857209748825 -0.00031120854094156112 0 0.043469390888413645 -0.00029789846491818473 0 0.043604609334509187 -5.2297817874840767e-05 0 0.044738279060986229 -9.9802105456860344e-05 0 0.04407000970490034 6.2025643407259152e-06 0 0.044738279060986229 -9.9802105456860344e-05 0 0.04407000970490034 6.2025643407259152e-06 0 0.044372930051884502 -1.7859157873385547e-05 0 0.044738279060986229 -9.9802105456860344e-05 0 0.044372930051884502 -1.7859157873385547e-05 0 0.044440679471303056 4.4464181774636467e-05 0 0.04407000970490034 6.2025643407259152e-06 0 0.044372930051884502 -1.7859157873385547e-05 0 0.044192514850480633 3.8209701286912676e-05 0 0.044192514850480633 3.8209701286912676e-05 0 0.04368139623690652 0.00015808157723933841 0 0.043937507723535177 0.0001586525946633344 0 0.04407000970490034 6.2025643407259152e-06 0 0.044192514850480633 3.8209701286912676e-05 0 0.04368139623690652 0.00015808157723933841 0 0.043604609334509187 -5.2297817874840767e-05 0 0.04407000970490034 6.2025643407259152e-06 0 0.04368139623690652 0.00015808157723933841 0 0.043180884077670546 0.00021397655724738249 0 0.043604609334509187 -5.2297817874840767e-05 0 0.04368139623690652 0.00015808157723933841 0 0.042868730158723105 0.00053984787464602204 0 0.043180884077670546 0.00021397655724738249 0 0.043459304524542615 0.00032446004543269574 0 0.043180884077670546 0.00021397655724738249 0 0.04368139623690652 0.00015808157723933841 0 0.043459304524542615 0.00032446004543269574 0 0.043459304524542615 0.00032446004543269574 0 0.043937507723535177 0.0001586525946633344 0 0.043677266890098133 0.00032322369707490743 0 0.04368139623690652 0.00015808157723933841 0 0.043459304524542615 0.00032446004543269574 0 0.043937507723535177 0.0001586525946633344 0 0.044998660895852707 -5.6869826771820815e-07 0 0.044738279060986229 -9.9802105456860344e-05 0 0.044996072067531215 5.0723434401706301e-07 0 0.044738279060986229 -9.9802105456860344e-05 0 0.044440679471303056 4.4464181774636467e-05 0 0.044996072067531215 5.0723434401706301e-07 0 0.043953631241435663 0.00020243649170329398 0 0.043937507723535177 0.0001586525946633344 0 0.043677266890098133 0.00032322369707490743 0 0.043953631241435663 0.00020243649170329398 0 0.043937507723535177 0.0001586525946633344 0 0.044157151551015662 9.2626672687198212e-05 0 0.044440679471303056 4.4464181774636467e-05 0 0.044096014680426524 0.00023628351611362222 0 0.044996072067531215 5.0723434401706301e-07 0 0.043953631241435663 0.00020243649170329398 0 0.044111294058749632 9.4672935475235176e-05 0 0.044157151551015662 9.2626672687198212e-05 0 0.044111294058749632 9.4672935475235176e-05 0 0.044122319482173156 -2.5372937991989121e-05 0 0.044006127340137251 0.0002387792740612486 0 0.043953631241435663 0.00020243649170329398 0 0.044111294058749632 9.4672935475235176e-05 0 0.044006127340137251 0.0002387792740612486 0 0.044169046823807893 0.00012523894195018377 0 0.044157151551015662 9.2626672687198212e-05 0 0.044440679471303056 4.4464181774636467e-05 0 0.044111294058749632 9.4672935475235176e-05 0 0.044169046823807893 0.00012523894195018377 0 0.044157151551015662 9.2626672687198212e-05 0 0.044192514850480633 3.8209701286912676e-05 0 0.043937507723535177 0.0001586525946633344 0 0.044157151551015662 9.2626672687198212e-05 0 0.044192514850480633 3.8209701286912676e-05 0 0.044157151551015662 9.2626672687198212e-05 0 0.044440679471303056 4.4464181774636467e-05 0 0.044372930051884502 -1.7859157873385547e-05 0 0.044192514850480633 3.8209701286912676e-05 0 0.044440679471303056 4.4464181774636467e-05 0 0.044169046823807893 0.00012523894195018377 0 0.044440679471303056 4.4464181774636467e-05 0 0.044096014680426524 0.00023628351611362222 0 0.044096014680426524 0.00023628351611362222 0 0.042981598677371759 0.00020034622556635445 0 0.044000476561930034 0.00014978791419216096 0 0.044169046823807893 0.00012523894195018377 0 0.044096014680426524 0.00023628351611362222 0 0.044000476561930034 0.00014978791419216096 0 0.044111294058749632 9.4672935475235176e-05 0 0.044169046823807893 0.00012523894195018377 0 0.044000476561930034 0.00014978791419216096 0 0.044111294058749632 9.4672935475235176e-05 0 0.044000476561930034 0.00014978791419216096 0 0.044122319482173156 -2.5372937991989121e-05 0 0.042742531860086835 0.0002999573003775406 0 0.041444962330251467 0.0012061644219615031 0 0.042981598677371759 0.00020034622556635445 0 0.044000476561930034 0.00014978791419216096 0 0.044122319482173156 -2.5372937991989121e-05 0 0.042981598677371759 0.00020034622556635445 0 0.040801989348046235 0.0021596245319924338 0 0.038615403393559483 0.0023218337598228367 0 0.040801989348046235 0.0021596245319924338 0 0.038936057728441387 0.0026655962067264048 0 0.038615403393559483 0.0023218337598228367 0 0.040801989348046235 0.0021596245319924338 0 0.038936057728441387 0.0026655962067264048 0 0.038616578931430799 0.002674511388484927 0 0.038616578931430799 0.002674511388484927 0 0.038483590949053292 0.0025457032620406646 0 0.03787994499326517 0.0023225376417831439 0 0.038936057728441387 0.0026655962067264048 0 0.038616578931430799 0.002674511388484927 0 0.038483590949053292 0.0025457032620406646 0 0.038483590949053292 0.0025457032620406646 0 0.038703893997984115 0.0025115510892458992 0 0.038335660786656178 0.0024427637727143809 0 0.038936057728441387 0.0026655962067264048 0 0.038483590949053292 0.0025457032620406646 0 0.038703893997984115 0.0025115510892458992 0 0.038703893997984115 0.0025115510892458992 0 0.038615403393559483 0.0023218337598228367 0 0.039187192534429101 0.002554363111477683 0 0.038936057728441387 0.0026655962067264048 0 0.038703893997984115 0.0025115510892458992 0 0.038615403393559483 0.0023218337598228367 0 0.041444962330251467 0.0012061644219615031 0 0.041592393267607282 0.0015602310393492361 0 0.044006127340137251 0.0002387792740612486 0 0.043723994279330644 0.00044392046890171443 0 0.043989413914932718 0.00064062025107355361 0 0.044122319482173156 -2.5372937991989121e-05 0 0.044006127340137251 0.0002387792740612486 0 0.043989413914932718 0.00064062025107355361 0 0.043953631241435663 0.00020243649170329398 0 0.044006127340137251 0.0002387792740612486 0 0.043723994279330644 0.00044392046890171443 0 0.0432684662090995 0.00056165267835169182 0 0.043677266890098133 0.00032322369707490743 0 0.043723994279330644 0.00044392046890171443 0 0.043953631241435663 0.00020243649170329398 0 0.043677266890098133 0.00032322369707490743 0 0.043723994279330644 0.00044392046890171443 0 0.04341687113084159 0.00074468459039235351 0 0.043989413914932718 0.00064062025107355361 0 0.043225676129119865 0.0012447694142650252 0 0.0432684662090995 0.00056165267835169182 0 0.043723994279330644 0.00044392046890171443 0 0.04341687113084159 0.00074468459039235351 0 0.043723994279330644 0.00044392046890171443 0 0.04341687113084159 0.00074468459039235351 0 0.043989413914932718 0.00064062025107355361 0 0.038703893997984115 0.0025115510892458992 0 0.039187192534429101 0.002554363111477683 0 0.039697795434693317 0.0021403163924027971 0 0.038703893997984115 0.0025115510892458992 0 0.038199301621342351 0.0024058764879561255 0 0.038335660786656178 0.0024427637727143809 0 0.038679499238407598 0.0025331476212368553 0 0.038950426018480665 0.0023120518342685538 0 0.038199301621342351 0.0024058764879561255 0 0.0380961083678703 0.0023032482466971561 0 0.038335660786656178 0.0024427637727143809 0 0.041592393267607282 0.0015602310393492361 0 0.041925709580204779 0.0015922201451305394 0 0.039187192534429101 0.002554363111477683 0 0.039697795434693317 0.0021403163924027971 0 0.040615106510033964 0.0020563372362427863 0 0.041078534179671722 0.0015950308451121965 0 0.039697795434693317 0.0021403163924027971 0 0.040615106510033964 0.0020563372362427863 0 0.039728536012011359 0.0019599398212621941 0 0.038950426018480665 0.0023120518342685538 0 0.038397301859884325 0.0022864394520305314 0 0.038199301621342351 0.0024058764879561255 0 0.038154301628728272 0.0022468864616993467 0 0.038202498755459668 0.0020762149733826543 0 0.038397301859884325 0.0022864394520305314 0 0.038154301628728272 0.0022468864616993467 0 0.037823913988445097 0.0019798205988538421 0 0.038154301628728272 0.0022468864616993467 0 0.0380961083678703 0.0023032482466971561 0 0.038199301621342351 0.0024058764879561255 0 0.038154301628728272 0.0022468864616993467 0 0.0380961083678703 0.0023032482466971561 0 0.037823913988445097 0.0019798205988538421 0 0.0380961083678703 0.0023032482466971561 0 0.037721093234204257 0.0020710568262737807 0 0.0380961083678703 0.0023032482466971561 0 0.037721093234204257 0.0020710568262737807 0 0.03814264738027149 0.0023640910029473047 0 0.037721093234204257 0.0020710568262737807 0 0.037289261837095744 0.0019374387239207975 0 0.03787994499326517 0.0023225376417831439 0 0.038483590949053292 0.0025457032620406646 0 0.03787994499326517 0.0023225376417831439 0 0.03814264738027149 0.0023640910029473047 0 0.038483590949053292 0.0025457032620406646 0 0.038335660786656178 0.0024427637727143809 0 0.03814264738027149 0.0023640910029473047 0 0.037721093234204257 0.0020710568262737807 0 0.03787994499326517 0.0023225376417831439 0 0.03814264738027149 0.0023640910029473047 0 0.0380961083678703 0.0023032482466971561 0 0.038335660786656178 0.0024427637727143809 0 0.03814264738027149 0.0023640910029473047 0 0.037211065066950294 0.0022668753230316928 0 0.035856178259136208 0.0018269246816617628 0 0.036034065258411616 0.0024969098518262192 0 0.038616578931430799 0.002674511388484927 0 0.03787994499326517 0.0023225376417831439 0 0.037211065066950294 0.0022668753230316928 0 0.037289261837095744 0.0019374387239207975 0 0.03787994499326517 0.0023225376417831439 0 0.037211065066950294 0.0022668753230316928 0 0.037289261837095744 0.0019374387239207975 0 0.037211065066950294 0.0022668753230316928 0 0.036639627820227588 0.0018254693097435849 0 0.036824479861671623 0.0015775933978528162 0 0.037289261837095744 0.0019374387239207975 0 0.036639627820227588 0.0018254693097435849 0 0.037211065066950294 0.0022668753230316928 0 0.036639627820227588 0.0018254693097435849 0 0.035856178259136208 0.0018269246816617628 0 0.036046813037517764 0.0013622303576195382 0 0.036639627820227588 0.0018254693097435849 0 0.035856178259136208 0.0018269246816617628 0 0.034729426071022536 0.0012958898538340141 0 0.035856178259136208 0.0018269246816617628 0 0.03436386940483261 0.0018609834604093195 0 0.03436386940483261 0.0018609834604093195 0 0.035135503314523808 0.0032308567198981834 0 0.033345629275069816 0.0023862383719907786 0 0.03436386940483261 0.0018609834604093195 0 0.036034065258411616 0.0024969098518262192 0 0.035135503314523808 0.0032308567198981834 0 0.035856178259136208 0.0018269246816617628 0 0.03436386940483261 0.0018609834604093195 0 0.036034065258411616 0.0024969098518262192 0 0.039152536708890816 0.0017036832680030222 0 0.040363218865982757 0.0021392393595887137 0 0.036034065258411616 0.0024969098518262192 0 0.035135503314523808 0.0032308567198981834 0 0.037443395893499064 0.0033367980461052756 0 0.043213914714408511 0.00026947162115728622 0 0.043594298941073181 0.0010970683326454878 0 0.043492911789637496 0.00067006790672805667 0 0.043213914714408511 0.00026947162115728622 0 0.043492911789637496 0.00067006790672805667 0 0.042450716977582181 0.00038374025062934181 0 0.039152536708890816 0.0017036832680030222 0 0.03759220017878015 0.00076828264087725373 0 0.043213914714408511 0.00026947162115728622 0 0.042450716977582181 0.00038374025062934181 0 0.041826644209902564 -0.0008708262359592942 0 0.037211065066950294 0.0022668753230316928 0 0.036034065258411616 0.0024969098518262192 0 0.037443395893499064 0.0033367980461052756 0 0.038616578931430799 0.002674511388484927 0 0.037211065066950294 0.0022668753230316928 0 0.037443395893499064 0.0033367980461052756 0 0.040563612630119615 0.0020721424419792253 0 0.040363218865982757 0.0021392393595887137 0 0.040801989348046235 0.0021596245319924338 0 0.038616578931430799 0.002674511388484927 0 0.037443395893499064 0.0033367980461052756 0 0.044996072067531215 5.0723434401706301e-07 0 0.043492911789637496 0.00067006790672805667 0 0.044994120251973892 1.4330811647735911e-06 0 0.042981598677371759 0.00020034622556635445 0 0.042852768200088341 0.00090916967084267919 0 0.043559635098743464 0.00066092252313815528 0 0.040801989348046235 0.0021596245319924338 0 0.043594298941073181 0.0010970683326454878 0 0.042852768200088341 0.00090916967084267919 0 0.043559635098743464 0.00066092252313815528 0 0.043894251777738542 0.00028436164150503969 0 0.043492911789637496 0.00067006790672805667 0 0.042981598677371759 0.00020034622556635445 0 0.040801989348046235 0.0021596245319924338 0 0.042852768200088341 0.00090916967084267919 0 0.043594298941073181 0.0010970683326454878 0 0.043559635098743464 0.00066092252313815528 0 0.043492911789637496 0.00067006790672805667 0 0.043594298941073181 0.0010970683326454878 0 0.042852768200088341 0.00090916967084267919 0 0.043559635098743464 0.00066092252313815528 0 0.042981598677371759 0.00020034622556635445 0 0.043559635098743464 0.00066092252313815528 0 0.043894251777738542 0.00028436164150503969 0 0.044096014680426524 0.00023628351611362222 0 0.042981598677371759 0.00020034622556635445 0 0.043894251777738542 0.00028436164150503969 0 0.043894251777738542 0.00028436164150503969 0 0.044996072067531215 5.0723434401706301e-07 0 0.043492911789637496 0.00067006790672805667 0 0.044096014680426524 0.00023628351611362222 0 0.043894251777738542 0.00028436164150503969 0 0.044996072067531215 5.0723434401706301e-07 0 0.043492911789637496 0.00067006790672805667 0 0.042334690359888287 0.00062837846971845995 0 0.042450716977582181 0.00038374025062934181 0 0.043492911789637496 0.00067006790672805667 0 0.042334690359888287 0.00062837846971845995 0 0.044994120251973892 1.4330811647735911e-06 0 0.042226531277625774 0.00057447284187157779 0 0.041234480292016727 0.00049105046225372091 0 0.044994120251973892 1.4330811647735911e-06 0 0.042397407117101535 0.00030875913318782376 0 0.040666282899503123 -1.1459098359295008e-06 0 0.042334690359888287 0.00062837846971845995 0 0.044994120251973892 1.4330811647735911e-06 0 0.042397407117101535 0.00030875913318782376 0 0.041234480292016727 0.00049105046225372091 0 0.040656650536131073 2.8547184403299976e-07 0 0.039997881798268298 0.00075436902828604512 0 0.040652844630851385 4.5843113214826485e-07 0 0.038082521904874711 1.2810518518492855e-06 0 0.039997881798268298 0.00075436902828604512 0 0.038082521904874711 1.2810518518492855e-06 0 0.040029782012507162 8.309004094448018e-05 0 0.038082521904874711 1.2810518518492855e-06 0 0.040029782012507162 8.309004094448018e-05 0 0.037735180664488298 -0.00016201867729909807 0 0.038082521904874711 1.2810518518492855e-06 0 0.035506722393709743 -1.6656466149445229e-06 0 0.037735180664488298 -0.00016201867729909807 0 0.042334690359888287 0.00062837846971845995 0 0.039997881798268298 0.00075436902828604512 0 0.040029782012507162 8.309004094448018e-05 0 0.042334690359888287 0.00062837846971845995 0 0.042450716977582181 0.00038374025062934181 0 0.040029782012507162 8.309004094448018e-05 0 0.042450716977582181 0.00038374025062934181 0 0.040029782012507162 8.309004094448018e-05 0 0.041826644209902564 -0.0008708262359592942 0 0.032399648757396961 0.00094199761658169442 0 0.033345629275069816 0.0023862383719907786 0 0.032735898245919624 0.0010969336302016047 0 0.035864322649232352 -5.3939679833524605e-05 0 0.03759220017878015 0.00076828264087725373 0 0.040029782012507162 8.309004094448018e-05 0 0.039112744014838573 -0.0013329092900104741 0 0.041826644209902564 -0.0008708262359592942 0 0.03436386940483261 0.0018609834604093195 0 0.033345629275069816 0.0023862383719907786 0 0.032735898245919624 0.0010969336302016047 0 0.033300069007109481 0.0010597446058021962 0 0.03436386940483261 0.0018609834604093195 0 0.032735898245919624 0.0010969336302016047 0 0.032391346791286732 0.00053433246284683594 0 0.032399648757396961 0.00094199761658169442 0 0.032735898245919624 0.0010969336302016047 0 0.035864322649232352 -5.3939679833524605e-05 0 0.034441187998879227 -0.00023504139983229698 0 0.032391346791286732 0.00053433246284683594 0 0.032399648757396961 0.00094199761658169442 0 0.034075588966012288 -0.00026668749498354356 0 0.039112744014838573 -0.0013329092900104741 0 0.034075588966012288 -0.00026668749498354356 0 0.036421305394302536 -0.00039551255258367125 0 0.032930479180599583 5.2098907475409304e-07 0 0.034075588966012288 -0.00026668749498354356 0 0.035506722393709743 -1.6656466149445229e-06 0 0.034075588966012288 -0.00026668749498354356 0 0.036421305394302536 -0.00039551255258367125 0 0.035506722393709743 -1.6656466149445229e-06 0 0.036421305394302536 -0.00039551255258367125 0 0.035506722393709743 -1.6656466149445229e-06 0 0.037735180664488298 -0.00016201867729909807 0 0.039112744014838573 -0.0013329092900104741 0 0.036421305394302536 -0.00039551255258367125 0 0.037735180664488298 -0.00016201867729909807 0 0.040029782012507162 8.309004094448018e-05 0 0.039112744014838573 -0.0013329092900104741 0 0.037735180664488298 -0.00016201867729909807 0 0.039663044849640276 9.3315010986668508e-05 0 0.039678812489867078 9.4132413805274754e-05 0 0.039690711724877065 0.00011073185103216386 0 0.039663044849640276 9.3315010986668508e-05 0 0.039664109934629328 0.00015030169327537549 0 0.039678812489867078 9.4132413805274754e-05 0 0.039623224293453184 9.0327088127470698e-05 0 0.039637612490171288 7.0674280057828295e-05 0 0.039584437566791274 3.649401039167513e-05 0 0.039663044849640276 9.3315010986668508e-05 0 0.039623224293453184 9.0327088127470698e-05 0 0.039637612490171288 7.0674280057828295e-05 0 0.039663044849640276 9.3315010986668508e-05 0 0.039623224293453184 9.0327088127470698e-05 0 0.039664109934629328 0.00015030169327537549 0 0.039623224293453184 9.0327088127470698e-05 0 0.039592784996901061 0.00016645422917527242 0 0.039664109934629328 0.00015030169327537549 0 0.039067863935286072 0.00050372113537115162 0 0.039219568302434872 0.00028005125191174512 0 0.038522179046315615 0.0007162223964944373 0 0.038776139984857745 0.00070759140830281835 0 0.038743357647655706 0.00049023413063962096 0 0.038776139984857745 0.00070759140830281835 0 0.038944185219535465 0.00054543870762411586 0 0.038743357647655706 0.00049023413063962096 0 0.038776139984857745 0.00070759140830281835 0 0.038944185219535465 0.00054543870762411586 0 0.03901780660917991 0.00071994181739162529 0 0.038944185219535465 0.00054543870762411586 0 0.038743357647655706 0.00049023413063962096 0 0.039036299036678317 0.00027790709016927789 0 0.039678812489867078 9.4132413805274754e-05 0 0.039650529784624612 8.5026462487820741e-05 0 0.039690711724877065 0.00011073185103216386 0 0.039219568302434872 0.00028005125191174512 0 0.039335532372572597 0.0001948906587702186 0 0.039650529784624612 8.5026462487820741e-05 0 0.039614307846701551 0.00019805380739378511 0 0.039721533468461169 0.00018738227372809172 0 0.039650529784624612 8.5026462487820741e-05 0 0.039690711724877065 0.00011073185103216386 0 0.039721533468461169 0.00018738227372809172 0 0.039690711724877065 0.00011073185103216386 0 0.03969862008209761 0.00015754043425153939 0 0.039721533468461169 0.00018738227372809172 0 0.039690711724877065 0.00011073185103216386 0 0.039665340083127172 0.00011386146172258284 0 0.03969862008209761 0.00015754043425153939 0 0.039663044849640276 9.3315010986668508e-05 0 0.039690711724877065 0.00011073185103216386 0 0.039637612490171288 7.0674280057828295e-05 0 0.039690711724877065 0.00011073185103216386 0 0.039637612490171288 7.0674280057828295e-05 0 0.039665340083127172 0.00011386146172258284 0 0.039637612490171288 7.0674280057828295e-05 0 0.039665340083127172 0.00011386146172258284 0 0.039635966701661869 8.980480022623705e-05 0 0.039665340083127172 0.00011386146172258284 0 0.03969862008209761 0.00015754043425153939 0 0.039660094341846544 0.00013687828288702872 0 0.039665340083127172 0.00011386146172258284 0 0.039635966701661869 8.980480022623705e-05 0 0.039660094341846544 0.00013687828288702872 0 0.039635966701661869 8.980480022623705e-05 0 0.039662164934499464 9.4452937913140135e-05 0 0.039660094341846544 0.00013687828288702872 0 0.039440685141480442 -0.00017349253184232525 0 0.039459700238380371 -0.00017132363771459378 0 0.039479923766104215 -0.00016449889431791861 0 0.039436458925196011 -0.00019076289263941966 0 0.039440685141480442 -0.00017349253184232525 0 0.039459700238380371 -0.00017132363771459378 0 0.039436458925196011 -0.00019076289263941966 0 0.039440685141480442 -0.00017349253184232525 0 0.03941855147452529 -0.00015922637357369433 0 0.039436458925196011 -0.00019076289263941966 0 0.039414714896008264 -0.00012934316195241412 0 0.039485544198540883 -3.723449568476115e-05 0 0.03954343679534942 -4.1153959542831582e-05 0 0.039498438497894445 -2.5543067556245929e-05 0 0.039436458925196011 -0.00019076289263941966 0 0.039414714896008264 -0.00012934316195241412 0 0.03941855147452529 -0.00015922637357369433 0 0.039662164934499464 9.4452937913140135e-05 0 0.03959690145806017 4.073695163018869e-05 0 0.039485544198540883 -3.723449568476115e-05 0 0.039637612490171288 7.0674280057828295e-05 0 0.03959690145806017 4.073695163018869e-05 0 0.039584437566791274 3.649401039167513e-05 0 0.039637612490171288 7.0674280057828295e-05 0 0.039635966701661869 8.980480022623705e-05 0 0.03959690145806017 4.073695163018869e-05 0 0.039635966701661869 8.980480022623705e-05 0 0.039662164934499464 9.4452937913140135e-05 0 0.03959690145806017 4.073695163018869e-05 0 0.039429406769154518 -0.00018512765035209736 0 0.039424425446803392 -0.00019788294351177649 0 0.039424861753235257 -0.00020304360375742177 0 0.039455888799245026 -0.00017158998120728178 0 0.03968226902627401 -8.4287763276488158e-05 0 0.039429406769154518 -0.00018512765035209736 0 0.039422350037866427 -0.0001802937637176112 0 0.039424425446803392 -0.00019788294351177649 0 0.039429406769154518 -0.00018512765035209736 0 0.039440685141480442 -0.00017349253184232525 0 0.039479923766104215 -0.00016449889431791861 0 0.039429406769154518 -0.00018512765035209736 0 0.039440685141480442 -0.00017349253184232525 0 0.039422350037866427 -0.0001802937637176112 0 0.039414714896008264 -0.00012934316195241412 0 0.03941855147452529 -0.00015922637357369433 0 0.039405529321839709 -0.00021709801689948524 0 0.03941855147452529 -0.00015922637357369433 0 0.039422350037866427 -0.0001802937637176112 0 0.039405529321839709 -0.00021709801689948524 0 0.039440685141480442 -0.00017349253184232525 0 0.03941855147452529 -0.00015922637357369433 0 0.039422350037866427 -0.0001802937637176112 0 0.039422350037866427 -0.0001802937637176112 0 0.039424425446803392 -0.00019788294351177649 0 0.039422673338445 -0.00021218478808547695 0 0.039422350037866427 -0.0001802937637176112 0 0.039422673338445 -0.00021218478808547695 0 0.039405529321839709 -0.00021709801689948524 0 0.039409312321971278 -0.00021426212346248457 0 0.039341398518162873 3.9746728258687833e-05 0 0.039234663247661665 -0.00014368044230627785 0 0.039315564592597593 -0.00010171621078992664 0 0.039185683764495424 -0.00023068215214528079 0 0.039234663247661665 -0.00014368044230627785 0 0.039150221283939343 -0.00035733948466691904 0 0.03917361501486985 -0.00054497094200860695 0 0.039234663247661665 -0.00014368044230627785 0 0.039150221283939343 -0.00035733948466691904 0 0.039185683764495424 -0.00023068215214528079 0 0.039422673338445 -0.00021218478808547695 0 0.039405529321839709 -0.00021709801689948524 0 0.039418349976296861 -0.00027206569684333932 0 0.039234663247661665 -0.00014368044230627785 0 0.039531805183286195 -0.00050287947594920574 0 0.03917361501486985 -0.00054497094200860695 0 0.039341398518162873 3.9746728258687833e-05 0 0.039107058768077928 -0.0015786176993751772 0 0.039552496223418075 7.2381394430901376e-05 0 0.039584437566791274 3.649401039167513e-05 0 0.039485544198540883 -3.723449568476115e-05 0 0.039623224293453184 9.0327088127470698e-05 0 0.039552496223418075 7.2381394430901376e-05 0 0.039584437566791274 3.649401039167513e-05 0 0.03959690145806017 4.073695163018869e-05 0 0.039584437566791274 3.649401039167513e-05 0 0.039485544198540883 -3.723449568476115e-05 0 0.039414714896008264 -0.00012934316195241412 0 0.039234663247661665 -0.00014368044230627785 0 0.039315564592597593 -0.00010171621078992664 0 0.039552496223418075 7.2381394430901376e-05 0 0.039485544198540883 -3.723449568476115e-05 0 0.039315564592597593 -0.00010171621078992664 0 0.039414714896008264 -0.00012934316195241412 0 0.039485544198540883 -3.723449568476115e-05 0 0.039315564592597593 -0.00010171621078992664 0 0.039298705843274856 -8.2041109222766732e-05 0 0.039252554054134844 -0.00015214362444807084 0 0.039150221283939343 -0.00035733948466691904 0 0.039185683764495424 -0.00023068215214528079 0 0.038977744447605642 -0.0003422440481254078 0 0.039552496223418075 7.2381394430901376e-05 0 0.039315564592597593 -0.00010171621078992664 0 0.039498655203508017 0.00017505670938954766 0 0.039315564592597593 -0.00010171621078992664 0 0.039185683764495424 -0.00023068215214528079 0 0.038977744447605642 -0.0003422440481254078 0 0.039623224293453184 9.0327088127470698e-05 0 0.039592784996901061 0.00016645422917527242 0 0.039552496223418075 7.2381394430901376e-05 0 0.039592784996901061 0.00016645422917527242 0 0.039552496223418075 7.2381394430901376e-05 0 0.039498655203508017 0.00017505670938954766 0 0.039252554054134844 -0.00015214362444807084 0 0.039024346467874213 0.00020211390717963525 0 0.038977744447605642 -0.0003422440481254078 0 0.038976673866577112 -0.00053454979082309076 0 0.038852006317385952 -0.00056383579087630233 0 0.039592784996901061 0.00016645422917527242 0 0.039498655203508017 0.00017505670938954766 0 0.039576489071986277 0.0002622832222062362 0 0.039150221283939343 -0.00035733948466691904 0 0.038977744447605642 -0.0003422440481254078 0 0.039102017669089877 -0.00052831298378527044 0 0.038977744447605642 -0.0003422440481254078 0 0.038976673866577112 -0.00053454979082309076 0 0.039102017669089877 -0.00052831298378527044 0 0.038976673866577112 -0.00053454979082309076 0 0.039102017669089877 -0.00052831298378527044 0 0.039054679907973094 -0.00059400374810578984 0 0.038976673866577112 -0.00053454979082309076 0 0.039054679907973094 -0.00059400374810578984 0 0.03899579639975926 -0.00066198189439449647 0 0.039102017669089877 -0.00052831298378527044 0 0.039054679907973094 -0.00059400374810578984 0 0.039134262519813903 -0.00061188739243820919 0 0.039054679907973094 -0.00059400374810578984 0 0.039065720000004842 -0.00065054342112449146 0 0.039134262519813903 -0.00061188739243820919 0 0.039054679907973094 -0.00059400374810578984 0 0.039065720000004842 -0.00065054342112449146 0 0.03899579639975926 -0.00066198189439449647 0 0.039334383854535838 4.6334328723513351e-06 0 0.039334476871880374 -4.7566759126924355e-06 0 0.039323409945161737 3.2310876692401994e-06 0 0.038976673866577112 -0.00053454979082309076 0 0.038907649551478025 -0.00057748172476551911 0 0.03899579639975926 -0.00066198189439449647 0 0.03907664965911152 -0.00011975450340002423 0 0.039165902660895244 -0.00033911525700356548 0 0.039334383854535838 4.6334328723513351e-06 0 0.039334476871880374 -4.7566759126924355e-06 0 0.039341791537637248 1.1149897203097649e-06 0 0.038976673866577112 -0.00053454979082309076 0 0.038880473250942772 -0.00059140240985398299 0 0.038852006317385952 -0.00056383579087630233 0 0.038911948605648762 0.00012908554101895989 0 0.038969049873931967 7.2764881356833269e-05 0 0.039062628427660735 0.00022431374030068614 0 0.03907664965911152 -0.00011975450340002423 0 0.038928606979369257 0.00040266361309161631 0 0.03907664965911152 -0.00011975450340002423 0 0.039024346467874213 0.00020211390717963525 0 0.038854690874329231 -0.00050224162982078857 0 0.03907664965911152 -0.00011975450340002423 0 0.039531805183286195 -0.00050287947594920574 0 0.03917361501486985 -0.00054497094200860695 0 0.038998288017589394 -0.0010995770555040135 0 0.039102017669089877 -0.00052831298378527044 0 0.03917361501486985 -0.00054497094200860695 0 0.039134262519813903 -0.00061188739243820919 0 0.039150221283939343 -0.00035733948466691904 0 0.039102017669089877 -0.00052831298378527044 0 0.03917361501486985 -0.00054497094200860695 0 0.03917361501486985 -0.00054497094200860695 0 0.038937087747485062 -0.001019202614833632 0 0.038998288017589394 -0.0010995770555040135 0 0.039159700922917907 -0.00056279373482982309 0 0.039040758090918726 -0.00083973736707682435 0 0.039107058768077928 -0.0015786176993751772 0 0.039012505699190916 -0.00096049215280769897 0 0.038525993793903826 -0.0018936026290222927 0 0.038998288017589394 -0.0010995770555040135 0 0.03851093129781584 -0.001119617845223307 0 0.038998288017589394 -0.0010995770555040135 0 0.03851093129781584 -0.001119617845223307 0 0.03882862117707131 -0.00092749020573976409 0 0.03851093129781584 -0.001119617845223307 0 0.03882862117707131 -0.00092749020573976409 0 0.03863982826697536 -0.0007673256426653952 0 0.03882862117707131 -0.00092749020573976409 0 0.038888455260924853 -0.00075406802077478661 0 0.03863982826697536 -0.0007673256426653952 0 0.038937087747485062 -0.001019202614833632 0 0.038984253076647199 -0.00092908001693373164 0 0.039144524516419206 -0.0008536051286105248 0 0.03882862117707131 -0.00092749020573976409 0 0.038888455260924853 -0.00075406802077478661 0 0.038984253076647199 -0.00092908001693373164 0 0.038998288017589394 -0.0010995770555040135 0 0.03882862117707131 -0.00092749020573976409 0 0.038984253076647199 -0.00092908001693373164 0 0.038937087747485062 -0.001019202614833632 0 0.038998288017589394 -0.0010995770555040135 0 0.038984253076647199 -0.00092908001693373164 0 0.038984253076647199 -0.00092908001693373164 0 0.039027401903344805 -0.00065925143827506817 0 0.039144524516419206 -0.0008536051286105248 0 0.038888455260924853 -0.00075406802077478661 0 0.038984253076647199 -0.00092908001693373164 0 0.039027401903344805 -0.00065925143827506817 0 0.039027401903344805 -0.00065925143827506817 0 0.039017181767093977 -0.00037426035170911318 0 0.038820731859629316 -0.0005211774740562482 0 0.038890177840810183 -0.00023041503562128824 0 0.039017181767093977 -0.00037426035170911318 0 0.038820731859629316 -0.0005211774740562482 0 0.038888455260924853 -0.00075406802077478661 0 0.039027401903344805 -0.00065925143827506817 0 0.038820731859629316 -0.0005211774740562482 0 0.038573259952012731 -0.0003797301033092341 0 0.038890177840810183 -0.00023041503562128824 0 0.038820731859629316 -0.0005211774740562482 0 0.038573259952012731 -0.0003797301033092341 0 0.03863982826697536 -0.0007673256426653952 0 0.03819003297380321 -0.00080918575091814453 0 0.038888455260924853 -0.00075406802077478661 0 0.038820731859629316 -0.0005211774740562482 0 0.03863982826697536 -0.0007673256426653952 0 0.038573259952012731 -0.0003797301033092341 0 0.038820731859629316 -0.0005211774740562482 0 0.03863982826697536 -0.0007673256426653952 0 0.039334383854535838 4.6334328723513351e-06 0 0.039340410437081773 1.6703464837593736e-05 0 0.039341791537637248 1.1149897203097649e-06 0 0.039326215300771301 1.952214386934299e-05 0 0.039340410437081773 1.6703464837593736e-05 0 0.039323409945161737 3.2310876692401994e-06 0 0.039334383854535838 4.6334328723513351e-06 0 0.039340410437081773 1.6703464837593736e-05 0 0.039323409945161737 3.2310876692401994e-06 0 0.039065720000004842 -0.00065054342112449146 0 0.03899579639975926 -0.00066198189439449647 0 0.03907970009660712 -0.0007408081508147959 0 0.039165902660895244 -0.00033911525700356548 0 0.039128015428447384 -0.00053266828616223847 0 0.039040758090918726 -0.00083973736707682435 0 0.039128015428447384 -0.00053266828616223847 0 0.039065720000004842 -0.00065054342112449146 0 0.039134262519813903 -0.00061188739243820919 0 0.03907970009660712 -0.0007408081508147959 0 0.03911849715155688 -0.00066853497174271855 0 0.039128015428447384 -0.00053266828616223847 0 0.039326215300771301 1.952214386934299e-05 0 0.039323409945161737 3.2310876692401994e-06 0 0.039308806541317333 1.2730431508954182e-05 0 0.039027401903344805 -0.00065925143827506817 0 0.039174066309936521 -0.00080038854096949497 0 0.039295323922301256 -0.00037011848028218941 0 0.039326215300771301 1.952214386934299e-05 0 0.039308806541317333 1.2730431508954182e-05 0 0.039316585173815886 3.7207662739732042e-05 0 0.039128015428447384 -0.00053266828616223847 0 0.039312409329638295 -0.00013671647387258825 0 0.039027401903344805 -0.00065925143827506817 0 0.039017181767093977 -0.00037426035170911318 0 0.039295323922301256 -0.00037011848028218941 0 0.039338819929465647 5.277555837822332e-05 0 0.039316585173815886 3.7207662739732042e-05 0 0.039339441782350597 3.078735689760909e-05 0 0.039326215300771301 1.952214386934299e-05 0 0.039316585173815886 3.7207662739732042e-05 0 0.039339441782350597 3.078735689760909e-05 0 0.039326215300771301 1.952214386934299e-05 0 0.039340410437081773 1.6703464837593736e-05 0 0.039339441782350597 3.078735689760909e-05 0 0.039340410437081773 1.6703464837593736e-05 0 0.039339441782350597 3.078735689760909e-05 0 0.039348863837880957 2.7986502543629499e-05 0 0.039360339439503129 4.2736793726454258e-05 0 0.039338819929465647 5.277555837822332e-05 0 0.039339441782350597 3.078735689760909e-05 0 0.03789859675425352 0.0012564895916381716 0 0.038281043138203436 0.0013050135031821752 0 0.037920536262814601 0.0019612349358336988 0 0.039360339439503129 4.2736793726454258e-05 0 0.039339441782350597 3.078735689760909e-05 0 0.039348863837880957 2.7986502543629499e-05 0 0.0388456784995313 0.00071531768624210203 0 0.038254395069178604 0.00066520308239007388 0 0.039360339439503129 4.2736793726454258e-05 0 0.039348863837880957 2.7986502543629499e-05 0 0.039353102728680978 2.379371257496743e-05 0 0.037140483268542128 0.0006215261974255869 0 0.037162061552781123 0.00051449453331982927 0 0.037084594134608365 0.00049254868775981588 0 0.037277638215862628 0.0010192005015896355 0 0.038254395069178604 0.00066520308239007388 0 0.037500939032604257 0.001321302161348083 0 0.03789859675425352 0.0012564895916381716 0 0.037920536262814601 0.0019612349358336988 0 0.037140483268542128 0.0006215261974255869 0 0.037162061552781123 0.00051449453331982927 0 0.037200362058045 0.00055932890766968518 0 0.037162061552781123 0.00051449453331982927 0 0.037113922357230981 0.00044060869218134815 0 0.037261959536307863 0.00050747251525211476 0 0.03813390853695605 0.00085140215950974365 0 0.037768898847180432 0.00071114823025168251 0 0.037162061552781123 0.00051449453331982927 0 0.037113922357230981 0.00044060869218134815 0 0.037084594134608365 0.00049254868775981588 0 0.03813390853695605 0.00085140215950974365 0 0.038254395069178604 0.00066520308239007388 0 0.038630606260588882 0.0010558829738651009 0 0.038583605960045154 0.0010165800869734911 0 0.038513208611652486 0.0010130367328331593 0 0.038630606260588882 0.0010558829738651009 0 0.038583605960045154 0.0010165800869734911 0 0.038632533727989533 0.00096922832542589439 0 0.039340410437081773 1.6703464837593736e-05 0 0.039353102728680978 2.379371257496743e-05 0 0.039341791537637248 1.1149897203097649e-06 0 0.038254395069178604 0.00066520308239007388 0 0.038928606979369257 0.00040266361309161631 0 0.039340410437081773 1.6703464837593736e-05 0 0.039348863837880957 2.7986502543629499e-05 0 0.039353102728680978 2.379371257496743e-05 0 0.038426455828323512 0.00061815544238492568 0 0.038464276061931105 0.00054723353044775608 0 0.038564877008539424 0.00069947784537240283 0 0.03813390853695605 0.00085140215950974365 0 0.038928606979369257 0.00040266361309161631 0 0.038530304451347787 0.0010067988473993973 0 0.038415482576762083 0.00093224100483210791 0 0.038499803732959685 0.00092040323895533889 0 0.038382268909759681 0.0008799258823564231 0 0.038447363912531791 0.00089450048047972394 0 0.038492809529112312 0.00084518055193448603 0 0.038382268909759681 0.0008799258823564231 0 0.038415482576762083 0.00093224100483210791 0 0.038447363912531791 0.00089450048047972394 0 0.039024346467874213 0.00020211390717963525 0 0.038928606979369257 0.00040266361309161631 0 0.038447363912531791 0.00089450048047972394 0 0.038499803732959685 0.00092040323895533889 0 0.038492809529112312 0.00084518055193448603 0 0.038415482576762083 0.00093224100483210791 0 0.038447363912531791 0.00089450048047972394 0 0.038499803732959685 0.00092040323895533889 0 0.03813390853695605 0.00085140215950974365 0 0.038776201291876769 0.0008826982235156357 0 0.038630606260588882 0.0010558829738651009 0 0.038643570695079919 0.00083590454874496738 0 0.038632533727989533 0.00096922832542589439 0 0.038530304451347787 0.0010067988473993973 0 0.038499803732959685 0.00092040323895533889 0 0.038643570695079919 0.00083590454874496738 0 0.038522179046315615 0.0007162223964944373 0 0.038492809529112312 0.00084518055193448603 0 0.038643570695079919 0.00083590454874496738 0 0.038499803732959685 0.00092040323895533889 0 0.038492809529112312 0.00084518055193448603 0 0.038643570695079919 0.00083590454874496738 0 0.039067863935286072 0.00050372113537115162 0 0.039024346467874213 0.00020211390717963525 0 0.039592784996901061 0.00016645422917527242 0 0.039664109934629328 0.00015030169327537549 0 0.039576489071986277 0.0002622832222062362 0 0.038522179046315615 0.0007162223964944373 0 0.038382268909759681 0.0008799258823564231 0 0.038492809529112312 0.00084518055193448603 0 0.038776139984857745 0.00070759140830281835 0 0.038824002174970285 0.00089670927227948681 0 0.03901780660917991 0.00071994181739162529 0 0.038522179046315615 0.0007162223964944373 0 0.038776139984857745 0.00070759140830281835 0 0.038643570695079919 0.00083590454874496738 0 0.038776139984857745 0.00070759140830281835 0 0.038643570695079919 0.00083590454874496738 0 0.038824002174970285 0.00089670927227948681 0 0.038643570695079919 0.00083590454874496738 0 0.038735170546628832 0.00096458529161476566 0 0.038824002174970285 0.00089670927227948681 0 0.038643570695079919 0.00083590454874496738 0 0.038632533727989533 0.00096922832542589439 0 0.038735170546628832 0.00096458529161476566 0 0.038632533727989533 0.00096922832542589439 0 0.038735170546628832 0.00096458529161476566 0 0.038662841547908097 0.0010439739188852605 0 0.039148886273804515 0.0011022792622178157 0 0.037977716751961973 0.00073764032955833355 0 0.038735170546628832 0.00096458529161476566 0 0.038824002174970285 0.00089670927227948681 0 0.038917987839334874 0.0010035002426205361 0 0.038735170546628832 0.00096458529161476566 0 0.038662841547908097 0.0010439739188852605 0 0.038917987839334874 0.0010035002426205361 0 0.038253546633559385 0.00098560469744722644 0 0.037593660281965854 0.00045390257306304391 0 0.037337208378780018 0.0012769480029017723 0 0.038401906980604868 0.0010407383842939086 0 0.037977716751961973 0.00073764032955833355 0 0.038630606260588882 0.0010558829738651009 0 0.038513208611652486 0.0010130367328331593 0 0.038411226658972376 0.00095223518606754099 0 0.038583605960045154 0.0010165800869734911 0 0.038632533727989533 0.00096922832542589439 0 0.038662841547908097 0.0010439739188852605 0 0.038401906980604868 0.0010407383842939086 0 0.038509804133085072 0.0010304920162815263 0 0.038400135735278014 0.001191953334047071 0 0.038513208611652486 0.0010130367328331593 0 0.038411226658972376 0.00095223518606754099 0 0.038583605960045154 0.0010165800869734911 0 0.038662841547908097 0.0010439739188852605 0 0.038513208611652486 0.0010130367328331593 0 0.037162061552781123 0.00051449453331982927 0 0.037200362058045 0.00055932890766968518 0 0.037261959536307863 0.00050747251525211476 0 0.037389662122213431 0.00066178834116486357 0 0.037261959536307863 0.00050747251525211476 0 0.037241793275287829 0.0006166053390099179 0 0.037200362058045 0.00055932890766968518 0 0.037261959536307863 0.00050747251525211476 0 0.037241793275287829 0.0006166053390099179 0 0.037140483268542128 0.0006215261974255869 0 0.037200362058045 0.00055932890766968518 0 0.037241793275287829 0.0006166053390099179 0 0.038401906980604868 0.0010407383842939086 0 0.037755959039082757 0.00068648547697037284 0 0.037531321689697063 0.00068657283029367017 0 0.037389662122213431 0.00066178834116486357 0 0.037261959536307863 0.00050747251525211476 0 0.037531321689697063 0.00068657283029367017 0 0.038411226658972376 0.00095223518606754099 0 0.03761115936380989 0.00083802512422179198 0 0.037596003826558852 0.00069464454847930192 0 0.037768898847180432 0.00071114823025168251 0 0.038400135735278014 0.001191953334047071 0 0.038411226658972376 0.00095223518606754099 0 0.03761115936380989 0.00083802512422179198 0 0.036931747912317875 -7.459025257175312e-05 0 0.037593660281965854 0.00045390257306304391 0 0.036878817490148381 0.000366151858087638 0 0.037593660281965854 0.00045390257306304391 0 0.036811908247135608 0.00082296847576051701 0 0.036878817490148381 0.000366151858087638 0 0.037593660281965854 0.00045390257306304391 0 0.036811908247135608 0.00082296847576051701 0 0.037337208378780018 0.0012769480029017723 0 0.03655495603677153 0.00034394369441714779 0 0.037977716751961973 0.00073764032955833355 0 0.036610054409606414 8.7668300762030246e-05 0 0.036796574574037712 -0.00029602530940884089 0 0.036382255611203167 -0.00012444472168128873 0 0.036811908247135608 0.00082296847576051701 0 0.036878817490148381 0.000366151858087638 0 0.036293131182351085 0.00037260070347104016 0 0.036536224444704703 9.7850577096972809e-05 0 0.036878817490148381 0.000366151858087638 0 0.036293131182351085 0.00037260070347104016 0 0.03655495603677153 0.00034394369441714779 0 0.036447898583265227 0.00059779168001614731 0 0.036610054409606414 8.7668300762030246e-05 0 0.036859488242313165 0.00032468433615010742 0 0.036890047558662917 -1.9496478286980951e-05 0 0.036247274721157692 0.00039389932321931266 0 0.036447898583265227 0.00059779168001614731 0 0.036328679124026354 0.00054188298042545039 0 0.036294721508238703 0.00058112258968751399 0 0.036276331086227478 0.0005653343798282573 0 0.035985001467642351 0.0010029856656599446 0 0.036061174772512854 0.0010590266863216532 0 0.036231743119353302 0.00084550209177884736 0 0.036447898583265227 0.00059779168001614731 0 0.036170844137138114 0.00070655020436544147 0 0.036061174772512854 0.0010590266863216532 0 0.036231743119353302 0.00084550209177884736 0 0.036394902150292667 0.00084594456983860247 0 0.035985001467642351 0.0010029856656599446 0 0.036231743119353302 0.00084550209177884736 0 0.036303184289423619 0.00051115005945394029 0 0.036209758379598687 0.00082465532656407362 0 0.036053506333680152 0.00076649722008527194 0 0.036394902150292667 0.00084594456983860247 0 0.036447898583265227 0.00059779168001614731 0 0.036782554156446032 0.00025354781977255308 0 0.036170844137138114 0.00070655020436544147 0 0.036287178757795704 0.00089603213644511969 0 0.036188966226416291 0.00081264736425277063 0 0.036209758379598687 0.00082465532656407362 0 0.036394902150292667 0.00084594456983860247 0 0.036231743119353302 0.00084550209177884736 0 0.036394902150292667 0.00084594456983860247 0 0.036401910656360267 0.00076642247153489653 0 0.037203068616890309 -2.5057039694577097e-05 0 0.036890047558662917 -1.9496478286980951e-05 0 0.037004295604735685 -0.00019306748614524922 0 0.036231743119353302 0.00084550209177884736 0 0.036401910656360267 0.00076642247153489653 0 0.036303184289423619 0.00051115005945394029 0 0.036401910656360267 0.00076642247153489653 0 0.036303184289423619 0.00051115005945394029 0 0.036791443395569813 0.00076092723162860811 0 0.036610054409606414 8.7668300762030246e-05 0 0.036890047558662917 -1.9496478286980951e-05 0 0.036796574574037712 -0.00029602530940884089 0 0.036859488242313165 0.00032468433615010742 0 0.037203068616890309 -2.5057039694577097e-05 0 0.036890047558662917 -1.9496478286980951e-05 0 0.036890047558662917 -1.9496478286980951e-05 0 0.036796574574037712 -0.00029602530940884089 0 0.037004295604735685 -0.00019306748614524922 0 0.037004295604735685 -0.00019306748614524922 0 0.037226403721140743 -0.0003069474131053627 0 0.037307699947536868 -0.00058420632810060071 0 0.036796574574037712 -0.00029602530940884089 0 0.037004295604735685 -0.00019306748614524922 0 0.037307699947536868 -0.00058420632810060071 0 0.038024138249714061 0.00028303222199430272 0 0.038332717479567832 0.00011026219045519648 0 0.037203068616890309 -2.5057039694577097e-05 0 0.037004295604735685 -0.00019306748614524922 0 0.037226403721140743 -0.0003069474131053627 0 0.039317789289795353 0.00093430068730447592 0 0.03951272215924382 0.00083435066722481531 0 0.039440019981818134 0.00079222732967582869 0 0.03951272215924382 0.00083435066722481531 0 0.039444534634512911 0.00076063490944040064 0 0.039562757750827543 0.00076582901536722441 0 0.039773183686439735 0.00070379122487726909 0 0.040298894478845701 0.00056539004811780047 0 0.03951272215924382 0.00083435066722481531 0 0.039440019981818134 0.00079222732967582869 0 0.039444534634512911 0.00076063490944040064 0 0.039700367525435334 0.0007609606130304558 0 0.039773183686439735 0.00070379122487726909 0 0.03944550969423942 0.00075846223756213186 0 0.039339865511934087 0.00081160354131384926 0 0.039262627689226295 0.00073099198215227645 0 0.039773183686439735 0.00070379122487726909 0 0.039163860549632924 0.00074045148979503552 0 0.039317789289795353 0.00093430068730447592 0 0.039440019981818134 0.00079222732967582869 0 0.039339865511934087 0.00081160354131384926 0 0.039440019981818134 0.00079222732967582869 0 0.03944550969423942 0.00075846223756213186 0 0.039339865511934087 0.00081160354131384926 0 0.039317789289795353 0.00093430068730447592 0 0.039339865511934087 0.00081160354131384926 0 0.039150189667819198 0.00087528250851847669 0 0.039339865511934087 0.00081160354131384926 0 0.039150189667819198 0.00087528250851847669 0 0.039262627689226295 0.00073099198215227645 0 0.039150189667819198 0.00087528250851847669 0 0.03901780660917991 0.00071994181739162529 0 0.039262627689226295 0.00073099198215227645 0 0.038824002174970285 0.00089670927227948681 0 0.039150189667819198 0.00087528250851847669 0 0.03901780660917991 0.00071994181739162529 0 0.038824002174970285 0.00089670927227948681 0 0.039150189667819198 0.00087528250851847669 0 0.039028448797475426 0.0010603852952467184 0 0.039317789289795353 0.00093430068730447592 0 0.039150189667819198 0.00087528250851847669 0 0.039028448797475426 0.0010603852952467184 0 0.038024138249714061 0.00028303222199430272 0 0.037977716751961973 0.00073764032955833355 0 0.039706734147029493 0.00018335938476248255 0 0.039448276337760477 0.00030641565706731401 0 0.039465186718744084 0.000201857870176282 0 0.039448276337760477 0.00030641565706731401 0 0.039115299587544547 0.00042416497015572094 0 0.039465186718744084 0.000201857870176282 0 0.039448276337760477 0.00030641565706731401 0 0.039370927860697492 0.00041423845591716078 0 0.039115299587544547 0.00042416497015572094 0 0.039528544363567557 0.00021669958327018429 0 0.039448276337760477 0.00030641565706731401 0 0.039370927860697492 0.00041423845591716078 0 0.039402628155319676 0.00037203246969041011 0 0.039439492401580081 0.00014992449626821761 0 0.039370927860697492 0.00041423845591716078 0 0.039402628155319676 0.00037203246969041011 0 0.039370927860697492 0.00041423845591716078 0 0.038742262875461224 0.00094404235622900265 0 0.039370927860697492 0.00041423845591716078 0 0.039115299587544547 0.00042416497015572094 0 0.038742262875461224 0.00094404235622900265 0 0.037461804307114051 0.00068144541902758198 0 0.037343353698447199 0.00092475216333898268 0 0.039115299587544547 0.00042416497015572094 0 0.038354049135885707 0.0004300428540500426 0 0.038742262875461224 0.00094404235622900265 0 0.039115299587544547 0.00042416497015572094 0 0.038354049135885707 0.0004300428540500426 0 0.038799111593183951 5.9371835341157714e-05 0 0.039115299587544547 0.00042416497015572094 0 0.038799111593183951 5.9371835341157714e-05 0 0.039465186718744084 0.000201857870176282 0 0.038354049135885707 0.0004300428540500426 0 0.037798323231972034 9.3743860031237985e-05 0 0.038799111593183951 5.9371835341157714e-05 0 0.038354049135885707 0.0004300428540500426 0 0.036791443395569813 0.00076092723162860811 0 0.037798323231972034 9.3743860031237985e-05 0 0.038354049135885707 0.0004300428540500426 0 0.038742262875461224 0.00094404235622900265 0 0.036791443395569813 0.00076092723162860811 0 0.037343353698447199 0.00092475216333898268 0 0.036775124357207437 0.00074396108124868466 0 0.036047300094047593 0.00099967043144970715 0 0.03627393379163725 0.00085116092333629317 0 0.036791443395569813 0.00076092723162860811 0 0.036394902150292667 0.00084594456983860247 0 0.03627393379163725 0.00085116092333629317 0 0.036791443395569813 0.00076092723162860811 0 0.036188966226416291 0.00081264736425277063 0 0.036394902150292667 0.00084594456983860247 0 0.03627393379163725 0.00085116092333629317 0 0.036394902150292667 0.00084594456983860247 0 0.036401910656360267 0.00076642247153489653 0 0.036791443395569813 0.00076092723162860811 0 0.036303184289423619 0.00051115005945394029 0 0.036791443395569813 0.00076092723162860811 0 0.037798323231972034 9.3743860031237985e-05 0 0.037226403721140743 -0.0003069474131053627 0 0.037307699947536868 -0.00058420632810060071 0 0.037749705192384658 -0.00053698303242899871 0 0.036782554156446032 0.00025354781977255308 0 0.037665521497046044 -0.00050648100753218433 0 0.037203068616890309 -2.5057039694577097e-05 0 0.037226403721140743 -0.0003069474131053627 0 0.037749705192384658 -0.00053698303242899871 0 0.036303184289423619 0.00051115005945394029 0 0.037749705192384658 -0.00053698303242899871 0 0.037798323231972034 9.3743860031237985e-05 0 0.03951272215924382 0.00083435066722481531 0 0.039562757750827543 0.00076582901536722441 0 0.039669691817268808 0.00076029984670274154 0 0.037307699947536868 -0.00058420632810060071 0 0.037749705192384658 -0.00053698303242899871 0 0.03799630267795269 -0.00064640005415283303 0 0.037307699947536868 -0.00058420632810060071 0 0.03799630267795269 -0.00064640005415283303 0 0.038329799379250379 -0.00088597195071721789 0 0.038332717479567832 0.00011026219045519648 0 0.039458741328010215 0.00017305052163353157 0 0.040298894478845701 0.00056539004811780047 0 0.039458741328010215 0.00017305052163353157 0 0.037749705192384658 -0.00053698303242899871 0 0.03799630267795269 -0.00064640005415283303 0 0.038309777247222662 -0.00039203931457706189 0 0.040672117427559031 0.00033065366185437147 0 0.040597872218921131 0.00029897311510133451 0 0.04064165853000562 0.00036335925062977789 0 0.038329799379250379 -0.00088597195071721789 0 0.038332986357234158 -0.00061125136897604627 0 0.038758958277364378 -0.00048198457662991225 0 0.038332986357234158 -0.00061125136897604627 0 0.038309777247222662 -0.00039203931457706189 0 0.038758958277364378 -0.00048198457662991225 0 0.03799630267795269 -0.00064640005415283303 0 0.038329799379250379 -0.00088597195071721789 0 0.038332986357234158 -0.00061125136897604627 0 0.03799630267795269 -0.00064640005415283303 0 0.038332986357234158 -0.00061125136897604627 0 0.038309777247222662 -0.00039203931457706189 0 0.038309777247222662 -0.00039203931457706189 0 0.037798323231972034 9.3743860031237985e-05 0 0.038799111593183951 5.9371835341157714e-05 0 0.037749705192384658 -0.00053698303242899871 0 0.038309777247222662 -0.00039203931457706189 0 0.037798323231972034 9.3743860031237985e-05 0 0.038799111593183951 5.9371835341157714e-05 0 0.039535573508566381 -3.7871214418697862e-05 0 0.039465186718744084 0.000201857870176282 0 0.038799111593183951 5.9371835341157714e-05 0 0.038758958277364378 -0.00048198457662991225 0 0.039535573508566381 -3.7871214418697862e-05 0 0.038309777247222662 -0.00039203931457706189 0 0.038799111593183951 5.9371835341157714e-05 0 0.038758958277364378 -0.00048198457662991225 0 0.038329799379250379 -0.00088597195071721789 0 0.038758958277364378 -0.00048198457662991225 0 0.03921564906791488 -0.000621077198546067 0 0.040597872218921131 0.00029897311510133451 0 0.040523176337732995 0.00021567144067508167 0 0.04055187111462015 0.00035003752711503894 0 0.039458741328010215 0.00017305052163353157 0 0.039813189338894509 -0.0001670225462098028 0 0.038758958277364378 -0.00048198457662991225 0 0.03921564906791488 -0.000621077198546067 0 0.039535573508566381 -3.7871214418697862e-05 0 0.039813189338894509 -0.0001670225462098028 0 0.040011087724387634 -5.1633442090516591e-05 0 0.03921564906791488 -0.000621077198546067 0 0.040093342932805011 3.3468358402166891e-05 0 0.039535573508566381 -3.7871214418697862e-05 0 0.040523176337732995 0.00021567144067508167 0 0.040093342932805011 3.3468358402166891e-05 0 0.040448054147661262 0.00037258543382111904 0 0.039937948122169296 0.00011109729696612558 0 0.040093342932805011 3.3468358402166891e-05 0 0.039535573508566381 -3.7871214418697862e-05 0 0.039706734147029493 0.00018335938476248255 0 0.039937948122169296 0.00011109729696612558 0 0.039678176125169273 0.00012423406545702302 0 0.039937948122169296 0.00011109729696612558 0 0.039678176125169273 0.00012423406545702302 0 0.039535573508566381 -3.7871214418697862e-05 0 0.039678176125169273 0.00012423406545702302 0 0.039535573508566381 -3.7871214418697862e-05 0 0.039465186718744084 0.000201857870176282 0 0.039706734147029493 0.00018335938476248255 0 0.039678176125169273 0.00012423406545702302 0 0.039465186718744084 0.000201857870176282 0 0.040814072837534833 0.001155194323363348 0 0.04120872742199673 0.0010170852664563379 0 0.041255253478182076 0.0013184160642719888 0 0.04040454441891151 0.00048593403209793346 0 0.040814072837534833 0.001155194323363348 0 0.04120872742199673 0.0010170852664563379 0 0.04040454441891151 0.00048593403209793346 0 0.040448054147661262 0.00037258543382111904 0 0.040504732287561213 0.00042951211915940414 0 0.040432001117694932 0.00049700144069889692 0 0.04082490439607489 0.00071569559472720501 0 0.04040454441891151 0.00048593403209793346 0 0.040093342932805011 3.3468358402166891e-05 0 0.040448054147661262 0.00037258543382111904 0 0.04055187111462015 0.00035003752711503894 0 0.040504732287561213 0.00042951211915940414 0 0.040603431132928677 0.00039740728432748599 0 0.040448054147661262 0.00037258543382111904 0 0.04055187111462015 0.00035003752711503894 0 0.040504732287561213 0.00042951211915940414 0 0.040523176337732995 0.00021567144067508167 0 0.040448054147661262 0.00037258543382111904 0 0.04055187111462015 0.00035003752711503894 0 0.04120872742199673 0.0010170852664563379 0 0.04127869099208456 0.001235041664258211 0 0.041255253478182076 0.0013184160642719888 0 0.04082490439607489 0.00071569559472720501 0 0.040967344935713412 0.00085860866389652572 0 0.040504732287561213 0.00042951211915940414 0 0.040627433469946357 0.0004783925868616635 0 0.040603431132928677 0.00039740728432748599 0 0.040627433469946357 0.0004783925868616635 0 0.040603431132928677 0.00039740728432748599 0 0.040667355810869367 0.00042350562329141015 0 0.04055187111462015 0.00035003752711503894 0 0.040603431132928677 0.00039740728432748599 0 0.040598229841071573 0.00034179260675241556 0 0.040597872218921131 0.00029897311510133451 0 0.04055187111462015 0.00035003752711503894 0 0.040598229841071573 0.00034179260675241556 0 0.040603431132928677 0.00039740728432748599 0 0.040598229841071573 0.00034179260675241556 0 0.04064165853000562 0.00036335925062977789 0 0.040597872218921131 0.00029897311510133451 0 0.040598229841071573 0.00034179260675241556 0 0.04064165853000562 0.00036335925062977789 0 0.040603431132928677 0.00039740728432748599 0 0.04064165853000562 0.00036335925062977789 0 0.040667355810869367 0.00042350562329141015 0 0.04064165853000562 0.00036335925062977789 0 0.040700959131244045 0.00038102055270202573 0 0.040667355810869367 0.00042350562329141015 0 0.040672117427559031 0.00033065366185437147 0 0.04064165853000562 0.00036335925062977789 0 0.040700959131244045 0.00038102055270202573 0 0.040627433469946357 0.0004783925868616635 0 0.040691223371630697 0.0004673221681682984 0 0.040667355810869367 0.00042350562329141015 0 0.040700959131244045 0.00038102055270202573 0 0.040667355810869367 0.00042350562329141015 0 0.040741615532777796 0.00043678759744054284 0 0.040691223371630697 0.0004673221681682984 0 0.040667355810869367 0.00042350562329141015 0 0.040741615532777796 0.00043678759744054284 0 0.040967344935713412 0.00085860866389652572 0 0.040819986858955139 0.00089089231846379885 0 0.040627433469946357 0.0004783925868616635 0 0.040691223371630697 0.0004673221681682984 0 0.040714505034385312 0.00052477553769519306 0 0.04127869099208456 0.001235041664258211 0 0.041233784600237564 0.0012723639867457796 0 0.041138182842230295 0.0013000815498908818 0 0.041137134519539556 0.0012423253579198123 0 0.041233784600237564 0.0012723639867457796 0 0.041138182842230295 0.0013000815498908818 0 0.041137134519539556 0.0012423253579198123 0 0.041254408088799085 0.0012484476690750907 0 0.041233784600237564 0.0012723639867457796 0 0.041254408088799085 0.0012484476690750907 0 0.041233784600237564 0.0012723639867457796 0 0.041255253478182076 0.0013184160642719888 0 0.04127869099208456 0.001235041664258211 0 0.041233784600237564 0.0012723639867457796 0 0.041255253478182076 0.0013184160642719888 0 0.041254408088799085 0.0012484476690750907 0 0.041255253478182076 0.0013184160642719888 0 0.041390584513867491 0.0012018686528950029 0 0.041459835473563855 0.0012796452689161906 0 0.041255253478182076 0.0013184160642719888 0 0.041390584513867491 0.0012018686528950029 0 0.04110532934718375 0.0013448142150350631 0 0.041459835473563855 0.0012796452689161906 0 0.041255253478182076 0.0013184160642719888 0 0.040814072837534833 0.001155194323363348 0 0.04110532934718375 0.0013448142150350631 0 0.041255253478182076 0.0013184160642719888 0 0.039321208461723864 0.00051006292432255083 0 0.039141842067966573 0.00052465342970716832 0 0.039256983814758117 0.00036896540434163528 0 0.038944185219535465 0.00054543870762411586 0 0.039036299036678317 0.00027790709016927789 0 0.039141842067966573 0.00052465342970716832 0 0.038944185219535465 0.00054543870762411586 0 0.039141842067966573 0.00052465342970716832 0 0.03901780660917991 0.00071994181739162529 0 0.039141842067966573 0.00052465342970716832 0 0.03901780660917991 0.00071994181739162529 0 0.039262627689226295 0.00073099198215227645 0 0.039321208461723864 0.00051006292432255083 0 0.039262627689226295 0.00073099198215227645 0 0.039428733864024401 0.00061581366234188272 0 0.039321208461723864 0.00051006292432255083 0 0.039141842067966573 0.00052465342970716832 0 0.039262627689226295 0.00073099198215227645 0 0.039560174607885419 0.00075704573719285019 0 0.039262627689226295 0.00073099198215227645 0 0.039428733864024401 0.00061581366234188272 0 0.039560174607885419 0.00075704573719285019 0 0.039428733864024401 0.00061581366234188272 0 0.039575988398235937 0.00050818713678097891 0 0.040743905586590266 0.00034269575496937197 0 0.040700959131244045 0.00038102055270202573 0 0.040741615532777796 0.00043678759744054284 0 0.040743905586590266 0.00034269575496937197 0 0.040672117427559031 0.00033065366185437147 0 0.040700959131244045 0.00038102055270202573 0 0.039773183686439735 0.00070379122487726909 0 0.040193665741232107 0.00040253053034574178 0 0.040691223371630697 0.0004673221681682984 0 0.040741615532777796 0.00043678759744054284 0 0.040714505034385312 0.00052477553769519306 0 0.039321208461723864 0.00051006292432255083 0 0.039428733864024401 0.00061581366234188272 0 0.039437607143863858 0.00048205130829023969 0 0.039428733864024401 0.00061581366234188272 0 0.039575988398235937 0.00050818713678097891 0 0.039437607143863858 0.00048205130829023969 0 0.039575988398235937 0.00050818713678097891 0 0.039437607143863858 0.00048205130829023969 0 0.039498925658385545 0.00039525155340382358 0 0.039321208461723864 0.00051006292432255083 0 0.039437607143863858 0.00048205130829023969 0 0.03939669824496219 0.00036972202428451055 0 0.039464367075098601 0.00032013628432920325 0 0.039584032450095841 0.0002995317624645628 0 0.039421681303335579 0.00027337410429658168 0 0.03939669824496219 0.00036972202428451055 0 0.039498925658385545 0.00039525155340382358 0 0.039464367075098601 0.00032013628432920325 0 0.039437607143863858 0.00048205130829023969 0 0.03939669824496219 0.00036972202428451055 0 0.039498925658385545 0.00039525155340382358 0 0.039464367075098601 0.00032013628432920325 0 0.039407578655167676 0.00031136374314870256 0 0.039421681303335579 0.00027337410429658168 0 0.039407578655167676 0.00031136374314870256 0 0.039421681303335579 0.00027337410429658168 0 0.039349905563066861 0.00028361550453862103 0 0.03939669824496219 0.00036972202428451055 0 0.039407578655167676 0.00031136374314870256 0 0.039349905563066861 0.00028361550453862103 0 0.03939669824496219 0.00036972202428451055 0 0.039464367075098601 0.00032013628432920325 0 0.039407578655167676 0.00031136374314870256 0 0.040193665741232107 0.00040253053034574178 0 0.040161558721114897 0.00060313119431123683 0 0.040741615532777796 0.00043678759744054284 0 0.040733045254641061 0.00053570390191707326 0 0.040714505034385312 0.00052477553769519306 0 0.039575988398235937 0.00050818713678097891 0 0.039498925658385545 0.00039525155340382358 0 0.039584032450095841 0.0002995317624645628 0 0.039498925658385545 0.00039525155340382358 0 0.039464367075098601 0.00032013628432920325 0 0.039584032450095841 0.0002995317624645628 0 0.040161558721114897 0.00060313119431123683 0 0.040819986858955139 0.00089089231846379885 0 0.040161558721114897 0.00060313119431123683 0 0.040924391899856354 0.00099660269992293154 0 0.040613784776622128 0.00092401020503359737 0 0.040534857453689677 0.00075278626281001233 0 0.040648430343889611 0.00063307273685984857 0 0.041137134519539556 0.0012423253579198123 0 0.041110085199381086 0.0012949969972740631 0 0.041027258358937085 0.0011565880341133366 0 0.041137134519539556 0.0012423253579198123 0 0.041110085199381086 0.0012949969972740631 0 0.041138182842230295 0.0013000815498908818 0 0.040613784776622128 0.00092401020503359737 0 0.040534857453689677 0.00075278626281001233 0 0.04039975833850297 0.00079182464558499616 0 0.039584032450095841 0.0002995317624645628 0 0.039421681303335579 0.00027337410429658168 0 0.039364408062489094 0.00019655501635822354 0 0.040161558721114897 0.00060313119431123683 0 0.039063667329153916 3.9935301128461918e-05 0 0.039335393016806199 0.00019555058930782938 0 0.039353822873130315 0.00019667031002267154 0 0.039364408062489094 0.00019655501635822354 0 0.040161558721114897 0.00060313119431123683 0 0.039837812861800104 0.00047849605388449568 0 0.039421681303335579 0.00027337410429658168 0 0.039364408062489094 0.00019655501635822354 0 0.039367933038924149 0.00024481319525818183 0 0.039344169836980067 0.00022975970529529559 0 0.039256477837919128 0.00027680315528969739 0 0.039395252525831467 0.00019747527129064169 0 0.039353822873130315 0.00019667031002267154 0 0.039364408062489094 0.00019655501635822354 0 0.039426400658348355 0.00023485148551842774 0 0.039364408062489094 0.00019655501635822354 0 0.039344169836980067 0.00022975970529529559 0 0.039395252525831467 0.00019747527129064169 0 0.039344169836980067 0.00022975970529529559 0 0.039349905563066861 0.00028361550453862103 0 0.039256477837919128 0.00027680315528969739 0 0.039421681303335579 0.00027337410429658168 0 0.039367933038924149 0.00024481319525818183 0 0.039349905563066861 0.00028361550453862103 0 0.039364408062489094 0.00019655501635822354 0 0.039367933038924149 0.00024481319525818183 0 0.039344169836980067 0.00022975970529529559 0 0.039367933038924149 0.00024481319525818183 0 0.039344169836980067 0.00022975970529529559 0 0.039349905563066861 0.00028361550453862103 0 0.03939669824496219 0.00036972202428451055 0 0.039349905563066861 0.00028361550453862103 0 0.039256983814758117 0.00036896540434163528 0 0.039349905563066861 0.00028361550453862103 0 0.039256477837919128 0.00027680315528969739 0 0.039256983814758117 0.00036896540434163528 0 0.039321208461723864 0.00051006292432255083 0 0.03939669824496219 0.00036972202428451055 0 0.039256983814758117 0.00036896540434163528 0 0.039036299036678317 0.00027790709016927789 0 0.039256477837919128 0.00027680315528969739 0 0.039256983814758117 0.00036896540434163528 0 0.039036299036678317 0.00027790709016927789 0 0.039141842067966573 0.00052465342970716832 0 0.039256983814758117 0.00036896540434163528 0 0.039036299036678317 0.00027790709016927789 0 0.039256477837919128 0.00027680315528969739 0 0.039395252525831467 0.00019747527129064169 0 0.039650529784624612 8.5026462487820741e-05 0 0.039614307846701551 0.00019805380739378511 0 0.039395252525831467 0.00019747527129064169 0 0.039335532372572597 0.0001948906587702186 0 0.039380511596696886 0.0002004763336811753 0 0.039614307846701551 0.00019805380739378511 0 0.039426400658348355 0.00023485148551842774 0 0.039795965008262719 0.00034970780517896505 0 0.039614307846701551 0.00019805380739378511 0 0.039426400658348355 0.00023485148551842774 0 0.039395252525831467 0.00019747527129064169 0 0.039798764400238808 0.00043745443126074667 0 0.039782441106939737 0.00036452744633017222 0 0.040142902169014581 0.00065038059459290073 0 0.040089393546563171 0.00037674943293111425 0 0.039795965008262719 0.00034970780517896505 0 0.040089393546563171 0.00037674943293111425 0 0.039967526070428493 0.00026180106592520104 0 0.039795965008262719 0.00034970780517896505 0 0.040089393546563171 0.00037674943293111425 0 0.040253227729486085 0.00047627246803310931 0 0.040253929559013024 0.00025502811904351764 0 0.040253227729486085 0.00047627246803310931 0 0.040346253422660801 0.00061781774398244433 0 0.040450273369858562 0.00048611343092923689 0 0.040142902169014581 0.00065038059459290073 0 0.040089393546563171 0.00037674943293111425 0 0.040253227729486085 0.00047627246803310931 0 0.040253227729486085 0.00047627246803310931 0 0.040450273369858562 0.00048611343092923689 0 0.040253929559013024 0.00025502811904351764 0 0.040142902169014581 0.00065038059459290073 0 0.040253227729486085 0.00047627246803310931 0 0.040346253422660801 0.00061781774398244433 0 0.04039975833850297 0.00079182464558499616 0 0.040142902169014581 0.00065038059459290073 0 0.040346253422660801 0.00061781774398244433 0 0.039837812861800104 0.00047849605388449568 0 0.039798764400238808 0.00043745443126074667 0 0.039364408062489094 0.00019655501635822354 0 0.039426400658348355 0.00023485148551842774 0 0.039395252525831467 0.00019747527129064169 0 0.040346253422660801 0.00061781774398244433 0 0.040477571686120303 0.0006551012337766152 0 0.040450273369858562 0.00048611343092923689 0 0.04039975833850297 0.00079182464558499616 0 0.040346253422660801 0.00061781774398244433 0 0.040477571686120303 0.0006551012337766152 0 0.040477571686120303 0.0006551012337766152 0 0.040648430343889611 0.00063307273685984857 0 0.040450273369858562 0.00048611343092923689 0 0.040534857453689677 0.00075278626281001233 0 0.04039975833850297 0.00079182464558499616 0 0.040477571686120303 0.0006551012337766152 0 0.040534857453689677 0.00075278626281001233 0 0.040477571686120303 0.0006551012337766152 0 0.040648430343889611 0.00063307273685984857 0 0.040924391899856354 0.00099660269992293154 0 0.040796354254601014 0.00057048884338624416 0 0.040648430343889611 0.00063307273685984857 0 0.040450273369858562 0.00048611343092923689 0 0.040690705841834679 0.00037826115229682122 0 0.040450273369858562 0.00048611343092923689 0 0.040544548214126883 0.00027635461082852896 0 0.040253929559013024 0.00025502811904351764 0 0.040450273369858562 0.00048611343092923689 0 0.040690705841834679 0.00037826115229682122 0 0.040544548214126883 0.00027635461082852896 0 0.040796354254601014 0.00057048884338624416 0 0.040839235735962869 0.00025741463150829962 0 0.040690705841834679 0.00037826115229682122 0 0.040544548214126883 0.00027635461082852896 0 0.040840280233258433 0.00023960293367177325 0 0.040544548214126883 0.00027635461082852896 0 0.040840280233258433 0.00023960293367177325 0 0.040447860389544253 7.6596655848851718e-05 0 0.040544548214126883 0.00027635461082852896 0 0.040253929559013024 0.00025502811904351764 0 0.040447860389544253 7.6596655848851718e-05 0 0.040253929559013024 0.00025502811904351764 0 0.040141717292929584 -1.9150602971543726e-06 0 0.040447860389544253 7.6596655848851718e-05 0 0.040253929559013024 0.00025502811904351764 0 0.040141717292929584 -1.9150602971543726e-06 0 0.039923772992730047 0.00012045897732460905 0 0.039967526070428493 0.00026180106592520104 0 0.040253929559013024 0.00025502811904351764 0 0.039923772992730047 0.00012045897732460905 0 0.040089393546563171 0.00037674943293111425 0 0.039967526070428493 0.00026180106592520104 0 0.040253929559013024 0.00025502811904351764 0 0.0415819152845609 0.001111634379828909 0 0.041489310367303363 0.00093482179275507335 0 0.041783857936587447 0.0009061660582761952 0 0.041899117737951547 0.0010461726863315007 0 0.0415819152845609 0.001111634379828909 0 0.041783857936587447 0.0009061660582761952 0 0.041459835473563855 0.0012796452689161906 0 0.0415819152845609 0.001111634379828909 0 0.041390584513867491 0.0012018686528950029 0 0.0415819152845609 0.001111634379828909 0 0.041390584513867491 0.0012018686528950029 0 0.041489310367303363 0.00093482179275507335 0 0.041390584513867491 0.0012018686528950029 0 0.04120668025596564 0.0010917967220623332 0 0.041489310367303363 0.00093482179275507335 0 0.041254408088799085 0.0012484476690750907 0 0.041390584513867491 0.0012018686528950029 0 0.04120668025596564 0.0010917967220623332 0 0.041137134519539556 0.0012423253579198123 0 0.041027258358937085 0.0011565880341133366 0 0.04120668025596564 0.0010917967220623332 0 0.041137134519539556 0.0012423253579198123 0 0.041254408088799085 0.0012484476690750907 0 0.04120668025596564 0.0010917967220623332 0 0.041027258358937085 0.0011565880341133366 0 0.04090687589458028 0.00084328609542174532 0 0.04120668025596564 0.0010917967220623332 0 0.04120668025596564 0.0010917967220623332 0 0.041326517577391995 0.00061136583465825234 0 0.041489310367303363 0.00093482179275507335 0 0.04090687589458028 0.00084328609542174532 0 0.04120668025596564 0.0010917967220623332 0 0.041326517577391995 0.00061136583465825234 0 0.04090687589458028 0.00084328609542174532 0 0.041326517577391995 0.00061136583465825234 0 0.040840280233258433 0.00023960293367177325 0 0.041326517577391995 0.00061136583465825234 0 0.041489310367303363 0.00093482179275507335 0 0.041813046093184432 0.00065817416838974418 0 0.041326517577391995 0.00061136583465825234 0 0.041813046093184432 0.00065817416838974418 0 0.041757301076010354 0.00026463231551112227 0 0.041489310367303363 0.00093482179275507335 0 0.041813046093184432 0.00065817416838974418 0 0.041783857936587447 0.0009061660582761952 0 0.042220517736899672 0.0006952657160755511 0 0.041813046093184432 0.00065817416838974418 0 0.041783857936587447 0.0009061660582761952 0 0.044988818301284851 -3.516086085589985e-06 0 0.044995786433195961 -9.5175415188130881e-06 0 0.045000281235628097 1.4204402146898686e-07 0 0.044998660895852707 -5.6869826771820815e-07 0 0.044995786433195961 -9.5175415188130881e-06 0 0.045000281235628097 1.4204402146898686e-07 0 0.042301608849456787 1.8491951142906704e-05 0 0.041757301076010354 0.00026463231551112227 0 0.041627696095731061 -0.00016875930489660456 0 0.042438931243330341 0.00039932874989785704 0 0.042301608849456787 1.8491951142906704e-05 0 0.041757301076010354 0.00026463231551112227 0 0.042438931243330341 0.00039932874989785704 0 0.041813046093184432 0.00065817416838974418 0 0.041757301076010354 0.00026463231551112227 0 0.041757301076010354 0.00026463231551112227 0 0.041627696095731061 -0.00016875930489660456 0 0.041138462502812258 -2.5056087410882105e-06 0 0.041627696095731061 -0.00016875930489660456 0 0.041138462502812258 -2.5056087410882105e-06 0 0.041245098933343889 -0.00045520544870552036 0 0.041326517577391995 0.00061136583465825234 0 0.041757301076010354 0.00026463231551112227 0 0.041138462502812258 -2.5056087410882105e-06 0 0.040840280233258433 0.00023960293367177325 0 0.041138462502812258 -2.5056087410882105e-06 0 0.040680332496809891 -4.7356845647962617e-05 0 0.041326517577391995 0.00061136583465825234 0 0.040840280233258433 0.00023960293367177325 0 0.041138462502812258 -2.5056087410882105e-06 0 0.041138462502812258 -2.5056087410882105e-06 0 0.041245098933343889 -0.00045520544870552036 0 0.040710149633445609 -0.00035363117411642037 0 0.043118638684411396 -0.00022955216279759103 0 0.042847330213598496 -0.00017611241263639741 0 0.041627696095731061 -0.00016875930489660456 0 0.041245098933343889 -0.00045520544870552036 0 0.04193660158097437 -0.00058229316350695624 0 0.043118638684411396 -0.00022955216279759103 0 0.043469390888413645 -0.00029789846491818473 0 0.042782824838790992 -0.0001786516635946502 0 0.042301608849456787 1.8491951142906704e-05 0 0.04193660158097437 -0.00058229316350695624 0 0.042301608849456787 1.8491951142906704e-05 0 0.041627696095731061 -0.00016875930489660456 0 0.04193660158097437 -0.00058229316350695624 0 0.045000281235628097 1.4204402146898686e-07 0 0.044972946017847161 2.9945201143038407e-06 0 0.044999835671359102 -3.2700693682936342e-08 0 0.040141717292929584 -1.9150602971543726e-06 0 0.040310160730068934 -0.00026411781477228742 0 0.040012211532255405 -0.00018662180781489472 0 0.042643383745339283 -0.00013083029629432105 0 0.042493478767115588 -9.0932144269436935e-05 0 0.040141717292929584 -1.9150602971543726e-06 0 0.040447860389544253 7.6596655848851718e-05 0 0.040310160730068934 -0.00026411781477228742 0 0.040840280233258433 0.00023960293367177325 0 0.040447860389544253 7.6596655848851718e-05 0 0.040680332496809891 -4.7356845647962617e-05 0 0.041138462502812258 -2.5056087410882105e-06 0 0.040680332496809891 -4.7356845647962617e-05 0 0.040710149633445609 -0.00035363117411642037 0 0.040680332496809891 -4.7356845647962617e-05 0 0.040710149633445609 -0.00035363117411642037 0 0.040310160730068934 -0.00026411781477228742 0 0.040447860389544253 7.6596655848851718e-05 0 0.040680332496809891 -4.7356845647962617e-05 0 0.040310160730068934 -0.00026411781477228742 0 0.044980039526714914 1.8013625141821705e-06 0 0.045000281235628097 1.4204402146898686e-07 0 0.044972946017847161 2.9945201143038407e-06 0 0.042847330213598496 -0.00017611241263639741 0 0.042643383745339283 -0.00013083029629432105 0 0.044988818301284851 -3.516086085589985e-06 0 0.044980039526714914 1.8013625141821705e-06 0 0.045000281235628097 1.4204402146898686e-07 0 0.044972946017847161 2.9945201143038407e-06 0 0.044999835671359102 -3.2700693682936342e-08 0 0.044967799447270973 4.2854001982092762e-06 0 0.044999835671359102 -3.2700693682936342e-08 0 0.044961986709220546 5.8853111927171618e-06 0 0.044967799447270973 4.2854001982092762e-06 0 0.044999835671359102 -3.2700693682936342e-08 0 0.044978230259078475 3.7717227444189037e-06 0 0.044961986709220546 5.8853111927171618e-06 0 0.044999835671359102 -3.2700693682936342e-08 0 0.044978230259078475 3.7717227444189037e-06 0 0.044999973743948922 1.540137465201593e-08 0 0.042383661129470007 -5.175724539298865e-05 0 0.042330107246998053 -3.3354602947529083e-05 0 0.044978230259078475 3.7717227444189037e-06 0 0.044961986709220546 5.8853111927171618e-06 0 0.044956753023625555 7.9676234910713536e-06 0 0.039808614492692095 -0.0001075224142497255 0 0.039783038686005301 1.9551752411110785e-05 0 0.039671793917745356 -6.9189526035579358e-05 0 0.039783038686005301 1.9551752411110785e-05 0 0.039694920520986728 4.0687402463964247e-05 0 0.039671793917745356 -6.9189526035579358e-05 0 0.040141717292929584 -1.9150602971543726e-06 0 0.040012211532255405 -0.00018662180781489472 0 0.03990938149237902 -2.6776214387032106e-05 0 0.042383661129470007 -5.175724539298865e-05 0 0.042493478767115588 -9.0932144269436935e-05 0 0.039808614492692095 -0.0001075224142497255 0 0.040012211532255405 -0.00018662180781489472 0 0.03990938149237902 -2.6776214387032106e-05 0 0.039783038686005301 1.9551752411110785e-05 0 0.03990938149237902 -2.6776214387032106e-05 0 0.039923772992730047 0.00012045897732460905 0 0.039808614492692095 -0.0001075224142497255 0 0.039783038686005301 1.9551752411110785e-05 0 0.03990938149237902 -2.6776214387032106e-05 0 0.040141717292929584 -1.9150602971543726e-06 0 0.03990938149237902 -2.6776214387032106e-05 0 0.039923772992730047 0.00012045897732460905 0 0.039967526070428493 0.00026180106592520104 0 0.039923772992730047 0.00012045897732460905 0 0.03981686700714003 0.00022946494683839596 0 0.039923772992730047 0.00012045897732460905 0 0.03981686700714003 0.00022946494683839596 0 0.039744665346809795 0.00014438933832543942 0 0.03981686700714003 0.00022946494683839596 0 0.039744665346809795 0.00014438933832543942 0 0.03974031218333271 0.00021543241966434269 0 0.039783038686005301 1.9551752411110785e-05 0 0.039923772992730047 0.00012045897732460905 0 0.039744665346809795 0.00014438933832543942 0 0.039783038686005301 1.9551752411110785e-05 0 0.039694920520986728 4.0687402463964247e-05 0 0.039744665346809795 0.00014438933832543942 0 0.039694920520986728 4.0687402463964247e-05 0 0.039671169603834398 0.00011177513435494082 0 0.039744665346809795 0.00014438933832543942 0 0.039671169603834398 0.00011177513435494082 0 0.039744665346809795 0.00014438933832543942 0 0.039687751674877439 0.00015740627993205157 0 0.039744665346809795 0.00014438933832543942 0 0.03974031218333271 0.00021543241966434269 0 0.039687751674877439 0.00015740627993205157 0 0.03974031218333271 0.00021543241966434269 0 0.039687751674877439 0.00015740627993205157 0 0.039687822570938044 0.00016518677373202634 0 0.039687751674877439 0.00015740627993205157 0 0.039687822570938044 0.00016518677373202634 0 0.039667569570781963 0.00015883226801399958 0 0.039687822570938044 0.00016518677373202634 0 0.03969862008209761 0.00015754043425153939 0 0.039660094341846544 0.00013687828288702872 0 0.039687822570938044 0.00016518677373202634 0 0.039660094341846544 0.00013687828288702872 0 0.039667569570781963 0.00015883226801399958 0 0.03974031218333271 0.00021543241966434269 0 0.039687822570938044 0.00016518677373202634 0 0.03969862008209761 0.00015754043425153939 0 0.03974031218333271 0.00021543241966434269 0 0.03969862008209761 0.00015754043425153939 0 0.039721533468461169 0.00018738227372809172 0 0.03974031218333271 0.00021543241966434269 0 0.039721533468461169 0.00018738227372809172 0 0.039795965008262719 0.00034970780517896505 0 0.039614307846701551 0.00019805380739378511 0 0.039721533468461169 0.00018738227372809172 0 0.039795965008262719 0.00034970780517896505 0 0.039967526070428493 0.00026180106592520104 0 0.03981686700714003 0.00022946494683839596 0 0.039795965008262719 0.00034970780517896505 0 0.03981686700714003 0.00022946494683839596 0 0.03974031218333271 0.00021543241966434269 0 0.039795965008262719 0.00034970780517896505 0 0.039543607715754367 -0.00013336001076964121 0 0.039517787748299248 -0.00011193164066938633 0 0.039554495477235989 -0.00010081452014687058 0 0.039543607715754367 -0.00013336001076964121 0 0.039479923766104215 -0.00016449889431791861 0 0.039517787748299248 -0.00011193164066938633 0 0.039543607715754367 -0.00013336001076964121 0 0.039577762886188451 -0.00010721423935856089 0 0.039571134879825484 -0.00013829280214244761 0 0.039543607715754367 -0.00013336001076964121 0 0.039554495477235989 -0.00010081452014687058 0 0.039577762886188451 -0.00010721423935856089 0 0.039555522623402679 -0.0001592489127710104 0 0.039543607715754367 -0.00013336001076964121 0 0.039571134879825484 -0.00013829280214244761 0 0.039555522623402679 -0.0001592489127710104 0 0.039543607715754367 -0.00013336001076964121 0 0.039479923766104215 -0.00016449889431791861 0 0.039455888799245026 -0.00017158998120728178 0 0.039489238226209221 -0.00016658250273620919 0 0.039436458925196011 -0.00019076289263941966 0 0.039459700238380371 -0.00017132363771459378 0 0.039465483400213879 -0.00014163067831636167 0 0.03954343679534942 -4.1153959542831582e-05 0 0.039563129856096342 1.3845659793308951e-06 0 0.039459700238380371 -0.00017132363771459378 0 0.039479923766104215 -0.00016449889431791861 0 0.039465483400213879 -0.00014163067831636167 0 0.039662164934499464 9.4452937913140135e-05 0 0.039661676447331901 0.00015510482177219634 0 0.039660094341846544 0.00013687828288702872 0 0.039661676447331901 0.00015510482177219634 0 0.039660094341846544 0.00013687828288702872 0 0.039667569570781963 0.00015883226801399958 0 0.039661676447331901 0.00015510482177219634 0 0.039667569570781963 0.00015883226801399958 0 0.039617879373327732 0.00011919872387932781 0 0.039687751674877439 0.00015740627993205157 0 0.039667569570781963 0.00015883226801399958 0 0.039617879373327732 0.00011919872387932781 0 0.039465483400213879 -0.00014163067831636167 0 0.039517787748299248 -0.00011193164066938633 0 0.03951950652618777 -7.0309756519934785e-05 0 0.039563129856096342 1.3845659793308951e-06 0 0.039571244378688732 1.7817643693328236e-05 0 0.039479923766104215 -0.00016449889431791861 0 0.039465483400213879 -0.00014163067831636167 0 0.039517787748299248 -0.00011193164066938633 0 0.039517787748299248 -0.00011193164066938633 0 0.03951950652618777 -7.0309756519934785e-05 0 0.039549209410139334 -8.1117777048467715e-05 0 0.03951950652618777 -7.0309756519934785e-05 0 0.039575794874400771 -5.5160151161392492e-05 0 0.039549209410139334 -8.1117777048467715e-05 0 0.039671169603834398 0.00011177513435494082 0 0.039687751674877439 0.00015740627993205157 0 0.039617879373327732 0.00011919872387932781 0 0.039694920520986728 4.0687402463964247e-05 0 0.039671169603834398 0.00011177513435494082 0 0.039594877850526858 -1.5556055731662518e-05 0 0.039671169603834398 0.00011177513435494082 0 0.039617879373327732 0.00011919872387932781 0 0.039594877850526858 -1.5556055731662518e-05 0 0.039571244378688732 1.7817643693328236e-05 0 0.039589531097661064 -1.7290828030888151e-05 0 0.03951950652618777 -7.0309756519934785e-05 0 0.039579417430041425 -3.3824894976596434e-05 0 0.039594877850526858 -1.5556055731662518e-05 0 0.03951950652618777 -7.0309756519934785e-05 0 0.039575794874400771 -5.5160151161392492e-05 0 0.039579417430041425 -3.3824894976596434e-05 0 0.039575794874400771 -5.5160151161392492e-05 0 0.039549209410139334 -8.1117777048467715e-05 0 0.039572759462040009 -7.9496421760835931e-05 0 0.039549209410139334 -8.1117777048467715e-05 0 0.039554495477235989 -0.00010081452014687058 0 0.039572759462040009 -7.9496421760835931e-05 0 0.039517787748299248 -0.00011193164066938633 0 0.039549209410139334 -8.1117777048467715e-05 0 0.039554495477235989 -0.00010081452014687058 0 0.039577762886188451 -0.00010721423935856089 0 0.039572759462040009 -7.9496421760835931e-05 0 0.039596245921346321 -6.9155004747258018e-05 0 0.039554495477235989 -0.00010081452014687058 0 0.039577762886188451 -0.00010721423935856089 0 0.039572759462040009 -7.9496421760835931e-05 0 0.039575794874400771 -5.5160151161392492e-05 0 0.039596245921346321 -6.9155004747258018e-05 0 0.039614710823595328 -3.227614614563194e-05 0 0.039575794874400771 -5.5160151161392492e-05 0 0.039572759462040009 -7.9496421760835931e-05 0 0.039596245921346321 -6.9155004747258018e-05 0 0.044999973743948922 1.540137465201593e-08 0 0.044969606881782025 4.9426112000776592e-06 0 0.044999820560020484 2.3204146001069942e-09 0 0.044950491859377419 1.1832938610823019e-05 0 0.044972335097478222 5.4341741302408229e-06 0 0.044969606881782025 4.9426112000776592e-06 0 0.04255496630493609 -9.336541775175311e-05 0 0.04220672505764006 3.1825093194895737e-06 0 0.039575794874400771 -5.5160151161392492e-05 0 0.039614710823595328 -3.227614614563194e-05 0 0.039579417430041425 -3.3824894976596434e-05 0 0.039614710823595328 -3.227614614563194e-05 0 0.039579417430041425 -3.3824894976596434e-05 0 0.039588872538526054 -3.5289522648208709e-05 0 0.044940041336144432 1.6797629513295037e-05 0 0.044950491859377419 1.1832938610823019e-05 0 0.044969606881782025 4.9426112000776592e-06 0 0.039694920520986728 4.0687402463964247e-05 0 0.039594877850526858 -1.5556055731662518e-05 0 0.039671793917745356 -6.9189526035579358e-05 0 0.039594877850526858 -1.5556055731662518e-05 0 0.039588872538526054 -3.5289522648208709e-05 0 0.039671793917745356 -6.9189526035579358e-05 0 0.039579417430041425 -3.3824894976596434e-05 0 0.039594877850526858 -1.5556055731662518e-05 0 0.039588872538526054 -3.5289522648208709e-05 0 0.044950491859377419 1.1832938610823019e-05 0 0.044956753023625555 7.9676234910713536e-06 0 0.044972335097478222 5.4341741302408229e-06 0 0.04220672505764006 3.1825093194895737e-06 0 0.042330107246998053 -3.3354602947529083e-05 0 0.044978230259078475 3.7717227444189037e-06 0 0.044956753023625555 7.9676234910713536e-06 0 0.044972335097478222 5.4341741302408229e-06 0 0.044978230259078475 3.7717227444189037e-06 0 0.044972335097478222 5.4341741302408229e-06 0 0.044999973743948922 1.540137465201593e-08 0 0.044972335097478222 5.4341741302408229e-06 0 0.044999973743948922 1.540137465201593e-08 0 0.044969606881782025 4.9426112000776592e-06 0 0.044969606881782025 4.9426112000776592e-06 0 0.044954282306156092 7.8267514000128953e-06 0 0.044999820560020484 2.3204146001069942e-09 0 0.044954282306156092 7.8267514000128953e-06 0 0.044999820560020484 2.3204146001069942e-09 0 0.044951380902222192 8.1816349219315419e-06 0 0.038737504646271397 0.0015259724834208622 0 0.038777327624409538 0.0013941513158930016 0 0.038719522703631798 0.0013597039775642022 0 0.042598412626173879 0.00033235598368668099 0 0.041791012957615191 0.0007034978780305675 0 0.044999820560020484 2.3204146001069942e-09 0 0.044996487436932985 6.5496564947739506e-07 0 0.044951380902222192 8.1816349219315419e-06 0 0.038737504646271397 0.0015259724834208622 0 0.038719522703631798 0.0013597039775642022 0 0.038633447880972775 0.0012341842527210638 0 0.044995306285958096 -5.8828049793109327e-07 0 0.042598412626173879 0.00033235598368668099 0 0.042598412626173879 0.00033235598368668099 0 0.041860896932851138 0.00092039925743159288 0 0.044999939434272655 -4.345549912392643e-08 0 0.044999331928840716 -3.5695738781345152e-08 0 0.045000074921389605 8.1174235978325742e-08 0 0.038737504646271397 0.0015259724834208622 0 0.038861932171127912 0.0014303659221874107 0 0.038993440036799533 0.0015858952015443686 0 0.044999331928840716 -3.5695738781345152e-08 0 0.045000074921389605 8.1174235978325742e-08 0 0.045011084837447549 4.4404295416530489e-05 0 0.038737504646271397 0.0015259724834208622 0 0.038861932171127912 0.0014303659221874107 0 0.038777327624409538 0.0013941513158930016 0 0.038861932171127912 0.0014303659221874107 0 0.038829238513585183 0.001249431477067101 0 0.038972351729982854 0.0012290438054306692 0 0.038777327624409538 0.0013941513158930016 0 0.038829238513585183 0.001249431477067101 0 0.03873819653441711 0.0012706856701646169 0 0.038861932171127912 0.0014303659221874107 0 0.038777327624409538 0.0013941513158930016 0 0.038829238513585183 0.001249431477067101 0 0.038829238513585183 0.001249431477067101 0 0.03873819653441711 0.0012706856701646169 0 0.038765923632110191 0.0011475493473263683 0 0.038829238513585183 0.001249431477067101 0 0.038879856643235726 0.0010579975118900004 0 0.038972351729982854 0.0012290438054306692 0 0.038719522703631798 0.0013597039775642022 0 0.03873819653441711 0.0012706856701646169 0 0.038633447880972775 0.0012341842527210638 0 0.038777327624409538 0.0013941513158930016 0 0.038719522703631798 0.0013597039775642022 0 0.03873819653441711 0.0012706856701646169 0 0.03873819653441711 0.0012706856701646169 0 0.038702794874239381 0.001187721604588742 0 0.038633447880972775 0.0012341842527210638 0 0.03873819653441711 0.0012706856701646169 0 0.038702794874239381 0.001187721604588742 0 0.038765923632110191 0.0011475493473263683 0 0.038702794874239381 0.001187721604588742 0 0.038633447880972775 0.0012341842527210638 0 0.038675898439594424 0.0011077919531907949 0 0.038675898439594424 0.0011077919531907949 0 0.038790233342813479 0.0010314221063773192 0 0.038744613318503561 0.0009152483714216672 0 0.038633447880972775 0.0012341842527210638 0 0.038675898439594424 0.0011077919531907949 0 0.038550062860918437 0.00088510522615361988 0 0.038702794874239381 0.001187721604588742 0 0.038675898439594424 0.0011077919531907949 0 0.038765923632110191 0.0011475493473263683 0 0.038675898439594424 0.0011077919531907949 0 0.038765923632110191 0.0011475493473263683 0 0.038790233342813479 0.0010314221063773192 0 0.038879856643235726 0.0010579975118900004 0 0.038765923632110191 0.0011475493473263683 0 0.038790233342813479 0.0010314221063773192 0 0.038829238513585183 0.001249431477067101 0 0.038879856643235726 0.0010579975118900004 0 0.038765923632110191 0.0011475493473263683 0 0.038879856643235726 0.0010579975118900004 0 0.038790233342813479 0.0010314221063773192 0 0.038862554884322213 0.0009772494530191707 0 0.038879856643235726 0.0010579975118900004 0 0.038862554884322213 0.0009772494530191707 0 0.038926242345617097 0.0009550387487272426 0 0.03803074088877284 0.00050320288314029452 0 0.037746723901463143 0.00097689946424003469 0 0.038790233342813479 0.0010314221063773192 0 0.038862554884322213 0.0009772494530191707 0 0.038744613318503561 0.0009152483714216672 0 0.038862554884322213 0.0009772494530191707 0 0.038744613318503561 0.0009152483714216672 0 0.038929626266910544 0.00097929617712598093 0 0.039565720951787342 -0.0001122977627540109 0 0.039578534838610666 -0.0001135544863899436 0 0.03957203353351707 -0.00011535778263893649 0 0.03803074088877284 0.00050320288314029452 0 0.041100803308474307 0.00048839700944562007 0 0.038675898439594424 0.0011077919531907949 0 0.038741136984335907 0.00085661767058164376 0 0.038550062860918437 0.00088510522615361988 0 0.038736197482080285 0.0011879227862625795 0 0.03803074088877284 0.00050320288314029452 0 0.04255496630493609 -9.336541775175311e-05 0 0.041100803308474307 0.00048839700944562007 0 0.039614710823595328 -3.227614614563194e-05 0 0.039666808743377989 -3.4523184557035603e-05 0 0.039638363354183158 -6.83063786845715e-05 0 0.044940041336144432 1.6797629513295037e-05 0 0.044969606881782025 4.9426112000776592e-06 0 0.044954282306156092 7.8267514000128953e-06 0 0.044940041336144432 1.6797629513295037e-05 0 0.044954282306156092 7.8267514000128953e-06 0 0.04491202974389541 2.3047718628880746e-05 0 0.041791012957615191 0.0007034978780305675 0 0.041100803308474307 0.00048839700944562007 0 0.044954282306156092 7.8267514000128953e-06 0 0.044951380902222192 8.1816349219315419e-06 0 0.04491202974389541 2.3047718628880746e-05 0 0.044294719040833597 0.00011387759800775777 0 0.043181684675975392 0.00042470762891691434 0 0.044453709979085418 0.00010038552653429737 0 0.042891164313349342 0.00075446991633644391 0 0.043193993110221519 0.0004751410541806328 0 0.044294719040833597 0.00011387759800775777 0 0.044979988339352135 0.00025897281997485115 0 0.043181684675975392 0.00042470762891691434 0 0.044294719040833597 0.00011387759800775777 0 0.04499981377853067 3.0368872368637835e-08 0 0.044843375450317732 2.5302570196912218e-05 0 0.044294719040833597 0.00011387759800775777 0 0.04499981377853067 3.0368872368637835e-08 0 0.044453709979085418 0.00010038552653429737 0 0.044843375450317732 2.5302570196912218e-05 0 0.044979988339352135 0.00025897281997485115 0 0.044999882403902847 -3.9433210900744564e-08 0 0.04499981377853067 3.0368872368637835e-08 0 0.044843375450317732 2.5302570196912218e-05 0 0.044999882403902847 -3.9433210900744564e-08 0 0.044294719040833597 0.00011387759800775777 0 0.044843375450317732 2.5302570196912218e-05 0 0.044979988339352135 0.00025897281997485115 0 0.040733343640644654 0.0014009169937026799 0 0.039505223545342687 0.0011556829564197538 0 0.040643996877224316 0.00057599916852901464 0 0.040733343640644654 0.0014009169937026799 0 0.039505223545342687 0.0011556829564197538 0 0.038993440036799533 0.0015858952015443686 0 0.042891164313349342 0.00075446991633644391 0 0.041860896932851138 0.00092039925743159288 0 0.044979988339352135 0.00025897281997485115 0 0.044999882403902847 -3.9433210900744564e-08 0 0.045011084837447549 4.4404295416530489e-05 0 0.044999882403902847 -3.9433210900744564e-08 0 0.045000074921389605 8.1174235978325742e-08 0 0.045011084837447549 4.4404295416530489e-05 0 0.038861932171127912 0.0014303659221874107 0 0.038993440036799533 0.0015858952015443686 0 0.038972351729982854 0.0012290438054306692 0 0.039505223545342687 0.0011556829564197538 0 0.038993440036799533 0.0015858952015443686 0 0.038972351729982854 0.0012290438054306692 0 0.039505223545342687 0.0011556829564197538 0 0.038972351729982854 0.0012290438054306692 0 0.03902244984283381 0.0010318426728540121 0 0.039505223545342687 0.0011556829564197538 0 0.03902244984283381 0.0010318426728540121 0 0.038963327906548037 0.00094121371228289617 0 0.038879856643235726 0.0010579975118900004 0 0.038972351729982854 0.0012290438054306692 0 0.03902244984283381 0.0010318426728540121 0 0.03902244984283381 0.0010318426728540121 0 0.038963327906548037 0.00094121371228289617 0 0.038926242345617097 0.0009550387487272426 0 0.038879856643235726 0.0010579975118900004 0 0.03902244984283381 0.0010318426728540121 0 0.038926242345617097 0.0009550387487272426 0 0.038862554884322213 0.0009772494530191707 0 0.038926242345617097 0.0009550387487272426 0 0.038929626266910544 0.00097929617712598093 0 0.038926242345617097 0.0009550387487272426 0 0.038929626266910544 0.00097929617712598093 0 0.038894451345241443 0.00092049123431649704 0 0.038929626266910544 0.00097929617712598093 0 0.038894451345241443 0.00092049123431649704 0 0.038749456496499309 0.00088221451853743638 0 0.038963327906548037 0.00094121371228289617 0 0.038894451345241443 0.00092049123431649704 0 0.038749456496499309 0.00088221451853743638 0 0.038963327906548037 0.00094121371228289617 0 0.038926242345617097 0.0009550387487272426 0 0.038894451345241443 0.00092049123431649704 0 0.038963327906548037 0.00094121371228289617 0 0.038749456496499309 0.00088221451853743638 0 0.038647119381849733 0.00091933680404642111 0 0.038929626266910544 0.00097929617712598093 0 0.038749456496499309 0.00088221451853743638 0 0.038407890576736312 0.00064687438378169542 0 0.038749456496499309 0.00088221451853743638 0 0.038647119381849733 0.00091933680404642111 0 0.038407890576736312 0.00064687438378169542 0 0.039505223545342687 0.0011556829564197538 0 0.038963327906548037 0.00094121371228289617 0 0.038647119381849733 0.00091933680404642111 0 0.039505223545342687 0.0011556829564197538 0 0.040643996877224316 0.00057599916852901464 0 0.040803233367632669 -0.00029077844258841069 0 0.039471491132796931 0.0011638654448294405 0 0.039702770065844398 0.00037856339282399496 0 0.040733343640644654 0.0014009169937026799 0 0.040643996877224316 0.00057599916852901464 0 0.041555713959249611 8.7621325350904292e-05 0 0.040643996877224316 0.00057599916852901464 0 0.041555713959249611 8.7621325350904292e-05 0 0.040803233367632669 -0.00029077844258841069 0 0.041555713959249611 8.7621325350904292e-05 0 0.040803233367632669 -0.00029077844258841069 0 0.041620029896297886 -0.00045900655880232909 0 0.041620029896297886 -0.00045900655880232909 0 0.042356724076158064 -0.00013608994909636315 0 0.042013656695379917 -0.00045821713812586916 0 0.041555713959249611 8.7621325350904292e-05 0 0.041620029896297886 -0.00045900655880232909 0 0.042356724076158064 -0.00013608994909636315 0 0.040733343640644654 0.0014009169937026799 0 0.041555713959249611 8.7621325350904292e-05 0 0.043181684675975392 0.00042470762891691434 0 0.041555713959249611 8.7621325350904292e-05 0 0.042356724076158064 -0.00013608994909636315 0 0.043181684675975392 0.00042470762891691434 0 0.041383652508243163 -0.00077268156557173311 0 0.041328874617553989 -0.00082016598612927717 0 0.04061379886622974 -0.0011215360359841272 0 0.039821308261197237 -0.00028566380150993358 0 0.039663091070050852 -0.0010812475360765443 0 0.041383652508243163 -0.00077268156557173311 0 0.041559390904957492 -0.00065346465951977872 0 0.041328874617553989 -0.00082016598612927717 0 0.041620029896297886 -0.00045900655880232909 0 0.041559390904957492 -0.00065346465951977872 0 0.041328874617553989 -0.00082016598612927717 0 0.041620029896297886 -0.00045900655880232909 0 0.041559390904957492 -0.00065346465951977872 0 0.042013656695379917 -0.00045821713812586916 0 0.041383652508243163 -0.00077268156557173311 0 0.041559390904957492 -0.00065346465951977872 0 0.042013656695379917 -0.00045821713812586916 0 0.040803233367632669 -0.00029077844258841069 0 0.041620029896297886 -0.00045900655880232909 0 0.041328874617553989 -0.00082016598612927717 0 0.039702770065844398 0.00037856339282399496 0 0.039821308261197237 -0.00028566380150993358 0 0.038647119381849733 0.00091933680404642111 0 0.038356952216192321 0.00025509291569420742 0 0.038407890576736312 0.00064687438378169542 0 0.038356952216192321 0.00025509291569420742 0 0.038407890576736312 0.00064687438378169542 0 0.037795936302715945 5.8019930949786337e-05 0 0.038356952216192321 0.00025509291569420742 0 0.038072917873896134 -0.00042861043080679898 0 0.037795936302715945 5.8019930949786337e-05 0 0.038356952216192321 0.00025509291569420742 0 0.038072917873896134 -0.00042861043080679898 0 0.038711570017385136 -0.00088893883787570039 0 0.037206136252595834 -0.00028727834737388223 0 0.037795936302715945 5.8019930949786337e-05 0 0.03725782214201788 0.00048411430795865744 0 0.037206136252595834 -0.00028727834737388223 0 0.037795936302715945 5.8019930949786337e-05 0 0.03753570397484296 -0.00073739746457827861 0 0.038072917873896134 -0.00042861043080679898 0 0.037795936302715945 5.8019930949786337e-05 0 0.03753570397484296 -0.00073739746457827861 0 0.03688988070533631 0.0008913963258901698 0 0.038407890576736312 0.00064687438378169542 0 0.037661728468402156 0.00049553452603244596 0 0.038407890576736312 0.00064687438378169542 0 0.037795936302715945 5.8019930949786337e-05 0 0.037661728468402156 0.00049553452603244596 0 0.037746723901463143 0.00097689946424003469 0 0.038483402958782623 0.00066607821766045256 0 0.037795936302715945 5.8019930949786337e-05 0 0.037661728468402156 0.00049553452603244596 0 0.03725782214201788 0.00048411430795865744 0 0.03725782214201788 0.00048411430795865744 0 0.03667744774197481 0.00035304548293259617 0 0.036749870879264512 -0.00018917315154133528 0 0.03688988070533631 0.0008913963258901698 0 0.037661728468402156 0.00049553452603244596 0 0.03725782214201788 0.00048411430795865744 0 0.03688988070533631 0.0008913963258901698 0 0.03725782214201788 0.00048411430795865744 0 0.03667744774197481 0.00035304548293259617 0 0.037206136252595834 -0.00028727834737388223 0 0.03725782214201788 0.00048411430795865744 0 0.036508788492034573 -0.00036534259451111368 0 0.037223381568566943 0.00047026577831081557 0 0.036544442770216887 -0.00035305007248174098 0 0.037206136252595834 -0.00028727834737388223 0 0.036508788492034573 -0.00036534259451111368 0 0.036901151463870768 -0.0008320990996387804 0 0.036508788492034573 -0.00036534259451111368 0 0.036901151463870768 -0.0008320990996387804 0 0.036415535566476628 -0.001033435260129906 0 0.036901151463870768 -0.0008320990996387804 0 0.036760771887033396 -0.001229200470073793 0 0.037078456934017581 -0.0014408326722935938 0 0.036901151463870768 -0.0008320990996387804 0 0.036415535566476628 -0.001033435260129906 0 0.036760771887033396 -0.001229200470073793 0 0.036415535566476628 -0.001033435260129906 0 0.036640982793523132 -0.0016122542625249959 0 0.036306231487189033 -0.002089329502450504 0 0.036408121676854359 -0.0011809301712457684 0 0.03639296733075234 -0.0017593950088361135 0 0.036415535566476628 -0.001033435260129906 0 0.036640982793523132 -0.0016122542625249959 0 0.036760771887033396 -0.001229200470073793 0 0.036640982793523132 -0.0016122542625249959 0 0.037078456934017581 -0.0014408326722935938 0 0.036793643545637474 -0.0020510603444319265 0 0.036640982793523132 -0.0016122542625249959 0 0.036760771887033396 -0.001229200470073793 0 0.037078456934017581 -0.0014408326722935938 0 0.037078456934017581 -0.0014408326722935938 0 0.03753570397484296 -0.00073739746457827861 0 0.037636407289522264 -0.0014278978495987815 0 0.037078456934017581 -0.0014408326722935938 0 0.037636407289522264 -0.0014278978495987815 0 0.037330823214455508 -0.0021476612956519278 0 0.037078456934017581 -0.0014408326722935938 0 0.036793643545637474 -0.0020510603444319265 0 0.037330823214455508 -0.0021476612956519278 0 0.036901151463870768 -0.0008320990996387804 0 0.037078456934017581 -0.0014408326722935938 0 0.03753570397484296 -0.00073739746457827861 0 0.037206136252595834 -0.00028727834737388223 0 0.036901151463870768 -0.0008320990996387804 0 0.03753570397484296 -0.00073739746457827861 0 0.038072917873896134 -0.00042861043080679898 0 0.038006469191955758 -0.0010290580054667456 0 0.038711570017385136 -0.00088893883787570039 0 0.03753570397484296 -0.00073739746457827861 0 0.038006469191955758 -0.0010290580054667456 0 0.037636407289522264 -0.0014278978495987815 0 0.038072917873896134 -0.00042861043080679898 0 0.03753570397484296 -0.00073739746457827861 0 0.038006469191955758 -0.0010290580054667456 0 0.037636407289522264 -0.0014278978495987815 0 0.038102099769233275 -0.0016674878507946021 0 0.037330823214455508 -0.0021476612956519278 0 0.038006469191955758 -0.0010290580054667456 0 0.037636407289522264 -0.0014278978495987815 0 0.038102099769233275 -0.0016674878507946021 0 0.038102099769233275 -0.0016674878507946021 0 0.038711570017385136 -0.00088893883787570039 0 0.039379996032804267 -0.0021021665681739514 0 0.038006469191955758 -0.0010290580054667456 0 0.038102099769233275 -0.0016674878507946021 0 0.038711570017385136 -0.00088893883787570039 0 0.03961812462322277 -4.9351955898821722e-05 0 0.039558173864097865 -0.00025878053129019984 0 0.039574166823200647 -0.00011611777245830385 0 0.03959512856749689 -0.0001082185801125978 0 0.039579496471588198 -0.00011742782783686094 0 0.039574166823200647 -0.00011611777245830385 0 0.03959512856749689 -0.0001082185801125978 0 0.039581268150150582 -0.00012164619659413129 0 0.039577762886188451 -0.00010721423935856089 0 0.039596245921346321 -6.9155004747258018e-05 0 0.03959512856749689 -0.0001082185801125978 0 0.039596245921346321 -6.9155004747258018e-05 0 0.03959512856749689 -0.0001082185801125978 0 0.039638363354183158 -6.83063786845715e-05 0 0.039596245921346321 -6.9155004747258018e-05 0 0.039614710823595328 -3.227614614563194e-05 0 0.039638363354183158 -6.83063786845715e-05 0 0.039578534838610666 -0.0001135544863899436 0 0.039579496471588198 -0.00011742782783686094 0 0.03957203353351707 -0.00011535778263893649 0 0.039574166823200647 -0.00011611777245830385 0 0.039579496471588198 -0.00011742782783686094 0 0.03957203353351707 -0.00011535778263893649 0 0.041100803308474307 0.00048839700944562007 0 0.039558173864097865 -0.00025878053129019984 0 0.039565720951787342 -0.0001122977627540109 0 0.03957203353351707 -0.00011535778263893649 0 0.03956393866083744 -0.00011662283510868869 0 0.03803074088877284 0.00050320288314029452 0 0.037919964955701352 6.2542267789893816e-06 0 0.035931357688849863 0.00098306066288263269 0 0.03688988070533631 0.0008913963258901698 0 0.03667744774197481 0.00035304548293259617 0 0.035931357688849863 0.00098306066288263269 0 0.03667744774197481 0.00035304548293259617 0 0.03612142435093757 4.9466660457855016e-05 0 0.036749870879264512 -0.00018917315154133528 0 0.03612142435093757 4.9466660457855016e-05 0 0.036323305518775342 -0.0008692743122040976 0 0.03667744774197481 0.00035304548293259617 0 0.036749870879264512 -0.00018917315154133528 0 0.03612142435093757 4.9466660457855016e-05 0 0.039574166823200647 -0.00011611777245830385 0 0.03957203353351707 -0.00011535778263893649 0 0.03956393866083744 -0.00011662283510868869 0 0.039574166823200647 -0.00011611777245830385 0 0.03956393866083744 -0.00011662283510868869 0 0.039566272565040979 -0.00012559951533070514 0 0.039574166823200647 -0.00011611777245830385 0 0.039566272565040979 -0.00012559951533070514 0 0.039570451064375879 -0.00012712695876659766 0 0.03956393866083744 -0.00011662283510868869 0 0.039566272565040979 -0.00012559951533070514 0 0.039559812838114078 -0.00013522082299741945 0 0.039566272565040979 -0.00012559951533070514 0 0.039559812838114078 -0.00013522082299741945 0 0.039564508189595865 -0.00013557373151727462 0 0.039566272565040979 -0.00012559951533070514 0 0.039564508189595865 -0.00013557373151727462 0 0.039570451064375879 -0.00012712695876659766 0 0.036508788492034573 -0.00036534259451111368 0 0.036415535566476628 -0.001033435260129906 0 0.036040155821190085 -0.0011391325709296156 0 0.036544442770216887 -0.00035305007248174098 0 0.036979224755599907 -0.00082304017755986008 0 0.037919964955701352 6.2542267789893816e-06 0 0.036979224755599907 -0.00082304017755986008 0 0.036979224755599907 -0.00082304017755986008 0 0.037950011914384608 -0.00084403459158102539 0 0.036335223476143937 -0.001516144417979919 0 0.036382514937647256 -0.0018005729198963955 0 0.036163002739300641 -0.0017965793796888509 0 0.036415535566476628 -0.001033435260129906 0 0.036040155821190085 -0.0011391325709296156 0 0.036220207091260601 -0.0016774430719499523 0 0.036415535566476628 -0.001033435260129906 0 0.036220207091260601 -0.0016774430719499523 0 0.0364837579475107 -0.0018075152666717348 0 0.036979224755599907 -0.00082304017755986008 0 0.03632113672149942 -0.0017857384249373304 0 0.039559812838114078 -0.00013522082299741945 0 0.039564508189595865 -0.00013557373151727462 0 0.039560738245656819 -0.0001463515839194445 0 0.039564508189595865 -0.00013557373151727462 0 0.039560738245656819 -0.0001463515839194445 0 0.039568138329135048 -0.00013976209695908823 0 0.039564508189595865 -0.00013557373151727462 0 0.039568138329135048 -0.00013976209695908823 0 0.039570451064375879 -0.00012712695876659766 0 0.039574166823200647 -0.00011611777245830385 0 0.039570451064375879 -0.00012712695876659766 0 0.039581268150150582 -0.00012164619659413129 0 0.039568138329135048 -0.00013976209695908823 0 0.039570451064375879 -0.00012712695876659766 0 0.039581268150150582 -0.00012164619659413129 0 0.039577762886188451 -0.00010721423935856089 0 0.03959512856749689 -0.0001082185801125978 0 0.039581268150150582 -0.00012164619659413129 0 0.039577762886188451 -0.00010721423935856089 0 0.039581268150150582 -0.00012164619659413129 0 0.039571134879825484 -0.00013829280214244761 0 0.039555522623402679 -0.0001592489127710104 0 0.039571134879825484 -0.00013829280214244761 0 0.039566453571156047 -0.00014952891941690669 0 0.039568138329135048 -0.00013976209695908823 0 0.039571134879825484 -0.00013829280214244761 0 0.039566453571156047 -0.00014952891941690669 0 0.039568138329135048 -0.00013976209695908823 0 0.039581268150150582 -0.00012164619659413129 0 0.039571134879825484 -0.00013829280214244761 0 0.039568138329135048 -0.00013976209695908823 0 0.039566453571156047 -0.00014952891941690669 0 0.039557597049679274 -0.00015612834311544375 0 0.03968226902627401 -8.4287763276488158e-05 0 0.038175788787325894 -0.0017390672666490014 0 0.038157749015011865 -0.0048085495485531947 0 0.037486465931680771 -0.0047629226622075164 0 0.037707625696316124 -0.0054625091922351635 0 0.038762098838371964 -0.0026575460564904224 0 0.038175788787325894 -0.0017390672666490014 0 0.039424861753235257 -0.00020304360375742177 0 0.039426191382526406 -0.0002260738228539617 0 0.039418335892829184 -0.00022621370197440727 0 0.039424425446803392 -0.00019788294351177649 0 0.039422673338445 -0.00021218478808547695 0 0.039426191382526406 -0.0002260738228539617 0 0.039424425446803392 -0.00019788294351177649 0 0.039424861753235257 -0.00020304360375742177 0 0.039426191382526406 -0.0002260738228539617 0 0.038762098838371964 -0.0026575460564904224 0 0.039047335877962698 -0.0021909745596845965 0 0.039422673338445 -0.00021218478808547695 0 0.039426191382526406 -0.0002260738228539617 0 0.039430278703285818 -0.00024321048458352988 0 0.038157749015011865 -0.0048085495485531947 0 0.037952284806404897 -0.0042080779118422729 0 0.037486465931680771 -0.0047629226622075164 0 0.038157749015011865 -0.0048085495485531947 0 0.037952284806404897 -0.0042080779118422729 0 0.038643990897331421 -0.0041305983950451885 0 0.037952284806404897 -0.0042080779118422729 0 0.038643990897331421 -0.0041305983950451885 0 0.038275033613480815 -0.0034307680244768219 0 0.039128316314487557 -0.0034195426720700227 0 0.038643990897331421 -0.0041305983950451885 0 0.038275033613480815 -0.0034307680244768219 0 0.039422673338445 -0.00021218478808547695 0 0.039418349976296861 -0.00027206569684333932 0 0.039430278703285818 -0.00024321048458352988 0 0.039107058768077928 -0.0015786176993751772 0 0.039047335877962698 -0.0021909745596845965 0 0.037182521897216443 -0.0041901802729480382 0 0.036888060343747857 -0.0046532918044708731 0 0.036305334666985767 -0.0039511053899212679 0 0.037182521897216443 -0.0041901802729480382 0 0.036305334666985767 -0.0039511053899212679 0 0.037276437143552228 -0.0033356189036945613 0 0.037952284806404897 -0.0042080779118422729 0 0.037182521897216443 -0.0041901802729480382 0 0.037276437143552228 -0.0033356189036945613 0 0.037182521897216443 -0.0041901802729480382 0 0.037486465931680771 -0.0047629226622075164 0 0.036888060343747857 -0.0046532918044708731 0 0.037952284806404897 -0.0042080779118422729 0 0.037182521897216443 -0.0041901802729480382 0 0.037486465931680771 -0.0047629226622075164 0 0.037486465931680771 -0.0047629226622075164 0 0.036888060343747857 -0.0046532918044708731 0 0.037037707310255227 -0.0052327398889317764 0 0.036888060343747857 -0.0046532918044708731 0 0.036381865328041295 -0.0049913029216196525 0 0.036305334666985767 -0.0039511053899212679 0 0.036888060343747857 -0.0046532918044708731 0 0.037037707310255227 -0.0052327398889317764 0 0.036381865328041295 -0.0049913029216196525 0 0.036557839407042998 -0.0036969577048498329 0 0.036475388231253576 -0.0034371114450905947 0 0.0362485700288614 -0.0021551089968931472 0 0.036409014543152325 -0.0020669206530468951 0 0.036527924697269384 -0.0023038428299230786 0 0.0362485700288614 -0.0021551089968931472 0 0.036409014543152325 -0.0020669206530468951 0 0.036259186862475382 -0.0019671725970536917 0 0.036557839407042998 -0.0036969577048498329 0 0.038175788787325894 -0.0017390672666490014 0 0.037486465931680771 -0.0047629226622075164 0 0.037037707310255227 -0.0052327398889317764 0 0.037707625696316124 -0.0054625091922351635 0 0.0362485700288614 -0.0021551089968931472 0 0.036019036055360353 -0.002051568728673079 0 0.036259186862475382 -0.0019671725970536917 0 0.036163002739300641 -0.0017965793796888509 0 0.036019036055360353 -0.002051568728673079 0 0.036259186862475382 -0.0019671725970536917 0 0.039560738245656819 -0.0001463515839194445 0 0.039568138329135048 -0.00013976209695908823 0 0.039557597049679274 -0.00015612834311544375 0 0.037950011914384608 -0.00084403459158102539 0 0.038175788787325894 -0.0017390672666490014 0 0.036220207091260601 -0.0016774430719499523 0 0.036409014543152325 -0.0020669206530468951 0 0.0364837579475107 -0.0018075152666717348 0 0.036382514937647256 -0.0018005729198963955 0 0.036409014543152325 -0.0020669206530468951 0 0.036259186862475382 -0.0019671725970536917 0 0.03632113672149942 -0.0017857384249373304 0 0.036382169498999625 -0.0020017961725822906 0 0.036382514937647256 -0.0018005729198963955 0 0.036163002739300641 -0.0017965793796888509 0 0.036259186862475382 -0.0019671725970536917 0 0.036306231487189033 -0.002089329502450504 0 0.036619851524997214 -0.0023579482683308084 0 0.036571585721056454 -0.0026646679110775007 0 0.036619851524997214 -0.0023579482683308084 0 0.036861608323625769 -0.0025737228069167219 0 0.036571585721056454 -0.0026646679110775007 0 0.036619851524997214 -0.0023579482683308084 0 0.036793643545637474 -0.0020510603444319265 0 0.036861608323625769 -0.0025737228069167219 0 0.036306231487189033 -0.002089329502450504 0 0.036619851524997214 -0.0023579482683308084 0 0.036793643545637474 -0.0020510603444319265 0 0.036640982793523132 -0.0016122542625249959 0 0.036306231487189033 -0.002089329502450504 0 0.036793643545637474 -0.0020510603444319265 0 0.036793643545637474 -0.0020510603444319265 0 0.037330823214455508 -0.0021476612956519278 0 0.036861608323625769 -0.0025737228069167219 0 0.036861608323625769 -0.0025737228069167219 0 0.037204577948632175 -0.0029465782763487295 0 0.036814260020806656 -0.0031768659929512079 0 0.037330823214455508 -0.0021476612956519278 0 0.036861608323625769 -0.0025737228069167219 0 0.037204577948632175 -0.0029465782763487295 0 0.036409014543152325 -0.0020669206530468951 0 0.0364837579475107 -0.0018075152666717348 0 0.036527924697269384 -0.0023038428299230786 0 0.03639296733075234 -0.0017593950088361135 0 0.036475388231253576 -0.0034371114450905947 0 0.036861608323625769 -0.0025737228069167219 0 0.036571585721056454 -0.0026646679110775007 0 0.036814260020806656 -0.0031768659929512079 0 0.036306231487189033 -0.002089329502450504 0 0.036325943957288338 -0.0029949868116557047 0 0.036571585721056454 -0.0026646679110775007 0 0.036475388231253576 -0.0034371114450905947 0 0.036533246440485043 -0.0032370703793301397 0 0.036325943957288338 -0.0029949868116557047 0 0.036571585721056454 -0.0026646679110775007 0 0.036814260020806656 -0.0031768659929512079 0 0.038102099769233275 -0.0016674878507946021 0 0.037758899715055867 -0.0026868818219402671 0 0.039379996032804267 -0.0021021665681739514 0 0.038102099769233275 -0.0016674878507946021 0 0.037330823214455508 -0.0021476612956519278 0 0.037758899715055867 -0.0026868818219402671 0 0.037758899715055867 -0.0026868818219402671 0 0.037204577948632175 -0.0029465782763487295 0 0.037561810446458753 -0.003421032361959887 0 0.037330823214455508 -0.0021476612956519278 0 0.037758899715055867 -0.0026868818219402671 0 0.037204577948632175 -0.0029465782763487295 0 0.037758899715055867 -0.0026868818219402671 0 0.038201980340975772 -0.0032289826747190649 0 0.037561810446458753 -0.003421032361959887 0 0.037758899715055867 -0.0026868818219402671 0 0.038201980340975772 -0.0032289826747190649 0 0.039379996032804267 -0.0021021665681739514 0 0.037181275645128388 -0.0036724710992368198 0 0.037947040460629793 -0.0038985499895688525 0 0.037910670115382121 -0.0034562736455074016 0 0.038201980340975772 -0.0032289826747190649 0 0.037561810446458753 -0.003421032361959887 0 0.037947040460629793 -0.0038985499895688525 0 0.037561810446458753 -0.003421032361959887 0 0.037181275645128388 -0.0036724710992368198 0 0.037947040460629793 -0.0038985499895688525 0 0.037561810446458753 -0.003421032361959887 0 0.037021887680291896 -0.0033672298173142074 0 0.037181275645128388 -0.0036724710992368198 0 0.037204577948632175 -0.0029465782763487295 0 0.037561810446458753 -0.003421032361959887 0 0.037021887680291896 -0.0033672298173142074 0 0.037021887680291896 -0.0033672298173142074 0 0.037181275645128388 -0.0036724710992368198 0 0.036296047422150243 -0.0037087847717243842 0 0.037181275645128388 -0.0036724710992368198 0 0.036296047422150243 -0.0037087847717243842 0 0.036037392610530426 -0.003998520621910787 0 0.036079706723638701 -0.00324726880720881 0 0.036310411622486403 -0.0033265727891488663 0 0.036198994439503612 -0.0037679498395054075 0 0.036310411622486403 -0.0033265727891488663 0 0.036296047422150243 -0.0037087847717243842 0 0.036198994439503612 -0.0037679498395054075 0 0.036475388231253576 -0.0034371114450905947 0 0.036213392900828763 -0.003989980285720003 0 0.037021887680291896 -0.0033672298173142074 0 0.036310411622486403 -0.0033265727891488663 0 0.036296047422150243 -0.0037087847717243842 0 0.037204577948632175 -0.0029465782763487295 0 0.037021887680291896 -0.0033672298173142074 0 0.036814260020806656 -0.0031768659929512079 0 0.036999585608639717 -0.0033782904421784882 0 0.036533246440485043 -0.0032370703793301397 0 0.036296047422150243 -0.0037087847717243842 0 0.036198994439503612 -0.0037679498395054075 0 0.036037392610530426 -0.003998520621910787 0 0.036037392610530426 -0.003998520621910787 0 0.036162567586586036 -0.0030212856415174827 0 0.034702924635948963 -0.0022796961364001107 0 0.036198994439503612 -0.0037679498395054075 0 0.036037392610530426 -0.003998520621910787 0 0.036162567586586036 -0.0030212856415174827 0 0.036213392900828763 -0.003989980285720003 0 0.036181296517961689 -0.0029977109930296917 0 0.036037392610530426 -0.003998520621910787 0 0.03343815401005186 -0.0036919940239703818 0 0.034702924635948963 -0.0022796961364001107 0 0.037181275645128388 -0.0036724710992368198 0 0.036037392610530426 -0.003998520621910787 0 0.037910670115382121 -0.0034562736455074016 0 0.035918790916708028 -0.0038845026398399052 0 0.035554715532610755 -0.0034726943403349904 0 0.035554715532610755 -0.0034726943403349904 0 0.034209533794276131 -0.002222044583266402 0 0.03343815401005186 -0.0036919940239703818 0 0.032743262792291276 -0.0024688346377652014 0 0.03110603616424177 -0.0031302494784439224 0 0.03343815401005186 -0.0036919940239703818 0 0.032743262792291276 -0.0024688346377652014 0 0.034702924635948963 -0.0022796961364001107 0 0.032743262792291276 -0.0024688346377652014 0 0.032684457548837621 -0.0010861937432862095 0 0.034702924635948963 -0.0022796961364001107 0 0.032684457548837621 -0.0010861937432862095 0 0.034702924635948963 -0.0022796961364001107 0 0.034059112416955244 -0.00055925464219000725 0 0.032743262792291276 -0.0024688346377652014 0 0.032684457548837621 -0.0010861937432862095 0 0.03085217855300194 -0.0015225458644824432 0 0.036162567586586036 -0.0030212856415174827 0 0.036146820788203256 -0.001772314064991156 0 0.034702924635948963 -0.0022796961364001107 0 0.034702924635948963 -0.0022796961364001107 0 0.035426975462787225 -0.00072913792101318492 0 0.034059112416955244 -0.00055925464219000725 0 0.036146820788203256 -0.001772314064991156 0 0.034702924635948963 -0.0022796961364001107 0 0.035426975462787225 -0.00072913792101318492 0 0.036146820788203256 -0.001772314064991156 0 0.035426975462787225 -0.00072913792101318492 0 0.036508027694587636 -0.00063455025262990549 0 0.036146820788203256 -0.001772314064991156 0 0.037477364885875768 -0.0012034245688357921 0 0.036508027694587636 -0.00063455025262990549 0 0.036162567586586036 -0.0030212856415174827 0 0.036146820788203256 -0.001772314064991156 0 0.037074274454303467 -0.0023898311647820932 0 0.036146820788203256 -0.001772314064991156 0 0.037477364885875768 -0.0012034245688357921 0 0.037074274454303467 -0.0023898311647820932 0 0.037477364885875768 -0.0012034245688357921 0 0.038390080625228057 -0.0024983158965719587 0 0.037074274454303467 -0.0023898311647820932 0 0.037477364885875768 -0.0012034245688357921 0 0.03819003297380321 -0.00080918575091814453 0 0.037849625618195215 -0.00032593628052179083 0 0.03819003297380321 -0.00080918575091814453 0 0.037849625618195215 -0.00032593628052179083 0 0.038243503990182642 -0.00026548898020372442 0 0.038573259952012731 -0.0003797301033092341 0 0.03819003297380321 -0.00080918575091814453 0 0.038243503990182642 -0.00026548898020372442 0 0.03851093129781584 -0.001119617845223307 0 0.03863982826697536 -0.0007673256426653952 0 0.03819003297380321 -0.00080918575091814453 0 0.03851093129781584 -0.001119617845223307 0 0.03819003297380321 -0.00080918575091814453 0 0.038010920574216359 -0.0013460159969290735 0 0.037477364885875768 -0.0012034245688357921 0 0.03819003297380321 -0.00080918575091814453 0 0.038010920574216359 -0.0013460159969290735 0 0.03748539118689459 -0.0011419351725803727 0 0.038180324550649999 -0.0021072966337389322 0 0.039107058768077928 -0.0015786176993751772 0 0.038180324550649999 -0.0021072966337389322 0 0.038525993793903826 -0.0018936026290222927 0 0.03851093129781584 -0.001119617845223307 0 0.038010920574216359 -0.0013460159969290735 0 0.039128316314487557 -0.0034195426720700227 0 0.038390080625228057 -0.0024983158965719587 0 0.038275033613480815 -0.0034307680244768219 0 0.038390080625228057 -0.0024983158965719587 0 0.038275033613480815 -0.0034307680244768219 0 0.037276437143552228 -0.0033356189036945613 0 0.037952284806404897 -0.0042080779118422729 0 0.038275033613480815 -0.0034307680244768219 0 0.037276437143552228 -0.0033356189036945613 0 0.036305334666985767 -0.0039511053899212679 0 0.036162567586586036 -0.0030212856415174827 0 0.037276437143552228 -0.0033356189036945613 0 0.036162567586586036 -0.0030212856415174827 0 0.037276437143552228 -0.0033356189036945613 0 0.037074274454303467 -0.0023898311647820932 0 0.038390080625228057 -0.0024983158965719587 0 0.037276437143552228 -0.0033356189036945613 0 0.037074274454303467 -0.0023898311647820932 0 0.025490978853322483 -0.0025017638730029687 0 0.02461116527466593 -0.0033182067058022463 0 0.024185308405555585 -0.0019077571573160881 0 0.025490978853322483 -0.0025017638730029687 0 0.026200187596422196 -0.0034885651260361567 0 0.02461116527466593 -0.0033182067058022463 0 0.025490978853322483 -0.0025017638730029687 0 0.026934367058154884 -0.0027297373203610284 0 0.025579483294690366 -0.0016055456847519391 0 0.025490978853322483 -0.0025017638730029687 0 0.026934367058154884 -0.0027297373203610284 0 0.026200187596422196 -0.0034885651260361567 0 0.028866986785158803 -0.0023908647112189478 0 0.028141921001443887 -0.0047875809623791048 0 0.026934367058154884 -0.0027297373203610284 0 0.026200187596422196 -0.0034885651260361567 0 0.028182142677833838 -0.0048370667613469335 0 0.030941759873960244 -0.0015584964363175946 0 0.031368312964462637 -0.0035564641675900738 0 0.028182142677833838 -0.0048370667613469335 0 0.026200187596422196 -0.0034885651260361567 0 0.02461116527466593 -0.0033182067058022463 0 0.025334567053185993 -0.0050984405601028305 0 0.026200187596422196 -0.0034885651260361567 0 0.025334567053185993 -0.0050984405601028305 0 0.028182142677833838 -0.0048370667613469335 0 0.02461116527466593 -0.0033182067058022463 0 0.023398891974460323 -0.0043970026234501714 0 0.023241832800338959 -0.0027460325638180333 0 0.02461116527466593 -0.0033182067058022463 0 0.023398891974460323 -0.0043970026234501714 0 0.025334567053185993 -0.0050984405601028305 0 0.038925611528261246 -0.0016792086346711815 0 0.04053313862074423 -0.0024037990537592057 0 0.037166215114665772 0.00071355649894762774 0 0.04053313862074423 -0.0024037990537592057 0 0.040757574045902557 -0.002499805372490822 0 0.037166215114665772 0.00071355649894762774 0 0.023398891974460323 -0.0043970026234501714 0 0.023241832800338959 -0.0027460325638180333 0 0.021784786671130766 -0.0027450847649231366 0 0.032613325411565468 -0.0027494451974275553 0 0.029230987140989293 -0.0010155544836474828 0 0.038925611528261246 -0.0016792086346711815 0 0.04053313862074423 -0.0024037990537592057 0 0.03954079705833196 -0.0032892033199973178 0 0.033210597743670654 -0.002919583628997018 0 0.032613325411565468 -0.0027494451974275553 0 0.023241832800338959 -0.0027460325638180333 0 0.022454656411983694 -0.0022133560228864515 0 0.021784786671130766 -0.0027450847649231366 0 0.023241832800338959 -0.0027460325638180333 0 0.022454656411983694 -0.0022133560228864515 0 0.023034723877918339 -0.0018756500308891597 0 0.02461116527466593 -0.0033182067058022463 0 0.023241832800338959 -0.0027460325638180333 0 0.024185308405555585 -0.0019077571573160881 0 0.023241832800338959 -0.0027460325638180333 0 0.024185308405555585 -0.0019077571573160881 0 0.023034723877918339 -0.0018756500308891597 0 0.024185308405555585 -0.0019077571573160881 0 0.023099274944778665 -0.001090305934760947 0 0.024184836616357938 -0.00071551088963880949 0 0.024185308405555585 -0.0019077571573160881 0 0.023034723877918339 -0.0018756500308891597 0 0.023099274944778665 -0.001090305934760947 0 0.022454656411983694 -0.0022133560228864515 0 0.022286820953153402 -0.0015812952066985961 0 0.023034723877918339 -0.0018756500308891597 0 0.022286820953153402 -0.0015812952066985961 0 0.023034723877918339 -0.0018756500308891597 0 0.023099274944778665 -0.001090305934760947 0 0.023099274944778665 -0.001090305934760947 0 0.023166092836866024 -0.00016819074850107514 0 0.021842579103372475 -0.00042799237610937274 0 0.022286820953153402 -0.0015812952066985961 0 0.023099274944778665 -0.001090305934760947 0 0.021842579103372475 -0.00042799237610937274 0 0.023166092836866024 -0.00016819074850107514 0 0.024184836616357938 -0.00071551088963880949 0 0.023627818109615728 0.00044154100645855254 0 0.023099274944778665 -0.001090305934760947 0 0.023166092836866024 -0.00016819074850107514 0 0.024184836616357938 -0.00071551088963880949 0 0.024184836616357938 -0.00071551088963880949 0 0.025144567370655121 -0.00077953733110386857 0 0.025579483294690366 -0.0016055456847519391 0 0.024184836616357938 -0.00071551088963880949 0 0.025144567370655121 -0.00077953733110386857 0 0.02451788982630787 -7.8221171142524315e-05 0 0.025144567370655121 -0.00077953733110386857 0 0.02526149026096312 -7.8660889500995371e-05 0 0.02451788982630787 -7.8221171142524315e-05 0 0.024185308405555585 -0.0019077571573160881 0 0.024184836616357938 -0.00071551088963880949 0 0.025579483294690366 -0.0016055456847519391 0 0.025490978853322483 -0.0025017638730029687 0 0.024185308405555585 -0.0019077571573160881 0 0.025579483294690366 -0.0016055456847519391 0 0.026934367058154884 -0.0027297373203610284 0 0.025579483294690366 -0.0016055456847519391 0 0.026579222465271588 -0.0014593330468126717 0 0.025579483294690366 -0.0016055456847519391 0 0.025873113578385811 -0.00079021216865625833 0 0.026579222465271588 -0.0014593330468126717 0 0.025144567370655121 -0.00077953733110386857 0 0.025579483294690366 -0.0016055456847519391 0 0.025873113578385811 -0.00079021216865625833 0 0.025144567370655121 -0.00077953733110386857 0 0.025873113578385811 -0.00079021216865625833 0 0.02526149026096312 -7.8660889500995371e-05 0 0.025873113578385811 -0.00079021216865625833 0 0.025962051277824961 -0.00036024647801554251 0 0.02526149026096312 -7.8660889500995371e-05 0 0.025873113578385811 -0.00079021216865625833 0 0.026613392726342194 -0.00037490696221508728 0 0.026579222465271588 -0.0014593330468126717 0 0.029220855678682336 0.00045646180573428785 0 0.029560920509979313 -0.00034081645877391455 0 0.033295078753890837 0.0027667746822271026 0 0.033863596723556842 0.00094856393890348906 0 0.03236938033614644 0.00047155948038439007 0 0.025873113578385811 -0.00079021216865625833 0 0.025962051277824961 -0.00036024647801554251 0 0.026613392726342194 -0.00037490696221508728 0 0.029220855678682336 0.00045646180573428785 0 0.032322505379470512 -0.00057897705639166927 0 0.033295078753890837 0.0027667746822271026 0 0.033863596723556842 0.00094856393890348906 0 0.035638292082338756 0.00095325370042810575 0 0.02672089662848439 -0.00095848035282204886 0 0.028854116652032608 -0.002174178030000262 0 0.028570755954541397 -0.00066536787967943079 0 0.034401951681780521 -0.00055065510671020669 0 0.035638292082338756 0.00095325370042810575 0 0.036125292303749473 -0.0013777784975968932 0 0.033863596723556842 0.00094856393890348906 0 0.034401951681780521 -0.00055065510671020669 0 0.035638292082338756 0.00095325370042810575 0 0.033863596723556842 0.00094856393890348906 0 0.034401951681780521 -0.00055065510671020669 0 0.03236938033614644 0.00047155948038439007 0 0.032684457548837621 -0.0010861937432862095 0 0.03085217855300194 -0.0015225458644824432 0 0.030693536322137699 5.4541817403826542e-05 0 0.03085217855300194 -0.0015225458644824432 0 0.028854116652032608 -0.002174178030000262 0 0.028570755954541397 -0.00066536787967943079 0 0.03085217855300194 -0.0015225458644824432 0 0.028854116652032608 -0.002174178030000262 0 0.03110603616424177 -0.0031302494784439224 0 0.035638292082338756 0.00095325370042810575 0 0.037544300763553126 -0.0014317278167883989 0 0.036125292303749473 -0.0013777784975968932 0 0.032322505379470512 -0.00057897705639166927 0 0.034209533794276131 -0.002222044583266402 0 0.032743262792291276 -0.0024688346377652014 0 0.03085217855300194 -0.0015225458644824432 0 0.03110603616424177 -0.0031302494784439224 0 0.037947040460629793 -0.0038985499895688525 0 0.037910670115382121 -0.0034562736455074016 0 0.037448098432955691 -0.0033307365691304957 0 0.037910670115382121 -0.0034562736455074016 0 0.037544300763553126 -0.0014317278167883989 0 0.037448098432955691 -0.0033307365691304957 0 0.036125292303749473 -0.0013777784975968932 0 0.037448098432955691 -0.0033307365691304957 0 0.035466113457166354 -0.0025068341124145355 0 0.037544300763553126 -0.0014317278167883989 0 0.036125292303749473 -0.0013777784975968932 0 0.037448098432955691 -0.0033307365691304957 0 0.037448098432955691 -0.0033307365691304957 0 0.035466113457166354 -0.0025068341124145355 0 0.036289295460907915 -0.0039385625974587366 0 0.034401951681780521 -0.00055065510671020669 0 0.03236938033614644 0.00047155948038439007 0 0.033141627404730985 -0.0017750184834211347 0 0.030941759873960244 -0.0015584964363175946 0 0.03236938033614644 0.00047155948038439007 0 0.033141627404730985 -0.0017750184834211347 0 0.028866986785158803 -0.0023908647112189478 0 0.029560920509979313 -0.00034081645877391455 0 0.034401951681780521 -0.00055065510671020669 0 0.036125292303749473 -0.0013777784975968932 0 0.035466113457166354 -0.0025068341124145355 0 0.034401951681780521 -0.00055065510671020669 0 0.033141627404730985 -0.0017750184834211347 0 0.035466113457166354 -0.0025068341124145355 0 0.034099367522121005 -0.0037863573686059779 0 0.035466113457166354 -0.0025068341124145355 0 0.036289295460907915 -0.0039385625974587366 0 0.033141627404730985 -0.0017750184834211347 0 0.034099367522121005 -0.0037863573686059779 0 0.035466113457166354 -0.0025068341124145355 0 0.033141627404730985 -0.0017750184834211347 0 0.034099367522121005 -0.0037863573686059779 0 0.031368312964462637 -0.0035564641675900738 0 0.030941759873960244 -0.0015584964363175946 0 0.033141627404730985 -0.0017750184834211347 0 0.031368312964462637 -0.0035564641675900738 0 0.034099367522121005 -0.0037863573686059779 0 0.031368312964462637 -0.0035564641675900738 0 0.029890447023658399 -0.0060220064566168336 0 0.034099367522121005 -0.0037863573686059779 0 0.034506861962796398 -0.0059799125531117808 0 0.029890447023658399 -0.0060220064566168336 0 0.037597932586652331 -0.0052699227520308523 0 0.036101311955825402 -0.005143906802742227 0 0.0409493621655002 -0.0048278396979575039 0 0.041967422384199052 -0.0041045062865959492 0 0.042449295141614787 -0.0044146074695922688 0 0.034099367522121005 -0.0037863573686059779 0 0.036289295460907915 -0.0039385625974587366 0 0.034506861962796398 -0.0059799125531117808 0 0.036289295460907915 -0.0039385625974587366 0 0.034506861962796398 -0.0059799125531117808 0 0.038349297842666996 -0.004556270384596355 0 0.041183855750325522 -0.0035436741534490756 0 0.038349297842666996 -0.004556270384596355 0 0.040070131483673693 -0.0028894889787903989 0 0.0409493621655002 -0.0048278396979575039 0 0.041183855750325522 -0.0035436741534490756 0 0.038349297842666996 -0.004556270384596355 0 0.037597932586652331 -0.0052699227520308523 0 0.038139121429226118 -0.0047380978043684305 0 0.041183855750325522 -0.0035436741534490756 0 0.041967422384199052 -0.0041045062865959492 0 0.042374812445213031 -0.0035700700976123421 0 0.0409493621655002 -0.0048278396979575039 0 0.041183855750325522 -0.0035436741534490756 0 0.041967422384199052 -0.0041045062865959492 0 0.037947040460629793 -0.0038985499895688525 0 0.037448098432955691 -0.0033307365691304957 0 0.038349297842666996 -0.004556270384596355 0 0.037448098432955691 -0.0033307365691304957 0 0.036289295460907915 -0.0039385625974587366 0 0.038349297842666996 -0.004556270384596355 0 0.037947040460629793 -0.0038985499895688525 0 0.038349297842666996 -0.004556270384596355 0 0.038735844922353789 -0.0033942564094861941 0 0.038201980340975772 -0.0032289826747190649 0 0.037947040460629793 -0.0038985499895688525 0 0.038735844922353789 -0.0033942564094861941 0 0.040070131483673693 -0.0028894889787903989 0 0.039379996032804267 -0.0021021665681739514 0 0.041154827701332948 -0.0019074339577603704 0 0.038201980340975772 -0.0032289826747190649 0 0.038735844922353789 -0.0033942564094861941 0 0.039379996032804267 -0.0021021665681739514 0 0.038735844922353789 -0.0033942564094861941 0 0.040070131483673693 -0.0028894889787903989 0 0.039379996032804267 -0.0021021665681739514 0 0.038349297842666996 -0.004556270384596355 0 0.038735844922353789 -0.0033942564094861941 0 0.040070131483673693 -0.0028894889787903989 0 0.041183855750325522 -0.0035436741534490756 0 0.041708027999012201 -0.0026930295145812392 0 0.042374812445213031 -0.0035700700976123421 0 0.041183855750325522 -0.0035436741534490756 0 0.040070131483673693 -0.0028894889787903989 0 0.041708027999012201 -0.0026930295145812392 0 0.040070131483673693 -0.0028894889787903989 0 0.041708027999012201 -0.0026930295145812392 0 0.041154827701332948 -0.0019074339577603704 0 0.041708027999012201 -0.0026930295145812392 0 0.042532429534359303 -0.0026560279014984623 0 0.042151916144662627 -0.0018938413724257394 0 0.041708027999012201 -0.0026930295145812392 0 0.041154827701332948 -0.0019074339577603704 0 0.042151916144662627 -0.0018938413724257394 0 0.042532429534359303 -0.0026560279014984623 0 0.042940294708412395 -0.0018643660164453645 0 0.042151916144662627 -0.0018938413724257394 0 0.042532429534359303 -0.0026560279014984623 0 0.043035728360556594 -0.0024766291626247797 0 0.042940294708412395 -0.0018643660164453645 0 0.04350664043001768 -0.0021189371809724237 0 0.043035728360556594 -0.0024766291626247797 0 0.042940294708412395 -0.0018643660164453645 0 0.04350664043001768 -0.0021189371809724237 0 0.043035728360556594 -0.0024766291626247797 0 0.043551475450597232 -0.0027104402919085162 0 0.043033501209165721 -0.0031154462273155995 0 0.043832258629939572 -0.0030221538001500882 0 0.043551475450597232 -0.0027104402919085162 0 0.043035728360556594 -0.0024766291626247797 0 0.043033501209165721 -0.0031154462273155995 0 0.043551475450597232 -0.0027104402919085162 0 0.042532429534359303 -0.0026560279014984623 0 0.043033501209165721 -0.0031154462273155995 0 0.042374812445213031 -0.0035700700976123421 0 0.041708027999012201 -0.0026930295145812392 0 0.042532429534359303 -0.0026560279014984623 0 0.042374812445213031 -0.0035700700976123421 0 0.042532429534359303 -0.0026560279014984623 0 0.043035728360556594 -0.0024766291626247797 0 0.043033501209165721 -0.0031154462273155995 0 0.042374812445213031 -0.0035700700976123421 0 0.042527938718812809 -0.00409038182418856 0 0.042920816586372763 -0.004029366025507318 0 0.041967422384199052 -0.0041045062865959492 0 0.042527938718812809 -0.00409038182418856 0 0.042449295141614787 -0.0044146074695922688 0 0.041967422384199052 -0.0041045062865959492 0 0.042374812445213031 -0.0035700700976123421 0 0.042527938718812809 -0.00409038182418856 0 0.043282938630463327 -0.0031725846221587863 0 0.043009996928776613 -0.0041093922695678367 0 0.043033501209165721 -0.0031154462273155995 0 0.042920816586372763 -0.004029366025507318 0 0.043717474032219483 -0.0042817139341570975 0 0.043033501209165721 -0.0031154462273155995 0 0.042374812445213031 -0.0035700700976123421 0 0.042920816586372763 -0.004029366025507318 0 0.042920816586372763 -0.004029366025507318 0 0.042684057143777071 -0.0040044910323288937 0 0.042435922543713978 -0.0039530700629057773 0 0.042527938718812809 -0.00409038182418856 0 0.042920816586372763 -0.004029366025507318 0 0.042684057143777071 -0.0040044910323288937 0 0.042684057143777071 -0.0040044910323288937 0 0.042618707649834976 -0.0035121307214207808 0 0.042449295141614787 -0.0044146074695922688 0 0.042684057143777071 -0.0040044910323288937 0 0.042435922543713978 -0.0039530700629057773 0 0.042618707649834976 -0.0035121307214207808 0 0.033858882683715667 -0.0043338002589560351 0 0.036101311955825402 -0.005143906802742227 0 0.025334567053185993 -0.0050984405601028305 0 0.028182142677833838 -0.0048370667613469335 0 0.029890447023658399 -0.0060220064566168336 0 0.031368312964462637 -0.0035564641675900738 0 0.028182142677833838 -0.0048370667613469335 0 0.029890447023658399 -0.0060220064566168336 0 0.042527938718812809 -0.00409038182418856 0 0.042684057143777071 -0.0040044910323288937 0 0.042449295141614787 -0.0044146074695922688 0 0.04053313862074423 -0.0024037990537592057 0 0.03954079705833196 -0.0032892033199973178 0 0.041495863968496201 -0.0035084008792205298 0 0.040081156608950647 -0.0027846523037918249 0 0.043009996928776613 -0.0041093922695678367 0 0.040903719034611929 -0.0023738262158046947 0 0.042902249122932834 -0.0042436208886823005 0 0.039943608657589828 -0.0035549041716696518 0 0.03954079705833196 -0.0032892033199973178 0 0.041495863968496201 -0.0035084008792205298 0 0.041694092954123997 -0.0045299915459097928 0 0.040690861285356421 -0.0024751969650207732 0 0.042618707649834976 -0.0035121307214207808 0 0.041495863968496201 -0.0035084008792205298 0 0.032613325411565468 -0.0027494451974275553 0 0.033858882683715667 -0.0043338002589560351 0 0.04053313862074423 -0.0024037990537592057 0 0.040690861285356421 -0.0024751969650207732 0 0.041495863968496201 -0.0035084008792205298 0 0.042435922543713978 -0.0039530700629057773 0 0.041495863968496201 -0.0035084008792205298 0 0.041694092954123997 -0.0045299915459097928 0 0.042435922543713978 -0.0039530700629057773 0 0.042618707649834976 -0.0035121307214207808 0 0.041495863968496201 -0.0035084008792205298 0 0.042920816586372763 -0.004029366025507318 0 0.042435922543713978 -0.0039530700629057773 0 0.041694092954123997 -0.0045299915459097928 0 0.042736336124925542 -0.0041249185982197272 0 0.043009996928776613 -0.0041093922695678367 0 0.043882779996404428 -0.0036453668601500824 0 0.044476037398374975 -0.0032063386779768782 0 0.043832258629939572 -0.0030221538001500882 0 0.043009996928776613 -0.0041093922695678367 0 0.042376838204707494 -0.0026883349335983294 0 0.043882779996404428 -0.0036453668601500824 0 0.044476037398374975 -0.0032063386779768782 0 0.044852553207223755 -0.0038398866090717486 0 0.044476037398374975 -0.0032063386779768782 0 0.044114968693625085 -0.0024318459265392518 0 0.044835561064486058 -0.0023348314573744212 0 0.044476037398374975 -0.0032063386779768782 0 0.043832258629939572 -0.0030221538001500882 0 0.044114968693625085 -0.0024318459265392518 0 0.043033501209165721 -0.0031154462273155995 0 0.043882779996404428 -0.0036453668601500824 0 0.043832258629939572 -0.0030221538001500882 0 0.043832258629939572 -0.0030221538001500882 0 0.043551475450597232 -0.0027104402919085162 0 0.044114968693625085 -0.0024318459265392518 0 0.04350664043001768 -0.0021189371809724237 0 0.044114968693625085 -0.0024318459265392518 0 0.043954332866541053 -0.0016864242402298514 0 0.04350664043001768 -0.0021189371809724237 0 0.043551475450597232 -0.0027104402919085162 0 0.044114968693625085 -0.0024318459265392518 0 0.044114968693625085 -0.0024318459265392518 0 0.044519579922139958 -0.0016618579710082719 0 0.043954332866541053 -0.0016864242402298514 0 0.044114968693625085 -0.0024318459265392518 0 0.044519579922139958 -0.0016618579710082719 0 0.044835561064486058 -0.0023348314573744212 0 0.044519579922139958 -0.0016618579710082719 0 0.044214438258286103 -0.0011956294200105558 0 0.043954332866541053 -0.0016864242402298514 0 0.044519579922139958 -0.0016618579710082719 0 0.044553718596744583 -0.00087313609588641323 0 0.044214438258286103 -0.0011956294200105558 0 0.044519579922139958 -0.0016618579710082719 0 0.044553718596744583 -0.00087313609588641323 0 0.044874777947213049 -0.0011522334279448203 0 0.044553718596744583 -0.00087313609588641323 0 0.044220832237362021 -0.00076360438136490686 0 0.044505828959214455 -0.00036498400214877519 0 0.044553718596744583 -0.00087313609588641323 0 0.044214438258286103 -0.0011956294200105558 0 0.044220832237362021 -0.00076360438136490686 0 0.044220832237362021 -0.00076360438136490686 0 0.04384062236161812 -0.0010788794538971911 0 0.043966349654138655 -0.00046966767277127332 0 0.044214438258286103 -0.0011956294200105558 0 0.044220832237362021 -0.00076360438136490686 0 0.04384062236161812 -0.0010788794538971911 0 0.04384062236161812 -0.0010788794538971911 0 0.043954332866541053 -0.0016864242402298514 0 0.043512193543104989 -0.001532125146968939 0 0.044214438258286103 -0.0011956294200105558 0 0.04384062236161812 -0.0010788794538971911 0 0.043954332866541053 -0.0016864242402298514 0 0.04350664043001768 -0.0021189371809724237 0 0.043954332866541053 -0.0016864242402298514 0 0.043512193543104989 -0.001532125146968939 0 0.04350664043001768 -0.0021189371809724237 0 0.043512193543104989 -0.001532125146968939 0 0.042940294708412395 -0.0018643660164453645 0 0.043512193543104989 -0.001532125146968939 0 0.042940294708412395 -0.0018643660164453645 0 0.04331492843636265 -0.00098385052093184766 0 0.042940294708412395 -0.0018643660164453645 0 0.042680981510084044 -0.0013164743056926062 0 0.042151916144662627 -0.0018938413724257394 0 0.042940294708412395 -0.0018643660164453645 0 0.042680981510084044 -0.0013164743056926062 0 0.04331492843636265 -0.00098385052093184766 0 0.042680981510084044 -0.0013164743056926062 0 0.04331492843636265 -0.00098385052093184766 0 0.042850562835946064 -0.00071257714962783144 0 0.04384062236161812 -0.0010788794538971911 0 0.04331492843636265 -0.00098385052093184766 0 0.043966349654138655 -0.00046966767277127332 0 0.04384062236161812 -0.0010788794538971911 0 0.043512193543104989 -0.001532125146968939 0 0.04331492843636265 -0.00098385052093184766 0 0.04331492843636265 -0.00098385052093184766 0 0.043414973047863577 -0.00036173923390545791 0 0.043966349654138655 -0.00046966767277127332 0 0.04331492843636265 -0.00098385052093184766 0 0.043414973047863577 -0.00036173923390545791 0 0.042850562835946064 -0.00071257714962783144 0 0.043414973047863577 -0.00036173923390545791 0 0.043492106020945706 1.2246308691324239e-05 0 0.043999693283687143 -4.1154789822754751e-05 0 0.043414973047863577 -0.00036173923390545791 0 0.043966349654138655 -0.00046966767277127332 0 0.043999693283687143 -4.1154789822754751e-05 0 0.044327294600708743 -8.2730743233428756e-05 0 0.043966349654138655 -0.00046966767277127332 0 0.043999693283687143 -4.1154789822754751e-05 0 0.044327294600708743 -8.2730743233428756e-05 0 0.044552546351977036 -0.00010670844649454737 0 0.044505828959214455 -0.00036498400214877519 0 0.044220832237362021 -0.00076360438136490686 0 0.044505828959214455 -0.00036498400214877519 0 0.043966349654138655 -0.00046966767277127332 0 0.044327294600708743 -8.2730743233428756e-05 0 0.044505828959214455 -0.00036498400214877519 0 0.043966349654138655 -0.00046966767277127332 0 0.039379996032804267 -0.0021021665681739514 0 0.041154827701332948 -0.0019074339577603704 0 0.041004974246818357 -0.0011518426546084412 0 0.04061379886622974 -0.0011215360359841272 0 0.041004974246818357 -0.0011518426546084412 0 0.04148506273301214 -0.00075836574935016308 0 0.039663091070050852 -0.0010812475360765443 0 0.039500938118008679 -0.0020806427498955482 0 0.04061379886622974 -0.0011215360359841272 0 0.039379996032804267 -0.0021021665681739514 0 0.041004974246818357 -0.0011518426546084412 0 0.042168850903950429 -0.0011844579603016848 0 0.042281419330140686 -0.00063684820164507626 0 0.041004974246818357 -0.0011518426546084412 0 0.042080921636260787 -0.0012057954064087523 0 0.041847572269249393 -0.00067231739874213498 0 0.041154827701332948 -0.0019074339577603704 0 0.041004974246818357 -0.0011518426546084412 0 0.042080921636260787 -0.0012057954064087523 0 0.042680981510084044 -0.0013164743056926062 0 0.042151916144662627 -0.0018938413724257394 0 0.042080921636260787 -0.0012057954064087523 0 0.041154827701332948 -0.0019074339577603704 0 0.042151916144662627 -0.0018938413724257394 0 0.042080921636260787 -0.0012057954064087523 0 0.042850562835946064 -0.00071257714962783144 0 0.042080921636260787 -0.0012057954064087523 0 0.042689389138408231 -0.00051469891398101431 0 0.042680981510084044 -0.0013164743056926062 0 0.042850562835946064 -0.00071257714962783144 0 0.042080921636260787 -0.0012057954064087523 0 0.042850562835946064 -0.00071257714962783144 0 0.04309807336927593 -0.00028376745738277964 0 0.042689389138408231 -0.00051469891398101431 0 0.043414973047863577 -0.00036173923390545791 0 0.042850562835946064 -0.00071257714962783144 0 0.04309807336927593 -0.00028376745738277964 0 0.04309807336927593 -0.00028376745738277964 0 0.043024196784399026 -7.2228511137618857e-05 0 0.043492106020945706 1.2246308691324239e-05 0 0.043414973047863577 -0.00036173923390545791 0 0.04309807336927593 -0.00028376745738277964 0 0.043492106020945706 1.2246308691324239e-05 0 0.04309807336927593 -0.00028376745738277964 0 0.043024196784399026 -7.2228511137618857e-05 0 0.042689389138408231 -0.00051469891398101431 0 0.04261870676571948 -0.00021920935812193382 0 0.042281419330140686 -0.00063684820164507626 0 0.041004974246818357 -0.0011518426546084412 0 0.041847572269249393 -0.00067231739874213498 0 0.04148506273301214 -0.00075836574935016308 0 0.042193074094847294 -0.00041211824763906626 0 0.041847572269249393 -0.00067231739874213498 0 0.04148506273301214 -0.00075836574935016308 0 0.042193074094847294 -0.00041211824763906626 0 0.04148506273301214 -0.00075836574935016308 0 0.042013656695379917 -0.00045821713812586916 0 0.041383652508243163 -0.00077268156557173311 0 0.04148506273301214 -0.00075836574935016308 0 0.042013656695379917 -0.00045821713812586916 0 0.041383652508243163 -0.00077268156557173311 0 0.04061379886622974 -0.0011215360359841272 0 0.04148506273301214 -0.00075836574935016308 0 0.042356724076158064 -0.00013608994909636315 0 0.043181684675975392 0.00042470762891691434 0 0.042875435188418277 4.6745277053418992e-05 0 0.043181684675975392 0.00042470762891691434 0 0.042875435188418277 4.6745277053418992e-05 0 0.043827844393813306 0.00030471839303079415 0 0.042356724076158064 -0.00013608994909636315 0 0.042013656695379917 -0.00045821713812586916 0 0.042875435188418277 4.6745277053418992e-05 0 0.042193074094847294 -0.00041211824763906626 0 0.042013656695379917 -0.00045821713812586916 0 0.042875435188418277 4.6745277053418992e-05 0 0.04261870676571948 -0.00021920935812193382 0 0.043136151121191763 0.00017308359726118098 0 0.04336455656821174 0.00026084656515760487 0 0.043491953830757331 0.00030819345313455923 0 0.043827844393813306 0.00030471839303079415 0 0.043136151121191763 0.00017308359726118098 0 0.043661584735553809 0.00028555764264657618 0 0.043384670563337661 0.00023281275309468543 0 0.043534325950054416 0.0004252122649178901 0 0.043491953830757331 0.00030819345313455923 0 0.04336455656821174 0.00026084656515760487 0 0.043384670563337661 0.00023281275309468543 0 0.043491953830757331 0.00030819345313455923 0 0.043024196784399026 -7.2228511137618857e-05 0 0.043384670563337661 0.00023281275309468543 0 0.043492106020945706 1.2246308691324239e-05 0 0.043024196784399026 -7.2228511137618857e-05 0 0.04336455656821174 0.00026084656515760487 0 0.043384670563337661 0.00023281275309468543 0 0.043384670563337661 0.00023281275309468543 0 0.043492106020945706 1.2246308691324239e-05 0 0.043534325950054416 0.0004252122649178901 0 0.044999887357727426 -7.243362856341712e-08 0 0.045002627301619538 3.1616092788765709e-05 0 0.045000080136843125 5.905167044058418e-08 0 0.044202543080175558 0.00024324385842260481 0 0.044310444501615254 0.00014797361617685189 0 0.044836032903436504 0.00010165571909500467 0 0.044999887357727426 -7.243362856341712e-08 0 0.045002627301619538 3.1616092788765709e-05 0 0.043534325950054416 0.0004252122649178901 0 0.043595015701246083 0.0002012878093371104 0 0.043491953830757331 0.00030819345313455923 0 0.043595015701246083 0.0002012878093371104 0 0.043491953830757331 0.00030819345313455923 0 0.043827844393813306 0.00030471839303079415 0 0.044310444501615254 0.00014797361617685189 0 0.044999700252122535 4.1306541346747611e-08 0 0.043595015701246083 0.0002012878093371104 0 0.043827844393813306 0.00030471839303079415 0 0.044996470031946866 -2.7308005488068032e-07 0 0.04499981377853067 3.0368872368637835e-08 0 0.044996470031946866 -2.7308005488068032e-07 0 0.044453709979085418 0.00010038552653429737 0 0.043827844393813306 0.00030471839303079415 0 0.044996470031946866 -2.7308005488068032e-07 0 0.044453709979085418 0.00010038552653429737 0 0.043181684675975392 0.00042470762891691434 0 0.043827844393813306 0.00030471839303079415 0 0.044453709979085418 0.00010038552653429737 0 0.044418161879229638 0.0001978314495745093 0 0.044334143342273855 0.00014764840198877368 0 0.044371545512251247 0.00021259817593496922 0 0.044334143342273855 0.00014764840198877368 0 0.044510823046158735 9.0732461475491539e-05 0 0.044371545512251247 0.00021259817593496922 0 0.044510823046158735 9.0732461475491539e-05 0 0.044371545512251247 0.00021259817593496922 0 0.044606751514347308 0.00020726944836026346 0 0.044327294600708743 -8.2730743233428756e-05 0 0.044552546351977036 -0.00010670844649454737 0 0.044510823046158735 9.0732461475491539e-05 0 0.044327294600708743 -8.2730743233428756e-05 0 0.044334143342273855 0.00014764840198877368 0 0.044510823046158735 9.0732461475491539e-05 0 0.044327294600708743 -8.2730743233428756e-05 0 0.044334143342273855 0.00014764840198877368 0 0.043999693283687143 -4.1154789822754751e-05 0 0.044334143342273855 0.00014764840198877368 0 0.043999693283687143 -4.1154789822754751e-05 0 0.044233713416242243 0.00025285131458510689 0 0.043492106020945706 1.2246308691324239e-05 0 0.043999693283687143 -4.1154789822754751e-05 0 0.044233713416242243 0.00025285131458510689 0 0.044202543080175558 0.00024324385842260481 0 0.044246708317503047 0.00024279936882727309 0 0.043492106020945706 1.2246308691324239e-05 0 0.043534325950054416 0.0004252122649178901 0 0.044233713416242243 0.00025285131458510689 0 0.044418161879229638 0.0001978314495745093 0 0.044334143342273855 0.00014764840198877368 0 0.044233713416242243 0.00025285131458510689 0 0.044999887357727426 -7.243362856341712e-08 0 0.044711532708950688 1.8947630067571765e-05 0 0.044999218463864614 1.2450618890028515e-07 0 0.044836032903436504 0.00010165571909500467 0 0.044999887357727426 -7.243362856341712e-08 0 0.044711532708950688 1.8947630067571765e-05 0 0.044418161879229638 0.0001978314495745093 0 0.044233713416242243 0.00025285131458510689 0 0.044711532708950688 1.8947630067571765e-05 0 0.044836032903436504 0.00010165571909500467 0 0.044233713416242243 0.00025285131458510689 0 0.044711532708950688 1.8947630067571765e-05 0 0.044999218463864614 1.2450618890028515e-07 0 0.044975309316743498 -2.2578934723778061e-05 0 0.044996023323165067 -1.0828367814606518e-06 0 0.044711532708950688 1.8947630067571765e-05 0 0.044999218463864614 1.2450618890028515e-07 0 0.044975309316743498 -2.2578934723778061e-05 0 0.044418161879229638 0.0001978314495745093 0 0.044711532708950688 1.8947630067571765e-05 0 0.044371545512251247 0.00021259817593496922 0 0.044710978304016005 3.3013663501100982e-05 0 0.044682131939380476 8.9862231161202702e-05 0 0.044682131939380476 8.9862231161202702e-05 0 0.044796591416634148 0.0001003023490308373 0 0.044999218463864614 1.2450618890028515e-07 0 0.044996023323165067 -1.0828367814606518e-06 0 0.04500063198407038 1.2846339473347148e-07 0 0.044996023323165067 -1.0828367814606518e-06 0 0.044993064186491211 5.486600359023639e-07 0 0.044971027200363486 3.3495242429697245e-05 0 0.044975309316743498 -2.2578934723778061e-05 0 0.044996023323165067 -1.0828367814606518e-06 0 0.044993064186491211 5.486600359023639e-07 0 0.044510823046158735 9.0732461475491539e-05 0 0.044606751514347308 0.00020726944836026346 0 0.044694383022693275 8.1352789852086476e-05 0 0.044796591416634148 0.0001003023490308373 0 0.044878052886511241 8.0581414571909442e-05 0 0.044606751514347308 0.00020726944836026346 0 0.044795786400844334 0.00012572202763825937 0 0.044694383022693275 8.1352789852086476e-05 0 0.044797155455391889 1.3205252264360207e-05 0 0.044694383022693275 8.1352789852086476e-05 0 0.044699625784289175 -4.0233424458853867e-05 0 0.044795786400844334 0.00012572202763825937 0 0.044797155455391889 1.3205252264360207e-05 0 0.044694383022693275 8.1352789852086476e-05 0 0.044552546351977036 -0.00010670844649454737 0 0.044510823046158735 9.0732461475491539e-05 0 0.044699625784289175 -4.0233424458853867e-05 0 0.044510823046158735 9.0732461475491539e-05 0 0.044694383022693275 8.1352789852086476e-05 0 0.044699625784289175 -4.0233424458853867e-05 0 0.044876008685123717 7.480068745782091e-05 0 0.044798349548687028 0.00012298442684035234 0 0.044808279194197088 3.0196291293029957e-05 0 0.044797155455391889 1.3205252264360207e-05 0 0.044876008685123717 7.480068745782091e-05 0 0.044808279194197088 3.0196291293029957e-05 0 0.044795786400844334 0.00012572202763825937 0 0.044797155455391889 1.3205252264360207e-05 0 0.044876008685123717 7.480068745782091e-05 0 0.044971027200363486 3.3495242429697245e-05 0 0.044876008685123717 7.480068745782091e-05 0 0.044931612640873149 1.1532408747357483e-05 0 0.044878052886511241 8.0581414571909442e-05 0 0.044876494736047837 7.6297284171717385e-05 0 0.044876008685123717 7.480068745782091e-05 0 0.044931612640873149 1.1532408747357483e-05 0 0.044829927828593678 7.6261435080775451e-05 0 0.044996023323165067 -1.0828367814606518e-06 0 0.044971027200363486 3.3495242429697245e-05 0 0.044931612640873149 1.1532408747357483e-05 0 0.04500063198407038 1.2846339473347148e-07 0 0.044931612640873149 1.1532408747357483e-05 0 0.044863756150244037 -5.7965769552717874e-05 0 0.044996023323165067 -1.0828367814606518e-06 0 0.04500063198407038 1.2846339473347148e-07 0 0.044931612640873149 1.1532408747357483e-05 0 0.04500063198407038 1.2846339473347148e-07 0 0.044863756150244037 -5.7965769552717874e-05 0 0.0449968889326713 -9.9900614460491698e-07 0 0.044931612640873149 1.1532408747357483e-05 0 0.044863756150244037 -5.7965769552717874e-05 0 0.044829927828593678 7.6261435080775451e-05 0 0.044863756150244037 -5.7965769552717874e-05 0 0.044280186471825418 -0.00016442464375271941 0 0.0449968889326713 -9.9900614460491698e-07 0 0.044863756150244037 -5.7965769552717874e-05 0 0.044280186471825418 -0.00016442464375271941 0 0.044720242356888359 0.00011740350455139231 0 0.044469411914754398 0.00040946120873902304 0 0.044720242356888359 0.00011740350455139231 0 0.044698300261807419 0.00024556137786265652 0 0.044469411914754398 0.00040946120873902304 0 0.044272166532116367 0.00081113953239357551 0 0.043907341337256441 0.00033595884660704009 0 0.044280186471825418 -0.00016442464375271941 0 0.044469411914754398 0.00040946120873902304 0 0.043907341337256441 0.00033595884660704009 0 0.044280186471825418 -0.00016442464375271941 0 0.044469411914754398 0.00040946120873902304 0 0.044720242356888359 0.00011740350455139231 0 0.044863756150244037 -5.7965769552717874e-05 0 0.044829927828593678 7.6261435080775451e-05 0 0.044720242356888359 0.00011740350455139231 0 0.044829927828593678 7.6261435080775451e-05 0 0.044720242356888359 0.00011740350455139231 0 0.044698300261807419 0.00024556137786265652 0 0.044829927828593678 7.6261435080775451e-05 0 0.044798349548687028 0.00012298442684035234 0 0.044698300261807419 0.00024556137786265652 0 0.044876008685123717 7.480068745782091e-05 0 0.044829927828593678 7.6261435080775451e-05 0 0.044798349548687028 0.00012298442684035234 0 0.044798349548687028 0.00012298442684035234 0 0.044698300261807419 0.00024556137786265652 0 0.04470889895823478 0.00020577824010611513 0 0.044798349548687028 0.00012298442684035234 0 0.04470889895823478 0.00020577824010611513 0 0.044755643931192218 9.7213492078417177e-05 0 0.044698300261807419 0.00024556137786265652 0 0.044649424059452526 0.0003066305530295402 0 0.04470889895823478 0.00020577824010611513 0 0.044649424059452526 0.0003066305530295402 0 0.044653137298744233 0.00027203868252982812 0 0.04470889895823478 0.00020577824010611513 0 0.044649424059452526 0.0003066305530295402 0 0.044653137298744233 0.00027203868252982812 0 0.044583189777223135 0.00037393738106176761 0 0.044653137298744233 0.00027203868252982812 0 0.044583189777223135 0.00037393738106176761 0 0.044631360604788596 0.00028552016371480207 0 0.044653137298744233 0.00027203868252982812 0 0.04465100840100221 0.00020599511740555291 0 0.044631360604788596 0.00028552016371480207 0 0.04470889895823478 0.00020577824010611513 0 0.044755643931192218 9.7213492078417177e-05 0 0.044689226103199031 0.00012287113409853505 0 0.044653137298744233 0.00027203868252982812 0 0.04470889895823478 0.00020577824010611513 0 0.04465100840100221 0.00020599511740555291 0 0.04470889895823478 0.00020577824010611513 0 0.04465100840100221 0.00020599511740555291 0 0.044689226103199031 0.00012287113409853505 0 0.044272166532116367 0.00081113953239357551 0 0.044381964144324444 0.00062331162258380426 0 0.044424298372724394 0.00055020441800585518 0 0.044381964144324444 0.00062331162258380426 0 0.044489330348815165 0.00048689691559565963 0 0.044424298372724394 0.00055020441800585518 0 0.044162606094111732 0.0012522345905992358 0 0.042590304193916434 0.0002434031417302994 0 0.044469411914754398 0.00040946120873902304 0 0.044381964144324444 0.00062331162258380426 0 0.044489330348815165 0.00048689691559565963 0 0.044469411914754398 0.00040946120873902304 0 0.044272166532116367 0.00081113953239357551 0 0.044381964144324444 0.00062331162258380426 0 0.044469411914754398 0.00040946120873902304 0 0.044698300261807419 0.00024556137786265652 0 0.044489330348815165 0.00048689691559565963 0 0.044698300261807419 0.00024556137786265652 0 0.044649424059452526 0.0003066305530295402 0 0.044489330348815165 0.00048689691559565963 0 0.044649424059452526 0.0003066305530295402 0 0.044489330348815165 0.00048689691559565963 0 0.044583189777223135 0.00037393738106176761 0 0.044489330348815165 0.00048689691559565963 0 0.044583189777223135 0.00037393738106176761 0 0.04456089226541643 0.00038346818492639785 0 0.044583189777223135 0.00037393738106176761 0 0.04456089226541643 0.00038346818492639785 0 0.044631360604788596 0.00028552016371480207 0 0.043379178985446749 -0.0004935389714692467 0 0.042590304193916434 0.0002434031417302994 0 0.041675797656565948 -0.00092045030227023788 0 0.042151179736706776 -0.0011802392441090433 0 0.041354995417311469 -0.0015518891656150552 0 0.044489330348815165 0.00048689691559565963 0 0.04456089226541643 0.00038346818492639785 0 0.044424298372724394 0.00055020441800585518 0 0.041675797656565948 -0.00092045030227023788 0 0.041354995417311469 -0.0015518891656150552 0 0.041280835394409944 -0.00082324376136589208 0 0.041675797656565948 -0.00092045030227023788 0 0.041605689445798115 -0.00048007210261497208 0 0.041280835394409944 -0.00082324376136589208 0 0.041675797656565948 -0.00092045030227023788 0 0.042051616336859991 -0.0005673791556006564 0 0.041605689445798115 -0.00048007210261497208 0 0.042151179736706776 -0.0011802392441090433 0 0.042051616336859991 -0.0005673791556006564 0 0.043373715278144119 -0.00059123356475320203 0 0.041675797656565948 -0.00092045030227023788 0 0.042151179736706776 -0.0011802392441090433 0 0.042051616336859991 -0.0005673791556006564 0 0.042051616336859991 -0.0005673791556006564 0 0.042298184534040502 -0.00029413805452932392 0 0.041882898856752539 -0.00017187309346526988 0 0.041605689445798115 -0.00048007210261497208 0 0.04123510766985862 -0.00016093150209698279 0 0.041882898856752539 -0.00017187309346526988 0 0.042051616336859991 -0.0005673791556006564 0 0.041605689445798115 -0.00048007210261497208 0 0.041882898856752539 -0.00017187309346526988 0 0.044624478059675406 0.00015733904229299112 0 0.044673507742132641 0.00018360929925827294 0 0.044564715487688221 0.00010035025085053582 0 0.044624478059675406 0.00015733904229299112 0 0.04465100840100221 0.00020599511740555291 0 0.044673507742132641 0.00018360929925827294 0 0.044624478059675406 0.00015733904229299112 0 0.044624943850419319 0.00012390532976699174 0 0.044564715487688221 0.00010035025085053582 0 0.044624478059675406 0.00015733904229299112 0 0.044624943850419319 0.00012390532976699174 0 0.04465100840100221 0.00020599511740555291 0 0.044624943850419319 0.00012390532976699174 0 0.04465100840100221 0.00020599511740555291 0 0.044689226103199031 0.00012287113409853505 0 0.043379178985446749 -0.0004935389714692467 0 0.044014647745892997 -0.00018292120780138242 0 0.04456089226541643 0.00038346818492639785 0 0.044631360604788596 0.00028552016371480207 0 0.044673507742132641 0.00018360929925827294 0 0.04465100840100221 0.00020599511740555291 0 0.044631360604788596 0.00028552016371480207 0 0.044673507742132641 0.00018360929925827294 0 0.042051616336859991 -0.0005673791556006564 0 0.042298184534040502 -0.00029413805452932392 0 0.042677331620899581 -0.00038936530004150479 0 0.042106530723947384 -0.00054741696984661513 0 0.043082365507228541 -0.00025131446394108573 0 0.042051616336859991 -0.0005673791556006564 0 0.043373715278144119 -0.00059123356475320203 0 0.043501637045628226 -8.7406108511839647e-05 0 0.042298184534040502 -0.00029413805452932392 0 0.042677331620899581 -0.00038936530004150479 0 0.042534834041837041 -0.00019196769788523783 0 0.042677331620899581 -0.00038936530004150479 0 0.042710990011011869 -8.41006186860446e-05 0 0.042534834041837041 -0.00019196769788523783 0 0.042677331620899581 -0.00038936530004150479 0 0.043480119437981683 -0.00023555616236453002 0 0.043011273964145023 -0.00013353074337650605 0 0.044014647745892997 -0.00018292120780138242 0 0.044457817226405447 9.770348097611062e-06 0 0.044673507742132641 0.00018360929925827294 0 0.044564715487688221 0.00010035025085053582 0 0.04448404192962948 2.3687276014505545e-05 0 0.043501637045628226 -8.7406108511839647e-05 0 0.04448404192962948 2.3687276014505545e-05 0 0.044727815539582175 0.00018128144534947734 0 0.043373715278144119 -0.00059123356475320203 0 0.043501637045628226 -8.7406108511839647e-05 0 0.04448404192962948 2.3687276014505545e-05 0 0.043082365507228541 -0.00025131446394108573 0 0.044089680091943501 -2.1867065926855791e-05 0 0.04448404192962948 2.3687276014505545e-05 0 0.044629074925147998 8.0557147588793408e-05 0 0.044602429910990844 7.7336337287616788e-05 0 0.044629074925147998 8.0557147588793408e-05 0 0.044648676531821918 0.00010510291790433914 0 0.044727815539582175 0.00018128144534947734 0 0.04448404192962948 2.3687276014505545e-05 0 0.044629074925147998 8.0557147588793408e-05 0 0.044727815539582175 0.00018128144534947734 0 0.044602429910990844 7.7336337287616788e-05 0 0.044651447211567809 7.6111237257189905e-05 0 0.044648676531821918 0.00010510291790433914 0 0.044629074925147998 8.0557147588793408e-05 0 0.044602429910990844 7.7336337287616788e-05 0 0.044648676531821918 0.00010510291790433914 0 0.044624943850419319 0.00012390532976699174 0 0.044564715487688221 0.00010035025085053582 0 0.044602429910990844 7.7336337287616788e-05 0 0.044564715487688221 0.00010035025085053582 0 0.04448404192962948 2.3687276014505545e-05 0 0.044602429910990844 7.7336337287616788e-05 0 0.044602429910990844 7.7336337287616788e-05 0 0.044667299975102923 5.7067644241411372e-05 0 0.044651447211567809 7.6111237257189905e-05 0 0.044624943850419319 0.00012390532976699174 0 0.044602429910990844 7.7336337287616788e-05 0 0.044667299975102923 5.7067644241411372e-05 0 0.044624943850419319 0.00012390532976699174 0 0.044667299975102923 5.7067644241411372e-05 0 0.044689226103199031 0.00012287113409853505 0 0.04467628223904966 5.3233867959019216e-05 0 0.044654418552219105 9.5125928568094264e-05 0 0.044777786560343251 -9.5337625009827895e-05 0 0.044667299975102923 5.7067644241411372e-05 0 0.04467628223904966 5.3233867959019216e-05 0 0.044777786560343251 -9.5337625009827895e-05 0 0.044667299975102923 5.7067644241411372e-05 0 0.04467628223904966 5.3233867959019216e-05 0 0.044651447211567809 7.6111237257189905e-05 0 0.04467628223904966 5.3233867959019216e-05 0 0.044643114906254777 9.1472433249848182e-05 0 0.044651447211567809 7.6111237257189905e-05 0 0.04467628223904966 5.3233867959019216e-05 0 0.044643114906254777 9.1472433249848182e-05 0 0.044654418552219105 9.5125928568094264e-05 0 0.044643114906254777 9.1472433249848182e-05 0 0.044651447211567809 7.6111237257189905e-05 0 0.044648676531821918 0.00010510291790433914 0 0.044648676531821918 0.00010510291790433914 0 0.044612896354379865 0.00011390361672696398 0 0.044727815539582175 0.00018128144534947734 0 0.044643114906254777 9.1472433249848182e-05 0 0.044648676531821918 0.00010510291790433914 0 0.044612896354379865 0.00011390361672696398 0 0.044643114906254777 9.1472433249848182e-05 0 0.044612896354379865 0.00011390361672696398 0 0.044600914534775243 7.923338031319678e-05 0 0.044612896354379865 0.00011390361672696398 0 0.044600914534775243 7.923338031319678e-05 0 0.044553780199301639 9.9689819683773223e-05 0 0.044600914534775243 7.923338031319678e-05 0 0.044654418552219105 9.5125928568094264e-05 0 0.044558789282664067 9.0488590929543784e-06 0 0.045115396836006821 -0.00075511627585646388 0 0.04425254076962444 -0.00075883234951660877 0 0.044877900335801454 -0.00012894756558471765 0 0.04484563456557647 -0.00014697246526593823 0 0.044861258833918408 -9.773446049463988e-05 0 0.044812963954817868 0.00011133530679990029 0 0.04425254076962444 -0.00075883234951660877 0 0.044643114906254777 9.1472433249848182e-05 0 0.044600914534775243 7.923338031319678e-05 0 0.044654418552219105 9.5125928568094264e-05 0 0.045315788408850109 -0.0012082757334017605 0 0.045019937211430279 -0.0016890534796806841 0 0.045484625906349274 -0.0020274032974025588 0 0.044519579922139958 -0.0016618579710082719 0 0.045019937211430279 -0.0016890534796806841 0 0.044874777947213049 -0.0011522334279448203 0 0.045315788408850109 -0.0012082757334017605 0 0.045019937211430279 -0.0016890534796806841 0 0.044874777947213049 -0.0011522334279448203 0 0.044553718596744583 -0.00087313609588641323 0 0.044874777947213049 -0.0011522334279448203 0 0.044921578981112431 -0.00034072887344092407 0 0.045315788408850109 -0.0012082757334017605 0 0.044874777947213049 -0.0011522334279448203 0 0.044921578981112431 -0.00034072887344092407 0 0.045115396836006821 -0.00075511627585646388 0 0.044964464936392966 -0.00036514809819105878 0 0.044812963954817868 0.00011133530679990029 0 0.044738589014493423 -0.00015954292642521636 0 0.044877900335801454 -0.00012894756558471765 0 0.044848718754485831 -0.00018762898048507029 0 0.044921578981112431 -0.00034072887344092407 0 0.044848718754485831 -0.00018762898048507029 0 0.044921578981112431 -0.00034072887344092407 0 0.044777786560343251 -9.5337625009827895e-05 0 0.04484563456557647 -0.00014697246526593823 0 0.044848718754485831 -0.00018762898048507029 0 0.044777786560343251 -9.5337625009827895e-05 0 0.044877900335801454 -0.00012894756558471765 0 0.04484563456557647 -0.00014697246526593823 0 0.044848718754485831 -0.00018762898048507029 0 0.044921578981112431 -0.00034072887344092407 0 0.044815324936170339 -0.00010958368601403683 0 0.044777786560343251 -9.5337625009827895e-05 0 0.044921578981112431 -0.00034072887344092407 0 0.044742400143027279 -0.00019191614496429552 0 0.044815324936170339 -0.00010958368601403683 0 0.044505828959214455 -0.00036498400214877519 0 0.044921578981112431 -0.00034072887344092407 0 0.044742400143027279 -0.00019191614496429552 0 0.044553718596744583 -0.00087313609588641323 0 0.044505828959214455 -0.00036498400214877519 0 0.044921578981112431 -0.00034072887344092407 0 0.044552546351977036 -0.00010670844649454737 0 0.044505828959214455 -0.00036498400214877519 0 0.044742400143027279 -0.00019191614496429552 0 0.044552546351977036 -0.00010670844649454737 0 0.044742400143027279 -0.00019191614496429552 0 0.044699625784289175 -4.0233424458853867e-05 0 0.044742400143027279 -0.00019191614496429552 0 0.044699625784289175 -4.0233424458853867e-05 0 0.044815324936170339 -0.00010958368601403683 0 0.044797155455391889 1.3205252264360207e-05 0 0.044699625784289175 -4.0233424458853867e-05 0 0.044815324936170339 -0.00010958368601403683 0 0.044815324936170339 -0.00010958368601403683 0 0.044808279194197088 3.0196291293029957e-05 0 0.044756339477593617 5.9656563923770293e-06 0 0.044797155455391889 1.3205252264360207e-05 0 0.044815324936170339 -0.00010958368601403683 0 0.044808279194197088 3.0196291293029957e-05 0 0.044798349548687028 0.00012298442684035234 0 0.044808279194197088 3.0196291293029957e-05 0 0.044755643931192218 9.7213492078417177e-05 0 0.044808279194197088 3.0196291293029957e-05 0 0.044755643931192218 9.7213492078417177e-05 0 0.044756339477593617 5.9656563923770293e-06 0 0.044755643931192218 9.7213492078417177e-05 0 0.044689226103199031 0.00012287113409853505 0 0.044756339477593617 5.9656563923770293e-06 0 0.044667299975102923 5.7067644241411372e-05 0 0.044689226103199031 0.00012287113409853505 0 0.044756339477593617 5.9656563923770293e-06 0 0.044667299975102923 5.7067644241411372e-05 0 0.044777786560343251 -9.5337625009827895e-05 0 0.044756339477593617 5.9656563923770293e-06 0 0.044815324936170339 -0.00010958368601403683 0 0.044777786560343251 -9.5337625009827895e-05 0 0.044756339477593617 5.9656563923770293e-06 0 0.044995480197017761 -1.5787893870188655e-06 0 0.044351974721485332 -0.00026574656121891056 0 0.044398540426054629 -0.00037058414985036809 0 0.040740920020200411 1.5777910667700008e-06 0 0.038302931279655929 0.00013032254187879419 0 0.038609285180391133 -2.2697643749953475e-07 0 0.040742556078268814 1.7560938744077773e-07 0 0.040110307413656954 0.00071847840412270756 0 0.040740920020200411 1.5777910667700008e-06 0 0.037392746188828381 0.00044198305180148277 0 0.038302931279655929 0.00013032254187879419 0 0.040751657352530689 2.5688005887984813e-06 0 0.043154560290002732 -0.00012957693852886165 0 0.042803092502750974 0.0016870358675069358 0 0.043154560290002732 -0.00012957693852886165 0 0.044022740675095748 0.00061965958141683725 0 0.042803092502750974 0.0016870358675069358 0 0.041381095138421212 0.00052692095187481254 0 0.040110307413656954 0.00071847840412270756 0 0.038597728586918435 0.00040801871729877627 0 0.038649342613357271 0.00057510594295728204 0 0.038644083535996722 0.00056663598804664484 0 0.040751657352530689 2.5688005887984813e-06 0 0.043154560290002732 -0.00012957693852886165 0 0.044995480197017761 -1.5787893870188655e-06 0 0.043154560290002732 -0.00012957693852886165 0 0.044995480197017761 -1.5787893870188655e-06 0 0.044351974721485332 -0.00026574656121891056 0 0.044351974721485332 -0.00026574656121891056 0 0.044446519438422566 -4.2326903657227092e-05 0 0.044402806329191739 -0.0002881914711958332 0 0.044351974721485332 -0.00026574656121891056 0 0.044446519438422566 -4.2326903657227092e-05 0 0.044022740675095748 0.00061965958141683725 0 0.043154560290002732 -0.00012957693852886165 0 0.044351974721485332 -0.00026574656121891056 0 0.044022740675095748 0.00061965958141683725 0 0.04176402232045176 -6.9344665866269395e-05 0 0.041381095138421212 0.00052692095187481254 0 0.03908835937910099 -0.00016081946390799761 0 0.038597728586918435 0.00040801871729877627 0 0.039001153965850063 0.00055162152100184634 0 0.03908835937910099 -0.00016081946390799761 0 0.039001153965850063 0.00055162152100184634 0 0.039459736723597864 0.00034829966689800296 0 0.038597728586918435 0.00040801871729877627 0 0.039001153965850063 0.00055162152100184634 0 0.038725453086172229 0.00061566942013121238 0 0.044995480197017761 -1.5787893870188655e-06 0 0.0449968889326713 -9.9900614460491698e-07 0 0.044398540426054629 -0.00037058414985036809 0 0.040479331979931595 0.00023080663632096699 0 0.039459736723597864 0.00034829966689800296 0 0.039517656971205684 0.00059111954809366364 0 0.039001153965850063 0.00055162152100184634 0 0.039459736723597864 0.00034829966689800296 0 0.039517656971205684 0.00059111954809366364 0 0.040479331979931595 0.00023080663632096699 0 0.039517656971205684 0.00059111954809366364 0 0.039935138800741822 0.00062738462157149277 0 0.039517656971205684 0.00059111954809366364 0 0.039935138800741822 0.00062738462157149277 0 0.039433186628333047 0.0007443292560344307 0 0.039935138800741822 0.00062738462157149277 0 0.040385014264458952 0.00065645122077753 0 0.041110489955502691 0.00028150854219470399 0 0.039935138800741822 0.00062738462157149277 0 0.040385014264458952 0.00065645122077753 0 0.0399066627229092 0.00077608258733902994 0 0.041039910457704082 0.00047808332510002234 0 0.041153294005316435 0.0006508519250475141 0 0.040430579131869829 0.00083208211717442462 0 0.040385014264458952 0.00065645122077753 0 0.041039910457704082 0.00047808332510002234 0 0.040430579131869829 0.00083208211717442462 0 0.040385014264458952 0.00065645122077753 0 0.041039910457704082 0.00047808332510002234 0 0.041110489955502691 0.00028150854219470399 0 0.041039910457704082 0.00047808332510002234 0 0.041110489955502691 0.00028150854219470399 0 0.041802621435830162 0.00033820011875577511 0 0.040479331979931595 0.00023080663632096699 0 0.039935138800741822 0.00062738462157149277 0 0.041110489955502691 0.00028150854219470399 0 0.040479331979931595 0.00023080663632096699 0 0.041935001967131028 -0.00021755353360999063 0 0.040941530757686681 -0.0008387817133836946 0 0.040479331979931595 0.00023080663632096699 0 0.041110489955502691 0.00028150854219470399 0 0.041935001967131028 -0.00021755353360999063 0 0.041110489955502691 0.00028150854219470399 0 0.041935001967131028 -0.00021755353360999063 0 0.042930703263132218 -0.00011096525157198574 0 0.04176402232045176 -6.9344665866269395e-05 0 0.042700869407270775 -0.00042958907206306355 0 0.03908835937910099 -0.00016081946390799761 0 0.039459736723597864 0.00034829966689800296 0 0.040941530757686681 -0.0008387817133836946 0 0.040479331979931595 0.00023080663632096699 0 0.039459736723597864 0.00034829966689800296 0 0.040941530757686681 -0.0008387817133836946 0 0.044351974721485332 -0.00026574656121891056 0 0.044402806329191739 -0.0002881914711958332 0 0.044398540426054629 -0.00037058414985036809 0 0.042700869407270775 -0.00042958907206306355 0 0.044052701272077027 -0.00046148609757728647 0 0.041935001967131028 -0.00021755353360999063 0 0.040941530757686681 -0.0008387817133836946 0 0.044398540426054629 -0.00037058414985036809 0 0.044280186471825418 -0.00016442464375271941 0 0.0449968889326713 -9.9900614460491698e-07 0 0.044398540426054629 -0.00037058414985036809 0 0.044280186471825418 -0.00016442464375271941 0 0.042930703263132218 -0.00011096525157198574 0 0.043069764381665286 0.0001506860839582127 0 0.041935001967131028 -0.00021755353360999063 0 0.044398540426054629 -0.00037058414985036809 0 0.042930703263132218 -0.00011096525157198574 0 0.044280186471825418 -0.00016442464375271941 0 0.044398540426054629 -0.00037058414985036809 0 0.042930703263132218 -0.00011096525157198574 0 0.041802621435830162 0.00033820011875577511 0 0.042040284895625932 0.00051303783874184577 0 0.043069764381665286 0.0001506860839582127 0 0.042930703263132218 -0.00011096525157198574 0 0.041802621435830162 0.00033820011875577511 0 0.043069764381665286 0.0001506860839582127 0 0.041110489955502691 0.00028150854219470399 0 0.042930703263132218 -0.00011096525157198574 0 0.041802621435830162 0.00033820011875577511 0 0.041039910457704082 0.00047808332510002234 0 0.041802621435830162 0.00033820011875577511 0 0.041153294005316435 0.0006508519250475141 0 0.041802621435830162 0.00033820011875577511 0 0.041153294005316435 0.0006508519250475141 0 0.042040284895625932 0.00051303783874184577 0 0.041662464469310108 0.00073409283604469419 0 0.041153294005316435 0.0006508519250475141 0 0.042040284895625932 0.00051303783874184577 0 0.041662464469310108 0.00073409283604469419 0 0.041153294005316435 0.0006508519250475141 0 0.040713452331707735 0.0010897031116300427 0 0.042040284895625932 0.00051303783874184577 0 0.042840613772890467 0.00072338723733558047 0 0.043069764381665286 0.0001506860839582127 0 0.041662464469310108 0.00073409283604469419 0 0.042040284895625932 0.00051303783874184577 0 0.042840613772890467 0.00072338723733558047 0 0.042840613772890467 0.00072338723733558047 0 0.043907341337256441 0.00033595884660704009 0 0.043069764381665286 0.0001506860839582127 0 0.044272166532116367 0.00081113953239357551 0 0.042840613772890467 0.00072338723733558047 0 0.043907341337256441 0.00033595884660704009 0 0.044280186471825418 -0.00016442464375271941 0 0.043907341337256441 0.00033595884660704009 0 0.043069764381665286 0.0001506860839582127 0 0.044272166532116367 0.00081113953239357551 0 0.042840613772890467 0.00072338723733558047 0 0.043428644615102506 0.0021607873225554311 0 0.044272166532116367 0.00081113953239357551 0 0.043428644615102506 0.0021607873225554311 0 0.044242828208081654 0.0026157306789396581 0 0.040736679156082194 0.0012525177918092567 0 0.041192817755577558 0.0007241214484323842 0 0.040713452331707735 0.0010897031116300427 0 0.039992176182190663 0.00081236012634118982 0 0.038930595645786457 0.00067437556821976167 0 0.042840613772890467 0.00072338723733558047 0 0.040713452331707735 0.0010897031116300427 0 0.043428644615102506 0.0021607873225554311 0 0.041662464469310108 0.00073409283604469419 0 0.042840613772890467 0.00072338723733558047 0 0.040713452331707735 0.0010897031116300427 0 0.040713452331707735 0.0010897031116300427 0 0.040298476194489591 0.00091873085438197021 0 0.039992176182190663 0.00081236012634118982 0 0.040713452331707735 0.0010897031116300427 0 0.040298476194489591 0.00091873085438197021 0 0.04028228771545013 0.00099488768490306164 0 0.040175089560291435 0.00085293220584401798 0 0.040003076427690229 0.00068411229108272245 0 0.04028228771545013 0.00099488768490306164 0 0.040298476194489591 0.00091873085438197021 0 0.040175089560291435 0.00085293220584401798 0 0.04028228771545013 0.00099488768490306164 0 0.040298476194489591 0.00091873085438197021 0 0.040175089560291435 0.00085293220584401798 0 0.04008003250193596 0.00078901164859422406 0 0.040298476194489591 0.00091873085438197021 0 0.04008003250193596 0.00078901164859422406 0 0.039992176182190663 0.00081236012634118982 0 0.039864612272669527 0.00065464035366804955 0 0.04008003250193596 0.00078901164859422406 0 0.040003076427690229 0.00068411229108272245 0 0.039864612272669527 0.00065464035366804955 0 0.04008003250193596 0.00078901164859422406 0 0.039992176182190663 0.00081236012634118982 0 0.040175089560291435 0.00085293220584401798 0 0.04008003250193596 0.00078901164859422406 0 0.040003076427690229 0.00068411229108272245 0 0.039992176182190663 0.00081236012634118982 0 0.039529196628600216 0.00055885393436547908 0 0.038930595645786457 0.00067437556821976167 0 0.039864612272669527 0.00065464035366804955 0 0.039992176182190663 0.00081236012634118982 0 0.039529196628600216 0.00055885393436547908 0 0.039529196628600216 0.00055885393436547908 0 0.039646391160442468 0.0004465362634444848 0 0.039352286491222924 0.0002369705704296877 0 0.040003076427690229 0.00068411229108272245 0 0.03948392179603806 0.00016494603009065234 0 0.039552898423134551 6.1506839024186543e-05 0 0.039864612272669527 0.00065464035366804955 0 0.039529196628600216 0.00055885393436547908 0 0.039646391160442468 0.0004465362634444848 0 0.040003076427690229 0.00068411229108272245 0 0.039646391160442468 0.0004465362634444848 0 0.03948392179603806 0.00016494603009065234 0 0.039864612272669527 0.00065464035366804955 0 0.040003076427690229 0.00068411229108272245 0 0.039646391160442468 0.0004465362634444848 0 0.039646391160442468 0.0004465362634444848 0 0.03948392179603806 0.00016494603009065234 0 0.039352286491222924 0.0002369705704296877 0 0.042590304193916434 0.0002434031417302994 0 0.040829929776693259 -0.00056349531375480763 0 0.040628759432623222 0.00015979539792297399 0 0.040582599794377526 0.00013153015590473182 0 0.040605913434570706 3.0553774521606718e-05 0 0.041192817755577558 0.0007241214484323842 0 0.039747091076520726 -4.3061016843153486e-05 0 0.039352286491222924 0.0002369705704296877 0 0.038930595645786457 0.00067437556821976167 0 0.039141579972872639 -7.0422016463011629e-05 0 0.039529196628600216 0.00055885393436547908 0 0.039352286491222924 0.0002369705704296877 0 0.038930595645786457 0.00067437556821976167 0 0.041192817755577558 0.0007241214484323842 0 0.042590304193916434 0.0002434031417302994 0 0.040582599794377526 0.00013153015590473182 0 0.040605913434570706 3.0553774521606718e-05 0 0.04058088775729056 1.6143528677594755e-05 0 0.039352286491222924 0.0002369705704296877 0 0.039141579972872639 -7.0422016463011629e-05 0 0.03929225076609566 -2.9214854427571642e-05 0 0.041605689445798115 -0.00048007210261497208 0 0.041280835394409944 -0.00082324376136589208 0 0.04123510766985862 -0.00016093150209698279 0 0.040829929776693259 -0.00056349531375480763 0 0.040996748336420044 -0.00010720436837148074 0 0.039141579972872639 -7.0422016463011629e-05 0 0.039178237196835858 -0.00017628427715754859 0 0.039272932941526409 -0.00013440363478242907 0 0.039747091076520726 -4.3061016843153486e-05 0 0.039913768002048045 -0.00017755620988956433 0 0.040605913434570706 3.0553774521606718e-05 0 0.04058088775729056 1.6143528677594755e-05 0 0.040565943420356153 -3.5428206735196176e-05 0 0.04058088775729056 1.6143528677594755e-05 0 0.040565943420356153 -3.5428206735196176e-05 0 0.040560312786232559 -3.6833347406752466e-05 0 0.038414411964049364 -0.0005027485246203461 0 0.039226291821183132 -7.1524563563932407e-05 0 0.038423774510954987 -0.00067129996198064573 0 0.038414411964049364 -0.0005027485246203461 0 0.038423774510954987 -0.00067129996198064573 0 0.038068219939443808 -0.00070764164804759612 0 0.039178237196835858 -0.00017628427715754859 0 0.039272932941526409 -0.00013440363478242907 0 0.039237569597731413 -0.00021619544471657942 0 0.038855821144213563 -0.00034606585730031087 0 0.038535556935197383 -0.00042686507361324908 0 0.039272932941526409 -0.00013440363478242907 0 0.039226291821183132 -7.1524563563932407e-05 0 0.03929225076609566 -2.9214854427571642e-05 0 0.038855821144213563 -0.00034606585730031087 0 0.039086841535889282 -0.0001467332600602546 0 0.039141579972872639 -7.0422016463011629e-05 0 0.039272932941526409 -0.00013440363478242907 0 0.03929225076609566 -2.9214854427571642e-05 0 0.03948392179603806 0.00016494603009065234 0 0.039352286491222924 0.0002369705704296877 0 0.03929225076609566 -2.9214854427571642e-05 0 0.03948392179603806 0.00016494603009065234 0 0.039226291821183132 -7.1524563563932407e-05 0 0.039552898423134551 6.1506839024186543e-05 0 0.03948392179603806 0.00016494603009065234 0 0.039226291821183132 -7.1524563563932407e-05 0 0.03929225076609566 -2.9214854427571642e-05 0 0.039226291821183132 -7.1524563563932407e-05 0 0.039552898423134551 6.1506839024186543e-05 0 0.038423774510954987 -0.00067129996198064573 0 0.037508896760590521 0.00017522435147657471 0 0.037510505664635721 6.1393781126720326e-05 0 0.036922349807394055 -0.00030730654253515328 0 0.037508896760590521 0.00017522435147657471 0 0.037510505664635721 6.1393781126720326e-05 0 0.037945977116679311 0.000303039356585382 0 0.037510505664635721 6.1393781126720326e-05 0 0.03757083416420616 7.4409071646086672e-05 0 0.037945977116679311 0.000303039356585382 0 0.037508896760590521 0.00017522435147657471 0 0.036922349807394055 -0.00030730654253515328 0 0.036170635026440433 -0.00067906118329976817 0 0.038617200834861795 8.2947420408796565e-05 0 0.037313662090007471 -0.00065363179277291915 0 0.036922349807394055 -0.00030730654253515328 0 0.036170635026440433 -0.00067906118329976817 0 0.036221542174433068 -0.0006203061045237893 0 0.036922349807394055 -0.00030730654253515328 0 0.036221542174433068 -0.0006203061045237893 0 0.0366137422804408 -0.00064009247919055018 0 0.036922349807394055 -0.00030730654253515328 0 0.03757083416420616 7.4409071646086672e-05 0 0.0366137422804408 -0.00064009247919055018 0 0.03757083416420616 7.4409071646086672e-05 0 0.037813883893690975 0.00021466135541693858 0 0.0366137422804408 -0.00064009247919055018 0 0.037510505664635721 6.1393781126720326e-05 0 0.036922349807394055 -0.00030730654253515328 0 0.03757083416420616 7.4409071646086672e-05 0 0.03757083416420616 7.4409071646086672e-05 0 0.038121635982500651 0.00040968561939597371 0 0.037813883893690975 0.00021466135541693858 0 0.038121635982500651 0.00040968561939597371 0 0.038295626403433196 0.00050899816088371725 0 0.037813883893690975 0.00021466135541693858 0 0.038121635982500651 0.00040968561939597371 0 0.038512583526960562 0.00059441969435208657 0 0.038295626403433196 0.00050899816088371725 0 0.038121635982500651 0.00040968561939597371 0 0.038512583526960562 0.00059441969435208657 0 0.038387302071380913 0.00051597600902257947 0 0.038512583526960562 0.00059441969435208657 0 0.038387302071380913 0.00051597600902257947 0 0.038903255588810158 0.00069455221871143967 0 0.03757083416420616 7.4409071646086672e-05 0 0.038121635982500651 0.00040968561939597371 0 0.038387302071380913 0.00051597600902257947 0 0.03757083416420616 7.4409071646086672e-05 0 0.038387302071380913 0.00051597600902257947 0 0.037945977116679311 0.000303039356585382 0 0.040003076427690229 0.00068411229108272245 0 0.039552898423134551 6.1506839024186543e-05 0 0.04028228771545013 0.00099488768490306164 0 0.037508896760590521 0.00017522435147657471 0 0.038771419494702988 0.00062744592983322498 0 0.04028228771545013 0.00099488768490306164 0 0.038617200834861795 8.2947420408796565e-05 0 0.039979541889126953 0.00081611847985350644 0 0.037508896760590521 0.00017522435147657471 0 0.037945977116679311 0.000303039356585382 0 0.038771419494702988 0.00062744592983322498 0 0.038387302071380913 0.00051597600902257947 0 0.037945977116679311 0.000303039356585382 0 0.038771419494702988 0.00062744592983322498 0 0.038387302071380913 0.00051597600902257947 0 0.038771419494702988 0.00062744592983322498 0 0.038903255588810158 0.00069455221871143967 0 0.038771419494702988 0.00062744592983322498 0 0.039507182486082544 0.00080859552698541283 0 0.038903255588810158 0.00069455221871143967 0 0.039507182486082544 0.00080859552698541283 0 0.039433186628333047 0.0007443292560344307 0 0.038903255588810158 0.00069455221871143967 0 0.038771419494702988 0.00062744592983322498 0 0.039507182486082544 0.00080859552698541283 0 0.04028228771545013 0.00099488768490306164 0 0.039507182486082544 0.00080859552698541283 0 0.04028228771545013 0.00099488768490306164 0 0.040015136120910386 0.0008567409770142367 0 0.04028228771545013 0.00099488768490306164 0 0.040015136120910386 0.0008567409770142367 0 0.040430579131869829 0.00083208211717442462 0 0.040015136120910386 0.0008567409770142367 0 0.040430579131869829 0.00083208211717442462 0 0.0399066627229092 0.00077608258733902994 0 0.040385014264458952 0.00065645122077753 0 0.040430579131869829 0.00083208211717442462 0 0.0399066627229092 0.00077608258733902994 0 0.041153294005316435 0.0006508519250475141 0 0.040713452331707735 0.0010897031116300427 0 0.040430579131869829 0.00083208211717442462 0 0.040713452331707735 0.0010897031116300427 0 0.04028228771545013 0.00099488768490306164 0 0.040430579131869829 0.00083208211717442462 0 0.039935138800741822 0.00062738462157149277 0 0.0399066627229092 0.00077608258733902994 0 0.039433186628333047 0.0007443292560344307 0 0.039507182486082544 0.00080859552698541283 0 0.040015136120910386 0.0008567409770142367 0 0.0399066627229092 0.00077608258733902994 0 0.039507182486082544 0.00080859552698541283 0 0.0399066627229092 0.00077608258733902994 0 0.039433186628333047 0.0007443292560344307 0 0.039517656971205684 0.00059111954809366364 0 0.039433186628333047 0.0007443292560344307 0 0.039003536474838583 0.00069527834160951966 0 0.039001153965850063 0.00055162152100184634 0 0.039517656971205684 0.00059111954809366364 0 0.039003536474838583 0.00069527834160951966 0 0.038512583526960562 0.00059441969435208657 0 0.039003536474838583 0.00069527834160951966 0 0.038672696816473937 0.00066105112421189322 0 0.038512583526960562 0.00059441969435208657 0 0.039003536474838583 0.00069527834160951966 0 0.038903255588810158 0.00069455221871143967 0 0.039433186628333047 0.0007443292560344307 0 0.039003536474838583 0.00069527834160951966 0 0.038903255588810158 0.00069455221871143967 0 0.038672696816473937 0.00066105112421189322 0 0.038725453086172229 0.00061566942013121238 0 0.038542352582925932 0.00060631530959951417 0 0.039001153965850063 0.00055162152100184634 0 0.038672696816473937 0.00066105112421189322 0 0.038725453086172229 0.00061566942013121238 0 0.039001153965850063 0.00055162152100184634 0 0.039003536474838583 0.00069527834160951966 0 0.038672696816473937 0.00066105112421189322 0 0.038597728586918435 0.00040801871729877627 0 0.038725453086172229 0.00061566942013121238 0 0.038687509445503421 0.00058340003145472032 0 0.038597728586918435 0.00040801871729877627 0 0.038687509445503421 0.00058340003145472032 0 0.038649342613357271 0.00057510594295728204 0 0.038687509445503421 0.00058340003145472032 0 0.03880447230039219 0.00038891596880039818 0 0.038649342613357271 0.00057510594295728204 0 0.038725453086172229 0.00061566942013121238 0 0.038687509445503421 0.00058340003145472032 0 0.038542352582925932 0.00060631530959951417 0 0.038687509445503421 0.00058340003145472032 0 0.03880447230039219 0.00038891596880039818 0 0.038542352582925932 0.00060631530959951417 0 0.03880447230039219 0.00038891596880039818 0 0.038542352582925932 0.00060631530959951417 0 0.037813883893690975 0.00021466135541693858 0 0.038512583526960562 0.00059441969435208657 0 0.038672696816473937 0.00066105112421189322 0 0.038295626403433196 0.00050899816088371725 0 0.038542352582925932 0.00060631530959951417 0 0.038295626403433196 0.00050899816088371725 0 0.037813883893690975 0.00021466135541693858 0 0.038672696816473937 0.00066105112421189322 0 0.038542352582925932 0.00060631530959951417 0 0.038295626403433196 0.00050899816088371725 0 0.036977934580097224 -0.0002026094116983452 0 0.036737219458494196 -0.00055979061562922317 0 0.03880447230039219 0.00038891596880039818 0 0.037813883893690975 0.00021466135541693858 0 0.0366137422804408 -0.00064009247919055018 0 0.036221542174433068 -0.0006203061045237893 0 0.0366137422804408 -0.00064009247919055018 0 0.035086352167696871 -0.00062437707496911432 0 0.0366137422804408 -0.00064009247919055018 0 0.034942909382467316 -0.0007184458559495421 0 0.035086352167696871 -0.00062437707496911432 0 0.0366137422804408 -0.00064009247919055018 0 0.034942909382467316 -0.0007184458559495421 0 0.035286278420456743 -0.000880887704494154 0 0.034942909382467316 -0.0007184458559495421 0 0.034750564045283157 -0.00090150932936403788 0 0.034109419683646384 -0.00072136158885567311 0 0.034942909382467316 -0.0007184458559495421 0 0.035286278420456743 -0.000880887704494154 0 0.034750564045283157 -0.00090150932936403788 0 0.035286278420456743 -0.000880887704494154 0 0.035675986322126846 -0.00085396277645172908 0 0.034750564045283157 -0.00090150932936403788 0 0.035341795904874324 -0.00086294949333227554 0 0.0366137422804408 -0.00064009247919055018 0 0.035286278420456743 -0.000880887704494154 0 0.035341795904874324 -0.00086294949333227554 0 0.035286278420456743 -0.000880887704494154 0 0.035675986322126846 -0.00085396277645172908 0 0.035675986322126846 -0.00085396277645172908 0 0.03524524130652873 1.6953053681528459e-05 0 0.035766210178245508 -0.00041510191324334008 0 0.035466163308590079 -0.00077074606820996079 0 0.034411492806468144 -0.00054358938656434361 0 0.035675986322126846 -0.00085396277645172908 0 0.035766210178245508 -0.00041510191324334008 0 0.036320833702173802 -0.00043417735042066015 0 0.035675986322126846 -0.00085396277645172908 0 0.034750564045283157 -0.00090150932936403788 0 0.033636006426655748 -0.0010134112929439342 0 0.034750564045283157 -0.00090150932936403788 0 0.033636006426655748 -0.0010134112929439342 0 0.034109419683646384 -0.00072136158885567311 0 0.034343475145443031 -4.9447112900405101e-07 0 0.03524524130652873 1.6953053681528459e-05 0 0.035766210178245508 -0.00041510191324334008 0 0.034343475145443031 -4.9447112900405101e-07 0 0.036476135508702323 -1.0401990903787911e-06 0 0.035766210178245508 -0.00041510191324334008 0 0.036476135508702323 -1.0401990903787911e-06 0 0.035766210178245508 -0.00041510191324334008 0 0.036320833702173802 -0.00043417735042066015 0 0.036476135508702323 -1.0401990903787911e-06 0 0.037150071645891604 -0.00027046509848294094 0 0.036320833702173802 -0.00043417735042066015 0 0.036476135508702323 -1.0401990903787911e-06 0 0.037150071645891604 -0.00027046509848294094 0 0.038609285180391133 -2.2697643749953475e-07 0 0.035341795904874324 -0.00086294949333227554 0 0.035675986322126846 -0.00085396277645172908 0 0.036260612028061648 -0.00047219658715613944 0 0.035341795904874324 -0.00086294949333227554 0 0.036260612028061648 -0.00047219658715613944 0 0.036936844216676042 0.00027169285472036081 0 0.036977934580097224 -0.0002026094116983452 0 0.038417426717338859 0.00013338633184015397 0 0.035675986322126846 -0.00085396277645172908 0 0.036320833702173802 -0.00043417735042066015 0 0.036260612028061648 -0.00047219658715613944 0 0.037150071645891604 -0.00027046509848294094 0 0.036320833702173802 -0.00043417735042066015 0 0.036260612028061648 -0.00047219658715613944 0 0.037150071645891604 -0.00027046509848294094 0 0.036260612028061648 -0.00047219658715613944 0 0.036936844216676042 0.00027169285472036081 0 0.038417426717338859 0.00013338633184015397 0 0.040110307413656954 0.00071847840412270756 0 0.036936844216676042 0.00027169285472036081 0 0.037392746188828381 0.00044198305180148277 0 0.038302931279655929 0.00013032254187879419 0 0.037150071645891604 -0.00027046509848294094 0 0.038302931279655929 0.00013032254187879419 0 0.038609285180391133 -2.2697643749953475e-07 0 0.037150071645891604 -0.00027046509848294094 0 0.036936844216676042 0.00027169285472036081 0 0.038302931279655929 0.00013032254187879419 0 0.028297110669855387 -7.4639346423344799e-08 0 0.030408509584946564 -0.00020903740968170967 0 0.028299093110168757 2.4555326492938774e-06 0 0.031492285870376835 0.00065445624203977623 0 0.030253863837218724 -2.1692175325033449e-07 0 0.028294133251323166 -1.2384386282044073e-06 0 0.029113147393210109 -0.00089625046468856293 0 0.028405230156802044 -1.2763408629322059e-06 0 0.029113147393210109 -0.00089625046468856293 0 0.030462403079157034 -0.00029684095285490174 0 0.028405230156802044 -1.2763408629322059e-06 0 0.029113147393210109 -0.00089625046468856293 0 0.031538259856687428 -0.0013833851856999049 0 0.030462403079157034 -0.00029684095285490174 0 0.031492285870376835 0.00065445624203977623 0 0.032579755453518815 -0.00028650645194238739 0 0.03353686696973688 0.00020924144881520558 0 0.030408509584946564 -0.00020903740968170967 0 0.032435472569225486 -0.00054637919831341663 0 0.031492285870376835 0.00065445624203977623 0 0.030253863837218724 -2.1692175325033449e-07 0 0.032579755453518815 -0.00028650645194238739 0 0.032207884905871099 -1.9011151045520461e-06 0 0.033303031096341348 -0.00045174229833357414 0 0.032579755453518815 -0.00028650645194238739 0 0.030253863837218724 -2.1692175325033449e-07 0 0.032207884905871099 -1.9011151045520461e-06 0 0.032579755453518815 -0.00028650645194238739 0 0.034411492806468144 -0.00054358938656434361 0 0.032210575025036992 -2.9220247903813298e-07 0 0.034343475145443031 -4.9447112900405101e-07 0 0.03524524130652873 1.6953053681528459e-05 0 0.032211420871857535 9.7350706969554004e-07 0 0.033636006426655748 -0.0010134112929439342 0 0.032207884905871099 -1.9011151045520461e-06 0 0.033303031096341348 -0.00045174229833357414 0 0.033636006426655748 -0.0010134112929439342 0 0.034109419683646384 -0.00072136158885567311 0 0.033303031096341348 -0.00045174229833357414 0 0.034109419683646384 -0.00072136158885567311 0 0.033303031096341348 -0.00045174229833357414 0 0.033961044330697139 -0.00056090201322355035 0 0.033303031096341348 -0.00045174229833357414 0 0.032579755453518815 -0.00028650645194238739 0 0.033961044330697139 -0.00056090201322355035 0 0.032579755453518815 -0.00028650645194238739 0 0.033958277604925036 -0.00047215480571699808 0 0.033961044330697139 -0.00056090201322355035 0 0.033958277604925036 -0.00047215480571699808 0 0.033961044330697139 -0.00056090201322355035 0 0.035086352167696871 -0.00062437707496911432 0 0.034942909382467316 -0.0007184458559495421 0 0.033961044330697139 -0.00056090201322355035 0 0.035086352167696871 -0.00062437707496911432 0 0.034942909382467316 -0.0007184458559495421 0 0.034109419683646384 -0.00072136158885567311 0 0.033961044330697139 -0.00056090201322355035 0 0.033958277604925036 -0.00047215480571699808 0 0.035086352167696871 -0.00062437707496911432 0 0.034068750068177174 -0.00085654325703523064 0 0.035086352167696871 -0.00062437707496911432 0 0.034068750068177174 -0.00085654325703523064 0 0.035418225014872191 -0.00074394075746616348 0 0.034068750068177174 -0.00085654325703523064 0 0.031538259856687428 -0.0013833851856999049 0 0.033968745308989398 -0.00057960370390599224 0 0.032579755453518815 -0.00028650645194238739 0 0.033958277604925036 -0.00047215480571699808 0 0.03353686696973688 0.00020924144881520558 0 0.033958277604925036 -0.00047215480571699808 0 0.034068750068177174 -0.00085654325703523064 0 0.03353686696973688 0.00020924144881520558 0 0.033756231652464878 -0.00083705304348975621 0 0.032435472569225486 -0.00054637919831341663 0 0.031538259856687428 -0.0013833851856999049 0 0.030462403079157034 -0.00029684095285490174 0 0.032179279912866739 -0.00030437520204984524 0 0.030462403079157034 -0.00029684095285490174 0 0.032179279912866739 -0.00030437520204984524 0 0.031807889755279192 0.00046741656753621151 0 0.031538259856687428 -0.0013833851856999049 0 0.032179279912866739 -0.00030437520204984524 0 0.033968745308989398 -0.00057960370390599224 0 0.032179279912866739 -0.00030437520204984524 0 0.033447538153830371 8.8128921265771017e-06 0 0.031807889755279192 0.00046741656753621151 0 0.032179279912866739 -0.00030437520204984524 0 0.033447538153830371 8.8128921265771017e-06 0 0.033968745308989398 -0.00057960370390599224 0 0.033447538153830371 8.8128921265771017e-06 0 0.033968745308989398 -0.00057960370390599224 0 0.034846063618371073 -0.00035207678973968586 0 0.033447538153830371 8.8128921265771017e-06 0 0.034846063618371073 -0.00035207678973968586 0 0.033767419655135369 0.00093011546266141463 0 0.036454159624854113 0.00018674551862430424 0 0.037345307464761245 -8.1633588798603511e-05 0 0.037333471225206805 0.00068148787317293482 0 0.036454159624854113 0.00018674551862430424 0 0.037333471225206805 0.00068148787317293482 0 0.036585568454206491 0.0012634560915700255 0 0.036454159624854113 0.00018674551862430424 0 0.037453128681373918 -0.00065709920964640448 0 0.037345307464761245 -8.1633588798603511e-05 0 0.035658849839146724 2.8285083003947019e-05 0 0.03638392465770271 -0.00072085255629072899 0 0.034068750068177174 -0.00085654325703523064 0 0.033968745308989398 -0.00057960370390599224 0 0.035278223526561646 -0.00080223294890037272 0 0.033968745308989398 -0.00057960370390599224 0 0.034846063618371073 -0.00035207678973968586 0 0.035278223526561646 -0.00080223294890037272 0 0.034068750068177174 -0.00085654325703523064 0 0.035418225014872191 -0.00074394075746616348 0 0.035278223526561646 -0.00080223294890037272 0 0.036221542174433068 -0.0006203061045237893 0 0.035086352167696871 -0.00062437707496911432 0 0.035418225014872191 -0.00074394075746616348 0 0.036170635026440433 -0.00067906118329976817 0 0.036221542174433068 -0.0006203061045237893 0 0.035418225014872191 -0.00074394075746616348 0 0.036170635026440433 -0.00067906118329976817 0 0.035418225014872191 -0.00074394075746616348 0 0.035278223526561646 -0.00080223294890037272 0 0.037313662090007471 -0.00065363179277291915 0 0.03638392465770271 -0.00072085255629072899 0 0.038423774510954987 -0.00067129996198064573 0 0.037453128681373918 -0.00065709920964640448 0 0.037898785838936959 -0.00071543227269361671 0 0.037898785838936959 -0.00071543227269361671 0 0.038068219939443808 -0.00070764164804759612 0 0.038004839309363346 -0.00065039319508433267 0 0.037453128681373918 -0.00065709920964640448 0 0.037898785838936959 -0.00071543227269361671 0 0.037845169029191668 -0.00041142280883296284 0 0.037898785838936959 -0.00071543227269361671 0 0.038004839309363346 -0.00065039319508433267 0 0.037845169029191668 -0.00041142280883296284 0 0.038423774510954987 -0.00067129996198064573 0 0.037898785838936959 -0.00071543227269361671 0 0.038068219939443808 -0.00070764164804759612 0 0.038535556935197383 -0.00042686507361324908 0 0.038255702846227521 -0.00034856426815306604 0 0.04123510766985862 -0.00016093150209698279 0 0.041159564588992704 0.0004196106248093746 0 0.041623973638891892 0.00025645240078909956 0 0.039178237196835858 -0.00017628427715754859 0 0.039237569597731413 -0.00021619544471657942 0 0.039182641077936078 -0.00028408262627635836 0 0.040565943420356153 -3.5428206735196176e-05 0 0.040560312786232559 -3.6833347406752466e-05 0 0.04050552539311645 -2.20167746150695e-05 0 0.039913768002048045 -0.00017755620988956433 0 0.039382879506818451 0.00026346904619932123 0 0.040996748336420044 -0.00010720436837148074 0 0.039382879506818451 0.00026346904619932123 0 0.038535556935197383 -0.00042686507361324908 0 0.039382879506818451 0.00026346904619932123 0 0.039382879506818451 0.00026346904619932123 0 0.039260479097706455 0.00091546510051912608 0 0.037486299084199447 0.0014235389513982263 0 0.03749835012894568 0.0012604498157682434 0 0.03708911136848965 0.00095456138056418676 0 0.038410642330214746 -0.00028160270570328481 0 0.038637594516687697 1.4752973893447363e-05 0 0.038518215138133506 4.7994888669458898e-05 0 0.038637594516687697 1.4752973893447363e-05 0 0.038518215138133506 4.7994888669458898e-05 0 0.038623956381400003 0.00011873037862935085 0 0.038518215138133506 4.7994888669458898e-05 0 0.038623956381400003 0.00011873037862935085 0 0.038623547480245206 0.00017841393390064436 0 0.039382879506818451 0.00026346904619932123 0 0.03866403060510596 0.00068180874534730081 0 0.03866403060510596 0.00068180874534730081 0 0.038457621151566743 0.00068740298680275587 0 0.038518215138133506 4.7994888669458898e-05 0 0.038623547480245206 0.00017841393390064436 0 0.038623022736137533 0.00037150969945463945 0 0.037494435860618715 0.0011660690438337193 0 0.037484825446773992 0.00085759266340514279 0 0.03708911136848965 0.00095456138056418676 0 0.038004839309363346 -0.00065039319508433267 0 0.038207495696228826 -0.0002343497201070228 0 0.037845169029191668 -0.00041142280883296284 0 0.038255702846227521 -0.00034856426815306604 0 0.038323258485311429 0.00027626728978705228 0 0.03749835012894568 0.0012604498157682434 0 0.037494435860618715 0.0011660690438337193 0 0.03708911136848965 0.00095456138056418676 0 0.037484825446773992 0.00085759266340514279 0 0.03708911136848965 0.00095456138056418676 0 0.037182267268625127 0.00061233554477248221 0 0.038207495696228826 -0.0002343497201070228 0 0.037845169029191668 -0.00041142280883296284 0 0.037842798242975047 7.0683168852263783e-05 0 0.038323258485311429 0.00027626728978705228 0 0.038285003997550075 -1.4890370400812261e-05 0 0.038207495696228826 -0.0002343497201070228 0 0.037842798242975047 7.0683168852263783e-05 0 0.038265753546097923 0.00012946242422839745 0 0.038457621151566743 0.00068740298680275587 0 0.038323258485311429 0.00027626728978705228 0 0.037453128681373918 -0.00065709920964640448 0 0.037845169029191668 -0.00041142280883296284 0 0.037345307464761245 -8.1633588798603511e-05 0 0.037845169029191668 -0.00041142280883296284 0 0.037345307464761245 -8.1633588798603511e-05 0 0.037842798242975047 7.0683168852263783e-05 0 0.037345307464761245 -8.1633588798603511e-05 0 0.037842798242975047 7.0683168852263783e-05 0 0.037333471225206805 0.00068148787317293482 0 0.037842798242975047 7.0683168852263783e-05 0 0.037333471225206805 0.00068148787317293482 0 0.037993456827583351 0.00063334764817903869 0 0.038244627636692577 -0.00034601880225104703 0 0.038265753546097923 0.00012946242422839745 0 0.038707962259835728 0.00086415213054901298 0 0.037484825446773992 0.00085759266340514279 0 0.037184163116401693 0.00022409369633776701 0 0.037182267268625127 0.00061233554477248221 0 0.037484825446773992 0.00085759266340514279 0 0.037219179801671096 0.00014887078141890542 0 0.037184163116401693 0.00022409369633776701 0 0.038323258485311429 0.00027626728978705228 0 0.036116829532270189 0.00031502892459619786 0 0.037993456827583351 0.00063334764817903869 0 0.038265753546097923 0.00012946242422839745 0 0.038707962259835728 0.00086415213054901298 0 0.037842798242975047 7.0683168852263783e-05 0 0.037993456827583351 0.00063334764817903869 0 0.038265753546097923 0.00012946242422839745 0 0.038707962259835728 0.00086415213054901298 0 0.03789867106943863 0.0011936741800607886 0 0.038359684905003286 0.0016955343189610753 0 0.030897547664539917 -0.00050777124772821334 0 0.032426933515218623 -0.00070933900074773577 0 0.036116829532270189 0.00031502892459619786 0 0.030897547664539917 -0.00050777124772821334 0 0.033307978501752253 -0.00051949818183732468 0 0.03305097559313689 -4.2906621813733525e-05 0 0.033425809051020043 -0.00012833686057701424 0 0.037993456827583351 0.00063334764817903869 0 0.038707962259835728 0.00086415213054901298 0 0.03789867106943863 0.0011936741800607886 0 0.037333471225206805 0.00068148787317293482 0 0.03789867106943863 0.0011936741800607886 0 0.03740567263434446 0.0014191910180591687 0 0.03789867106943863 0.0011936741800607886 0 0.03740567263434446 0.0014191910180591687 0 0.038359684905003286 0.0016955343189610753 0 0.037333471225206805 0.00068148787317293482 0 0.037993456827583351 0.00063334764817903869 0 0.03789867106943863 0.0011936741800607886 0 0.037333471225206805 0.00068148787317293482 0 0.03740567263434446 0.0014191910180591687 0 0.036585568454206491 0.0012634560915700255 0 0.03740567263434446 0.0014191910180591687 0 0.036756408326554336 0.0022813701808135235 0 0.036585568454206491 0.0012634560915700255 0 0.030897547664539917 -0.00050777124772821334 0 0.029824232762299164 0.00097321404817638586 0 0.023311091700995941 0.00038402494867711024 0 0.025343530948595403 -0.0011783924565431344 0 0.024335933942337483 0.00072225699882799374 0 0.023311091700995941 0.00038402494867711024 0 0.025343530948595403 -0.0011783924565431344 0 0.022466581888550732 -0.00046488654266626232 0 0.03740567263434446 0.0014191910180591687 0 0.038359684905003286 0.0016955343189610753 0 0.036756408326554336 0.0022813701808135235 0 0.026939128212997699 -0.0016224162823408924 0 0.027412753356467878 -0.00061406617942931334 0 0.026039618591580278 8.9717822767095782e-05 0 0.030897547664539917 -0.00050777124772821334 0 0.025045368898199482 0.00053879652880034869 0 0.026939128212997699 -0.0016224162823408924 0 0.027412753356467878 -0.00061406617942931334 0 0.028040511721204253 -0.0018714016301439589 0 0.027169094389227422 0.0017289453031123804 0 0.025137749918218506 0.0018271426443424927 0 0.026039618591580278 8.9717822767095782e-05 0 0.027501113606043397 0.00048416562582958612 0 0.027169094389227422 0.0017289453031123804 0 0.026039618591580278 8.9717822767095782e-05 0 0.027412753356467878 -0.00061406617942931334 0 0.027501113606043397 0.00048416562582958612 0 0.026039618591580278 8.9717822767095782e-05 0 0.025482979943620986 0.00088697817336365391 0 0.021735476361402856 0.0012695340558515472 0 0.023368094582001724 9.1003191782662609e-05 0 0.02392420159599621 0.00077054637618085078 0 0.023081628359347822 0.0012873652422341687 0 0.023368094582001724 9.1003191782662609e-05 0 0.022097454020015565 0.0001975034267628459 0 0.023081628359347822 0.0012873652422341687 0 0.021735476361402856 0.0012695340558515472 0 0.017317323076780404 0.001199334147566048 0 0.021735476361402856 0.0012695340558515472 0 0.021994820293195119 0.0013822513319533384 0 0.021735476361402856 0.0012695340558515472 0 0.022665775308003216 0.0018984182321950093 0 0.021735476361402856 0.0012695340558515472 0 0.025045368898199482 0.00053879652880034869 0 0.023321738242112054 0.0025163903360514508 0 0.023357637688758138 0.001517560279937955 0 0.02204614617921186 0.0011358924428879675 0 0.023329482467080075 0.0025555661935711817 0 0.023357637688758138 0.001517560279937955 0 0.024335933942337483 0.00072225699882799374 0 0.023311091700995941 0.00038402494867711024 0 0.023357637688758138 0.001517560279937955 0 0.024335933942337483 0.00072225699882799374 0 0.023311091700995941 0.00038402494867711024 0 0.023357637688758138 0.001517560279937955 0 0.02204614617921186 0.0011358924428879675 0 0.023321738242112054 0.0025163903360514508 0 0.02204614617921186 0.0011358924428879675 0 0.020331039499063602 0.0024913572721176427 0 0.015697589447784491 0.001737949146185258 0 0.016051238339233019 0.0015481508781479711 0 0.016012770767674659 0.0011612341003928968 0 0.021735476361402856 0.0012695340558515472 0 0.017916202413438539 0.0022645171226575987 0 0.015697589447784491 0.001737949146185258 0 0.016051238339233019 0.0015481508781479711 0 0.016496244250659802 0.0018321725954645919 0 0.016496244250659802 0.0018321725954645919 0 0.017078440721039461 0.0013076771335123563 0 0.016468022161888616 0.0011598874543107805 0 0.016051238339233019 0.0015481508781479711 0 0.016496244250659802 0.0018321725954645919 0 0.016468022161888616 0.0011598874543107805 0 0.020331039499063602 0.0024913572721176427 0 0.019805873131969354 0.00035606991784574026 0 0.019088873052759112 0.0016087020571115859 0 0.02204614617921186 0.0011358924428879675 0 0.020331039499063602 0.0024913572721176427 0 0.019805873131969354 0.00035606991784574026 0 0.033825001515034481 0.0030980304952649461 0 0.035126132103520266 0.0019787456018073354 0 0.036756408326554336 0.0022813701808135235 0 0.033825001515034481 0.0030980304952649461 0 0.035126132103520266 0.0019787456018073354 0 0.033767419655135369 0.00093011546266141463 0 0.026592561681892956 0.0018223580564516399 0 0.029824232762299164 0.00097321404817638586 0 0.02204614617921186 0.0011358924428879675 0 0.019805873131969354 0.00035606991784574026 0 0.022466581888550732 -0.00046488654266626232 0 0.023311091700995941 0.00038402494867711024 0 0.02204614617921186 0.0011358924428879675 0 0.022466581888550732 -0.00046488654266626232 0 0.035126132103520266 0.0019787456018073354 0 0.036756408326554336 0.0022813701808135235 0 0.036585568454206491 0.0012634560915700255 0 0.035658849839146724 2.8285083003947019e-05 0 0.035169383258687306 0.0019457251137168735 0 0.036454159624854113 0.00018674551862430424 0 0.035126132103520266 0.0019787456018073354 0 0.036585568454206491 0.0012634560915700255 0 0.034846063618371073 -0.00035207678973968586 0 0.035126132103520266 0.0019787456018073354 0 0.033767419655135369 0.00093011546266141463 0 0.033447538153830371 8.8128921265771017e-06 0 0.033767419655135369 0.00093011546266141463 0 0.031807889755279192 0.00046741656753621151 0 0.033767419655135369 0.00093011546266141463 0 0.031807889755279192 0.00046741656753621151 0 0.032157000976381529 0.0015291357822947162 0 0.033413561167327722 0.001086201990270146 0 0.03262926656775237 0.001509131489019632 0 0.031807889755279192 0.00046741656753621151 0 0.0306915379688272 0.0011285472310560672 0 0.029853256492201202 0.00039624158022207121 0 0.030462403079157034 -0.00029684095285490174 0 0.031807889755279192 0.00046741656753621151 0 0.029853256492201202 0.00039624158022207121 0 0.0306915379688272 0.0011285472310560672 0 0.030515720891915201 0.0021864202178652993 0 0.028847794664894098 0.00084002026480733017 0 0.031807889755279192 0.00046741656753621151 0 0.0306915379688272 0.0011285472310560672 0 0.032157000976381529 0.0015291357822947162 0 0.0306915379688272 0.0011285472310560672 0 0.028847794664894098 0.00084002026480733017 0 0.029853256492201202 0.00039624158022207121 0 0.03262926656775237 0.001509131489019632 0 0.02522275855922217 0.0021247675077035646 0 0.0306915379688272 0.0011285472310560672 0 0.032157000976381529 0.0015291357822947162 0 0.030515720891915201 0.0021864202178652993 0 0.033825001515034481 0.0030980304952649461 0 0.033767419655135369 0.00093011546266141463 0 0.032139483815206656 0.0023283672200586983 0 0.033825001515034481 0.0030980304952649461 0 0.032139483815206656 0.0023283672200586983 0 0.030428818809038492 0.0039342137399035332 0 0.026592561681892956 0.0018223580564516399 0 0.02522275855922217 0.0021247675077035646 0 0.019088873052759112 0.0016087020571115859 0 0.018019122214494969 0.0019422250083376376 0 0.018086121466127352 0.0014385615039100397 0 0.019805873131969354 0.00035606991784574026 0 0.019088873052759112 0.0016087020571115859 0 0.018086121466127352 0.0014385615039100397 0 0.016496244250659802 0.0018321725954645919 0 0.018019122214494969 0.0019422250083376376 0 0.017078440721039461 0.0013076771335123563 0 0.020331039499063602 0.0024913572721176427 0 0.019088873052759112 0.0016087020571115859 0 0.018019122214494969 0.0019422250083376376 0 0.017916202413438539 0.0022645171226575987 0 0.01830607023652954 0.0019452958157195569 0 0.018019122214494969 0.0019422250083376376 0 0.018086121466127352 0.0014385615039100397 0 0.01874455931037871 0.002113373094216458 0 0.02522275855922217 0.0021247675077035646 0 0.020363519799459457 0.0009014674580655566 0 0.030515720891915201 0.0021864202178652993 0 0.027801290666408959 0.0015794919981947516 0 0.028847794664894098 0.00084002026480733017 0 0.023000118579879606 0.00046848429410831298 0 0.023490923560883482 0.00032700240892167729 0 0.023451561740867849 -7.5486332836683455e-05 0 0.02522275855922217 0.0021247675077035646 0 0.026061719192748571 0.00074859713629371952 0 0.018019122214494969 0.0019422250083376376 0 0.01874455931037871 0.002113373094216458 0 0.018372145894539477 0.0012789632946707207 0 0.01874455931037871 0.002113373094216458 0 0.019757282293953845 0.001239744505407678 0 0.018372145894539477 0.0012789632946707207 0 0.023451561740867849 -7.5486332836683455e-05 0 0.024236015071815095 -3.1032474240781887e-09 0 0.02158250894050948 4.7530766024814918e-08 0 0.023490923560883482 0.00032700240892167729 0 0.023451561740867849 -7.5486332836683455e-05 0 0.024236015071815095 -3.1032474240781887e-09 0 0.027801290666408959 0.0015794919981947516 0 0.024246044760921012 4.7186386747621352e-06 0 0.026269146867135565 -5.3102193339322586e-07 0 0.026061719192748571 0.00074859713629371952 0 0.024241900061245724 5.4041981047765015e-07 0 0.027801290666408959 0.0015794919981947516 0 0.026269146867135565 -5.3102193339322586e-07 0 0.028847794664894098 0.00084002026480733017 0 0.026269146867135565 -5.3102193339322586e-07 0 0.028847794664894098 0.00084002026480733017 0 0.028405230156802044 -1.2763408629322059e-06 0 0.030462403079157034 -0.00029684095285490174 0 0.029853256492201202 0.00039624158022207121 0 0.028405230156802044 -1.2763408629322059e-06 0 0.028847794664894098 0.00084002026480733017 0 0.029853256492201202 0.00039624158022207121 0 0.028405230156802044 -1.2763408629322059e-06 0 0.028294133251323166 -1.2384386282044073e-06 0 0.026269146867135565 -5.3102193339322586e-07 0 0.028405230156802044 -1.2763408629322059e-06 0 0.043936408083803787 0.00088002213914638457 0 0.043258475174361467 0.00096339744012129266 0 0.043566372923971461 0.0014931745481494561 0 0.043936408083803787 0.00088002213914638457 0 0.043258475174361467 0.00096339744012129266 0 0.043716700238457473 0.0005008282428290888 0 0.038729578873168399 -0.00019764021288005745 0 0.038208798625326647 -0.00013112760396518286 0 0.043258475174361467 0.00096339744012129266 0 0.043566372923971461 0.0014931745481494561 0 0.042819311729309979 0.0016337745298315215 0 0.034034165672865747 -0.0021152343718811545 0 0.035027993696404414 -0.0023473375359914766 0 0.034898658151486552 -0.0016046644525940102 0 0.038729578873168399 -0.00019764021288005745 0 0.03966652914496728 -0.0015280784638148205 0 0.043936408083803787 0.00088002213914638457 0 0.043566372923971461 0.0014931745481494561 0 0.044324136426195801 0.0013206492991943029 0 0.03966652914496728 -0.0015280784638148205 0 0.036014103882365499 -0.001391968776186492 0 0.037424841351546709 -0.0029660131395492341 0 0.03922415646779466 -0.0023952365004626434 0 0.038172172190010456 -0.0016701764857854396 0 0.03966652914496728 -0.0015280784638148205 0 0.042376838204707494 -0.0026883349335983294 0 0.042722084506947797 -0.0018087025177114606 0 0.042284438430923818 -0.0017119257053914696 0 0.042519417158927576 -0.0015253362215997574 0 0.037424841351546709 -0.0029660131395492341 0 0.03922415646779466 -0.0023952365004626434 0 0.039943608657589828 -0.0035549041716696518 0 0.040903719034611929 -0.0023738262158046947 0 0.03922415646779466 -0.0023952365004626434 0 0.039943608657589828 -0.0035549041716696518 0 0.042376838204707494 -0.0026883349335983294 0 0.043895590203305801 -0.0021999102968782392 0 0.044476037398374975 -0.0032063386779768782 0 0.044852553207223755 -0.0038398866090717486 0 0.045185190708398597 -0.0029626379365575986 0 0.042284438430923818 -0.0017119257053914696 0 0.042519417158927576 -0.0015253362215997574 0 0.042465535396294572 -0.0012437212652160439 0 0.042519417158927576 -0.0015253362215997574 0 0.042698799458629463 -0.0012957084636904424 0 0.042465535396294572 -0.0012437212652160439 0 0.042722084506947797 -0.0018087025177114606 0 0.042519417158927576 -0.0015253362215997574 0 0.042698799458629463 -0.0012957084636904424 0 0.03966652914496728 -0.0015280784638148205 0 0.043882737320953671 -5.8428968994991773e-05 0 0.043936408083803787 0.00088002213914638457 0 0.044324136426195801 0.0013206492991943029 0 0.04447981005218174 0.00057353573858692178 0 0.042698799458629463 -0.0012957084636904424 0 0.042465535396294572 -0.0012437212652160439 0 0.042674972628425005 -0.00075686191549783775 0 0.043936408083803787 0.00088002213914638457 0 0.04447981005218174 0.00057353573858692178 0 0.0441285275274792 0.00035297366782094896 0 0.043882737320953671 -5.8428968994991773e-05 0 0.04425254076962444 -0.00075883234951660877 0 0.04447981005218174 0.00057353573858692178 0 0.044447871038254649 7.2103360786149963e-05 0 0.0441285275274792 0.00035297366782094896 0 0.043895590203305801 -0.0021999102968782392 0 0.04425254076962444 -0.00075883234951660877 0 0.044476037398374975 -0.0032063386779768782 0 0.045185190708398597 -0.0029626379365575986 0 0.044835561064486058 -0.0023348314573744212 0 0.045185190708398597 -0.0029626379365575986 0 0.044835561064486058 -0.0023348314573744212 0 0.045484625906349274 -0.0020274032974025588 0 0.045019937211430279 -0.0016890534796806841 0 0.044835561064486058 -0.0023348314573744212 0 0.045484625906349274 -0.0020274032974025588 0 0.044519579922139958 -0.0016618579710082719 0 0.045019937211430279 -0.0016890534796806841 0 0.044835561064486058 -0.0023348314573744212 0 0.04447981005218174 0.00057353573858692178 0 0.044447871038254649 7.2103360786149963e-05 0 0.044558789282664067 9.0488590929543784e-06 0 0.044447871038254649 7.2103360786149963e-05 0 0.044558789282664067 9.0488590929543784e-06 0 0.044553780199301639 9.9689819683773223e-05 0 0.044600914534775243 7.923338031319678e-05 0 0.044558789282664067 9.0488590929543784e-06 0 0.044553780199301639 9.9689819683773223e-05 0 0.044612896354379865 0.00011390361672696398 0 0.044553780199301639 9.9689819683773223e-05 0 0.044727815539582175 0.00018128144534947734 0 0.044447871038254649 7.2103360786149963e-05 0 0.04396059785062946 8.8652228642812695e-05 0 0.043480119437981683 -0.00023555616236453002 0 0.044447871038254649 7.2103360786149963e-05 0 0.044553780199301639 9.9689819683773223e-05 0 0.044727815539582175 0.00018128144534947734 0 0.04443576909691483 6.7458109199588598e-05 0 0.044089680091943501 -2.1867065926855791e-05 0 0.043771779461723989 0.00013703223356222193 0 0.04396059785062946 8.8652228642812695e-05 0 0.043480119437981683 -0.00023555616236453002 0 0.044447871038254649 7.2103360786149963e-05 0 0.04396059785062946 8.8652228642812695e-05 0 0.0441285275274792 0.00035297366782094896 0 0.043771779461723989 0.00013703223356222193 0 0.04396059785062946 8.8652228642812695e-05 0 0.0441285275274792 0.00035297366782094896 0 0.043936408083803787 0.00088002213914638457 0 0.0441285275274792 0.00035297366782094896 0 0.043716700238457473 0.0005008282428290888 0 0.043771779461723989 0.00013703223356222193 0 0.0441285275274792 0.00035297366782094896 0 0.043716700238457473 0.0005008282428290888 0 0.043258475174361467 0.00096339744012129266 0 0.043716700238457473 0.0005008282428290888 0 0.043259674191879996 0.00053782325030151995 0 0.043716700238457473 0.0005008282428290888 0 0.043259674191879996 0.00053782325030151995 0 0.04337011602419983 0.00022646820219382089 0 0.043771779461723989 0.00013703223356222193 0 0.043716700238457473 0.0005008282428290888 0 0.04337011602419983 0.00022646820219382089 0 0.043259674191879996 0.00053782325030151995 0 0.04337011602419983 0.00022646820219382089 0 0.043022409621232313 0.0003434241115280432 0 0.04337011602419983 0.00022646820219382089 0 0.043255652192447008 -2.7680315489481025e-05 0 0.042949819275182904 6.66682205919389e-05 0 0.04337011602419983 0.00022646820219382089 0 0.043465860332041313 2.5397148139002724e-05 0 0.043255652192447008 -2.7680315489481025e-05 0 0.043771779461723989 0.00013703223356222193 0 0.04337011602419983 0.00022646820219382089 0 0.043465860332041313 2.5397148139002724e-05 0 0.043771779461723989 0.00013703223356222193 0 0.043465860332041313 2.5397148139002724e-05 0 0.043480119437981683 -0.00023555616236453002 0 0.043465860332041313 2.5397148139002724e-05 0 0.043480119437981683 -0.00023555616236453002 0 0.043255652192447008 -2.7680315489481025e-05 0 0.043480119437981683 -0.00023555616236453002 0 0.043255652192447008 -2.7680315489481025e-05 0 0.043011273964145023 -0.00013353074337650605 0 0.043255652192447008 -2.7680315489481025e-05 0 0.043011273964145023 -0.00013353074337650605 0 0.042949819275182904 6.66682205919389e-05 0 0.04337011602419983 0.00022646820219382089 0 0.042949819275182904 6.66682205919389e-05 0 0.043022409621232313 0.0003434241115280432 0 0.042949819275182904 6.66682205919389e-05 0 0.043022409621232313 0.0003434241115280432 0 0.042706553528138638 0.00022492496939070298 0 0.042949819275182904 6.66682205919389e-05 0 0.042710990011011869 -8.41006186860446e-05 0 0.042706553528138638 0.00022492496939070298 0 0.042677331620899581 -0.00038936530004150479 0 0.043011273964145023 -0.00013353074337650605 0 0.042710990011011869 -8.41006186860446e-05 0 0.043011273964145023 -0.00013353074337650605 0 0.042949819275182904 6.66682205919389e-05 0 0.042710990011011869 -8.41006186860446e-05 0 0.042710990011011869 -8.41006186860446e-05 0 0.042534834041837041 -0.00019196769788523783 0 0.042458911819078543 8.7159075101950863e-06 0 0.042298184534040502 -0.00029413805452932392 0 0.042458911819078543 8.7159075101950863e-06 0 0.042108185106248433 0.00013818057233557781 0 0.042298184534040502 -0.00029413805452932392 0 0.042534834041837041 -0.00019196769788523783 0 0.042458911819078543 8.7159075101950863e-06 0 0.042458911819078543 8.7159075101950863e-06 0 0.042342042522714507 0.0003884116288827952 0 0.042108185106248433 0.00013818057233557781 0 0.042710990011011869 -8.41006186860446e-05 0 0.042458911819078543 8.7159075101950863e-06 0 0.042706553528138638 0.00022492496939070298 0 0.042458911819078543 8.7159075101950863e-06 0 0.042342042522714507 0.0003884116288827952 0 0.042706553528138638 0.00022492496939070298 0 0.042342042522714507 0.0003884116288827952 0 0.042772938027615365 0.00063683997877602393 0 0.042706553528138638 0.00022492496939070298 0 0.042342042522714507 0.0003884116288827952 0 0.042772938027615365 0.00063683997877602393 0 0.042148307637695837 0.00080913029630699416 0 0.043259674191879996 0.00053782325030151995 0 0.042772938027615365 0.00063683997877602393 0 0.043022409621232313 0.0003434241115280432 0 0.042772938027615365 0.00063683997877602393 0 0.043022409621232313 0.0003434241115280432 0 0.042706553528138638 0.00022492496939070298 0 0.04123510766985862 -0.00016093150209698279 0 0.041882898856752539 -0.00017187309346526988 0 0.041623973638891892 0.00025645240078909956 0 0.041882898856752539 -0.00017187309346526988 0 0.042108185106248433 0.00013818057233557781 0 0.041623973638891892 0.00025645240078909956 0 0.042298184534040502 -0.00029413805452932392 0 0.041882898856752539 -0.00017187309346526988 0 0.042108185106248433 0.00013818057233557781 0 0.042108185106248433 0.00013818057233557781 0 0.041894705165112331 0.00050758094855362095 0 0.041623973638891892 0.00025645240078909956 0 0.042342042522714507 0.0003884116288827952 0 0.041894705165112331 0.00050758094855362095 0 0.042148307637695837 0.00080913029630699416 0 0.042342042522714507 0.0003884116288827952 0 0.042108185106248433 0.00013818057233557781 0 0.041894705165112331 0.00050758094855362095 0 0.041894705165112331 0.00050758094855362095 0 0.041623973638891892 0.00025645240078909956 0 0.041487227040340739 0.00085744031042493815 0 0.041159564588992704 0.0004196106248093746 0 0.041623973638891892 0.00025645240078909956 0 0.041487227040340739 0.00085744031042493815 0 0.039260479097706455 0.00091546510051912608 0 0.039643481794368565 0.001247257358887787 0 0.042148307637695837 0.00080913029630699416 0 0.041799541494674415 0.0013054394108931548 0 0.042526966288518597 0.0011566848483413133 0 0.041487227040340739 0.00085744031042493815 0 0.042148307637695837 0.00080913029630699416 0 0.041799541494674415 0.0013054394108931548 0 0.041894705165112331 0.00050758094855362095 0 0.041487227040340739 0.00085744031042493815 0 0.042148307637695837 0.00080913029630699416 0 0.036686643090300487 0.0004688201846193387 0 0.036904370026098463 0.000168870899989781 0 0.03629239376864541 -2.4383295432920549e-05 0 0.041799541494674415 0.0013054394108931548 0 0.042526966288518597 0.0011566848483413133 0 0.042110852705613246 0.0017616291417025096 0 0.039643481794368565 0.001247257358887787 0 0.035973249692230896 -0.00018658288035308969 0 0.03708911136848965 0.00095456138056418676 0 0.036970836735044046 0.0004134196636050484 0 0.037182267268625127 0.00061233554477248221 0 0.03708911136848965 0.00095456138056418676 0 0.036686643090300487 0.0004688201846193387 0 0.036970836735044046 0.0004134196636050484 0 0.036686643090300487 0.0004688201846193387 0 0.036970836735044046 0.0004134196636050484 0 0.036904370026098463 0.000168870899989781 0 0.036970836735044046 0.0004134196636050484 0 0.037184163116401693 0.00022409369633776701 0 0.036904370026098463 0.000168870899989781 0 0.036970836735044046 0.0004134196636050484 0 0.037184163116401693 0.00022409369633776701 0 0.037182267268625127 0.00061233554477248221 0 0.043258475174361467 0.00096339744012129266 0 0.042772938027615365 0.00063683997877602393 0 0.042526966288518597 0.0011566848483413133 0 0.043258475174361467 0.00096339744012129266 0 0.043259674191879996 0.00053782325030151995 0 0.042772938027615365 0.00063683997877602393 0 0.042772938027615365 0.00063683997877602393 0 0.042148307637695837 0.00080913029630699416 0 0.042526966288518597 0.0011566848483413133 0 0.042526966288518597 0.0011566848483413133 0 0.042819311729309979 0.0016337745298315215 0 0.042110852705613246 0.0017616291417025096 0 0.043258475174361467 0.00096339744012129266 0 0.042526966288518597 0.0011566848483413133 0 0.042819311729309979 0.0016337745298315215 0 0.038208798625326647 -0.00013112760396518286 0 0.035973249692230896 -0.00018658288035308969 0 0.033083136731012992 -0.0018628716029743481 0 0.032709291832866159 -0.000912632307229187 0 0.032231810942361001 -0.0016286246658960371 0 0.031950305702090266 -0.00050802198471180851 0 0.031886632074108988 -0.0006192174977560763 0 0.031843363240537749 -0.00047420952117060598 0 0.031716792115348919 -0.0010674934459170963 0 0.035973249692230896 -0.00018658288035308969 0 0.033083136731012992 -0.0018628716029743481 0 0.032709291832866159 -0.000912632307229187 0 0.03357981159085454 -0.0010949600465449357 0 0.032709291832866159 -0.000912632307229187 0 0.033254753915416331 -0.00052504537539787167 0 0.03357981159085454 -0.0010949600465449357 0 0.037079344752806852 -0.0002125680434667606 0 0.036904370026098463 0.000168870899989781 0 0.03629239376864541 -2.4383295432920549e-05 0 0.036116829532270189 0.00031502892459619786 0 0.032426933515218623 -0.00070933900074773577 0 0.037216434021225799 0.00014849930645123715 0 0.037079344752806852 -0.0002125680434667606 0 0.036904370026098463 0.000168870899989781 0 0.037216434021225799 0.00014849930645123715 0 0.037184163116401693 0.00022409369633776701 0 0.036904370026098463 0.000168870899989781 0 0.036116829532270189 0.00031502892459619786 0 0.036240141704316199 0.00021359594393528951 0 0.032426933515218623 -0.00070933900074773577 0 0.035973249692230896 -0.00018658288035308969 0 0.031715478301259738 -0.00058646094612840546 0 0.031886632074108988 -0.0006192174977560763 0 0.031803413367669564 -0.00054750777667484252 0 0.031886632074108988 -0.0006192174977560763 0 0.031803413367669564 -0.00054750777667484252 0 0.031843363240537749 -0.00047420952117060598 0 0.031803413367669564 -0.00054750777667484252 0 0.031731619405483059 -0.00048031358981515419 0 0.031843363240537749 -0.00047420952117060598 0 0.027412753356467878 -0.00061406617942931334 0 0.028040511721204253 -0.0018714016301439589 0 0.028589319157813632 -0.00012265236636078937 0 0.031715478301259738 -0.00058646094612840546 0 0.031803413367669564 -0.00054750777667484252 0 0.031731619405483059 -0.00048031358981515419 0 0.032426933515218623 -0.00070933900074773577 0 0.030144568810680783 -0.00035539164259848287 0 0.030144568810680783 -0.00035539164259848287 0 0.027947775830775602 0.00042997959209323602 0 0.027501113606043397 0.00048416562582958612 0 0.027169094389227422 0.0017289453031123804 0 0.0291522768168265 0.0016272508734875208 0 0.027501113606043397 0.00048416562582958612 0 0.028589319157813632 -0.00012265236636078937 0 0.0291522768168265 0.0016272508734875208 0 0.027412753356467878 -0.00061406617942931334 0 0.027501113606043397 0.00048416562582958612 0 0.028589319157813632 -0.00012265236636078937 0 0.031843363240537749 -0.00047420952117060598 0 0.031742827658836889 -0.00037047666848985522 0 0.031895176064753006 -0.00037976759342671037 0 0.031731619405483059 -0.00048031358981515419 0 0.031843363240537749 -0.00047420952117060598 0 0.031742827658836889 -0.00037047666848985522 0 0.024518201833787744 0.0011064122115199949 0 0.027841558215709564 0.0011814789734074591 0 0.027947775830775602 0.00042997959209323602 0 0.030362345034773683 -0.00069204735816521829 0 0.026683432060356688 0.00027760917771313387 0 0.024583648636846981 0.0010643630021522693 0 0.028680521163848557 0.0013440924293992287 0 0.026683432060356688 0.00027760917771313387 0 0.025061932376353763 -0.0006648472305501844 0 0.028776349626135588 -0.00079267753218997784 0 0.026683432060356688 0.00027760917771313387 0 0.025412839985785141 0.00036030007813266492 0 0.024583648636846981 0.0010643630021522693 0 0.026683432060356688 0.00027760917771313387 0 0.025412839985785141 0.00036030007813266492 0 0.025061932376353763 -0.0006648472305501844 0 0.026848075880260329 -0.0001945933058503282 0 0.027947775830775602 0.00042997959209323602 0 0.025482979943620986 0.00088697817336365391 0 0.027947775830775602 0.00042997959209323602 0 0.023368094582001724 9.1003191782662609e-05 0 0.025079913387187947 -0.00025192130919612362 0 0.02392420159599621 0.00077054637618085078 0 0.025079913387187947 -0.00025192130919612362 0 0.024583648636846981 0.0010643630021522693 0 0.02392420159599621 0.00077054637618085078 0 0.025412839985785141 0.00036030007813266492 0 0.025079913387187947 -0.00025192130919612362 0 0.024583648636846981 0.0010643630021522693 0 0.032709291832866159 -0.000912632307229187 0 0.033130467710811733 -8.0030660717777546e-05 0 0.033254753915416331 -0.00052504537539787167 0 0.031950305702090266 -0.00050802198471180851 0 0.03204149922674758 -0.00038579967241990858 0 0.031895176064753006 -0.00037976759342671037 0 0.031716792115348919 -0.0010674934459170963 0 0.032613991778535474 -0.00015920518277535956 0 0.033130467710811733 -8.0030660717777546e-05 0 0.033254753915416331 -0.00052504537539787167 0 0.033204928719937167 -5.9212672732954055e-05 0 0.032613991778535474 -0.00015920518277535956 0 0.032820776185999941 -0.0001540943274791079 0 0.031950305702090266 -0.00050802198471180851 0 0.031843363240537749 -0.00047420952117060598 0 0.031895176064753006 -0.00037976759342671037 0 0.028776349626135588 -0.00079267753218997784 0 0.028680521163848557 0.0013440924293992287 0 0.030725248857649962 0.00034064446980473795 0 0.026683432060356688 0.00027760917771313387 0 0.028776349626135588 -0.00079267753218997784 0 0.028680521163848557 0.0013440924293992287 0 0.032613991778535474 -0.00015920518277535956 0 0.030362345034773683 -0.00069204735816521829 0 0.0325362753350599 -0.00080725565448707965 0 0.028776349626135588 -0.00079267753218997784 0 0.030725248857649962 0.00034064446980473795 0 0.027841558215709564 0.0011814789734074591 0 0.027505344174735772 0.0006679899016193481 0 0.028680521163848557 0.0013440924293992287 0 0.030725248857649962 0.00034064446980473795 0 0.033008304398539863 0.00098600212086597731 0 0.0325362753350599 -0.00080725565448707965 0 0.030725248857649962 0.00034064446980473795 0 0.032386565053648467 0.00023510818725245574 0 0.032613991778535474 -0.00015920518277535956 0 0.032897284172727692 9.0211863691848259e-05 0 0.0325362753350599 -0.00080725565448707965 0 0.032386565053648467 0.00023510818725245574 0 0.033153353648445461 0.00032971834164369961 0 0.030725248857649962 0.00034064446980473795 0 0.032386565053648467 0.00023510818725245574 0 0.033008304398539863 0.00098600212086597731 0 0.032386565053648467 0.00023510818725245574 0 0.033008304398539863 0.00098600212086597731 0 0.033153353648445461 0.00032971834164369961 0 0.027505344174735772 0.0006679899016193481 0 0.023598242128776363 -0.00039881154612259945 0 0.027505344174735772 0.0006679899016193481 0 0.031617151699168587 -0.00018529297687210807 0 0.027225190170526267 0.0015049058417681259 0 0.028152218354187838 0.0014733647447876582 0 0.028630404511038092 0.00021421234077433616 0 0.033008304398539863 0.00098600212086597731 0 0.033153353648445461 0.00032971834164369961 0 0.034132934777544803 -0.00027380470826106595 0 0.033153353648445461 0.00032971834164369961 0 0.034132934777544803 -0.00027380470826106595 0 0.033204928719937167 -5.9212672732954055e-05 0 0.032989705245707893 -5.1005504899900796e-05 0 0.033153353648445461 0.00032971834164369961 0 0.033204928719937167 -5.9212672732954055e-05 0 0.023899907095881957 0.00023953522335796556 0 0.024548705248861977 0.00021730350015438938 0 0.024637457304984272 -0.0003789100381864516 0 0.028152218354187838 0.0014733647447876582 0 0.028630404511038092 0.00021421234077433616 0 0.029897141347690833 -9.6624826196622857e-06 0 0.023598242128776363 -0.00039881154612259945 0 0.021328069886201225 -0.00068284243220352017 0 0.020739516162705918 -0.0011246040094511551 0 0.021113907583318665 -0.0011422385670903914 0 0.020926560064000892 -0.00094488890343988807 0 0.023598242128776363 -0.00039881154612259945 0 0.027674279424357337 0.00069080722140103432 0 0.028630404511038092 0.00021421234077433616 0 0.030042837408715464 -0.0010688546278059673 0 0.029897141347690833 -9.6624826196622857e-06 0 0.031617151699168587 -0.00018529297687210807 0 0.033629018796054094 0.00029008922985636728 0 0.034132934777544803 -0.00027380470826106595 0 0.034097881665829409 -0.00082775648192711195 0 0.034773652454251097 -0.00087806416919455888 0 0.034132934777544803 -0.00027380470826106595 0 0.033204928719937167 -5.9212672732954055e-05 0 0.033669655346585489 -0.00057382702286613017 0 0.033254753915416331 -0.00052504537539787167 0 0.033204928719937167 -5.9212672732954055e-05 0 0.033669655346585489 -0.00057382702286613017 0 0.034132934777544803 -0.00027380470826106595 0 0.033669655346585489 -0.00057382702286613017 0 0.034097881665829409 -0.00082775648192711195 0 0.033254753915416331 -0.00052504537539787167 0 0.033669655346585489 -0.00057382702286613017 0 0.03357981159085454 -0.0010949600465449357 0 0.03357981159085454 -0.0010949600465449357 0 0.034097881665829409 -0.00082775648192711195 0 0.034287989866117814 -0.0012968969439657624 0 0.033669655346585489 -0.00057382702286613017 0 0.03357981159085454 -0.0010949600465449357 0 0.034097881665829409 -0.00082775648192711195 0 0.034287989866117814 -0.0012968969439657624 0 0.034898658151486552 -0.0016046644525940102 0 0.034773652454251097 -0.00087806416919455888 0 0.034097881665829409 -0.00082775648192711195 0 0.034287989866117814 -0.0012968969439657624 0 0.034773652454251097 -0.00087806416919455888 0 0.034034165672865747 -0.0021152343718811545 0 0.034287989866117814 -0.0012968969439657624 0 0.034898658151486552 -0.0016046644525940102 0 0.034034165672865747 -0.0021152343718811545 0 0.03357981159085454 -0.0010949600465449357 0 0.034287989866117814 -0.0012968969439657624 0 0.034034165672865747 -0.0021152343718811545 0 0.033083136731012992 -0.0018628716029743481 0 0.03357981159085454 -0.0010949600465449357 0 0.040081156608950647 -0.0027846523037918249 0 0.037904381003439944 -0.00062143946874751812 0 0.038925611528261246 -0.0016792086346711815 0 0.03954079705833196 -0.0032892033199973178 0 0.036558267259558415 -0.00091824952439072561 0 0.040903719034611929 -0.0023738262158046947 0 0.03922415646779466 -0.0023952365004626434 0 0.038893259892550658 -0.00050673052899355756 0 0.03922415646779466 -0.0023952365004626434 0 0.038893259892550658 -0.00050673052899355756 0 0.038172172190010456 -0.0016701764857854396 0 0.038925611528261246 -0.0016792086346711815 0 0.036558267259558415 -0.00091824952439072561 0 0.037166215114665772 0.00071355649894762774 0 0.038893259892550658 -0.00050673052899355756 0 0.038172172190010456 -0.0016701764857854396 0 0.037148693939162314 -0.00080875589943578397 0 0.037424841351546709 -0.0029660131395492341 0 0.038172172190010456 -0.0016701764857854396 0 0.037148693939162314 -0.00080875589943578397 0 0.037904381003439944 -0.00062143946874751812 0 0.033629018796054094 0.00029008922985636728 0 0.036558267259558415 -0.00091824952439072561 0 0.033559535745834632 0.0017457587118789174 0 0.037166215114665772 0.00071355649894762774 0 0.038893259892550658 -0.00050673052899355756 0 0.037148693939162314 -0.00080875589943578397 0 0.036867455571989581 0.0013542317163224009 0 0.033559535745834632 0.0017457587118789174 0 0.037166215114665772 0.00071355649894762774 0 0.033253768010531308 0.0039877211372839399 0 0.036014103882365499 -0.001391968776186492 0 0.033629018796054094 0.00029008922985636728 0 0.029230987140989293 -0.0010155544836474828 0 0.027674279424357337 0.00069080722140103432 0 0.021784786671130766 -0.0027450847649231366 0 0.021995759142401261 -0.0020612326126637636 0 0.021459329297658529 -0.0017266836325983653 0 0.022454656411983694 -0.0022133560228864515 0 0.021784786671130766 -0.0027450847649231366 0 0.021995759142401261 -0.0020612326126637636 0 0.022286820953153402 -0.0015812952066985961 0 0.021995759142401261 -0.0020612326126637636 0 0.021459329297658529 -0.0017266836325983653 0 0.022286820953153402 -0.0015812952066985961 0 0.021459329297658529 -0.0017266836325983653 0 0.021842579103372475 -0.00042799237610937274 0 0.022454656411983694 -0.0022133560228864515 0 0.022286820953153402 -0.0015812952066985961 0 0.021995759142401261 -0.0020612326126637636 0 0.021784786671130766 -0.0027450847649231366 0 0.021459329297658529 -0.0017266836325983653 0 0.020466783016161599 -0.001445760512481643 0 0.021459329297658529 -0.0017266836325983653 0 0.020466783016161599 -0.001445760512481643 0 0.021842579103372475 -0.00042799237610937274 0 0.033629018796054094 0.00029008922985636728 0 0.027674279424357337 0.00069080722140103432 0 0.021328069886201225 -0.00068284243220352017 0 0.027674279424357337 0.00069080722140103432 0 0.021328069886201225 -0.00068284243220352017 0 0.02134045637737992 -0.00035017318138426097 0 0.020349891618556489 -0.00040605546283075067 0 0.020466783016161599 -0.001445760512481643 0 0.021842579103372475 -0.00042799237610937274 0 0.021842579103372475 -0.00042799237610937274 0 0.020914841383559125 0.00046462119501415025 0 0.021721160225290841 0.00099424408033621514 0 0.021842579103372475 -0.00042799237610937274 0 0.021721160225290841 0.00099424408033621514 0 0.022586379258336706 0.00069511553804779181 0 0.020295218256929464 -0.00035707306771866782 0 0.020914841383559125 0.00046462119501415025 0 0.020154367496217497 0.0010819451714217476 0 0.020295218256929464 -0.00035707306771866782 0 0.021842579103372475 -0.00042799237610937274 0 0.020914841383559125 0.00046462119501415025 0 0.021196400873387013 0.00089339613532351311 0 0.020822893535441967 6.5749381042013887e-07 0 0.020914841383559125 0.00046462119501415025 0 0.021039209982297396 0.0020974209086875284 0 0.020154367496217497 0.0010819451714217476 0 0.021721160225290841 0.00099424408033621514 0 0.021039209982297396 0.0020974209086875284 0 0.022146515674947881 0.0017558828663802109 0 0.020914841383559125 0.00046462119501415025 0 0.021721160225290841 0.00099424408033621514 0 0.021039209982297396 0.0020974209086875284 0 0.02182530849320953 0.0023423292883467802 0 0.021039209982297396 0.0020974209086875284 0 0.022146515674947881 0.0017558828663802109 0 0.021440600494823329 -0.00019352684740347572 0 0.021118262171437828 -2.9128463994436317e-05 0 0.021022859307424695 -0.00037043130532195246 0 0.021440600494823329 -0.00019352684740347572 0 0.021022859307424695 -0.00037043130532195246 0 0.021050939792879916 -0.00062824742567713738 0 0.021413272446142193 0.00019722840315387349 0 0.021118262171437828 -2.9128463994436317e-05 0 0.020983412103903764 0.00042939542948167549 0 0.021440600494823329 -0.00019352684740347572 0 0.021413272446142193 0.00019722840315387349 0 0.021118262171437828 -2.9128463994436317e-05 0 0.02182530849320953 0.0023423292883467802 0 0.021039209982297396 0.0020974209086875284 0 0.0217937637293645 0.0029152042007258342 0 0.021440600494823329 -0.00019352684740347572 0 0.021413272446142193 0.00019722840315387349 0 0.0218376601314886 0.00026471595855393691 0 0.021196400873387013 0.00089339613532351311 0 0.021780107031396573 0.0020946733884242858 0 0.020540715081220455 -1.57601544608449e-06 0 0.02079800713182239 8.9689317280730959e-05 0 0.02072042426822826 -0.00020327154779221411 0 0.020540715081220455 -1.57601544608449e-06 0 0.02034919473605051 5.9137510864164793e-05 0 0.020370423569534821 0.0002565589969793489 0 0.020540715081220455 -1.57601544608449e-06 0 0.020370423569534821 0.0002565589969793489 0 0.020604281542117842 0.00034097326443766534 0 0.020540715081220455 -1.57601544608449e-06 0 0.02079800713182239 8.9689317280730959e-05 0 0.020604281542117842 0.00034097326443766534 0 0.02079800713182239 8.9689317280730959e-05 0 0.020983412103903764 0.00042939542948167549 0 0.020604281542117842 0.00034097326443766534 0 0.021118262171437828 -2.9128463994436317e-05 0 0.02079800713182239 8.9689317280730959e-05 0 0.020983412103903764 0.00042939542948167549 0 0.021118262171437828 -2.9128463994436317e-05 0 0.02079800713182239 8.9689317280730959e-05 0 0.020915106634828193 -0.00017749241871119038 0 0.02079800713182239 8.9689317280730959e-05 0 0.020915106634828193 -0.00017749241871119038 0 0.02072042426822826 -0.00020327154779221411 0 0.021118262171437828 -2.9128463994436317e-05 0 0.020915106634828193 -0.00017749241871119038 0 0.021022859307424695 -0.00037043130532195246 0 0.020915106634828193 -0.00017749241871119038 0 0.02072042426822826 -0.00020327154779221411 0 0.020795640607503302 -0.00041604072316277994 0 0.020915106634828193 -0.00017749241871119038 0 0.021022859307424695 -0.00037043130532195246 0 0.020795640607503302 -0.00041604072316277994 0 0.02065946826074757 -0.00035266126585226744 0 0.02072042426822826 -0.00020327154779221411 0 0.020513889688901072 -0.00028365214685412908 0 0.02065946826074757 -0.00035266126585226744 0 0.02072042426822826 -0.00020327154779221411 0 0.020795640607503302 -0.00041604072316277994 0 0.020540715081220455 -1.57601544608449e-06 0 0.02072042426822826 -0.00020327154779221411 0 0.020513889688901072 -0.00028365214685412908 0 0.020540715081220455 -1.57601544608449e-06 0 0.020513889688901072 -0.00028365214685412908 0 0.020305299314825654 -0.00011852894646806985 0 0.02065946826074757 -0.00035266126585226744 0 0.020513889688901072 -0.00028365214685412908 0 0.02060675980132072 -0.00050581387910643601 0 0.020513889688901072 -0.00028365214685412908 0 0.02060675980132072 -0.00050581387910643601 0 0.020357816920154648 -0.00036425504049526167 0 0.02060675980132072 -0.00050581387910643601 0 0.020518892337783378 -0.00068549943797529677 0 0.020403728105153451 -0.00054046975697732806 0 0.02060675980132072 -0.00050581387910643601 0 0.020403728105153451 -0.00054046975697732806 0 0.020357816920154648 -0.00036425504049526167 0 0.02065946826074757 -0.00035266126585226744 0 0.02060675980132072 -0.00050581387910643601 0 0.020795640607503302 -0.00041604072316277994 0 0.02060675980132072 -0.00050581387910643601 0 0.020790221822264698 -0.00063284566632257919 0 0.020795640607503302 -0.00041604072316277994 0 0.020790221822264698 -0.00063284566632257919 0 0.020856394072959045 -0.00078278019674118135 0 0.020681999834568726 -0.00078682609058731512 0 0.02060675980132072 -0.00050581387910643601 0 0.020648986449740104 -0.00065346750520450054 0 0.020790221822264698 -0.00063284566632257919 0 0.020648986449740104 -0.00065346750520450054 0 0.020790221822264698 -0.00063284566632257919 0 0.020681999834568726 -0.00078682609058731512 0 0.020648986449740104 -0.00065346750520450054 0 0.020518892337783378 -0.00068549943797529677 0 0.020681999834568726 -0.00078682609058731512 0 0.02060675980132072 -0.00050581387910643601 0 0.020648986449740104 -0.00065346750520450054 0 0.020518892337783378 -0.00068549943797529677 0 0.020995467924963318 -0.00054017252612948373 0 0.020822893535441967 6.5749381042013887e-07 0 0.021022859307424695 -0.00037043130532195246 0 0.020919563539269347 -0.00056376083676532929 0 0.021054174089443035 -0.00062021586973306012 0 0.020790221822264698 -0.00063284566632257919 0 0.020795640607503302 -0.00041604072316277994 0 0.020919563539269347 -0.00056376083676532929 0 0.021022859307424695 -0.00037043130532195246 0 0.020795640607503302 -0.00041604072316277994 0 0.020919563539269347 -0.00056376083676532929 0 0.020790221822264698 -0.00063284566632257919 0 0.020919563539269347 -0.00056376083676532929 0 0.020890273028401851 -0.00066712373944684375 0 0.020790221822264698 -0.00063284566632257919 0 0.020890273028401851 -0.00066712373944684375 0 0.020856394072959045 -0.00078278019674118135 0 0.020890273028401851 -0.00066712373944684375 0 0.020995379843553336 -0.00068741647214730871 0 0.020856394072959045 -0.00078278019674118135 0 0.020919563539269347 -0.00056376083676532929 0 0.020890273028401851 -0.00066712373944684375 0 0.020995379843553336 -0.00068741647214730871 0 0.020919563539269347 -0.00056376083676532929 0 0.020995379843553336 -0.00068741647214730871 0 0.021054174089443035 -0.00062021586973306012 0 0.020774180059211327 -0.00019068023708379483 0 0.020822893535441967 6.5749381042013887e-07 0 0.021328069886201225 -0.00068284243220352017 0 0.020822893535441967 6.5749381042013887e-07 0 0.021113907583318665 -0.0011422385670903914 0 0.020995379843553336 -0.00068741647214730871 0 0.020926560064000892 -0.00094488890343988807 0 0.021113907583318665 -0.0011422385670903914 0 0.020995379843553336 -0.00068741647214730871 0 0.021049458680573591 -0.00062402357316759989 0 0.020995379843553336 -0.00068741647214730871 0 0.020856394072959045 -0.00078278019674118135 0 0.020926560064000892 -0.00094488890343988807 0 0.020856394072959045 -0.00078278019674118135 0 0.020926560064000892 -0.00094488890343988807 0 0.020750166095056036 -0.00093707186569419161 0 0.020739516162705918 -0.0011246040094511551 0 0.020750166095056036 -0.00093707186569419161 0 0.020413714874565381 -0.00086861597067157241 0 0.020639353159596526 -0.0013360607287147383 0 0.021077942364287106 -0.0013418972591628527 0 0.020413714874565381 -0.00086861597067157241 0 0.020681999834568726 -0.00078682609058731512 0 0.020750166095056036 -0.00093707186569419161 0 0.020413714874565381 -0.00086861597067157241 0 0.023598242128776363 -0.00039881154612259945 0 0.019794735847700366 -0.00077180872844881659 0 0.020518892337783378 -0.00068549943797529677 0 0.020681999834568726 -0.00078682609058731512 0 0.020413714874565381 -0.00086861597067157241 0 0.020856394072959045 -0.00078278019674118135 0 0.020681999834568726 -0.00078682609058731512 0 0.020750166095056036 -0.00093707186569419161 0 0.020739516162705918 -0.0011246040094511551 0 0.020926560064000892 -0.00094488890343988807 0 0.020750166095056036 -0.00093707186569419161 0 0.025864131446919677 0.0010392149502266184 0 0.027207219831816766 0.00098037541835991585 0 0.026334755120950563 0.0018054798209712166 0 0.020639353159596526 -0.0013360607287147383 0 0.020413714874565381 -0.00086861597067157241 0 0.020072579628216281 -0.00082510749767481537 0 0.027505344174735772 0.0006679899016193481 0 0.022711121322367262 0.00058829157878929135 0 0.020413714874565381 -0.00086861597067157241 0 0.020072579628216281 -0.00082510749767481537 0 0.020267276444380901 -0.00065383312569935353 0 0.025864131446919677 0.0010392149502266184 0 0.025727825113867911 0.0017769042863233599 0 0.026334755120950563 0.0018054798209712166 0 0.025864131446919677 0.0010392149502266184 0 0.025727825113867911 0.0017769042863233599 0 0.025157434807793585 0.0018738927527564044 0 0.025727825113867911 0.0017769042863233599 0 0.026334755120950563 0.0018054798209712166 0 0.025460388034360477 0.0026849593274116497 0 0.022711121322367262 0.00058829157878929135 0 0.022770749171875056 0.0011621621623053632 0 0.020072579628216281 -0.00082510749767481537 0 0.020001346947654562 -0.00057078007929238994 0 0.019681391847291899 -0.00047800717984373882 0 0.020001346947654562 -0.00057078007929238994 0 0.019681391847291899 -0.00047800717984373882 0 0.019870719903546871 -0.00037983102871557708 0 0.020001346947654562 -0.00057078007929238994 0 0.020168639292158921 -0.00047086065656127684 0 0.019870719903546871 -0.00037983102871557708 0 0.020001346947654562 -0.00057078007929238994 0 0.020168639292158921 -0.00047086065656127684 0 0.020267276444380901 -0.00065383312569935353 0 0.020168639292158921 -0.00047086065656127684 0 0.020403728105153451 -0.00054046975697732806 0 0.020267276444380901 -0.00065383312569935353 0 0.020168639292158921 -0.00047086065656127684 0 0.020403728105153451 -0.00054046975697732806 0 0.020357816920154648 -0.00036425504049526167 0 0.020518892337783378 -0.00068549943797529677 0 0.020403728105153451 -0.00054046975697732806 0 0.020267276444380901 -0.00065383312569935353 0 0.020518892337783378 -0.00068549943797529677 0 0.020413714874565381 -0.00086861597067157241 0 0.020267276444380901 -0.00065383312569935353 0 0.020072579628216281 -0.00082510749767481537 0 0.020001346947654562 -0.00057078007929238994 0 0.020267276444380901 -0.00065383312569935353 0 0.023958385263067632 0.0014257491352269609 0 0.024387274432801212 0.0019675694070903802 0 0.023532802926046703 0.0023822574381881308 0 0.024583648636846981 0.0010643630021522693 0 0.02392420159599621 0.00077054637618085078 0 0.023958385263067632 0.0014257491352269609 0 0.024583648636846981 0.0010643630021522693 0 0.023958385263067632 0.0014257491352269609 0 0.024836435004998453 0.0014639653778526324 0 0.023958385263067632 0.0014257491352269609 0 0.024387274432801212 0.0019675694070903802 0 0.024836435004998453 0.0014639653778526324 0 0.025864131446919677 0.0010392149502266184 0 0.024836435004998453 0.0014639653778526324 0 0.025157434807793585 0.0018738927527564044 0 0.024583648636846981 0.0010643630021522693 0 0.025864131446919677 0.0010392149502266184 0 0.024836435004998453 0.0014639653778526324 0 0.024387274432801212 0.0019675694070903802 0 0.024836435004998453 0.0014639653778526324 0 0.025157434807793585 0.0018738927527564044 0 0.025727825113867911 0.0017769042863233599 0 0.025157434807793585 0.0018738927527564044 0 0.025460388034360477 0.0026849593274116497 0 0.025157434807793585 0.0018738927527564044 0 0.025460388034360477 0.0026849593274116497 0 0.024477661053162857 0.0026741431947808884 0 0.024387274432801212 0.0019675694070903802 0 0.025157434807793585 0.0018738927527564044 0 0.024477661053162857 0.0026741431947808884 0 0.024477661053162857 0.0026741431947808884 0 0.023746091512722025 0.0032304022202320998 0 0.023532802926046703 0.0023822574381881308 0 0.024387274432801212 0.0019675694070903802 0 0.024477661053162857 0.0026741431947808884 0 0.023532802926046703 0.0023822574381881308 0 0.023746091512722025 0.0032304022202320998 0 0.024456118753826809 0.0036409847289478933 0 0.023153718347062039 0.0042246986281754143 0 0.024477661053162857 0.0026741431947808884 0 0.023746091512722025 0.0032304022202320998 0 0.024456118753826809 0.0036409847289478933 0 0.025460388034360477 0.0026849593274116497 0 0.024477661053162857 0.0026741431947808884 0 0.024456118753826809 0.0036409847289478933 0 0.022770749171875056 0.0011621621623053632 0 0.020482211463599569 0.00042144946705701227 0 0.019681391847291899 -0.00047800717984373882 0 0.019330957590226877 -0.00015790488901163799 0 0.01957384880224948 -0.00027777421700783716 0 0.020482211463599569 0.00042144946705701227 0 0.019412161071045798 -4.3485687610029619e-06 0 0.019236636313859194 -0.0001719035977124328 0 0.01957384880224948 -0.00027777421700783716 0 0.019387281608428824 2.3986512253537999e-05 0 0.019681391847291899 -0.00047800717984373882 0 0.01957384880224948 -0.00027777421700783716 0 0.019870719903546871 -0.00037983102871557708 0 0.01957384880224948 -0.00027777421700783716 0 0.019614466001364822 2.1389036413735598e-05 0 0.019387281608428824 2.3986512253537999e-05 0 0.01957384880224948 -0.00027777421700783716 0 0.019614466001364822 2.1389036413735598e-05 0 0.019769374098617631 -0.000152101743844025 0 0.019614466001364822 2.1389036413735598e-05 0 0.019696645255100034 0.00031178824186646242 0 0.019413699876668872 0.00032847741928971724 0 0.019387281608428824 2.3986512253537999e-05 0 0.019157592697818426 0.00022300956185397112 0 0.019413699876668872 0.00032847741928971724 0 0.019614466001364822 2.1389036413735598e-05 0 0.019387281608428824 2.3986512253537999e-05 0 0.019413699876668872 0.00032847741928971724 0 0.019236636313859194 -0.0001719035977124328 0 0.019157592697818426 0.00022300956185397112 0 0.018655409688596469 0.00029241315915857938 0 0.019236636313859194 -0.0001719035977124328 0 0.019387281608428824 2.3986512253537999e-05 0 0.019157592697818426 0.00022300956185397112 0 0.020482211463599569 0.00042144946705701227 0 0.015903305743538848 -0.0013542678492684229 0 0.020482211463599569 0.00042144946705701227 0 0.020675502317435361 0.0017365788270518783 0 0.020305299314825654 -0.00011852894646806985 0 0.020135021726462535 -0.00027143031412243978 0 0.020011359806118824 -4.1926222804856025e-05 0 0.020513889688901072 -0.00028365214685412908 0 0.020305299314825654 -0.00011852894646806985 0 0.020357816920154648 -0.00036425504049526167 0 0.020305299314825654 -0.00011852894646806985 0 0.020357816920154648 -0.00036425504049526167 0 0.020135021726462535 -0.00027143031412243978 0 0.020168639292158921 -0.00047086065656127684 0 0.020357816920154648 -0.00036425504049526167 0 0.020135021726462535 -0.00027143031412243978 0 0.020168639292158921 -0.00047086065656127684 0 0.020135021726462535 -0.00027143031412243978 0 0.019870719903546871 -0.00037983102871557708 0 0.020135021726462535 -0.00027143031412243978 0 0.019870719903546871 -0.00037983102871557708 0 0.019942011264570601 -0.00021741020658563526 0 0.019870719903546871 -0.00037983102871557708 0 0.019769374098617631 -0.000152101743844025 0 0.019942011264570601 -0.00021741020658563526 0 0.01957384880224948 -0.00027777421700783716 0 0.019870719903546871 -0.00037983102871557708 0 0.019769374098617631 -0.000152101743844025 0 0.019769374098617631 -0.000152101743844025 0 0.019942011264570601 -0.00021741020658563526 0 0.020011359806118824 -4.1926222804856025e-05 0 0.020135021726462535 -0.00027143031412243978 0 0.019942011264570601 -0.00021741020658563526 0 0.020011359806118824 -4.1926222804856025e-05 0 0.020011359806118824 -4.1926222804856025e-05 0 0.019878234213058024 0.00014481107955348813 0 0.020173209965417362 0.00011143207847921342 0 0.019769374098617631 -0.000152101743844025 0 0.020011359806118824 -4.1926222804856025e-05 0 0.019878234213058024 0.00014481107955348813 0 0.019614466001364822 2.1389036413735598e-05 0 0.019769374098617631 -0.000152101743844025 0 0.019878234213058024 0.00014481107955348813 0 0.019614466001364822 2.1389036413735598e-05 0 0.019878234213058024 0.00014481107955348813 0 0.019696645255100034 0.00031178824186646242 0 0.019878234213058024 0.00014481107955348813 0 0.020173209965417362 0.00011143207847921342 0 0.020147997188681536 0.00035774680136115244 0 0.020305299314825654 -0.00011852894646806985 0 0.020011359806118824 -4.1926222804856025e-05 0 0.020173209965417362 0.00011143207847921342 0 0.020305299314825654 -0.00011852894646806985 0 0.020173209965417362 0.00011143207847921342 0 0.02034919473605051 5.9137510864164793e-05 0 0.020540715081220455 -1.57601544608449e-06 0 0.020305299314825654 -0.00011852894646806985 0 0.02034919473605051 5.9137510864164793e-05 0 0.020173209965417362 0.00011143207847921342 0 0.02034919473605051 5.9137510864164793e-05 0 0.020370423569534821 0.0002565589969793489 0 0.020173209965417362 0.00011143207847921342 0 0.020370423569534821 0.0002565589969793489 0 0.020147997188681536 0.00035774680136115244 0 0.020370423569534821 0.0002565589969793489 0 0.020363373836632725 0.00044731088176630052 0 0.020147997188681536 0.00035774680136115244 0 0.020363373836632725 0.00044731088176630052 0 0.020159354866589343 0.00061870526789339724 0 0.020147997188681536 0.00035774680136115244 0 0.020159354866589343 0.00061870526789339724 0 0.020147997188681536 0.00035774680136115244 0 0.01990641238340024 0.00042828070003770181 0 0.019698470156211623 0.00054687173275258288 0 0.019350616866909542 0.00066047780749126886 0 0.019878234213058024 0.00014481107955348813 0 0.020147997188681536 0.00035774680136115244 0 0.01990641238340024 0.00042828070003770181 0 0.020159354866589343 0.00061870526789339724 0 0.01990641238340024 0.00042828070003770181 0 0.019661898362234014 0.00064308113004158459 0 0.019878234213058024 0.00014481107955348813 0 0.01990641238340024 0.00042828070003770181 0 0.019696645255100034 0.00031178824186646242 0 0.01990641238340024 0.00042828070003770181 0 0.019696645255100034 0.00031178824186646242 0 0.019661898362234014 0.00064308113004158459 0 0.019423330779372583 0.00047916624035533367 0 0.018716378310108556 0.00083520493262024642 0 0.018166267240801 0.00039202845456572251 0 0.018716378310108556 0.00083520493262024642 0 0.017720248432783504 0.0010941078994942317 0 0.018600552431468458 0.0017865010849987106 0 0.018637196916261985 0.0012577701978610317 0 0.018020869456038958 0.00063310771253397003 0 0.018716378310108556 0.00083520493262024642 0 0.018166267240801 0.00039202845456572251 0 0.017720248432783504 0.0010941078994942317 0 0.018716378310108556 0.00083520493262024642 0 0.019101961573467514 0.0013150356453289103 0 0.018665462369110396 0.0016858672749299286 0 0.018716378310108556 0.00083520493262024642 0 0.019101961573467514 0.0013150356453289103 0 0.019387865721662543 0.0010248722426420952 0 0.019101961573467514 0.0013150356453289103 0 0.019387865721662543 0.0010248722426420952 0 0.019649920331303684 0.0015030835227441924 0 0.019387865721662543 0.0010248722426420952 0 0.019649920331303684 0.0015030835227441924 0 0.020009904603005012 0.00095958629329948389 0 0.019423330779372583 0.00047916624035533367 0 0.019387865721662543 0.0010248722426420952 0 0.020009904603005012 0.00095958629329948389 0 0.019423330779372583 0.00047916624035533367 0 0.018716378310108556 0.00083520493262024642 0 0.019387865721662543 0.0010248722426420952 0 0.019157592697818426 0.00022300956185397112 0 0.019103442204558528 0.00064559093062166483 0 0.018655409688596469 0.00029241315915857938 0 0.019157592697818426 0.00022300956185397112 0 0.019103442204558528 0.00064559093062166483 0 0.019413699876668872 0.00032847741928971724 0 0.015733511005406368 -0.0016835685516829704 0 0.015903305743538848 -0.0013542678492684229 0 0.015733511005406368 -0.0016835685516829704 0 0.019350616866909542 0.00066047780749126886 0 0.019103442204558528 0.00064559093062166483 0 0.019413699876668872 0.00032847741928971724 0 0.019661898362234014 0.00064308113004158459 0 0.019696645255100034 0.00031178824186646242 0 0.019413699876668872 0.00032847741928971724 0 0.019661898362234014 0.00064308113004158459 0 0.016785832144868864 0.00034355725902875193 0 0.018166267240801 0.00039202845456572251 0 0.017720248432783504 0.0010941078994942317 0 0.015733511005406368 -0.0016835685516829704 0 0.016147957635845315 -0.00095386414193861647 0 0.013435276418496324 -0.0038828519566887145 0 0.014929846249193895 -0.0027361005413561817 0 0.013716503864756433 -0.0021155802067606721 0 0.013435276418496324 -0.0038828519566887145 0 0.013716503864756433 -0.0021155802067606721 0 0.012428540608571518 -0.0025855461181728484 0 0.013233053425677023 -0.00071999051774366283 0 0.013716503864756433 -0.0021155802067606721 0 0.0148576992311678 -0.00098924398042634569 0 0.013233053425677023 -0.00071999051774366283 0 0.013716503864756433 -0.0021155802067606721 0 0.012428540608571518 -0.0025855461181728484 0 0.014929846249193895 -0.0027361005413561817 0 0.0148576992311678 -0.00098924398042634569 0 0.016416293998093651 -0.0015469612624382826 0 0.014929846249193895 -0.0027361005413561817 0 0.013716503864756433 -0.0021155802067606721 0 0.0148576992311678 -0.00098924398042634569 0 0.016147957635845315 -0.00095386414193861647 0 0.018020869456038958 0.00063310771253397003 0 0.0148576992311678 -0.00098924398042634569 0 0.014666013851175191 0.00083816719680863082 0 0.016214311896509011 0.00029514536665446977 0 0.013233053425677023 -0.00071999051774366283 0 0.0148576992311678 -0.00098924398042634569 0 0.014666013851175191 0.00083816719680863082 0 0.013225535530360035 -0.00057124354464008751 0 0.013143720477984457 0.0014952484727747549 0 0.013233053425677023 -0.00071999051774366283 0 0.011593018746278334 -0.00039729445053035296 0 0.013129158814389575 0.0014652729956501139 0 0.013233053425677023 -0.00071999051774366283 0 0.014666013851175191 0.00083816719680863082 0 0.01311320394376215 0.0013355707050869995 0 0.019181750661118237 0.0020578520157865567 0 0.019590917610730306 0.0019572969970528403 0 0.01923940991837603 0.0017089614652387353 0 0.019181750661118237 0.0020578520157865567 0 0.019590917610730306 0.0019572969970528403 0 0.019451850536142509 0.0023373166072347068 0 0.019590917610730306 0.0019572969970528403 0 0.019770766141089167 0.0022749417368948463 0 0.019880505577435096 0.0017718909948837012 0 0.019896322708206966 0.0021679640009250271 0 0.020348046022842368 0.002461093677386695 0 0.019590917610730306 0.0019572969970528403 0 0.019649920331303684 0.0015030835227441924 0 0.020045567223112619 0.0016703753831896488 0 0.019649920331303684 0.0015030835227441924 0 0.020074269684869878 0.0016391857893160943 0 0.020009904603005012 0.00095958629329948389 0 0.019669021187839902 0.0018539820280560799 0 0.020348046022842368 0.002461093677386695 0 0.019590917610730306 0.0019572969970528403 0 0.019649920331303684 0.0015030835227441924 0 0.01923940991837603 0.0017089614652387353 0 0.019101961573467514 0.0013150356453289103 0 0.019649920331303684 0.0015030835227441924 0 0.01923940991837603 0.0017089614652387353 0 0.019181750661118237 0.0020578520157865567 0 0.018746048373539118 0.0017028284825435979 0 0.018665671627767694 0.0024739603610333788 0 0.019101961573467514 0.0013150356453289103 0 0.01923940991837603 0.0017089614652387353 0 0.018665462369110396 0.0016858672749299286 0 0.018020869456038958 0.00063310771253397003 0 0.017452227045937688 0.0013269429767633219 0 0.0148576992311678 -0.00098924398042634569 0 0.016416293998093651 -0.0015469612624382826 0 0.016214311896509011 0.00029514536665446977 0 0.019181750661118237 0.0020578520157865567 0 0.01923940991837603 0.0017089614652387353 0 0.018665462369110396 0.0016858672749299286 0 0.019346527264941595 0.0020858090580103111 0 0.018020869456038958 0.00063310771253397003 0 0.019181750661118237 0.0020578520157865567 0 0.018665671627767694 0.0024739603610333788 0 0.019099570343387544 0.002457561527726743 0 0.018665671627767694 0.0024739603610333788 0 0.019099570343387544 0.002457561527726743 0 0.019205288050088212 0.0029835098982988746 0 0.019099570343387544 0.002457561527726743 0 0.019339925845249427 0.0026627382701987557 0 0.019451850536142509 0.0023373166072347068 0 0.019099570343387544 0.002457561527726743 0 0.019339925845249427 0.0026627382701987557 0 0.019205288050088212 0.0029835098982988746 0 0.019181750661118237 0.0020578520157865567 0 0.019099570343387544 0.002457561527726743 0 0.019451850536142509 0.0023373166072347068 0 0.019590917610730306 0.0019572969970528403 0 0.019451850536142509 0.0023373166072347068 0 0.019770766141089167 0.0022749417368948463 0 0.019451850536142509 0.0023373166072347068 0 0.019770766141089167 0.0022749417368948463 0 0.019602821218252922 0.0025368455016723051 0 0.019770766141089167 0.0022749417368948463 0 0.019602821218252922 0.0025368455016723051 0 0.019804514315883502 0.002567489555351707 0 0.019339925845249427 0.0026627382701987557 0 0.019451850536142509 0.0023373166072347068 0 0.019602821218252922 0.0025368455016723051 0 0.019339925845249427 0.0026627382701987557 0 0.019602821218252922 0.0025368455016723051 0 0.019824398150686578 0.0027207597583745568 0 0.019602821218252922 0.0025368455016723051 0 0.019824398150686578 0.0027207597583745568 0 0.019804514315883502 0.002567489555351707 0 0.018165776153552644 0.0025226681979617482 0 0.018964820948953572 0.0024994151232451797 0 0.019902098640791094 0.0024919200372487014 0 0.020131044032772254 0.0020377277860996082 0 0.020824843986387606 0.0021751568548795132 0 0.0177410219958395 0.0027901686578795525 0 0.017798983362991939 0.0026674542610623632 0 0.018312697906602397 0.0025331020579050898 0 0.017594943299095358 0.002821509258962135 0 0.018312697906602397 0.0025331020579050898 0 0.018103670958760899 0.0030891754973783581 0 0.018165776153552644 0.0025226681979617482 0 0.018062609169343789 0.0026520187603031172 0 0.019824398150686578 0.0027207597583745568 0 0.019804514315883502 0.002567489555351707 0 0.01991643558526849 0.0025266032773407694 0 0.019770766141089167 0.0022749417368948463 0 0.019804514315883502 0.002567489555351707 0 0.019913233046800361 0.0025210278771515401 0 0.019182529783788923 0.0024511600141023581 0 0.018964820948953572 0.0024994151232451797 0 0.018964820948953572 0.0024994151232451797 0 0.020031090723152855 0.0019645375321225675 0 0.019770766141089167 0.0022749417368948463 0 0.019913233046800361 0.0025210278771515401 0 0.020131044032772254 0.0020377277860996082 0 0.020131044032772254 0.0020377277860996082 0 0.019880505577435096 0.0017718909948837012 0 0.020824843986387606 0.0021751568548795132 0 0.019770766141089167 0.0022749417368948463 0 0.020131044032772254 0.0020377277860996082 0 0.019880505577435096 0.0017718909948837012 0 0.020853530055954188 0.0036820029061077624 0 0.021208173117159345 0.0038346931925656931 0 0.021121319732941197 0.0035180278721124352 0 0.021208173117159345 0.0038346931925656931 0 0.02135174075822149 0.003596316147231549 0 0.021121319732941197 0.0035180278721124352 0 0.020348046022842368 0.002461093677386695 0 0.020319264372722336 0.0030431971860179299 0 0.018476635251690958 0.0023984703169014172 0 0.018312697906602397 0.0025331020579050898 0 0.018443958966090381 0.0028347112505665742 0 0.018964820948953572 0.0024994151232451797 0 0.020319264372722336 0.0030431971860179299 0 0.018312697906602397 0.0025331020579050898 0 0.018443958966090381 0.0028347112505665742 0 0.018103670958760899 0.0030891754973783581 0 0.017798983362991939 0.0026674542610623632 0 0.018476635251690958 0.0023984703169014172 0 0.018312697906602397 0.0025331020579050898 0 0.018476635251690958 0.0023984703169014172 0 0.018443958966090381 0.0028347112505665742 0 0.018723282816026175 0.002802173677714613 0 0.020319264372722336 0.0030431971860179299 0 0.020057029416894443 0.0031594867359033009 0 0.018476635251690958 0.0023984703169014172 0 0.018723282816026175 0.002802173677714613 0 0.019283434983336328 0.0026698487237929438 0 0.02112609671562822 0.0037067225967144972 0 0.02107506105029644 0.0036425320278497004 0 0.021047530553683375 0.0037468196844675822 0 0.02107506105029644 0.0036425320278497004 0 0.020974716159173411 0.0037322763262368618 0 0.021047530553683375 0.0037468196844675822 0 0.02107506105029644 0.0036425320278497004 0 0.020974716159173411 0.0037322763262368618 0 0.020861412275992187 0.003673371717413 0 0.020974716159173411 0.0037322763262368618 0 0.021047530553683375 0.0037468196844675822 0 0.02093640076985907 0.0036813054221011814 0 0.021463662320646712 0.0037528109474327599 0 0.02157296352301424 0.0035173845726587808 0 0.021714538482477067 0.003665347651032391 0 0.021371612466007675 0.0037513534647480753 0 0.02132988118278855 0.0036916311977904866 0 0.021208173117159345 0.0038346931925656931 0 0.021463662320646712 0.0037528109474327599 0 0.02135174075822149 0.003596316147231549 0 0.020319264372722336 0.0030431971860179299 0 0.021371612466007675 0.0037513534647480753 0 0.02135174075822149 0.003596316147231549 0 0.021381673386331408 0.0033666106678522153 0 0.021121319732941197 0.0035180278721124352 0 0.02135174075822149 0.003596316147231549 0 0.02157296352301424 0.0035173845726587808 0 0.021381673386331408 0.0033666106678522153 0 0.021395126156403405 0.0019282163113770339 0 0.021022596795049649 0.0022750633471200804 0 0.021463662320646712 0.0037528109474327599 0 0.02135174075822149 0.003596316147231549 0 0.02157296352301424 0.0035173845726587808 0 0.021413272446142193 0.00019722840315387349 0 0.0218376601314886 0.00026471595855393691 0 0.021386206623272515 0.00057514082566148441 0 0.021626645817075175 0.003213648011813456 0 0.02157296352301424 0.0035173845726587808 0 0.021381673386331408 0.0033666106678522153 0 0.021780107031396573 0.0020946733884242858 0 0.021395126156403405 0.0019282163113770339 0 0.021413272446142193 0.00019722840315387349 0 0.021386206623272515 0.00057514082566148441 0 0.020983412103903764 0.00042939542948167549 0 0.020983412103903764 0.00042939542948167549 0 0.02054065015968749 0.00063036191372150446 0 0.020937288351494578 0.00096403154124071638 0 0.021386206623272515 0.00057514082566148441 0 0.020983412103903764 0.00042939542948167549 0 0.020937288351494578 0.00096403154124071638 0 0.020983412103903764 0.00042939542948167549 0 0.020604281542117842 0.00034097326443766534 0 0.02054065015968749 0.00063036191372150446 0 0.019698470156211623 0.00054687173275258288 0 0.02050863087255389 0.00061129690296459393 0 0.020363373836632725 0.00044731088176630052 0 0.020159354866589343 0.00061870526789339724 0 0.02054065015968749 0.00063036191372150446 0 0.020363373836632725 0.00044731088176630052 0 0.020604281542117842 0.00034097326443766534 0 0.02054065015968749 0.00063036191372150446 0 0.020370423569534821 0.0002565589969793489 0 0.020363373836632725 0.00044731088176630052 0 0.020604281542117842 0.00034097326443766534 0 0.019423330779372583 0.00047916624035533367 0 0.02054065015968749 0.00063036191372150446 0 0.020009904603005012 0.00095958629329948389 0 0.020348046022842368 0.002461093677386695 0 0.021022596795049649 0.0022750633471200804 0 0.020074269684869878 0.0016391857893160943 0 0.020009904603005012 0.00095958629329948389 0 0.020937288351494578 0.00096403154124071638 0 0.02054065015968749 0.00063036191372150446 0 0.020009904603005012 0.00095958629329948389 0 0.020937288351494578 0.00096403154124071638 0 0.01756213716660799 -0.00022289186895193441 0 0.01646077822481674 -0.00035425687294589342 0 0.016680598624968922 -4.7297016284556979e-07 0 0.01756213716660799 -0.00022289186895193441 0 0.019129750028020566 -1.4354476975890047e-06 0 0.016680598624968922 -4.7297016284556979e-07 0 0.01756213716660799 -0.00022289186895193441 0 0.016909255505568307 -0.000223255542814988 0 0.01646077822481674 -0.00035425687294589342 0 0.018459930179874514 0.00018269111502020472 0 0.017163061533751266 -0.00028688719395846197 0 0.01756213716660799 -0.00022289186895193441 0 0.01849619868343181 -3.8746092897588871e-05 0 0.016909255505568307 -0.000223255542814988 0 0.01756213716660799 -0.00022289186895193441 0 0.019129750028020566 -1.4354476975890047e-06 0 0.01849619868343181 -3.8746092897588871e-05 0 0.019129750028020566 -1.4354476975890047e-06 0 0.021571205049062323 3.4603883151523622e-06 0 0.01849619868343181 -3.8746092897588871e-05 0 0.019757282293953845 0.001239744505407678 0 0.021571205049062323 3.4603883151523622e-06 0 0.01849619868343181 -3.8746092897588871e-05 0 0.01874455931037871 0.002113373094216458 0 0.019757282293953845 0.001239744505407678 0 0.021571205049062323 3.4603883151523622e-06 0 0.020363519799459457 0.0009014674580655566 0 0.02157810559494423 -3.3538602187477646e-07 0 0.019597578840169029 0.0012284385507289714 0 0.018459930179874514 0.00018269111502020472 0 0.019757282293953845 0.001239744505407678 0 0.018372145894539477 0.0012789632946707207 0 0.018422039425214656 0.00036591612917198115 0 0.018422039425214656 0.00036591612917198115 0 0.017633752872706791 0.00092918251228743965 0 0.01714712101629693 0.0001349777844516396 0 0.018372145894539477 0.0012789632946707207 0 0.018422039425214656 0.00036591612917198115 0 0.017633752872706791 0.00092918251228743965 0 0.018019122214494969 0.0019422250083376376 0 0.018372145894539477 0.0012789632946707207 0 0.017633752872706791 0.00092918251228743965 0 0.017633752872706791 0.00092918251228743965 0 0.017078440721039461 0.0013076771335123563 0 0.016894413877917729 0.00071253933359451864 0 0.018019122214494969 0.0019422250083376376 0 0.017633752872706791 0.00092918251228743965 0 0.017078440721039461 0.0013076771335123563 0 0.016894413877917729 0.00071253933359451864 0 0.01714712101629693 0.0001349777844516396 0 0.016671311394232939 0.00020907774417965226 0 0.017633752872706791 0.00092918251228743965 0 0.016894413877917729 0.00071253933359451864 0 0.01714712101629693 0.0001349777844516396 0 0.01714712101629693 0.0001349777844516396 0 0.016547661106136556 -0.00020840388895417185 0 0.016671311394232939 0.00020907774417965226 0 0.01714712101629693 0.0001349777844516396 0 0.016547661106136556 -0.00020840388895417185 0 0.016718467511517524 -0.00037178296033451934 0 0.01714712101629693 0.0001349777844516396 0 0.017431065234543925 -0.0003105670562291505 0 0.016718467511517524 -0.00037178296033451934 0 0.018422039425214656 0.00036591612917198115 0 0.01714712101629693 0.0001349777844516396 0 0.017431065234543925 -0.0003105670562291505 0 0.016909255505568307 -0.000223255542814988 0 0.016155433143723315 -0.00053424060643289235 0 0.01646077822481674 -0.00035425687294589342 0 0.017431065234543925 -0.0003105670562291505 0 0.016718467511517524 -0.00037178296033451934 0 0.016155433143723315 -0.00053424060643289235 0 0.017163061533751266 -0.00028688719395846197 0 0.016327712019015252 -0.00052119505664741453 0 0.016547661106136556 -0.00020840388895417185 0 0.016718467511517524 -0.00037178296033451934 0 0.016391156617190789 -0.00049507368664240467 0 0.016718467511517524 -0.00037178296033451934 0 0.016391156617190789 -0.00049507368664240467 0 0.016155433143723315 -0.00053424060643289235 0 0.016547661106136556 -0.00020840388895417185 0 0.016234423726912358 -0.0003103014954552573 0 0.016391156617190789 -0.00049507368664240467 0 0.016234423726912358 -0.0003103014954552573 0 0.015915733300074352 6.2540604008841187e-05 0 0.015965405659571927 -0.00043970571248643344 0 0.016234423726912358 -0.0003103014954552573 0 0.015915733300074352 6.2540604008841187e-05 0 0.016305915834529255 7.8122873951587753e-06 0 0.015915733300074352 6.2540604008841187e-05 0 0.016305915834529255 7.8122873951587753e-06 0 0.016352577160059983 0.00048218168662842131 0 0.016547661106136556 -0.00020840388895417185 0 0.016234423726912358 -0.0003103014954552573 0 0.016305915834529255 7.8122873951587753e-06 0 0.016547661106136556 -0.00020840388895417185 0 0.016305915834529255 7.8122873951587753e-06 0 0.016671311394232939 0.00020907774417965226 0 0.016894413877917729 0.00071253933359451864 0 0.016671311394232939 0.00020907774417965226 0 0.016352577160059983 0.00048218168662842131 0 0.016305915834529255 7.8122873951587753e-06 0 0.016671311394232939 0.00020907774417965226 0 0.016352577160059983 0.00048218168662842131 0 0.016894413877917729 0.00071253933359451864 0 0.016352577160059983 0.00048218168662842131 0 0.016468022161888616 0.0011598874543107805 0 0.017078440721039461 0.0013076771335123563 0 0.016894413877917729 0.00071253933359451864 0 0.016468022161888616 0.0011598874543107805 0 0.016352577160059983 0.00048218168662842131 0 0.016468022161888616 0.0011598874543107805 0 0.015932507526551083 0.00093488599297316039 0 0.016132116882693174 0.0013557368627838456 0 0.017317323076780404 0.001199334147566048 0 0.016051238339233019 0.0015481508781479711 0 0.016468022161888616 0.0011598874543107805 0 0.015932507526551083 0.00093488599297316039 0 0.015915733300074352 6.2540604008841187e-05 0 0.016352577160059983 0.00048218168662842131 0 0.015932507526551083 0.00093488599297316039 0 0.018866333249410977 0.0018221534004018187 0 0.017317323076780404 0.001199334147566048 0 0.021158764801013086 0.0015247734947964795 0 0.02181200283937245 0.001527545936013959 0 0.02187546726205471 0.0028596763015264755 0 0.021405258268681768 0.0030592460947711912 0 0.021158764801013086 0.0015247734947964795 0 0.02187546726205471 0.0028596763015264755 0 0.022139614344992158 0.001685268705991162 0 0.022710406908311147 0.0023573334240304094 0 0.022146359723366552 0.0030511523986526757 0 0.021994820293195119 0.0013822513319533384 0 0.022007015015029111 0.0030378587274637408 0 0.022710406908311147 0.0023573334240304094 0 0.022679142522209251 0.0029143660039425093 0 0.022146359723366552 0.0030511523986526757 0 0.022097454020015565 0.0001975034267628459 0 0.022139614344992158 0.001685268705991162 0 0.023081628359347822 0.0012873652422341687 0 0.022139614344992158 0.001685268705991162 0 0.023081628359347822 0.0012873652422341687 0 0.022710406908311147 0.0023573334240304094 0 0.021797969456105168 0.00026533078490444936 0 0.021158764801013086 0.0015247734947964795 0 0.02181200283937245 0.001527545936013959 0 0.023958385263067632 0.0014257491352269609 0 0.023081628359347822 0.0012873652422341687 0 0.023532802926046703 0.0023822574381881308 0 0.02392420159599621 0.00077054637618085078 0 0.023958385263067632 0.0014257491352269609 0 0.023081628359347822 0.0012873652422341687 0 0.023081628359347822 0.0012873652422341687 0 0.023532802926046703 0.0023822574381881308 0 0.022710406908311147 0.0023573334240304094 0 0.023532802926046703 0.0023822574381881308 0 0.023114582748969447 0.0032477290567106405 0 0.022679142522209251 0.0029143660039425093 0 0.023532802926046703 0.0023822574381881308 0 0.022710406908311147 0.0023573334240304094 0 0.022679142522209251 0.0029143660039425093 0 0.023746091512722025 0.0032304022202320998 0 0.023114582748969447 0.0032477290567106405 0 0.023153718347062039 0.0042246986281754143 0 0.023114582748969447 0.0032477290567106405 0 0.022621330621778457 0.0035622839220200539 0 0.023153718347062039 0.0042246986281754143 0 0.023746091512722025 0.0032304022202320998 0 0.023532802926046703 0.0023822574381881308 0 0.023114582748969447 0.0032477290567106405 0 0.023114582748969447 0.0032477290567106405 0 0.022679142522209251 0.0029143660039425093 0 0.022621330621778457 0.0035622839220200539 0 0.022679142522209251 0.0029143660039425093 0 0.022146359723366552 0.0030511523986526757 0 0.022621330621778457 0.0035622839220200539 0 0.022146359723366552 0.0030511523986526757 0 0.022621330621778457 0.0035622839220200539 0 0.022023686541284112 0.004404959968308645 0 0.021405258268681768 0.0030592460947711912 0 0.02187546726205471 0.0028596763015264755 0 0.022023686541284112 0.004404959968308645 0 0.022007015015029111 0.0030378587274637408 0 0.022021393865949437 0.0042963829330617273 0 0.020675502317435361 0.0017365788270518783 0 0.018531723310723801 0.0011308735456461369 0 0.022621330621778457 0.0035622839220200539 0 0.022023686541284112 0.004404959968308645 0 0.023153718347062039 0.0042246986281754143 0 0.018866333249410977 0.0018221534004018187 0 0.018531723310723801 0.0011308735456461369 0 0.017515485702017154 -0.00081326835867863824 0 0.017681405582613292 -0.00094317291946963817 0 0.017131053631578637 -0.00071498037544104494 0 0.022023686541284112 0.004404959968308645 0 0.023153718347062039 0.0042246986281754143 0 0.021774066862499691 0.0048233468556675343 0 0.021405258268681768 0.0030592460947711912 0 0.022023686541284112 0.004404959968308645 0 0.021774066862499691 0.0048233468556675343 0 0.017515485702017154 -0.00081326835867863824 0 0.017681405582613292 -0.00094317291946963817 0 0.017670846337158947 -0.00064688991680948011 0 0.018393454903266694 -0.0012108300263659799 0 0.017681405582613292 -0.00094317291946963817 0 0.017670846337158947 -0.00064688991680948011 0 0.017218401372998571 -0.00060365342990607266 0 0.015903305743538848 -0.0013542678492684229 0 0.011516263706531608 -0.0038180415518362294 0 0.011777495386809691 -0.0050867197708247556 0 0.010041187337473082 -0.0034029381350992416 0 0.015733511005406368 -0.0016835685516829704 0 0.010856024957958722 -0.0039985819356943772 0 0.013469762532309455 -0.0037645949469777731 0 0.011516263706531608 -0.0038180415518362294 0 0.011777495386809691 -0.0050867197708247556 0 0.017515485702017154 -0.00081326835867863824 0 0.017630275858267028 -0.00070813927461468255 0 0.01732095287094965 -0.00062192192556347287 0 0.015903305743538848 -0.0013542678492684229 0 0.013655007272139497 -0.0021109290962466913 0 0.017630275858267028 -0.00070813927461468255 0 0.01732095287094965 -0.00062192192556347287 0 0.017163537972935392 -0.00033307922957848747 0 0.017515485702017154 -0.00081326835867863824 0 0.01732095287094965 -0.00062192192556347287 0 0.017131053631578637 -0.00071498037544104494 0 0.01732095287094965 -0.00062192192556347287 0 0.017131053631578637 -0.00071498037544104494 0 0.017159934616830078 -0.00055006808229047968 0 0.018531723310723801 0.0011308735456461369 0 0.017782323727141246 -0.00058089221715241666 0 0.017159934616830078 -0.00055006808229047968 0 0.017163537972935392 -0.00033307922957848747 0 0.016918564405647277 -0.0004365585418066123 0 0.01732095287094965 -0.00062192192556347287 0 0.017159934616830078 -0.00055006808229047968 0 0.017163537972935392 -0.00033307922957848747 0 0.011516263706531608 -0.0038180415518362294 0 0.010041187337473082 -0.0034029381350992416 0 0.011073347177880581 -0.002114912409236426 0 0.010041187337473082 -0.0034029381350992416 0 0.011073347177880581 -0.002114912409236426 0 0.0098088567065704301 -0.0020494677916650418 0 0.011516263706531608 -0.0038180415518362294 0 0.012428540608571518 -0.0025855461181728484 0 0.011073347177880581 -0.002114912409236426 0 0.013435276418496324 -0.0038828519566887145 0 0.011516263706531608 -0.0038180415518362294 0 0.012428540608571518 -0.0025855461181728484 0 0.012428540608571518 -0.0025855461181728484 0 0.011073347177880581 -0.002114912409236426 0 0.011593018746278334 -0.00039729445053035296 0 0.013233053425677023 -0.00071999051774366283 0 0.012428540608571518 -0.0025855461181728484 0 0.011593018746278334 -0.00039729445053035296 0 0.011593018746278334 -0.00039729445053035296 0 0.011436771018353446 0.0014053326769154766 0 0.013129158814389575 0.0014652729956501139 0 0.011593018746278334 -0.00039729445053035296 0 0.010301143154257121 0.00072764950429047822 0 0.011436771018353446 0.0014053326769154766 0 0.0092571229843691535 -0.00051618959917574072 0 0.010301143154257121 0.00072764950429047822 0 0.0089717136082261718 0.0013601657577412417 0 0.011593018746278334 -0.00039729445053035296 0 0.0092571229843691535 -0.00051618959917574072 0 0.010301143154257121 0.00072764950429047822 0 0.011073347177880581 -0.002114912409236426 0 0.0092571229843691535 -0.00051618959917574072 0 0.0091408304265709495 -0.0020811673282282394 0 0.011073347177880581 -0.002114912409236426 0 0.011593018746278334 -0.00039729445053035296 0 0.0092571229843691535 -0.00051618959917574072 0 0.01102547652496445 -0.0021425991655843377 0 0.0089243659029801803 -0.0019605156995522112 0 0.0092571229843691535 -0.00051618959917574072 0 0.0091408304265709495 -0.0020811673282282394 0 0.007244684913507252 -0.0019560424252373374 0 0.0089243659029801803 -0.0019605156995522112 0 0.011661351884359735 -0.00088733251537519175 0 0.0092571229843691535 -0.00051618959917574072 0 0.007244684913507252 -0.0019560424252373374 0 0.0077792309225319448 0.00041780308797933471 0 0.0092571229843691535 -0.00051618959917574072 0 0.0077792309225319448 0.00041780308797933471 0 0.0089717136082261718 0.0013601657577412417 0 0.007244684913507252 -0.0019560424252373374 0 0.0077792309225319448 0.00041780308797933471 0 0.0063697261640823814 0.00018241797805024164 0 0.0077792309225319448 0.00041780308797933471 0 0.0068315962323058773 0.0011431690828905179 0 0.0079721443013907271 0.0014285609228311023 0 0.0077792309225319448 0.00041780308797933471 0 0.0079721443013907271 0.0014285609228311023 0 0.0089717136082261718 0.0013601657577412417 0 0.007244684913507252 -0.0019560424252373374 0 0.0063697261640823814 0.00018241797805024164 0 0.0049483589317384216 0.00031324022031949762 0 0.0053109770172818675 0.00086863255595380051 0 0.0063697261640823814 0.00018241797805024164 0 0.0049483589317384216 0.00031324022031949762 0 0.0053109770172818675 0.00086863255595380051 0 0.0063697261640823814 0.00018241797805024164 0 0.0068315962323058773 0.0011431690828905179 0 0.0077792309225319448 0.00041780308797933471 0 0.0063697261640823814 0.00018241797805024164 0 0.0068315962323058773 0.0011431690828905179 0 0.016742416952162536 7.6771290276092158e-05 0 0.01653218128467087 -0.0002397202074045283 0 0.01608414170425012 0.0002377356430366702 0 0.011661351884359735 -0.00088733251537519175 0 0.0087378868583220613 0.00015745988911486592 0 0.011661351884359735 -0.00088733251537519175 0 0.015250661195544257 0.0002180339407872714 0 0.012693387403339189 0.00013361935696181283 0 0.01309357374766895 0.00010981690822981787 0 0.013076386604365841 -0.00015300437443355381 0 0.01653218128467087 -0.0002397202074045283 0 0.016918564405647277 -0.0004365585418066123 0 0.016663157955289311 -0.00053912475928267209 0 0.01653218128467087 -0.0002397202074045283 0 0.016663157955289311 -0.00053912475928267209 0 0.016158623534989446 -0.00041527060857186589 0 0.016742416952162536 7.6771290276092158e-05 0 0.01653218128467087 -0.0002397202074045283 0 0.016918564405647277 -0.0004365585418066123 0 0.017163537972935392 -0.00033307922957848747 0 0.016742416952162536 7.6771290276092158e-05 0 0.016918564405647277 -0.0004365585418066123 0 0.013655007272139497 -0.0021109290962466913 0 0.011661351884359735 -0.00088733251537519175 0 0.010041187337473082 -0.0034029381350992416 0 0.0098088567065704301 -0.0020494677916650418 0 0.0085660182241468815 -0.0019184372587251395 0 0.017137367409311637 -0.00072034677738802122 0 0.016918564405647277 -0.0004365585418066123 0 0.016663157955289311 -0.00053912475928267209 0 0.018531723310723801 0.0011308735456461369 0 0.01616541780611639 -0.0006086027613713919 0 0.016234423726912358 -0.0003103014954552573 0 0.015965405659571927 -0.00043970571248643344 0 0.016303686693393087 -0.00052034963033874954 0 0.017137367409311637 -0.00072034677738802122 0 0.017159934616830078 -0.00055006808229047968 0 0.016918564405647277 -0.0004365585418066123 0 0.016303686693393087 -0.00052034963033874954 0 0.016391156617190789 -0.00049507368664240467 0 0.016158623534989446 -0.00041527060857186589 0 0.01616541780611639 -0.0006086027613713919 0 0.016279877964177888 -0.00042610407528757431 0 0.016234423726912358 -0.0003103014954552573 0 0.016303686693393087 -0.00052034963033874954 0 0.016391156617190789 -0.00049507368664240467 0 0.016391156617190789 -0.00049507368664240467 0 0.016155433143723315 -0.00053424060643289235 0 0.016158623534989446 -0.00041527060857186589 0 0.016155433143723315 -0.00053424060643289235 0 0.015377551577131447 -0.00035153064261951112 0 0.015335946233055594 -0.00031208673225284516 0 0.016155433143723315 -0.00053424060643289235 0 0.015377551577131447 -0.00035153064261951112 0 0.016158623534989446 -0.00041527060857186589 0 0.015377551577131447 -0.00035153064261951112 0 0.016158623534989446 -0.00041527060857186589 0 0.01608414170425012 0.0002377356430366702 0 0.01653218128467087 -0.0002397202074045283 0 0.016158623534989446 -0.00041527060857186589 0 0.01608414170425012 0.0002377356430366702 0 0.01309357374766895 0.00010981690822981787 0 0.013076386604365841 -0.00015300437443355381 0 0.013215401434548751 -0.00018745730463445064 0 0.013076386604365841 -0.00015300437443355381 0 0.013215401434548751 -0.00018745730463445064 0 0.012881780208790217 0.00011328021804577241 0 0.015377551577131447 -0.00035153064261951112 0 0.01608414170425012 0.0002377356430366702 0 0.014009598815121975 1.476439866128858e-05 0 0.01309357374766895 0.00010981690822981787 0 0.013215401434548751 -0.00018745730463445064 0 0.014009598815121975 1.476439866128858e-05 0 0.015250661195544257 0.0002180339407872714 0 0.013800690953092236 5.304914994509444e-05 0 0.013215401434548751 -0.00018745730463445064 0 0.014009598815121975 1.476439866128858e-05 0 0.012144767569580842 -0.00012759367483741147 0 0.014009598815121975 1.476439866128858e-05 0 0.011786260235767046 -3.0935340143786283e-07 0 0.012144767569580842 -0.00012759367483741147 0 0.014009598815121975 1.476439866128858e-05 0 0.011786260235767046 -3.0935340143786283e-07 0 0.014233165900415293 -3.3063987509388876e-07 0 0.014233165900415293 -3.3063987509388876e-07 0 0.015335946233055594 -0.00031208673225284516 0 0.016680598624968922 -4.7297016284556979e-07 0 0.014009598815121975 1.476439866128858e-05 0 0.014233165900415293 -3.3063987509388876e-07 0 0.015335946233055594 -0.00031208673225284516 0 0.015377551577131447 -0.00035153064261951112 0 0.014009598815121975 1.476439866128858e-05 0 0.015335946233055594 -0.00031208673225284516 0 0.016155433143723315 -0.00053424060643289235 0 0.015335946233055594 -0.00031208673225284516 0 0.01646077822481674 -0.00035425687294589342 0 0.015335946233055594 -0.00031208673225284516 0 0.01646077822481674 -0.00035425687294589342 0 0.016680598624968922 -4.7297016284556979e-07 0 0.0068847545650003476 2.1583171679570268e-06 0 0.0051106861815448353 -1.8856484004661752e-05 0 0.0050214664271844992 -9.9355773604158202e-07 0 0.0051106861815448353 -1.8856484004661752e-05 0 0.0045290241622429608 0.00048343687525442597 0 0.0043004423178006554 2.2773109034253252e-05 0 0.0051106861815448353 -1.8856484004661752e-05 0 0.0045290241622429608 0.00048343687525442597 0 0.0049542880606962035 0.0011965540925202738 0 0.0068847545650003476 2.1583171679570268e-06 0 0.0051106861815448353 -1.8856484004661752e-05 0 0.0049542880606962035 0.0011965540925202738 0 0.0068924295884510139 2.0485742494331145e-06 0 0.0093379650826370935 -1.661473209169199e-07 0 0.01071524296607027 0.00055394487638612774 0 0.0068901893437258634 -5.4049186082568781e-08 0 0.0079024070732984248 0.00071759518703823008 0 0.0093379650826370935 -1.661473209169199e-07 0 0.012144767569580842 -0.00012759367483741147 0 0.01071524296607027 0.00055394487638612774 0 0.011786260235767046 -3.0935340143786283e-07 0 0.0093379650826370935 -1.661473209169199e-07 0 0.012144767569580842 -0.00012759367483741147 0 0.012144767569580842 -0.00012759367483741147 0 0.01071524296607027 0.00055394487638612774 0 0.012881780208790217 0.00011328021804577241 0 0.0079024070732984248 0.00071759518703823008 0 0.0086342688058182737 0.00067030001932024395 0 0.0049542880606962035 0.0011965540925202738 0 0.0043496244280963959 0.0011902678213670836 0 0.0043070501418639023 0.0013777591216853336 0 0.0049542880606962035 0.0011965540925202738 0 0.0043496244280963959 0.0011902678213670836 0 0.0041879661256187884 0.00075131729911917132 0 0.013215401434548751 -0.00018745730463445064 0 0.012144767569580842 -0.00012759367483741147 0 0.012881780208790217 0.00011328021804577241 0 0.0043496244280963959 0.0011902678213670836 0 0.0043070501418639023 0.0013777591216853336 0 0.0045160682339000936 0.001345002209113093 0 0.0053109770172818675 0.00086863255595380051 0 0.0049483589317384216 0.00031324022031949762 0 0.0045160682339000936 0.001345002209113093 0 0.0087378868583220613 0.00015745988911486592 0 0.0086342688058182737 0.00067030001932024395 0 0.0049483589317384216 0.00031324022031949762 0 0.0043070501418639023 0.0013777591216853336 0 0.0045160682339000936 0.001345002209113093 0 0.0045160682339000936 0.001345002209113093 0 0.004119638992964191 0.0010258171418950103 0 0.0036109351718451137 0.0010929243043466819 0 0.0043496244280963959 0.0011902678213670836 0 0.0045160682339000936 0.001345002209113093 0 0.004119638992964191 0.0010258171418950103 0 0.0043496244280963959 0.0011902678213670836 0 0.004119638992964191 0.0010258171418950103 0 0.0041879661256187884 0.00075131729911917132 0 0.0041879661256187884 0.00075131729911917132 0 0.0041380231767133751 0.00034342699166522138 0 0.0038792984867668237 0.00034343968858326323 0 0.004119638992964191 0.0010258171418950103 0 0.0041879661256187884 0.00075131729911917132 0 0.0038094456404979896 0.00074770392599068025 0 0.0041879661256187884 0.00075131729911917132 0 0.0038792984867668237 0.00034343968858326323 0 0.0038094456404979896 0.00074770392599068025 0 0.0045290241622429608 0.00048343687525442597 0 0.0049542880606962035 0.0011965540925202738 0 0.0041879661256187884 0.00075131729911917132 0 0.0045290241622429608 0.00048343687525442597 0 0.0041879661256187884 0.00075131729911917132 0 0.0041380231767133751 0.00034342699166522138 0 0.0045290241622429608 0.00048343687525442597 0 0.0041380231767133751 0.00034342699166522138 0 0.0043004423178006554 2.2773109034253252e-05 0 0.0041380231767133751 0.00034342699166522138 0 0.0040488261214304518 0.00012287833060109008 0 0.0043004423178006554 2.2773109034253252e-05 0 0.0041380231767133751 0.00034342699166522138 0 0.0038792984867668237 0.00034343968858326323 0 0.0039006958661245957 0.00017736360391041461 0 0.0041380231767133751 0.00034342699166522138 0 0.0039006958661245957 0.00017736360391041461 0 0.0040488261214304518 0.00012287833060109008 0 0.0039538276996897437 0.00031347808677617442 0 0.003439590627045388 0.00041849312889249475 0 0.0038792984867668237 0.00034343968858326323 0 0.0038512629354541463 0.000244648585914574 0 0.0038661710664433411 0.00021967069544863736 0 0.0038792984867668237 0.00034343968858326323 0 0.0038512629354541463 0.000244648585914574 0 0.0039006958661245957 0.00017736360391041461 0 0.0038512629354541463 0.000244648585914574 0 0.0039219373221948172 0.00024355674495098788 0 0.0038661710664433411 0.00021967069544863736 0 0.0038512629354541463 0.000244648585914574 0 0.0039219373221948172 0.00024355674495098788 0 0.0038583916084261728 0.00023546106025722002 0 0.003439590627045388 0.00041849312889249475 0 0.0051354892187552084 0.0013686916039388397 0 0.0034731658626934933 0.00058467323815741628 0 0.0036109351718451137 0.0010929243043466819 0 0.0030486286596216588 0.00077966742416350039 0 0.0039219373221948172 0.00024355674495098788 0 0.0038661710664433411 0.00021967069544863736 0 0.003986533664290904 0.00013644505009743907 0 0.0034731658626934933 0.00058467323815741628 0 0.0038094456404979896 0.00074770392599068025 0 0.0036109351718451137 0.0010929243043466819 0 0.0038792984867668237 0.00034343968858326323 0 0.0034731658626934933 0.00058467323815741628 0 0.0038094456404979896 0.00074770392599068025 0 0.004119638992964191 0.0010258171418950103 0 0.0038094456404979896 0.00074770392599068025 0 0.0036109351718451137 0.0010929243043466819 0 0.0045102185103143635 0.0013502348233685908 0 0.0047437515330648735 0.0015967175098162538 0 0.0053109770172818675 0.00086863255595380051 0 0.0068315962323058773 0.0011431690828905179 0 0.0083025346977012512 0.0028317214481967589 0 0.0053623616908593146 0.00088949898123106565 0 0.0074824660731932129 0.0023603011292942849 0 0.0053109770172818675 0.00086863255595380051 0 0.0045160682339000936 0.001345002209113093 0 0.0058777201571340865 0.0020314027342598893 0 0.0053109770172818675 0.00086863255595380051 0 0.0058777201571340865 0.0020314027342598893 0 0.0065115125340772934 0.0016342942389383195 0 0.0079721443013907271 0.0014285609228311023 0 0.0083025346977012512 0.0028317214481967589 0 0.0089717136082261718 0.0013601657577412417 0 0.0068315962323058773 0.0011431690828905179 0 0.0079721443013907271 0.0014285609228311023 0 0.0083025346977012512 0.0028317214481967589 0 0.0047437515330648735 0.0015967175098162538 0 0.0051354892187552084 0.0013686916039388397 0 0.0058777201571340865 0.0020314027342598893 0 0.0065115125340772934 0.0016342942389383195 0 0.0070814255859188331 0.0026141167236857659 0 0.0065115125340772934 0.0016342942389383195 0 0.0077046693408103929 0.0023616797605867886 0 0.0070814255859188331 0.0026141167236857659 0 0.0083025346977012512 0.0028317214481967589 0 0.010337493307262607 0.0023817510194731168 0 0.011137948361283985 0.0044987562943149826 0 0.0074824660731932129 0.0023603011292942849 0 0.0091411332895874053 0.002611021032741483 0 0.0083025346977012512 0.0028317214481967589 0 0.010337493307262607 0.0023817510194731168 0 0.0089717136082261718 0.0013601657577412417 0 0.010301143154257121 0.00072764950429047822 0 0.010337493307262607 0.0023817510194731168 0 0.0089717136082261718 0.0013601657577412417 0 0.010301143154257121 0.00072764950429047822 0 0.010337493307262607 0.0023817510194731168 0 0.011436771018353446 0.0014053326769154766 0 0.011436771018353446 0.0014053326769154766 0 0.011795732230787521 0.0028615703815059292 0 0.013129158814389575 0.0014652729956501139 0 0.010337493307262607 0.0023817510194731168 0 0.011436771018353446 0.0014053326769154766 0 0.011795732230787521 0.0028615703815059292 0 0.011795732230787521 0.0028615703815059292 0 0.011137948361283985 0.0044987562943149826 0 0.012995168979761173 0.0037245487158386894 0 0.010337493307262607 0.0023817510194731168 0 0.011795732230787521 0.0028615703815059292 0 0.011137948361283985 0.0044987562943149826 0 0.010004598071460164 0.0026271922258477359 0 0.010803213884023619 0.0023026458978301981 0 0.010750135565021267 0.0030822561926123009 0 0.0091411332895874053 0.002611021032741483 0 0.012370660858766779 0.0028700743574848944 0 0.0091411332895874053 0.002611021032741483 0 0.010103135128765393 0.0025061705872498024 0 0.0073054526752769191 0.0012228145568392915 0 0.0073732528422926248 0.0020430486936067276 0 0.0083608811669354972 0.0018680211279985305 0 0.0055541139380138674 0.0010105324727205497 0 0.0076661557090078698 0.0013228018689652623 0 0.0073732528422926248 0.0020430486936067276 0 0.0083608811669354972 0.0018680211279985305 0 0.0083167948000413324 0.002500705016276561 0 0.0091411332895874053 0.002611021032741483 0 0.0051354892187552084 0.0013686916039388397 0 0.0039219373221948172 0.00024355674495098788 0 0.0040955733764306401 0.00016967812543084381 0 0.003986533664290904 0.00013644505009743907 0 0.0055541139380138674 0.0010105324727205497 0 0.0051354892187552084 0.0013686916039388397 0 0.0073054526752769191 0.0012228145568392915 0 0.0073732528422926248 0.0020430486936067276 0 0.0064197817268633094 0.0015807591862990154 0 0.0039219373221948172 0.00024355674495098788 0 0.0040955733764306401 0.00016967812543084381 0 0.0039986112381616475 0.00030977150792126139 0 0.0040955733764306401 0.00016967812543084381 0 0.0039986112381616475 0.00030977150792126139 0 0.0042316885776983561 0.00027420504652290442 0 0.0041736342909133254 0.00055837090313500047 0 0.0079220663236407012 0.0021197044000092801 0 0.0040955733764306401 0.00016967812543084381 0 0.0042316885776983561 0.00027420504652290442 0 0.0042376982466396417 0.00022625072061512841 0 0.0053093743156214408 0.00099404556710196395 0 0.0053314044367132373 0.0016352310865330633 0 0.0060319646075317878 0.0014444641940244431 0 0.0053093743156214408 0.00099404556710196395 0 0.0060895392149364581 0.00068050046374583254 0 0.0060319646075317878 0.0014444641940244431 0 0.0053093743156214408 0.00099404556710196395 0 0.0053314044367132373 0.0016352310865330633 0 0.0045490894328378152 0.001308132834678675 0 0.0053314044367132373 0.0016352310865330633 0 0.0050833703311479617 0.0021751752481796193 0 0.004562115585607162 0.0019609659341931042 0 0.0053314044367132373 0.0016352310865330633 0 0.0060319646075317878 0.0014444641940244431 0 0.0059717677578012092 0.0021966299406133631 0 0.0053314044367132373 0.0016352310865330633 0 0.0050833703311479617 0.0021751752481796193 0 0.0059717677578012092 0.0021966299406133631 0 0.0059089105550061069 0.0029392680763125779 0 0.0052366750545442412 0.0028219651515948305 0 0.0059717677578012092 0.0021966299406133631 0 0.0096353270271537176 0.0039435619059379114 0 0.0092565426040114984 0.0036825626391734207 0 0.0052366750545442412 0.0028219651515948305 0 0.0050833703311479617 0.0021751752481796193 0 0.0044743600642793034 0.0028002805122066582 0 0.0052366750545442412 0.0028219651515948305 0 0.0050833703311479617 0.0021751752481796193 0 0.0059717677578012092 0.0021966299406133631 0 0.0050833703311479617 0.0021751752481796193 0 0.004562115585607162 0.0019609659341931042 0 0.0044743600642793034 0.0028002805122066582 0 0.0037720264007859603 0.0020442814025209677 0 0.0044140852007929481 0.00090582751311601105 0 0.0029899036647067015 0.00057237641273669008 0 0.0049015762331637222 0.0023441678823627691 0 0.0038115243945472809 0.0010741804746147363 0 0.0044140852007929481 0.00090582751311601105 0 0.0035314265089720887 2.5809489398833131e-05 0 0.0029899036647067015 0.00057237641273669008 0 0.004562115585607162 0.0019609659341931042 0 0.0041403486755643331 0.0022147341603420516 0 0.0037990997382795289 0.0016235766340089118 0 0.004562115585607162 0.0019609659341931042 0 0.0044743600642793034 0.0028002805122066582 0 0.0041403486755643331 0.0022147341603420516 0 0.0043196750634203951 0.00077339060273190832 0 0.0037165736831513514 0.00070225505282512052 0 0.004562115585607162 0.0019609659341931042 0 0.0045490894328378152 0.001308132834678675 0 0.0037990997382795289 0.0016235766340089118 0 0.0038115243945472809 0.0010741804746147363 0 0.0037165736831513514 0.00070225505282512052 0 0.0053314044367132373 0.0016352310865330633 0 0.004562115585607162 0.0019609659341931042 0 0.0045490894328378152 0.001308132834678675 0 0.0041736342909133254 0.00055837090313500047 0 0.0043196750634203951 0.00077339060273190832 0 0.0039219373221948172 0.00024355674495098788 0 0.0039986112381616475 0.00030977150792126139 0 0.0038583916084261728 0.00023546106025722002 0 0.0038512629354541463 0.000244648585914574 0 0.0038583916084261728 0.00023546106025722002 0 0.0038713296058677841 0.00016960762637302534 0 0.0038512629354541463 0.000244648585914574 0 0.0038713296058677841 0.00016960762637302534 0 0.0039006958661245957 0.00017736360391041461 0 0.0038583916084261728 0.00023546106025722002 0 0.0038713296058677841 0.00016960762637302534 0 0.0038819598941107394 7.894988177804501e-05 0 0.0038713296058677841 0.00016960762637302534 0 0.0038857264312508054 0.00012373351340779022 0 0.0038819598941107394 7.894988177804501e-05 0 0.0038713296058677841 0.00016960762637302534 0 0.0038857264312508054 0.00012373351340779022 0 0.0039006958661245957 0.00017736360391041461 0 0.0039219896191723608 7.9483547388709553e-05 0 0.0039912557609378787 1.9204362242882142e-05 0 0.0038617494716643662 5.6736082074806295e-05 0 0.0039219896191723608 7.9483547388709553e-05 0 0.0038857264312508054 0.00012373351340779022 0 0.0038866908279395871 8.2779076607744929e-05 0 0.0039219896191723608 7.9483547388709553e-05 0 0.0038857264312508054 0.00012373351340779022 0 0.0039006958661245957 0.00017736360391041461 0 0.0039219896191723608 7.9483547388709553e-05 0 0.0039006958661245957 0.00017736360391041461 0 0.0040488261214304518 0.00012287833060109008 0 0.0039219896191723608 7.9483547388709553e-05 0 0.0040488261214304518 0.00012287833060109008 0 0.0039912557609378787 1.9204362242882142e-05 0 0.0040488261214304518 0.00012287833060109008 0 0.0043004423178006554 2.2773109034253252e-05 0 0.0039912557609378787 1.9204362242882142e-05 0 0.0043004423178006554 2.2773109034253252e-05 0 0.0039912557609378787 1.9204362242882142e-05 0 0.0040534926426171649 -6.0759304772656872e-05 0 0.0039912557609378787 1.9204362242882142e-05 0 0.0038382163431973457 1.9683069162718305e-05 0 0.0038617494716643662 5.6736082074806295e-05 0 0.0038382163431973457 1.9683069162718305e-05 0 0.0037447477140657892 0.00011538673534810264 0 0.0038617494716643662 5.6736082074806295e-05 0 0.0038382163431973457 1.9683069162718305e-05 0 0.0037858521559261745 -0.00010912288085977805 0 0.0040534926426171649 -6.0759304772656872e-05 0 0.0039912557609378787 1.9204362242882142e-05 0 0.0038382163431973457 1.9683069162718305e-05 0 0.0040534926426171649 -6.0759304772656872e-05 0 0.0038382163431973457 1.9683069162718305e-05 0 0.003691302139465137 0.00011591755719255842 0 0.0037858521559261745 -0.00010912288085977805 0 0.0038382163431973457 1.9683069162718305e-05 0 0.0037447477140657892 0.00011538673534810264 0 0.003641482709785778 0.00014049949689006302 0 0.0039219896191723608 7.9483547388709553e-05 0 0.0038617494716643662 5.6736082074806295e-05 0 0.0038866908279395871 8.2779076607744929e-05 0 0.0037447477140657892 0.00011538673534810264 0 0.0038617494716643662 5.6736082074806295e-05 0 0.0038866908279395871 8.2779076607744929e-05 0 0.0038857264312508054 0.00012373351340779022 0 0.0038866908279395871 8.2779076607744929e-05 0 0.0038819598941107394 7.894988177804501e-05 0 0.0037447477140657892 0.00011538673534810264 0 0.0038866908279395871 8.2779076607744929e-05 0 0.0039042424568732927 0.00011809596090872287 0 0.0036757504369497652 0.00051249264437030855 0 0.0037165736831513514 0.00070225505282512052 0 0.0038554095719805239 0.00030816718568894071 0 0.0037165736831513514 0.00070225505282512052 0 0.0037447477140657892 0.00011538673534810264 0 0.0035653327775102034 0.00017906517171048866 0 0.0035628340014657476 0.00010523983903819031 0 0.0035314265089720887 2.5809489398833131e-05 0 0.0035653327775102034 0.00017906517171048866 0 0.0035628340014657476 0.00010523983903819031 0 0.0035314265089720887 2.5809489398833131e-05 0 0.0035628340014657476 0.00010523983903819031 0 0.0033911293095408141 0.00025099058163014621 0 0.0035628340014657476 0.00010523983903819031 0 0.003641482709785778 0.00014049949689006302 0 0.0033911293095408141 0.00025099058163014621 0 0.0037447477140657892 0.00011538673534810264 0 0.0035628340014657476 0.00010523983903819031 0 0.003641482709785778 0.00014049949689006302 0 0.003641482709785778 0.00014049949689006302 0 0.0033911293095408141 0.00025099058163014621 0 0.0036130289862406702 0.00020321120265771734 0 0.00072416453842459843 0.0019389306890218881 0 0.0029899036647067015 0.00057237641273669008 0 -0.0011862140258838366 0.0003679556979593374 0 0.0033911293095408141 0.00025099058163014621 0 0.0029899036647067015 0.00057237641273669008 0 0.0035995393930205316 0.00020143473414136061 0 0.0035314265089720887 2.5809489398833131e-05 0 0.0033911293095408141 0.00025099058163014621 0 0.0029899036647067015 0.00057237641273669008 0 0.002871283130738493 0.00053458477470052644 0 0.001319831034077817 0.00039622739775579182 0 0.0035995393930205316 0.00020143473414136061 0 0.0036314043293738324 0.00021810040006307863 0 0.0034336057420021725 0.00050816655140915792 0 0.00072416453842459843 0.0019389306890218881 0 -0.0011862140258838366 0.0003679556979593374 0 -0.0025364498700179389 0.0010894374673880406 0 -0.0020659870837954897 0.0014728557480904105 0 -0.0025958618748305809 0.0011748197379756777 0 0.0035995393930205316 0.00020143473414136061 0 0.0036314043293738324 0.00021810040006307863 0 0.0036130289862406702 0.00020321120265771734 0 0.0033911293095408141 0.00025099058163014621 0 0.0035995393930205316 0.00020143473414136061 0 0.0036130289862406702 0.00020321120265771734 0 0.0036314043293738324 0.00021810040006307863 0 0.003691302139465137 0.00011591755719255842 0 0.0036227430090545764 7.0139639139171642e-05 0 0.0036314043293738324 0.00021810040006307863 0 0.0036130289862406702 0.00020321120265771734 0 0.003691302139465137 0.00011591755719255842 0 0.0038382163431973457 1.9683069162718305e-05 0 0.003641482709785778 0.00014049949689006302 0 0.003691302139465137 0.00011591755719255842 0 0.003641482709785778 0.00014049949689006302 0 0.0036130289862406702 0.00020321120265771734 0 0.003691302139465137 0.00011591755719255842 0 0.003691302139465137 0.00011591755719255842 0 0.0036227430090545764 7.0139639139171642e-05 0 0.0037858521559261745 -0.00010912288085977805 0 0.0036227430090545764 7.0139639139171642e-05 0 0.0031615071479069619 -0.00012526915235914237 0 0.0037858521559261745 -0.00010912288085977805 0 0.0036227430090545764 7.0139639139171642e-05 0 0.0034336057420021725 0.00050816655140915792 0 0.0031615071479069619 -0.00012526915235914237 0 0.0036314043293738324 0.00021810040006307863 0 0.0036227430090545764 7.0139639139171642e-05 0 0.0034336057420021725 0.00050816655140915792 0 0.001319831034077817 0.00039622739775579182 0 0.00050931332625784903 0.0006003241432451569 0 -0.0011862140258838366 0.0003679556979593374 0 -0.0024567064716132336 0.0010834430720191891 0 -0.0025364498700179389 0.0010894374673880406 0 -0.0019633676346805917 0.00033428350933194803 0 -0.0024567064716132336 0.0010834430720191891 0 -0.0025364498700179389 0.0010894374673880406 0 -0.0019633676346805917 0.00033428350933194803 0 -0.0024567064716132336 0.0010834430720191891 0 0.0012781304674571029 3.6735255177802399e-06 0 -0.0011827190696655253 -8.6338728235822589e-07 0 -0.0019633676346805917 0.00033428350933194803 0 0.0012781304674571029 3.6735255177802399e-06 0 0.00050931332625784903 0.0006003241432451569 0 0.0012820079497874806 4.0134602383099549e-07 0 0.0012863484072368424 1.6721497939800596e-06 0 0.0031615071479069619 -0.00012526915235914237 0 0.0031507216446864461 -7.3711326993654597e-07 0 0.0034336057420021725 0.00050816655140915792 0 0.0012863484072368424 1.6721497939800596e-06 0 0.0031615071479069619 -0.00012526915235914237 0 0.0031507216446864461 -7.3711326993654597e-07 0 0.0038275327982123788 -0.0001502649321180032 0 0.0050214664271844992 -9.9355773604158202e-07 0 0.0031615071479069619 -0.00012526915235914237 0 0.0031507216446864461 -7.3711326993654597e-07 0 0.0038275327982123788 -0.0001502649321180032 0 0.0037858521559261745 -0.00010912288085977805 0 0.0043007052696060234 -0.00011925237022079941 0 0.0040534926426171649 -6.0759304772656872e-05 0 0.0031615071479069619 -0.00012526915235914237 0 0.0038275327982123788 -0.0001502649321180032 0 0.0037858521559261745 -0.00010912288085977805 0 0.0038275327982123788 -0.0001502649321180032 0 0.0037858521559261745 -0.00010912288085977805 0 0.0043007052696060234 -0.00011925237022079941 0 0.0051106861815448353 -1.8856484004661752e-05 0 0.0043004423178006554 2.2773109034253252e-05 0 0.0043007052696060234 -0.00011925237022079941 0 0.0043004423178006554 2.2773109034253252e-05 0 0.0043007052696060234 -0.00011925237022079941 0 0.0040534926426171649 -6.0759304772656872e-05 0 0.0051106861815448353 -1.8856484004661752e-05 0 0.0043007052696060234 -0.00011925237022079941 0 0.0050214664271844992 -9.9355773604158202e-07 0 0.0038275327982123788 -0.0001502649321180032 0 0.0043007052696060234 -0.00011925237022079941 0 0.0050214664271844992 -9.9355773604158202e-07 0 0.018139670135681612 0.0035404052862208577 0 0.017662266158189919 0.0032189994013420075 0 0.017497006035513525 0.0037469926857712763 0 0.017662266158189919 0.0032189994013420075 0 0.016738848153420915 0.0034432101795886733 0 0.017203680283944013 0.0027518475581526608 0 0.017662266158189919 0.0032189994013420075 0 0.016738848153420915 0.0034432101795886733 0 0.017497006035513525 0.0037469926857712763 0 0.016738848153420915 0.0034432101795886733 0 0.017497006035513525 0.0037469926857712763 0 0.017100927818536702 0.0040918895197840279 0 0.016738848153420915 0.0034432101795886733 0 0.017100927818536702 0.0040918895197840279 0 0.016391991795442713 0.0040858653414957017 0 0.017100927818536702 0.0040918895197840279 0 0.016391991795442713 0.0040858653414957017 0 0.016803676199202078 0.0044499744541190425 0 0.017100927818536702 0.0040918895197840279 0 0.017251533025317019 0.0044849160275454965 0 0.016803676199202078 0.0044499744541190425 0 0.017100927818536702 0.0040918895197840279 0 0.01788510853172641 0.004242196747072653 0 0.017251533025317019 0.0044849160275454965 0 0.018139670135681612 0.0035404052862208577 0 0.01788510853172641 0.004242196747072653 0 0.018598041863072151 0.0039486832073608634 0 0.018139670135681612 0.0035404052862208577 0 0.017497006035513525 0.0037469926857712763 0 0.01788510853172641 0.004242196747072653 0 0.017497006035513525 0.0037469926857712763 0 0.017100927818536702 0.0040918895197840279 0 0.01788510853172641 0.004242196747072653 0 0.01788510853172641 0.004242196747072653 0 0.018463153430477004 0.0043087396261103405 0 0.018598041863072151 0.0039486832073608634 0 0.018463153430477004 0.0043087396261103405 0 0.018852084573755149 0.0041705255546921789 0 0.018598041863072151 0.0039486832073608634 0 0.018852084573755149 0.0041705255546921789 0 0.018598041863072151 0.0039486832073608634 0 0.019086666397404028 0.0039519435761105953 0 0.018852084573755149 0.0041705255546921789 0 0.019086666397404028 0.0039519435761105953 0 0.019217485195103728 0.0041627404869253558 0 0.019086666397404028 0.0039519435761105953 0 0.019217485195103728 0.0041627404869253558 0 0.019421660925989119 0.0039994223395812059 0 0.019086666397404028 0.0039519435761105953 0 0.018979001553823108 0.003557264042283452 0 0.019466181048485215 0.003816995917065428 0 0.019086666397404028 0.0039519435761105953 0 0.019421660925989119 0.0039994223395812059 0 0.019466181048485215 0.003816995917065428 0 0.018598041863072151 0.0039486832073608634 0 0.019086666397404028 0.0039519435761105953 0 0.018979001553823108 0.003557264042283452 0 0.018139670135681612 0.0035404052862208577 0 0.018598041863072151 0.0039486832073608634 0 0.018979001553823108 0.003557264042283452 0 0.018979001553823108 0.003557264042283452 0 0.019343557898370882 0.0032948316946406391 0 0.018532371674755802 0.0028591500798903218 0 0.018139670135681612 0.0035404052862208577 0 0.018979001553823108 0.003557264042283452 0 0.018532371674755802 0.0028591500798903218 0 0.018979001553823108 0.003557264042283452 0 0.019466181048485215 0.003816995917065428 0 0.01965861377911882 0.0035892343832817316 0 0.018979001553823108 0.003557264042283452 0 0.019343557898370882 0.0032948316946406391 0 0.01965861377911882 0.0035892343832817316 0 0.019283434983336328 0.0026698487237929438 0 0.01963518517913293 0.0030446494112529479 0 0.018655586007479089 0.0033004779836892295 0 0.019343557898370882 0.0032948316946406391 0 0.01963518517913293 0.0030446494112529479 0 0.018532371674755802 0.0028591500798903218 0 0.01954986949654507 0.0030128764908952227 0 0.018586432753280778 0.0030965166892996374 0 0.019343557898370882 0.0032948316946406391 0 0.01963518517913293 0.0030446494112529479 0 0.019880409420061224 0.0034300409119450309 0 0.018723282816026175 0.002802173677714613 0 0.019283434983336328 0.0026698487237929438 0 0.018655586007479089 0.0033004779836892295 0 0.018443958966090381 0.0028347112505665742 0 0.018723282816026175 0.002802173677714613 0 0.018655586007479089 0.0033004779836892295 0 0.018655586007479089 0.0033004779836892295 0 0.018103670958760899 0.0030891754973783581 0 0.017842279723903707 0.0036273461891229751 0 0.018443958966090381 0.0028347112505665742 0 0.018655586007479089 0.0033004779836892295 0 0.018103670958760899 0.0030891754973783581 0 0.018139670135681612 0.0035404052862208577 0 0.017662266158189919 0.0032189994013420075 0 0.018532371674755802 0.0028591500798903218 0 0.018586432753280778 0.0030965166892996374 0 0.01749594212623222 0.0032056085787786639 0 0.017662266158189919 0.0032189994013420075 0 0.018532371674755802 0.0028591500798903218 0 0.017203680283944013 0.0027518475581526608 0 0.017842279723903707 0.0036273461891229751 0 0.017712173830300298 0.0032355716252722047 0 0.017306716286510312 0.0034017970783930176 0 0.017594943299095358 0.002821509258962135 0 0.018103670958760899 0.0030891754973783581 0 0.017712173830300298 0.0032355716252722047 0 0.018103670958760899 0.0030891754973783581 0 0.017842279723903707 0.0036273461891229751 0 0.017712173830300298 0.0032355716252722047 0 0.018165776153552644 0.0025226681979617482 0 0.017247957774411151 0.0031452783997344877 0 0.017648053511356798 0.0019406095105740486 0 0.016937747706173168 0.002227536877029894 0 0.017199498689828573 0.0028298339209328741 0 0.019339925845249427 0.0026627382701987557 0 0.019824398150686578 0.0027207597583745568 0 0.019205288050088212 0.0029835098982988746 0 0.017594943299095358 0.002821509258962135 0 0.017712173830300298 0.0032355716252722047 0 0.017306716286510312 0.0034017970783930176 0 0.018165776153552644 0.0025226681979617482 0 0.01825730746450225 0.0024981255376900499 0 0.016937747706173168 0.002227536877029894 0 0.016624193771629898 0.0029395679533477026 0 0.017199498689828573 0.0028298339209328741 0 0.018665671627767694 0.0024739603610333788 0 0.019205288050088212 0.0029835098982988746 0 0.018568782354986092 0.0032358832348883689 0 0.017452227045937688 0.0013269429767633219 0 0.016339750966003132 0.0024141367884272453 0 0.016937747706173168 0.002227536877029894 0 0.016226376260000917 0.0025159428698136878 0 0.016624193771629898 0.0029395679533477026 0 0.01825730746450225 0.0024981255376900499 0 0.016339750966003132 0.0024141367884272453 0 0.016624193771629898 0.0029395679533477026 0 0.016139037292897968 0.0032673849855846663 0 0.016750165321793308 0.0037194767321957179 0 0.016339750966003132 0.0024141367884272453 0 0.015319128461494663 0.0028812566939086549 0 0.016226376260000917 0.0025159428698136878 0 0.016624193771629898 0.0029395679533477026 0 0.016139037292897968 0.0032673849855846663 0 0.01749594212623222 0.0032056085787786639 0 0.016259261650667031 0.0034982408754206671 0 0.017842279723903707 0.0036273461891229751 0 0.017306716286510312 0.0034017970783930176 0 0.017012330857873285 0.0039787985873323811 0 0.017247957774411151 0.0031452783997344877 0 0.016259261650667031 0.0034982408754206671 0 0.016624193771629898 0.0029395679533477026 0 0.017199498689828573 0.0028298339209328741 0 0.016750165321793308 0.0037194767321957179 0 0.01311320394376215 0.0013355707050869995 0 0.014499056584563269 0.0027518859888837149 0 0.012989699167906602 0.0033692970817220968 0 0.014666013851175191 0.00083816719680863082 0 0.01311320394376215 0.0013355707050869995 0 0.014499056584563269 0.0027518859888837149 0 0.013143720477984457 0.0014952484727747549 0 0.012370660858766779 0.0028700743574848944 0 0.011795732230787521 0.0028615703815059292 0 0.013129158814389575 0.0014652729956501139 0 0.012995168979761173 0.0037245487158386894 0 0.014666013851175191 0.00083816719680863082 0 0.016214311896509011 0.00029514536665446977 0 0.016012785787811516 0.0021341099434591553 0 0.014666013851175191 0.00083816719680863082 0 0.016012785787811516 0.0021341099434591553 0 0.014499056584563269 0.0027518859888837149 0 0.016339750966003132 0.0024141367884272453 0 0.013988115759078676 0.0023757997681925344 0 0.014446501973864746 0.0025567637652949902 0 0.013563005535249311 0.001915173376118079 0 0.01348598975863865 0.0029723799480795006 0 0.014568525487011551 0.0015101172179396985 0 0.014446501973864746 0.0025567637652949902 0 0.013563005535249311 0.001915173376118079 0 0.013563005535249311 0.001915173376118079 0 0.012559252143304602 0.002322031475398059 0 0.01348598975863865 0.0029723799480795006 0 0.013988115759078676 0.0023757997681925344 0 0.012370660858766779 0.0028700743574848944 0 0.012370660858766779 0.0028700743574848944 0 0.010103135128765393 0.0025061705872498024 0 0.012559252143304602 0.002322031475398059 0 0.012487597725161417 0.0034124630201816529 0 0.01348598975863865 0.0029723799480795006 0 0.010103135128765393 0.0025061705872498024 0 0.0076661557090078698 0.0013228018689652623 0 0.012487597725161417 0.0034124630201816529 0 0.01348598975863865 0.0029723799480795006 0 0.013429553931895684 0.0039895495812979779 0 0.0097482084754118709 0.0016166547175472815 0 0.011295794897069162 0.0025646473423751475 0 0.0096816084256430134 0.0026534608551865009 0 0.010103135128765393 0.0025061705872498024 0 0.012963739785994109 0.0034438231369361503 0 0.01348598975863865 0.0029723799480795006 0 0.014329440893429846 0.0036032724394334495 0 0.013429553931895684 0.0039895495812979779 0 0.014446501973864746 0.0025567637652949902 0 0.01348598975863865 0.0029723799480795006 0 0.014329440893429846 0.0036032724394334495 0 0.014895598116524878 0.0037015337992640715 0 0.012963739785994109 0.0034438231369361503 0 0.013842963813870563 0.0041595777259763279 0 0.014060719056759404 0.0042936352964497385 0 0.013760946404238538 0.0048973755912621042 0 0.012894055760971078 0.0045223113393387136 0 0.012771133418540257 0.0041889527806445144 0 0.012679482828903759 0.0045908909431863452 0 0.014222688113310481 0.0034491786648692003 0 0.014147892673512703 0.0041338519864766573 0 0.013524344917724411 0.0037505025995181176 0 0.014027190297648841 0.0041706965476768316 0 0.012963739785994109 0.0034438231369361503 0 0.014895598116524878 0.0037015337992640715 0 0.014027190297648841 0.0041706965476768316 0 0.013060925500312123 0.0043691778229305294 0 0.012894055760971078 0.0045223113393387136 0 0.012771133418540257 0.0041889527806445144 0 0.012771133418540257 0.0041889527806445144 0 0.01240528092179516 0.004342912263450409 0 0.012679482828903759 0.0045908909431863452 0 0.012963739785994109 0.0034438231369361503 0 0.0079220663236407012 0.0021197044000092801 0 0.011295794897069162 0.0025646473423751475 0 0.0096443892776281077 0.003271640016535092 0 0.0096816084256430134 0.0026534608551865009 0 0.0079220663236407012 0.0021197044000092801 0 0.0076661557090078698 0.0013228018689652623 0 0.016738848153420915 0.0034432101795886733 0 0.015532248032195849 0.0029782446424181995 0 0.015760070385905069 0.0037224585233487568 0 0.016738848153420915 0.0034432101795886733 0 0.017203680283944013 0.0027518475581526608 0 0.015532248032195849 0.0029782446424181995 0 0.014871438239705239 0.0036040028811120946 0 0.015557361051659287 0.0033078186690066636 0 0.015028063124472718 0.0043640885469656632 0 0.015319128461494663 0.0028812566939086549 0 0.014895598116524878 0.0037015337992640715 0 0.016139037292897968 0.0032673849855846663 0 0.016050651041465001 0.0040197152015552856 0 0.016750165321793308 0.0037194767321957179 0 0.014895598116524878 0.0037015337992640715 0 0.016259261650667031 0.0034982408754206671 0 0.014871438239705239 0.0036040028811120946 0 0.014801655915006961 0.0042245632185425215 0 0.015028063124472718 0.0043640885469656632 0 0.015532248032195849 0.0029782446424181995 0 0.014577642145969689 0.0040942177484286088 0 0.015760070385905069 0.0037224585233487568 0 0.016259261650667031 0.0034982408754206671 0 0.014462483941274766 0.0041679427891561076 0 0.014577642145969689 0.0040942177484286088 0 0.015485478571561196 0.0041614276458752297 0 0.015760070385905069 0.0037224585233487568 0 0.014027190297648841 0.0041706965476768316 0 0.014462483941274766 0.0041679427891561076 0 0.014462483941274766 0.0041679427891561076 0 0.014608226941077275 0.0042100575447019265 0 0.014577642145969689 0.0040942177484286088 0 0.014838155489065292 0.0042419833047282638 0 0.015485478571561196 0.0041614276458752297 0 0.015485478571561196 0.0041614276458752297 0 0.015760070385905069 0.0037224585233487568 0 0.016391991795442713 0.0040858653414957017 0 0.016738848153420915 0.0034432101795886733 0 0.015760070385905069 0.0037224585233487568 0 0.016391991795442713 0.0040858653414957017 0 0.016391991795442713 0.0040858653414957017 0 0.016180622592734926 0.0047093943728218355 0 0.016803676199202078 0.0044499744541190425 0 0.015485478571561196 0.0041614276458752297 0 0.016391991795442713 0.0040858653414957017 0 0.016180622592734926 0.0047093943728218355 0 0.016180622592734926 0.0047093943728218355 0 0.015340222954437642 0.0046994050405830268 0 0.015840396714266923 0.0060379915388143815 0 0.016180622592734926 0.0047093943728218355 0 0.015840396714266923 0.0060379915388143815 0 0.016897976317727 0.0049125144875156474 0 0.015485478571561196 0.0041614276458752297 0 0.016180622592734926 0.0047093943728218355 0 0.015340222954437642 0.0046994050405830268 0 0.014838155489065292 0.0042419833047282638 0 0.015485478571561196 0.0041614276458752297 0 0.015340222954437642 0.0046994050405830268 0 0.014838155489065292 0.0042419833047282638 0 0.015340222954437642 0.0046994050405830268 0 0.014412686316099963 0.0047461332234082854 0 0.015340222954437642 0.0046994050405830268 0 0.014715045841414698 0.0052589793221092434 0 0.015840396714266923 0.0060379915388143815 0 0.013944489244071314 0.0052187943402096076 0 0.014715045841414698 0.0052589793221092434 0 0.012761488871036439 0.0060102713593222718 0 0.014279753069892596 0.0038850335893502049 0 0.014412686316099963 0.0047461332234082854 0 0.013447495244235335 0.0049947737644054488 0 0.014279753069892596 0.0038850335893502049 0 0.014838155489065292 0.0042419833047282638 0 0.014412686316099963 0.0047461332234082854 0 0.014412686316099963 0.0047461332234082854 0 0.013944489244071314 0.0052187943402096076 0 0.013447495244235335 0.0049947737644054488 0 0.014412686316099963 0.0047461332234082854 0 0.013944489244071314 0.0052187943402096076 0 0.014715045841414698 0.0052589793221092434 0 0.015340222954437642 0.0046994050405830268 0 0.014412686316099963 0.0047461332234082854 0 0.014715045841414698 0.0052589793221092434 0 0.011166950742363176 0.0062297710032889258 0 0.012265800983353231 0.0058437476258775259 0 0.012761488871036439 0.0060102713593222718 0 0.011166950742363176 0.0062297710032889258 0 0.012265800983353231 0.0058437476258775259 0 0.01195679525651612 0.0056258791184985819 0 0.014715045841414698 0.0052589793221092434 0 0.015840396714266923 0.0060379915388143815 0 0.012761488871036439 0.0060102713593222718 0 0.013428004277666709 0.0061237478046921789 0 0.012811266772812756 0.0060305837236108786 0 0.01240528092179516 0.004342912263450409 0 0.012433050322168427 0.0049022824510886725 0 0.012679482828903759 0.0045908909431863452 0 0.0079220663236407012 0.0021197044000092801 0 0.0093572635538832043 0.0032395259698785985 0 0.012433050322168427 0.0049022824510886725 0 0.012679482828903759 0.0045908909431863452 0 0.012731759462614404 0.0048516973822355413 0 0.013060925500312123 0.0043691778229305294 0 0.012894055760971078 0.0045223113393387136 0 0.013006777074876644 0.0047575397132277571 0 0.014027190297648841 0.0041706965476768316 0 0.013415966130811937 0.0049569416249512751 0 0.012731759462614404 0.0048516973822355413 0 0.012821589181692567 0.0048840383357496809 0 0.012831257032169904 0.0047033202612635234 0 0.012821589181692567 0.0048840383357496809 0 0.012831257032169904 0.0047033202612635234 0 0.013006777074876644 0.0047575397132277571 0 0.012679482828903759 0.0045908909431863452 0 0.012731759462614404 0.0048516973822355413 0 0.012831257032169904 0.0047033202612635234 0 0.012894055760971078 0.0045223113393387136 0 0.012679482828903759 0.0045908909431863452 0 0.012831257032169904 0.0047033202612635234 0 0.014462483941274766 0.0041679427891561076 0 0.013415966130811937 0.0049569416249512751 0 0.012894055760971078 0.0045223113393387136 0 0.012831257032169904 0.0047033202612635234 0 0.013006777074876644 0.0047575397132277571 0 0.013397094515192307 0.0050877465009266801 0 0.013313078218759036 0.0053595190027000547 0 0.012761488871036439 0.0060102713593222718 0 0.013415966130811937 0.0049569416249512751 0 0.013395682858338155 0.0050991241336178425 0 0.013944489244071314 0.0052187943402096076 0 0.013447495244235335 0.0049947737644054488 0 0.013313078218759036 0.0053595190027000547 0 0.013415966130811937 0.0049569416249512751 0 0.012642954437514595 0.0056023976256147209 0 0.013397094515192307 0.0050877465009266801 0 0.012472176222251009 0.0061710889235479108 0 0.012761488871036439 0.0060102713593222718 0 0.012821589181692567 0.0048840383357496809 0 0.013006777074876644 0.0047575397132277571 0 0.012790572242823945 0.005102483507738541 0 0.013944489244071314 0.0052187943402096076 0 0.013313078218759036 0.0053595190027000547 0 0.012761488871036439 0.0060102713593222718 0 0.012265800983353231 0.0058437476258775259 0 0.012499600180960906 0.006002312676301279 0 0.01239633926302312 0.0057849740954962047 0 0.012265800983353231 0.0058437476258775259 0 0.012499600180960906 0.006002312676301279 0 0.012761488871036439 0.0060102713593222718 0 0.012472176222251009 0.0061710889235479108 0 0.012499600180960906 0.006002312676301279 0 0.012761488871036439 0.0060102713593222718 0 0.012472176222251009 0.0061710889235479108 0 0.012499600180960906 0.006002312676301279 0 0.01239633926302312 0.0057849740954962047 0 0.012790572242823945 0.005102483507738541 0 0.012744058034962511 0.0049900071193500701 0 0.012684804141308452 0.005121722856116946 0 0.012821589181692567 0.0048840383357496809 0 0.012790572242823945 0.005102483507738541 0 0.012744058034962511 0.0049900071193500701 0 0.012731759462614404 0.0048516973822355413 0 0.012821589181692567 0.0048840383357496809 0 0.012744058034962511 0.0049900071193500701 0 0.012433050322168427 0.0049022824510886725 0 0.012618056264414952 0.0051437078989860436 0 0.012619502294885763 0.0052754339502209249 0 0.0093572635538832043 0.0032395259698785985 0 0.0092565426040114984 0.0036825626391734207 0 0.012433050322168427 0.0049022824510886725 0 0.012731759462614404 0.0048516973822355413 0 0.012646184262428193 0.0050069128738042725 0 0.012731759462614404 0.0048516973822355413 0 0.012744058034962511 0.0049900071193500701 0 0.012646184262428193 0.0050069128738042725 0 0.012744058034962511 0.0049900071193500701 0 0.012646184262428193 0.0050069128738042725 0 0.012684804141308452 0.005121722856116946 0 0.012646184262428193 0.0050069128738042725 0 0.012684804141308452 0.005121722856116946 0 0.012618056264414952 0.0051437078989860436 0 0.012433050322168427 0.0049022824510886725 0 0.012646184262428193 0.0050069128738042725 0 0.012618056264414952 0.0051437078989860436 0 0.012790572242823945 0.005102483507738541 0 0.012684804141308452 0.005121722856116946 0 0.012600331859570104 0.0052718592213973825 0 0.012642954437514595 0.0056023976256147209 0 0.012625249536960139 0.0053513506103042468 0 0.012619502294885763 0.0052754339502209249 0 0.012600331859570104 0.0052718592213973825 0 0.012539547954125454 0.0050171033001581104 0 0.012618056264414952 0.0051437078989860436 0 0.012619502294885763 0.0052754339502209249 0 0.012600331859570104 0.0052718592213973825 0 0.012684804141308452 0.005121722856116946 0 0.012618056264414952 0.0051437078989860436 0 0.012600331859570104 0.0052718592213973825 0 0.012472176222251009 0.0061710889235479108 0 0.012600331859570104 0.0052718592213973825 0 0.01239633926302312 0.0057849740954962047 0 0.012600331859570104 0.0052718592213973825 0 0.012263566852078642 0.0055040072261128142 0 0.012244355156579621 0.0050824657477098753 0 0.012600331859570104 0.0052718592213973825 0 0.01239633926302312 0.0057849740954962047 0 0.012263566852078642 0.0055040072261128142 0 0.012265800983353231 0.0058437476258775259 0 0.01239633926302312 0.0057849740954962047 0 0.012263566852078642 0.0055040072261128142 0 0.012265800983353231 0.0058437476258775259 0 0.012263566852078642 0.0055040072261128142 0 0.01195679525651612 0.0056258791184985819 0 0.012263566852078642 0.0055040072261128142 0 0.01195679525651612 0.0056258791184985819 0 0.011982509890223789 0.0053114716385138832 0 0.012263566852078642 0.0055040072261128142 0 0.012244355156579621 0.0050824657477098753 0 0.011982509890223789 0.0053114716385138832 0 0.01222271173454847 0.0045279395776984983 0 0.01187628573182564 0.0046748560916458591 0 0.012244355156579621 0.0050824657477098753 0 0.01222271173454847 0.0045279395776984983 0 0.012244355156579621 0.0050824657477098753 0 0.012539547954125454 0.0050171033001581104 0 0.012244355156579621 0.0050824657477098753 0 0.011982509890223789 0.0053114716385138832 0 0.011762610126532293 0.005005951084659831 0 0.01187628573182564 0.0046748560916458591 0 0.012244355156579621 0.0050824657477098753 0 0.011762610126532293 0.005005951084659831 0 0.012768881837760546 0.0047967730217630322 0 0.012619502294885763 0.0052754339502209249 0 0.012539547954125454 0.0050171033001581104 0 0.01222271173454847 0.0045279395776984983 0 0.012768881837760546 0.0047967730217630322 0 0.012539547954125454 0.0050171033001581104 0 0.012600331859570104 0.0052718592213973825 0 0.012244355156579621 0.0050824657477098753 0 0.012539547954125454 0.0050171033001581104 0 0.011166950742363176 0.0062297710032889258 0 0.010883137183200381 0.0054022589671954306 0 0.010556169607745419 0.0057071678051220948 0 0.011166950742363176 0.0062297710032889258 0 0.010883137183200381 0.0054022589671954306 0 0.011494396653463378 0.0053675255376827834 0 0.010883137183200381 0.0054022589671954306 0 0.011494396653463378 0.0053675255376827834 0 0.011215456909979925 0.0049689299112487054 0 0.011166950742363176 0.0062297710032889258 0 0.01195679525651612 0.0056258791184985819 0 0.011494396653463378 0.0053675255376827834 0 0.01195679525651612 0.0056258791184985819 0 0.011982509890223789 0.0053114716385138832 0 0.011494396653463378 0.0053675255376827834 0 0.011494396653463378 0.0053675255376827834 0 0.011762610126532293 0.005005951084659831 0 0.011215456909979925 0.0049689299112487054 0 0.011982509890223789 0.0053114716385138832 0 0.011494396653463378 0.0053675255376827834 0 0.011762610126532293 0.005005951084659831 0 0.011478066109394437 0.0046352536194601219 0 0.01187628573182564 0.0046748560916458591 0 0.011762610126532293 0.005005951084659831 0 0.011478066109394437 0.0046352536194601219 0 0.011762610126532293 0.005005951084659831 0 0.011215456909979925 0.0049689299112487054 0 0.010917066757575587 0.0044717373538667067 0 0.011478066109394437 0.0046352536194601219 0 0.011215456909979925 0.0049689299112487054 0 0.010883137183200381 0.0054022589671954306 0 0.011215456909979925 0.0049689299112487054 0 0.010696692128115541 0.0049747838357722422 0 0.010917066757575587 0.0044717373538667067 0 0.011215456909979925 0.0049689299112487054 0 0.010696692128115541 0.0049747838357722422 0 0.0015974978312261435 0.0017123303897396622 0 0.00079054954907683335 0.0014739776042240697 0 0.010917066757575587 0.0044717373538667067 0 0.010115555440436977 0.0048573668540355082 0 0.010696692128115541 0.0049747838357722422 0 0.010115555440436977 0.0048573668540355082 0 0.0099281869342744619 0.0051926995004811793 0 0.010392081623236288 0.0052772824743383762 0 0.010115555440436977 0.0048573668540355082 0 0.010696692128115541 0.0049747838357722422 0 0.010392081623236288 0.0052772824743383762 0 0.010883137183200381 0.0054022589671954306 0 0.010696692128115541 0.0049747838357722422 0 0.010392081623236288 0.0052772824743383762 0 0.00079054954907683335 0.0014739776042240697 0 0.0092873456263169157 0.0032992305331110568 0 -0.005743886565553716 -0.0011180782739098232 0 -0.004799731218434862 -0.0021696872295742307 0 -0.0031181784352774865 -0.0020200417593669844 0 0.010115555440436977 0.0048573668540355082 0 0.0099281869342744619 0.0051926995004811793 0 0.009349268689913752 0.0052873892959433757 0 -0.0064920490320908592 -0.0020225098698001395 0 -0.004799731218434862 -0.0021696872295742307 0 -0.0037849331994840247 -0.0035329876249773203 0 -0.005743886565553716 -0.0011180782739098232 0 -0.0064920490320908592 -0.0020225098698001395 0 -0.004799731218434862 -0.0021696872295742307 0 0.015957706213962555 0.0052966346400951268 0 0.0092873456263169157 0.0032992305331110568 0 0.0098785890604665052 0.0057286548616569703 0 0.0097826492596749959 0.0061847442985943296 0 0.009349268689913752 0.0052873892959433757 0 0.0097174526188263163 0.0053907745584381083 0 0.0098785890604665052 0.0057286548616569703 0 0.009349268689913752 0.0052873892959433757 0 0.0099281869342744619 0.0051926995004811793 0 0.0097174526188263163 0.0053907745584381083 0 0.009349268689913752 0.0052873892959433757 0 0.0099281869342744619 0.0051926995004811793 0 0.0097174526188263163 0.0053907745584381083 0 0.009922738597122182 0.0055165575402830779 0 0.0099281869342744619 0.0051926995004811793 0 0.009922738597122182 0.0055165575402830779 0 0.010166598159068972 0.005555818179995029 0 0.0097174526188263163 0.0053907745584381083 0 0.009922738597122182 0.0055165575402830779 0 0.0098785890604665052 0.0057286548616569703 0 0.0098785890604665052 0.0057286548616569703 0 0.010166598159068972 0.005555818179995029 0 0.010321186381316474 0.0059101852485364858 0 0.009922738597122182 0.0055165575402830779 0 0.0098785890604665052 0.0057286548616569703 0 0.010166598159068972 0.005555818179995029 0 0.010883137183200381 0.0054022589671954306 0 0.010392081623236288 0.0052772824743383762 0 0.010556169607745419 0.0057071678051220948 0 0.0099281869342744619 0.0051926995004811793 0 0.010392081623236288 0.0052772824743383762 0 0.010166598159068972 0.005555818179995029 0 0.010392081623236288 0.0052772824743383762 0 0.010166598159068972 0.005555818179995029 0 0.010556169607745419 0.0057071678051220948 0 0.010166598159068972 0.005555818179995029 0 0.010556169607745419 0.0057071678051220948 0 0.010321186381316474 0.0059101852485364858 0 0.013428004277666709 0.0061237478046921789 0 0.014034040821025287 0.0056667261912197384 0 0.011166950742363176 0.0062297710032889258 0 0.010321186381316474 0.0059101852485364858 0 0.01000599106647726 0.006187613405675722 0 0.015840396714266923 0.0060379915388143815 0 0.017749083729923922 0.0054834859374258711 0 0.017367022867891532 0.0051546391319778105 0 0.011166950742363176 0.0062297710032889258 0 0.010556169607745419 0.0057071678051220948 0 0.010321186381316474 0.0059101852485364858 0 0.0098785890604665052 0.0057286548616569703 0 0.010321186381316474 0.0059101852485364858 0 0.01000599106647726 0.006187613405675722 0 0.0098785890604665052 0.0057286548616569703 0 0.0097826492596749959 0.0061847442985943296 0 0.01000599106647726 0.006187613405675722 0 0.018008912461123492 0.0053496758862572307 0 0.017749083729923922 0.0054834859374258711 0 0.018374685286636799 0.0048692409440062529 0 0.017749083729923922 0.0054834859374258711 0 0.017971267345568601 0.005016480993711301 0 0.018374685286636799 0.0048692409440062529 0 0.017749083729923922 0.0054834859374258711 0 0.017971267345568601 0.005016480993711301 0 0.017367022867891532 0.0051546391319778105 0 0.015957706213962555 0.0052966346400951268 0 0.014034040821025287 0.0056667261912197384 0 0.017857590919144486 0.0047922532400925559 0 0.017489769493286879 0.004752915562221063 0 0.017367022867891532 0.0051546391319778105 0 0.017857590919144486 0.0047922532400925559 0 0.017971267345568601 0.005016480993711301 0 0.017367022867891532 0.0051546391319778105 0 0.017857590919144486 0.0047922532400925559 0 0.017971267345568601 0.005016480993711301 0 0.018260300347872536 0.0046351369461396135 0 0.017971267345568601 0.005016480993711301 0 0.018260300347872536 0.0046351369461396135 0 0.018374685286636799 0.0048692409440062529 0 0.01788510853172641 0.004242196747072653 0 0.017857590919144486 0.0047922532400925559 0 0.018260300347872536 0.0046351369461396135 0 0.01788510853172641 0.004242196747072653 0 0.018463153430477004 0.0043087396261103405 0 0.018260300347872536 0.0046351369461396135 0 0.01788510853172641 0.004242196747072653 0 0.017489769493286879 0.004752915562221063 0 0.017251533025317019 0.0044849160275454965 0 0.01788510853172641 0.004242196747072653 0 0.017857590919144486 0.0047922532400925559 0 0.017489769493286879 0.004752915562221063 0 0.015840396714266923 0.0060379915388143815 0 0.016897976317727 0.0049125144875156474 0 0.017367022867891532 0.0051546391319778105 0 0.017489769493286879 0.004752915562221063 0 0.017251533025317019 0.0044849160275454965 0 0.016897976317727 0.0049125144875156474 0 0.016180622592734926 0.0047093943728218355 0 0.016803676199202078 0.0044499744541190425 0 0.016897976317727 0.0049125144875156474 0 0.017251533025317019 0.0044849160275454965 0 0.016803676199202078 0.0044499744541190425 0 0.016897976317727 0.0049125144875156474 0 0.017489769493286879 0.004752915562221063 0 0.016897976317727 0.0049125144875156474 0 0.017367022867891532 0.0051546391319778105 0 0.019200546185568997 0.0043531983946248493 0 0.019217485195103728 0.0041627404869253558 0 0.018785001902108113 0.004477024838044851 0 0.019200546185568997 0.0043531983946248493 0 0.018785001902108113 0.004477024838044851 0 0.018834707386202409 0.0046964275003259582 0 0.018852084573755149 0.0041705255546921789 0 0.019217485195103728 0.0041627404869253558 0 0.018785001902108113 0.004477024838044851 0 0.018463153430477004 0.0043087396261103405 0 0.018852084573755149 0.0041705255546921789 0 0.018785001902108113 0.004477024838044851 0 0.018463153430477004 0.0043087396261103405 0 0.018260300347872536 0.0046351369461396135 0 0.018785001902108113 0.004477024838044851 0 0.018260300347872536 0.0046351369461396135 0 0.018785001902108113 0.004477024838044851 0 0.018374685286636799 0.0048692409440062529 0 0.015957706213962555 0.0052966346400951268 0 0.019509390830478542 0.0046977116130314705 0 0.018008912461123492 0.0053496758862572307 0 0.018374685286636799 0.0048692409440062529 0 0.018834707386202409 0.0046964275003259582 0 0.018785001902108113 0.004477024838044851 0 0.018374685286636799 0.0048692409440062529 0 0.018834707386202409 0.0046964275003259582 0 0.017788277558748088 0.0045942173624260226 0 0.018302831288947968 0.0049449950613576028 0 0.018834707386202409 0.0046964275003259582 0 0.018302831288947968 0.0049449950613576028 0 0.018834707386202409 0.0046964275003259582 0 0.018590427645485155 0.0050277463892085929 0 0.018834707386202409 0.0046964275003259582 0 0.019008882583461228 0.0050089579845392215 0 0.018590427645485155 0.0050277463892085929 0 0.019200546185568997 0.0043531983946248493 0 0.018834707386202409 0.0046964275003259582 0 0.019137262457069624 0.004587254519837586 0 0.018834707386202409 0.0046964275003259582 0 0.019137262457069624 0.004587254519837586 0 0.019008882583461228 0.0050089579845392215 0 0.017600288538909326 0.0027067015623632143 0 0.018504955130479867 0.0028943318626792778 0 0.0182131951554299 0.0036537594270095383 0 0.017600288538909326 0.0027067015623632143 0 0.016871042392355522 0.0036562043024029852 0 0.0182131951554299 0.0036537594270095383 0 0.017788277558748088 0.0045942173624260226 0 0.018302831288947968 0.0049449950613576028 0 0.018200342092539134 0.0055263130954906221 0 0.017600288538909326 0.0027067015623632143 0 0.016871042392355522 0.0036562043024029852 0 0.015551578936087228 0.0035833991331195446 0 0.019008882583461228 0.0050089579845392215 0 0.018590427645485155 0.0050277463892085929 0 0.018200342092539134 0.0055263130954906221 0 0.019533890255373776 0.0036096126008299916 0 0.0092873456263169157 0.0032992305331110568 0 0.018302831288947968 0.0049449950613576028 0 0.018590427645485155 0.0050277463892085929 0 0.018200342092539134 0.0055263130954906221 0 -0.0084943498256169862 -0.00049764410328232756 0 0.0024301993596691439 0.0011888807564504628 0 -0.004799731218434862 -0.0021696872295742307 0 -0.0037849331994840247 -0.0035329876249773203 0 -0.0031181784352774865 -0.0020200417593669844 0 0.0092873456263169157 0.0032992305331110568 0 0.0024301993596691439 0.0011888807564504628 0 0.016871042392355522 0.0036562043024029852 0 0.015551578936087228 0.0035833991331195446 0 0.016045496732687143 0.004699404606058063 0 0.004364785987279917 0.0035989418646520267 0 0.0062019991897986218 0.0038077270519280976 0 0.0066756330846686049 0.0025976164404271133 0 0.016871042392355522 0.0036562043024029852 0 0.016045496732687143 0.004699404606058063 0 0.0182131951554299 0.0036537594270095383 0 0.0024301993596691439 0.0011888807564504628 0 0.013821383618649732 0.0031628618003975094 0 0.0058791387412756857 0.0046880843572744951 0 0.004364785987279917 0.0035989418646520267 0 0.0062019991897986218 0.0038077270519280976 0 0.0072082068852403645 0.0037827630110372447 0 0.0084558642616539056 0.0034173841361803759 0 0.0066756330846686049 0.0025976164404271133 0 0.0062019991897986218 0.0038077270519280976 0 0.0072082068852403645 0.0037827630110372447 0 0.0066756330846686049 0.0025976164404271133 0 0.0066977569336970876 0.0044805095022340518 0 0.0062019991897986218 0.0038077270519280976 0 0.0072082068852403645 0.0037827630110372447 0 0.0080252444014735184 0.0044776652585306574 0 0.0072082068852403645 0.0037827630110372447 0 0.0084558642616539056 0.0034173841361803759 0 0.0084558642616539056 0.0034173841361803759 0 0.009228093248426085 0.001828937108328861 0 0.010443639311786329 0.0035117200785496753 0 0.0092999869673970614 0.0047124778849208238 0 0.0084558642616539056 0.0034173841361803759 0 0.010443639311786329 0.0035117200785496753 0 0.01916462267622672 0.00265736712921336 0 0.018504955130479867 0.0028943318626792778 0 0.0182131951554299 0.0036537594270095383 0 0.0084558642616539056 0.0034173841361803759 0 0.009228093248426085 0.001828937108328861 0 0.0066756330846686049 0.0025976164404271133 0 0.01916462267622672 0.00265736712921336 0 0.018504955130479867 0.0028943318626792778 0 0.018989281475931881 0.0026472323541334528 0 0.013858677061126399 0.0023454419804453475 0 0.013821383618649732 0.0031628618003975094 0 0.012181528112159671 0.0034582125171168606 0 0.013565205271087583 0.0027613870253597704 0 0.013393304449991837 0.0036083254744278589 0 0.011351562089865319 0.0046653714846632034 0 0.012181528112159671 0.0034582125171168606 0 0.013393304449991837 0.0036083254744278589 0 0.012181528112159671 0.0034582125171168606 0 0.010443639311786329 0.0035117200785496753 0 0.011545028014605789 0.002646951194358824 0 0.011351562089865319 0.0046653714846632034 0 0.012181528112159671 0.0034582125171168606 0 0.010443639311786329 0.0035117200785496753 0 0.009228093248426085 0.001828937108328861 0 0.011545028014605789 0.002646951194358824 0 0.011976255782099581 0.0016042735289524298 0 0.009228093248426085 0.001828937108328861 0 0.010443639311786329 0.0035117200785496753 0 0.011545028014605789 0.002646951194358824 0 0.013858677061126399 0.0023454419804453475 0 0.015122207044610961 0.0020124621872094199 0 0.012181528112159671 0.0034582125171168606 0 0.011545028014605789 0.002646951194358824 0 0.013565205271087583 0.0027613870253597704 0 0.011545028014605789 0.002646951194358824 0 0.011976255782099581 0.0016042735289524298 0 0.013565205271087583 0.0027613870253597704 0 0.01841242666394333 0.002258667734167922 0 0.018263503042710728 0.003306110658069765 0 0.015175259132945771 0.0024110595521751165 0 0.011976255782099581 0.0016042735289524298 0 0.015175259132945771 0.0024110595521751165 0 0.013565205271087583 0.0027613870253597704 0 0.015122207044610961 0.0020124621872094199 0 0.014975978196164481 0.0023954451651391809 0 0.01841242666394333 0.002258667734167922 0 0.019181678156532881 0.0033346062535018275 0 0.018263503042710728 0.003306110658069765 0 0.01916462267622672 0.00265736712921336 0 0.01841242666394333 0.002258667734167922 0 0.019181678156532881 0.0033346062535018275 0 0.019181678156532881 0.0033346062535018275 0 0.018263503042710728 0.003306110658069765 0 0.019095849511446262 0.0039951713636405227 0 0.018263503042710728 0.003306110658069765 0 0.019095849511446262 0.0039951713636405227 0 0.017921534683466456 0.0041847906121870457 0 0.018263503042710728 0.003306110658069765 0 0.017921534683466456 0.0041847906121870457 0 0.015175259132945771 0.0024110595521751165 0 0.017600288538909326 0.0027067015623632143 0 0.018504955130479867 0.0028943318626792778 0 0.018989281475931881 0.0026472323541334528 0 0.019533890255373776 0.0036096126008299916 0 0.018859330549506899 0.0036006285927115442 0 0.019137262457069624 0.004587254519837586 0 0.019008882583461228 0.0050089579845392215 0 0.019448898669580095 0.0042916169321991484 0 0.019200546185568997 0.0043531983946248493 0 0.019448898669580095 0.0042916169321991484 0 0.019440073671186445 0.004044092496255724 0 0.019200546185568997 0.0043531983946248493 0 0.019137262457069624 0.004587254519837586 0 0.019448898669580095 0.0042916169321991484 0 0.019217919309172729 0.003360944808932299 0 0.018859330549506899 0.0036006285927115442 0 0.01916462267622672 0.00265736712921336 0 0.019181678156532881 0.0033346062535018275 0 0.018989281475931881 0.0026472323541334528 0 0.019181678156532881 0.0033346062535018275 0 0.019539626956109904 0.0040012309060873516 0 0.019095849511446262 0.0039951713636405227 0 0.019181678156532881 0.0033346062535018275 0 0.019440073671186445 0.004044092496255724 0 0.019539626956109904 0.0040012309060873516 0 0.019181678156532881 0.0033346062535018275 0 0.019448898669580095 0.0042916169321991484 0 0.019440073671186445 0.004044092496255724 0 0.019217485195103728 0.0041627404869253558 0 0.019440073671186445 0.004044092496255724 0 0.019539626956109904 0.0040012309060873516 0 0.019200546185568997 0.0043531983946248493 0 0.019217485195103728 0.0041627404869253558 0 0.019440073671186445 0.004044092496255724 0 0.019217485195103728 0.0041627404869253558 0 0.019421660925989119 0.0039994223395812059 0 0.019539626956109904 0.0040012309060873516 0 0.019421660925989119 0.0039994223395812059 0 0.019623057757992328 0.0039841154768835377 0 0.019539626956109904 0.0040012309060873516 0 0.019421660925989119 0.0039994223395812059 0 0.019623057757992328 0.0039841154768835377 0 0.019466181048485215 0.003816995917065428 0 0.019623057757992328 0.0039841154768835377 0 0.019466181048485215 0.003816995917065428 0 0.019881391587660426 0.0038823196771391459 0 0.019583367834657844 0.0040857609692167909 0 0.019886226047125959 0.0040123745309767495 0 0.019881391587660426 0.0038823196771391459 0 0.019623057757992328 0.0039841154768835377 0 0.019583367834657844 0.0040857609692167909 0 0.019881391587660426 0.0038823196771391459 0 0.019623057757992328 0.0039841154768835377 0 0.019583367834657844 0.0040857609692167909 0 0.019539626956109904 0.0040012309060873516 0 0.019583367834657844 0.0040857609692167909 0 0.019539626956109904 0.0040012309060873516 0 0.019095849511446262 0.0039951713636405227 0 0.019583367834657844 0.0040857609692167909 0 0.019095849511446262 0.0039951713636405227 0 0.019226876054277343 0.0042250685276563893 0 0.019095849511446262 0.0039951713636405227 0 0.017921534683466456 0.0041847906121870457 0 0.019226876054277343 0.0042250685276563893 0 0.018046002270848037 0.0041550498380385752 0 0.018048108214830206 0.0046402235509085694 0 0.017921534683466456 0.0041847906121870457 0 0.019226876054277343 0.0042250685276563893 0 0.0197596473750754 0.0042102160356496041 0 0.019226876054277343 0.0042250685276563893 0 0.019878010908172743 0.0040279612573829076 0 0.0197596473750754 0.0042102160356496041 0 0.019226876054277343 0.0042250685276563893 0 0.019878010908172743 0.0040279612573829076 0 0.019886226047125959 0.0040123745309767495 0 0.019583367834657844 0.0040857609692167909 0 0.019226876054277343 0.0042250685276563893 0 0.019886226047125959 0.0040123745309767495 0 0.019886226047125959 0.0040123745309767495 0 0.020298699257540475 0.0038667379451009583 0 0.020199759339615309 0.0039224238384020027 0 0.019886226047125959 0.0040123745309767495 0 0.020298699257540475 0.0038667379451009583 0 0.020253381398964643 0.0038158928177247026 0 0.019878010908172743 0.0040279612573829076 0 0.020249785231834062 0.0039229949123214874 0 0.020199759339615309 0.0039224238384020027 0 0.019878010908172743 0.0040279612573829076 0 0.020249785231834062 0.0039229949123214874 0 0.020188636892822548 0.0039879131535042519 0 0.019878010908172743 0.0040279612573829076 0 0.019886226047125959 0.0040123745309767495 0 0.020199759339615309 0.0039224238384020027 0 0.020298699257540475 0.0038667379451009583 0 0.020199759339615309 0.0039224238384020027 0 0.020585704218392484 0.0038216979260849047 0 0.020199759339615309 0.0039224238384020027 0 0.0205477362815649 0.0038350960241872009 0 0.020585704218392484 0.0038216979260849047 0 0.020249785231834062 0.0039229949123214874 0 0.020199759339615309 0.0039224238384020027 0 0.0205477362815649 0.0038350960241872009 0 0.0205477362815649 0.0038350960241872009 0 0.020585704218392484 0.0038216979260849047 0 0.020750391626891178 0.0038028103607090991 0 0.0205477362815649 0.0038350960241872009 0 0.020750391626891178 0.0038028103607090991 0 0.020795513042853528 0.0037911469160572539 0 0.020585704218392484 0.0038216979260849047 0 0.020852131382412827 0.0037961816697092963 0 0.020870356804773216 0.0037903381676605455 0 0.020852131382412827 0.0037961816697092963 0 0.020870356804773216 0.0037903381676605455 0 0.021087776589409732 0.0037971276894649764 0 0.020585704218392484 0.0038216979260849047 0 0.020852131382412827 0.0037961816697092963 0 0.020750391626891178 0.0038028103607090991 0 0.020852131382412827 0.0037961816697092963 0 0.020750391626891178 0.0038028103607090991 0 0.020953870395205968 0.0037864863847571085 0 0.020852131382412827 0.0037961816697092963 0 0.020953870395205968 0.0037864863847571085 0 0.021087776589409732 0.0037971276894649764 0 0.020750391626891178 0.0038028103607090991 0 0.020953870395205968 0.0037864863847571085 0 0.020795513042853528 0.0037911469160572539 0 0.020298699257540475 0.0038667379451009583 0 0.020253381398964643 0.0038158928177247026 0 0.020565349143330025 0.0037925643777663451 0 0.020253381398964643 0.0038158928177247026 0 0.020565349143330025 0.0037925643777663451 0 0.020594837728830098 0.003673037037995373 0 0.020298699257540475 0.0038667379451009583 0 0.020585704218392484 0.0038216979260849047 0 0.020565349143330025 0.0037925643777663451 0 0.020565349143330025 0.0037925643777663451 0 0.020870356804773216 0.0037903381676605455 0 0.020891137156159159 0.0037605550885702389 0 0.020585704218392484 0.0038216979260849047 0 0.020565349143330025 0.0037925643777663451 0 0.020870356804773216 0.0037903381676605455 0 0.020565349143330025 0.0037925643777663451 0 0.020594837728830098 0.003673037037995373 0 0.020891137156159159 0.0037605550885702389 0 0.020253381398964643 0.0038158928177247026 0 0.020594837728830098 0.003673037037995373 0 0.020169065757931121 0.0036594427810324793 0 0.020594837728830098 0.003673037037995373 0 0.020434928911945028 0.0034548392145584295 0 0.020169065757931121 0.0036594427810324793 0 0.020594837728830098 0.003673037037995373 0 0.020434928911945028 0.0034548392145584295 0 0.020791932621898161 0.0036903753942125806 0 0.019283434983336328 0.0026698487237929438 0 0.01963518517913293 0.0030446494112529479 0 0.020434928911945028 0.0034548392145584295 0 0.01963518517913293 0.0030446494112529479 0 0.020434928911945028 0.0034548392145584295 0 0.019880409420061224 0.0034300409119450309 0 0.020057029416894443 0.0031594867359033009 0 0.020463709418651534 0.0034191481310728114 0 0.020434928911945028 0.0034548392145584295 0 0.019880409420061224 0.0034300409119450309 0 0.020169065757931121 0.0036594427810324793 0 0.019880409420061224 0.0034300409119450309 0 0.01965861377911882 0.0035892343832817316 0 0.020169065757931121 0.0036594427810324793 0 0.01965861377911882 0.0035892343832817316 0 0.019881391587660426 0.0038823196771391459 0 0.020169065757931121 0.0036594427810324793 0 0.019466181048485215 0.003816995917065428 0 0.01965861377911882 0.0035892343832817316 0 0.019881391587660426 0.0038823196771391459 0 0.019343557898370882 0.0032948316946406391 0 0.019880409420061224 0.0034300409119450309 0 0.01965861377911882 0.0035892343832817316 0 0.019886226047125959 0.0040123745309767495 0 0.020253381398964643 0.0038158928177247026 0 0.019881391587660426 0.0038823196771391459 0 0.020253381398964643 0.0038158928177247026 0 0.019881391587660426 0.0038823196771391459 0 0.020169065757931121 0.0036594427810324793 0 0.014085287297231833 0.0055922546381732517 0 0.014949343540674091 0.0058621560758055228 0 0.014497941287387569 0.0053996434238938957 0 0.014034407809242314 0.0059912988552216669 0 0.015203906686720241 0.0058002074039605108 0 0.015582521057938746 0.0058068855693404068 0 0.015254288272517163 0.0057420051058221207 0 0.014949343540674091 0.0058621560758055228 0 0.014085287297231833 0.0055922546381732517 0 0.013643414629506042 0.0060623293250338323 0 0.014949343540674091 0.0058621560758055228 0 0.014085287297231833 0.0055922546381732517 0 0.013545595068014669 0.0055155915221680157 0 0.013643414629506042 0.0060623293250338323 0 0.013643414629506042 0.0060623293250338323 0 0.013353144964821224 0.0057606632509350645 0 0.013210419767930021 0.0059219468947525975 0 0.013545595068014669 0.0055155915221680157 0 0.013643414629506042 0.0060623293250338323 0 0.013353144964821224 0.0057606632509350645 0 0.015582521057938746 0.0058068855693404068 0 0.015541903503181071 0.0055498516600944675 0 0.015254288272517163 0.0057420051058221207 0 0.015582521057938746 0.0058068855693404068 0 0.015541903503181071 0.0055498516600944675 0 0.016563043981873596 0.0054536066546398872 0 0.015541903503181071 0.0055498516600944675 0 0.015254288272517163 0.0057420051058221207 0 0.014992985699363201 0.0057333547323314285 0 0.022029446486545212 0.0053369564880196866 0 0.021376095954899175 0.0054113955361944615 0 0.021642526684344528 0.0050023600194532107 0 0.019103396238082979 0.0053715735270794618 0 0.018881874954390931 0.0054951890624730876 0 0.015254288272517163 0.0057420051058221207 0 0.014992985699363201 0.0057333547323314285 0 0.014949343540674091 0.0058621560758055228 0 0.018927043682771712 0.0049963606552566207 0 0.018813703885828547 0.0050054423778599973 0 0.018824958901052884 0.0051647991212607379 0 0.021591792089027315 0.0051733571112576012 0 0.021440301361433739 0.0051839238208572147 0 0.021559048273684121 0.0050182377973502883 0 0.018881874954390931 0.0054951890624730876 0 0.020465770124498447 0.0047249537467553386 0 0.020795513042853528 0.0037911469160572539 0 0.020890945140777408 0.0037783743497660405 0 0.021073375158798251 0.003774106383468668 0 0.020953870395205968 0.0037864863847571085 0 0.020795513042853528 0.0037911469160572539 0 0.021073375158798251 0.003774106383468668 0 0.020795513042853528 0.0037911469160572539 0 0.020890945140777408 0.0037783743497660405 0 0.020763993135714053 0.0037963381303800503 0 0.020890945140777408 0.0037783743497660405 0 0.020764879551303708 0.0037956844037554316 0 0.020763993135714053 0.0037963381303800503 0 0.020890945140777408 0.0037783743497660405 0 0.02079444584851204 0.0037893744824870012 0 0.021142796838143216 0.0037682636375821876 0 0.020465770124498447 0.0047249537467553386 0 0.021282358536445375 0.004114971675916115 0 0.020890945140777408 0.0037783743497660405 0 0.02079444584851204 0.0037893744824870012 0 0.020764879551303708 0.0037956844037554316 0 0.020731550668942268 0.0037786378977060233 0 0.020636734940537079 0.0038222913186296819 0 0.020764879551303708 0.0037956844037554316 0 0.020465770124498447 0.0047249537467553386 0 0.020570187242352145 0.0046392231025473036 0 0.020764879551303708 0.0037956844037554316 0 0.020763993135714053 0.0037963381303800503 0 0.020657240275068784 0.0038138104606711604 0 0.020795513042853528 0.0037911469160572539 0 0.020763993135714053 0.0037963381303800503 0 0.020657240275068784 0.0038138104606711604 0 0.020636734940537079 0.0038222913186296819 0 0.020764879551303708 0.0037956844037554316 0 0.020657240275068784 0.0038138104606711604 0 0.0205477362815649 0.0038350960241872009 0 0.020657240275068784 0.0038138104606711604 0 0.020466261174242602 0.0038683904154331165 0 0.0205477362815649 0.0038350960241872009 0 0.020795513042853528 0.0037911469160572539 0 0.020657240275068784 0.0038138104606711604 0 0.020584942455935666 0.0039277702664116849 0 0.020188636892822548 0.0039879131535042519 0 0.0197596473750754 0.0042102160356496041 0 0.020249785231834062 0.0039229949123214874 0 0.0205477362815649 0.0038350960241872009 0 0.020466261174242602 0.0038683904154331165 0 0.020636734940537079 0.0038222913186296819 0 0.020657240275068784 0.0038138104606711604 0 0.020466261174242602 0.0038683904154331165 0 0.020731550668942268 0.0037786378977060233 0 0.020636734940537079 0.0038222913186296819 0 0.020584942455935666 0.0039277702664116849 0 0.020636734940537079 0.0038222913186296819 0 0.020466261174242602 0.0038683904154331165 0 0.020584942455935666 0.0039277702664116849 0 0.020465770124498447 0.0047249537467553386 0 0.017501387006895641 0.0051456361972441874 0 0.017501387006895641 0.0051456361972441874 0 0.016381192967991825 0.0056666205791652451 0 0.020249785231834062 0.0039229949123214874 0 0.020466261174242602 0.0038683904154331165 0 0.020188636892822548 0.0039879131535042519 0 0.020466261174242602 0.0038683904154331165 0 0.020584942455935666 0.0039277702664116849 0 0.020188636892822548 0.0039879131535042519 0 0.018881874954390931 0.0054951890624730876 0 0.017501387006895641 0.0051456361972441874 0 0.014992985699363201 0.0057333547323314285 0 0.015157181609532519 0.0058508267800251269 0 0.014949343540674091 0.0058621560758055228 0 0.014949343540674091 0.0058621560758055228 0 0.014895413337708115 0.0054666283703191749 0 0.015310860645714672 0.0057195345099373624 0 0.015157181609532519 0.0058508267800251269 0 0.014949343540674091 0.0058621560758055228 0 0.015310860645714672 0.0057195345099373624 0 0.014949343540674091 0.0058621560758055228 0 0.014895413337708115 0.0054666283703191749 0 0.014497941287387569 0.0053996434238938957 0 0.014895413337708115 0.0054666283703191749 0 0.014570828611519641 0.0050268649476803784 0 0.014497941287387569 0.0053996434238938957 0 0.014895413337708115 0.0054666283703191749 0 0.015141951374806971 0.0050368512929848779 0 0.015310860645714672 0.0057195345099373624 0 0.014895413337708115 0.0054666283703191749 0 0.015141951374806971 0.0050368512929848779 0 0.014570828611519641 0.0050268649476803784 0 0.015309587274808809 0.0061300161569025034 0 0.015310860645714672 0.0057195345099373624 0 0.016172476703368115 0.0054442120053758815 0 0.017501387006895641 0.0051456361972441874 0 0.018048108214830206 0.0046402235509085694 0 0.019878010908172743 0.0040279612573829076 0 0.020188636892822548 0.0039879131535042519 0 0.0197596473750754 0.0042102160356496041 0 0.015141951374806971 0.0050368512929848779 0 0.015310860645714672 0.0057195345099373624 0 0.016172476703368115 0.0054442120053758815 0 0.015141951374806971 0.0050368512929848779 0 0.016172476703368115 0.0054442120053758815 0 0.015508398031382433 0.0041923568433908124 0 0.017921534683466456 0.0041847906121870457 0 0.016172476703368115 0.0054442120053758815 0 0.015508398031382433 0.0041923568433908124 0 0.015141951374806971 0.0050368512929848779 0 0.014570828611519641 0.0050268649476803784 0 0.014660883916892943 0.0042886626930539167 0 0.014570828611519641 0.0050268649476803784 0 0.014660883916892943 0.0042886626930539167 0 0.014229937984807131 0.0045314961636857831 0 0.015141951374806971 0.0050368512929848779 0 0.015508398031382433 0.0041923568433908124 0 0.014660883916892943 0.0042886626930539167 0 0.015508398031382433 0.0041923568433908124 0 0.014660883916892943 0.0042886626930539167 0 0.014699570609942442 0.0035317373233976572 0 0.014660883916892943 0.0042886626930539167 0 0.014229937984807131 0.0045314961636857831 0 0.014130408371302814 0.0037819143005241251 0 0.014229937984807131 0.0045314961636857831 0 0.014006650006846326 0.0050550266728497956 0 0.013757510408032081 0.0042798018855418635 0 0.014229937984807131 0.0045314961636857831 0 0.013757510408032081 0.0042798018855418635 0 0.014130408371302814 0.0037819143005241251 0 0.014570828611519641 0.0050268649476803784 0 0.014006650006846326 0.0050550266728497956 0 0.014497941287387569 0.0053996434238938957 0 0.014570828611519641 0.0050268649476803784 0 0.014229937984807131 0.0045314961636857831 0 0.014006650006846326 0.0050550266728497956 0 0.014085287297231833 0.0055922546381732517 0 0.014006650006846326 0.0050550266728497956 0 0.014497941287387569 0.0053996434238938957 0 0.014085287297231833 0.0055922546381732517 0 0.013545595068014669 0.0055155915221680157 0 0.014006650006846326 0.0050550266728497956 0 0.013545595068014669 0.0055155915221680157 0 0.014006650006846326 0.0050550266728497956 0 0.013414611516099158 0.0048761815880362294 0 0.013414611516099158 0.0048761815880362294 0 0.013757510408032081 0.0042798018855418635 0 0.013218505279493285 0.0041364251102667801 0 0.014006650006846326 0.0050550266728497956 0 0.013414611516099158 0.0048761815880362294 0 0.013757510408032081 0.0042798018855418635 0 0.013757510408032081 0.0042798018855418635 0 0.013607729706334606 0.0038701415516979639 0 0.013218505279493285 0.0041364251102667801 0 0.013607729706334606 0.0038701415516979639 0 0.013218505279493285 0.0041364251102667801 0 0.013417006269431219 0.0036788708756285205 0 0.013757510408032081 0.0042798018855418635 0 0.013607729706334606 0.0038701415516979639 0 0.014130408371302814 0.0037819143005241251 0 0.013607729706334606 0.0038701415516979639 0 0.013880441124355051 0.003474018542965271 0 0.013417006269431219 0.0036788708756285205 0 0.013607729706334606 0.0038701415516979639 0 0.014130408371302814 0.0037819143005241251 0 0.013880441124355051 0.003474018542965271 0 0.014130408371302814 0.0037819143005241251 0 0.013880441124355051 0.003474018542965271 0 0.014351297199817138 0.0031248532385508847 0 0.013880441124355051 0.003474018542965271 0 0.014104091608036086 0.0031367163154943172 0 0.014351297199817138 0.0031248532385508847 0 0.013880441124355051 0.003474018542965271 0 0.014104091608036086 0.0031367163154943172 0 0.013677189002366608 0.0033864614236608793 0 0.013880441124355051 0.003474018542965271 0 0.013677189002366608 0.0033864614236608793 0 0.013417006269431219 0.0036788708756285205 0 0.017921534683466456 0.0041847906121870457 0 0.015508398031382433 0.0041923568433908124 0 0.015175259132945771 0.0024110595521751165 0 0.015508398031382433 0.0041923568433908124 0 0.014699570609942442 0.0035317373233976572 0 0.015175259132945771 0.0024110595521751165 0 0.014660883916892943 0.0042886626930539167 0 0.014130408371302814 0.0037819143005241251 0 0.014699570609942442 0.0035317373233976572 0 0.014699570609942442 0.0035317373233976572 0 0.014351297199817138 0.0031248532385508847 0 0.015175259132945771 0.0024110595521751165 0 0.014130408371302814 0.0037819143005241251 0 0.014699570609942442 0.0035317373233976572 0 0.014351297199817138 0.0031248532385508847 0 0.014402389843342611 0.0027284291193130483 0 0.014351297199817138 0.0031248532385508847 0 0.015175259132945771 0.0024110595521751165 0 0.014104091608036086 0.0031367163154943172 0 0.014402389843342611 0.0027284291193130483 0 0.014351297199817138 0.0031248532385508847 0 0.014402389843342611 0.0027284291193130483 0 0.015175259132945771 0.0024110595521751165 0 0.013565205271087583 0.0027613870253597704 0 0.014402389843342611 0.0027284291193130483 0 0.013565205271087583 0.0027613870253597704 0 0.01409913610951234 0.0030773692423728093 0 0.013565205271087583 0.0027613870253597704 0 0.01409913610951234 0.0030773692423728093 0 0.013393304449991837 0.0036083254744278589 0 0.014104091608036086 0.0031367163154943172 0 0.014402389843342611 0.0027284291193130483 0 0.01409913610951234 0.0030773692423728093 0 0.01409913610951234 0.0030773692423728093 0 0.013949619863298464 0.0036383492562317107 0 0.014057899983471204 0.0032259608965497836 0 0.01409913610951234 0.0030773692423728093 0 0.013949619863298464 0.0036383492562317107 0 0.013393304449991837 0.0036083254744278589 0 0.014104091608036086 0.0031367163154943172 0 0.013677189002366608 0.0033864614236608793 0 0.013897900323781352 0.0032163068868432069 0 0.013897900323781352 0.0032163068868432069 0 0.013628556968234928 0.0032095705297124745 0 0.01391365607844596 0.0031961793233950615 0 0.013677189002366608 0.0033864614236608793 0 0.013897900323781352 0.0032163068868432069 0 0.013628556968234928 0.0032095705297124745 0 0.014104091608036086 0.0031367163154943172 0 0.013897900323781352 0.0032163068868432069 0 0.014057899983471204 0.0032259608965497836 0 0.014104091608036086 0.0031367163154943172 0 0.01409913610951234 0.0030773692423728093 0 0.014057899983471204 0.0032259608965497836 0 0.013897900323781352 0.0032163068868432069 0 0.014057899983471204 0.0032259608965497836 0 0.01391365607844596 0.0031961793233950615 0 0.014068003696365072 0.0035071686316514071 0 0.014057899983471204 0.0032259608965497836 0 0.01391365607844596 0.0031961793233950615 0 0.014068003696365072 0.0035071686316514071 0 0.013949619863298464 0.0036383492562317107 0 0.014057899983471204 0.0032259608965497836 0 0.013664247057865838 0.0029743326870882315 0 0.014068003696365072 0.0035071686316514071 0 0.013664931699515138 0.00299783916422136 0 0.014068003696365072 0.0035071686316514071 0 0.01391365607844596 0.0031961793233950615 0 0.013664931699515138 0.00299783916422136 0 0.013628556968234928 0.0032095705297124745 0 0.01391365607844596 0.0031961793233950615 0 0.013664931699515138 0.00299783916422136 0 0.013476776847338997 0.0030377267537268866 0 0.013555562388903028 0.0029335125143184586 0 0.013532973797179763 0.0025056082689794059 0 0.013664931699515138 0.00299783916422136 0 0.013127748397008105 0.0028252398466790817 0 0.013664931699515138 0.00299783916422136 0 0.013127748397008105 0.0028252398466790817 0 0.013296727380229217 0.0031127798284863312 0 0.013127748397008105 0.0028252398466790817 0 0.013296727380229217 0.0031127798284863312 0 0.012779713698102069 0.0030796230306638925 0 0.013628556968234928 0.0032095705297124745 0 0.013664931699515138 0.00299783916422136 0 0.013296727380229217 0.0031127798284863312 0 0.013628556968234928 0.0032095705297124745 0 0.013296727380229217 0.0031127798284863312 0 0.013212585209520612 0.0034058619146286532 0 0.013677189002366608 0.0033864614236608793 0 0.013628556968234928 0.0032095705297124745 0 0.013212585209520612 0.0034058619146286532 0 0.013296727380229217 0.0031127798284863312 0 0.013212585209520612 0.0034058619146286532 0 0.012779713698102069 0.0030796230306638925 0 0.013212585209520612 0.0034058619146286532 0 0.012513157106144739 0.003526033303811738 0 0.012779713698102069 0.0030796230306638925 0 0.012513157106144739 0.003526033303811738 0 0.012779713698102069 0.0030796230306638925 0 0.01200697386212069 0.0030645955477243817 0 0.0123954041833429 0.0024421893284248442 0 0.013532973797179763 0.0025056082689794059 0 0.013127748397008105 0.0028252398466790817 0 0.0123954041833429 0.0024421893284248442 0 0.013127748397008105 0.0028252398466790817 0 0.012779713698102069 0.0030796230306638925 0 0.0123954041833429 0.0024421893284248442 0 0.012779713698102069 0.0030796230306638925 0 0.01200697386212069 0.0030645955477243817 0 0.0123954041833429 0.0024421893284248442 0 0.01200697386212069 0.0030645955477243817 0 0.011096067105554143 0.0025905540317635142 0 0.01200697386212069 0.0030645955477243817 0 0.011096067105554143 0.0025905540317635142 0 0.011083981582550254 0.0031077225452483203 0 0.011765571030978758 0.0034743671871177201 0 0.011083981582550254 0.0031077225452483203 0 0.01137357556647158 0.0038811742275805059 0 0.01200697386212069 0.0030645955477243817 0 0.011765571030978758 0.0034743671871177201 0 0.011083981582550254 0.0031077225452483203 0 0.012513157106144739 0.003526033303811738 0 0.01200697386212069 0.0030645955477243817 0 0.011765571030978758 0.0034743671871177201 0 0.012513157106144739 0.003526033303811738 0 0.011765571030978758 0.0034743671871177201 0 0.01203356672419045 0.003814038415566864 0 0.012513157106144739 0.003526033303811738 0 0.01203356672419045 0.003814038415566864 0 0.012524729616998824 0.003913656940447408 0 0.01203356672419045 0.003814038415566864 0 0.012011350506358869 0.0042318363262645381 0 0.01137357556647158 0.0038811742275805059 0 0.011765571030978758 0.0034743671871177201 0 0.01203356672419045 0.003814038415566864 0 0.01137357556647158 0.0038811742275805059 0 0.012011350506358869 0.0042318363262645381 0 0.01137357556647158 0.0038811742275805059 0 0.011614587885706401 0.0046486288448129237 0 0.01203356672419045 0.003814038415566864 0 0.012011350506358869 0.0042318363262645381 0 0.012524729616998824 0.003913656940447408 0 0.012011350506358869 0.0042318363262645381 0 0.012724334538443949 0.0042518079976251845 0 0.012524729616998824 0.003913656940447408 0 0.012724334538443949 0.0042518079976251845 0 0.012980097156814693 0.0037758928503040835 0 0.012524729616998824 0.003913656940447408 0 0.013218505279493285 0.0041364251102667801 0 0.012980097156814693 0.0037758928503040835 0 0.013417006269431219 0.0036788708756285205 0 0.012724334538443949 0.0042518079976251845 0 0.013218505279493285 0.0041364251102667801 0 0.012980097156814693 0.0037758928503040835 0 0.013677189002366608 0.0033864614236608793 0 0.013212585209520612 0.0034058619146286532 0 0.013417006269431219 0.0036788708756285205 0 0.013212585209520612 0.0034058619146286532 0 0.012980097156814693 0.0037758928503040835 0 0.013417006269431219 0.0036788708756285205 0 0.013212585209520612 0.0034058619146286532 0 0.012513157106144739 0.003526033303811738 0 0.012980097156814693 0.0037758928503040835 0 0.012513157106144739 0.003526033303811738 0 0.012980097156814693 0.0037758928503040835 0 0.012524729616998824 0.003913656940447408 0 0.0078071909173763878 0.0054621295995404785 0 0.0079392318229522443 0.0054119890417263861 0 0.0079372002221197637 0.0055808793432217466 0 0.0087299781804183567 0.0043377844346597352 0 0.0097840908425475426 0.0046702443137456038 0 0.0078071909173763878 0.0054621295995404785 0 0.0079392318229522443 0.0054119890417263861 0 0.0078184265682077064 0.0053189915719907147 0 0.0079858124406925971 0.0052169970241218973 0 0.0079392318229522443 0.0054119890417263861 0 0.0078184265682077064 0.0053189915719907147 0 0.0097506598632166475 0.0031747460139874644 0 0.010343932550882845 0.0032994844505388654 0 0.010270909967498255 0.0028184741178964457 0 0.0096008652812340309 0.0023360503048870137 0 0.0097506598632166475 0.0031747460139874644 0 0.010270909967498255 0.0028184741178964457 0 0.0088261417836060264 0.0037250067365340398 0 0.0087299781804183567 0.0043377844346597352 0 0.0097506598632166475 0.0031747460139874644 0 0.010192606711241024 0.003592122149879467 0 0.0098773561843057862 0.0041189579987143208 0 0.0097506598632166475 0.0031747460139874644 0 0.010192606711241024 0.003592122149879467 0 0.010343932550882845 0.0032994844505388654 0 0.010343932550882845 0.0032994844505388654 0 0.010776111402345245 0.0034510458534261681 0 0.01061027743307775 0.0038833942371954808 0 0.010343932550882845 0.0032994844505388654 0 0.010270909967498255 0.0028184741178964457 0 0.010776111402345245 0.0034510458534261681 0 0.010192606711241024 0.003592122149879467 0 0.010343932550882845 0.0032994844505388654 0 0.01061027743307775 0.0038833942371954808 0 0.010567111841252527 0.0024928717750886233 0 0.011096067105554143 0.0025905540317635142 0 0.011083981582550254 0.0031077225452483203 0 0.010567111841252527 0.0024928717750886233 0 0.010270909967498255 0.0028184741178964457 0 0.011083981582550254 0.0031077225452483203 0 0.011083981582550254 0.0031077225452483203 0 0.010776111402345245 0.0034510458534261681 0 0.01137357556647158 0.0038811742275805059 0 0.010270909967498255 0.0028184741178964457 0 0.011083981582550254 0.0031077225452483203 0 0.010776111402345245 0.0034510458534261681 0 0.01137357556647158 0.0038811742275805059 0 0.010951789703344633 0.004324959535167051 0 0.01061027743307775 0.0038833942371954808 0 0.010776111402345245 0.0034510458534261681 0 0.01137357556647158 0.0038811742275805059 0 0.01061027743307775 0.0038833942371954808 0 0.01137357556647158 0.0038811742275805059 0 0.010951789703344633 0.004324959535167051 0 0.011614587885706401 0.0046486288448129237 0 0.010583278231096853 0.0044052829500389919 0 0.01061027743307775 0.0038833942371954808 0 0.010403280838613756 0.0041603443299198959 0 0.010951789703344633 0.004324959535167051 0 0.010583278231096853 0.0044052829500389919 0 0.01061027743307775 0.0038833942371954808 0 0.010192606711241024 0.003592122149879467 0 0.01061027743307775 0.0038833942371954808 0 0.010253369479700108 0.0039331335131762455 0 0.010192606711241024 0.003592122149879467 0 0.010253369479700108 0.0039331335131762455 0 0.0098773561843057862 0.0041189579987143208 0 0.010191063267382937 0.0041544958982537841 0 0.010253369479700108 0.0039331335131762455 0 0.0098773561843057862 0.0041189579987143208 0 0.010235222832624119 0.0043511500900993713 0 0.010128426827683315 0.0044962535226462539 0 0.010191063267382937 0.0041544958982537841 0 0.010403280838613756 0.0041603443299198959 0 0.010253369479700108 0.0039331335131762455 0 0.01061027743307775 0.0038833942371954808 0 0.010403280838613756 0.0041603443299198959 0 0.010253369479700108 0.0039331335131762455 0 0.010583278231096853 0.0044052829500389919 0 0.010403280838613756 0.0041603443299198959 0 0.010427244563270951 0.0043999720066574691 0 0.010583278231096853 0.0044052829500389919 0 0.010427244563270951 0.0043999720066574691 0 0.010469977438544914 0.0046388779940935354 0 0.010427244563270951 0.0043999720066574691 0 0.010403657977304765 0.0045501973915191146 0 0.010469977438544914 0.0046388779940935354 0 0.010403280838613756 0.0041603443299198959 0 0.010427244563270951 0.0043999720066574691 0 0.010324782277757244 0.0043488916092003799 0 0.010427244563270951 0.0043999720066574691 0 0.010324782277757244 0.0043488916092003799 0 0.010403657977304765 0.0045501973915191146 0 0.010191063267382937 0.0041544958982537841 0 0.010403280838613756 0.0041603443299198959 0 0.010324782277757244 0.0043488916092003799 0 0.010324782277757244 0.0043488916092003799 0 0.010324680116265725 0.0044166228651339717 0 0.010403657977304765 0.0045501973915191146 0 0.010191063267382937 0.0041544958982537841 0 0.01029478513001102 0.0043441231278024961 0 0.01026239360119357 0.0043094367611380821 0 0.010324782277757244 0.0043488916092003799 0 0.01029478513001102 0.0043441231278024961 0 0.010324680116265725 0.0044166228651339717 0 0.010191063267382937 0.0041544958982537841 0 0.010324782277757244 0.0043488916092003799 0 0.01029478513001102 0.0043441231278024961 0 0.01029478513001102 0.0043441231278024961 0 0.010250487089246172 0.0043794972520477546 0 0.010324680116265725 0.0044166228651339717 0 0.01029478513001102 0.0043441231278024961 0 0.010282511931434089 0.004334086242438525 0 0.010250487089246172 0.0043794972520477546 0 0.01131477468124914 0.0049301075243812185 0 0.010465788074777438 0.0051012801865706328 0 0.010523949577713607 0.0047370088325212932 0 0.010157438499495311 0.0045626476784359606 0 0.010153905141017508 0.0045649826595065869 0 0.010153406087287615 0.0045584745680932711 0 0.010133147576421782 0.0044861953034522842 0 0.010128426827683315 0.0044962535226462539 0 0.010128426827683315 0.0044962535226462539 0 0.010637067467568852 0.0043460951242507689 0 0.010637067467568852 0.0043460951242507689 0 0.0097840908425475426 0.0046702443137456038 0 0.010250487089246172 0.0043794972520477546 0 0.010324680116265725 0.0044166228651339717 0 0.010403657977304765 0.0045501973915191146 0 0.010523949577713607 0.0047370088325212932 0 0.010403657977304765 0.0045501973915191146 0 0.010469977438544914 0.0046388779940935354 0 0.010250487089246172 0.0043794972520477546 0 0.010523949577713607 0.0047370088325212932 0 0.010403657977304765 0.0045501973915191146 0 0.010637067467568852 0.0043460951242507689 0 0.010495160027870798 0.0047792708507390777 0 0.012248071997846126 0.0041617524754728507 0 0.01220742098622787 0.0040108891652329681 0 0.012096090814194655 0.0040207826984786825 0 0.01220742098622787 0.0040108891652329681 0 0.012101885329193781 0.0039726514559162932 0 0.012096090814194655 0.0040207826984786825 0 0.010065972398487791 0.0048423111719133986 0 0.0097840908425475426 0.0046702443137456038 0 0.010191063267382937 0.0041544958982537841 0 0.0099867506149317886 0.0042714921634548356 0 0.0098773561843057862 0.0041189579987143208 0 0.010128426827683315 0.0044962535226462539 0 0.0097840908425475426 0.0046702443137456038 0 0.011293530514512984 0.0045230423921317738 0 0.010640822436138772 0.0044093565245144134 0 0.010787111975125828 0.004638097029706207 0 0.011864690068701117 0.0045389714708780841 0 0.011847237551331269 0.0045933331177862996 0 0.011862911605758494 0.0045051859706180947 0 0.010523949577713607 0.0047370088325212932 0 0.010787111975125828 0.004638097029706207 0 0.010469977438544914 0.0046388779940935354 0 0.01131477468124914 0.0049301075243812185 0 0.010523949577713607 0.0047370088325212932 0 0.010787111975125828 0.004638097029706207 0 0.010640822436138772 0.0044093565245144134 0 0.010787111975125828 0.004638097029706207 0 0.010469977438544914 0.0046388779940935354 0 0.010583278231096853 0.0044052829500389919 0 0.010469977438544914 0.0046388779940935354 0 0.010581740881742744 0.0047709977014404117 0 0.010640822436138772 0.0044093565245144134 0 0.010469977438544914 0.0046388779940935354 0 0.010581740881742744 0.0047709977014404117 0 0.011864690068701117 0.0045389714708780841 0 0.011777643909238446 0.0046959543232598724 0 0.011847237551331269 0.0045933331177862996 0 0.011777643909238446 0.0046959543232598724 0 0.011780909136436972 0.0047005784532338528 0 0.011847237551331269 0.0045933331177862996 0 0.01126292988356453 0.0044836961562333324 0 0.011203950581424888 0.0047079207891124273 0 0.011777643909238446 0.0046959543232598724 0 0.011771732110858824 0.0047375234715478481 0 0.011780909136436972 0.0047005784532338528 0 0.010951789703344633 0.004324959535167051 0 0.010583278231096853 0.0044052829500389919 0 0.010581740881742744 0.0047709977014404117 0 0.011203950581424888 0.0047079207891124273 0 0.011595978810185075 0.0046542724193931184 0 0.010951789703344633 0.004324959535167051 0 0.010581740881742744 0.0047709977014404117 0 0.011614587885706401 0.0046486288448129237 0 0.011614587885706401 0.0046486288448129237 0 0.011771732110858824 0.0047375234715478481 0 0.011960820660256584 0.0048441305649559252 0 0.011777643909238446 0.0046959543232598724 0 0.011614587885706401 0.0046486288448129237 0 0.011771732110858824 0.0047375234715478481 0 0.011771732110858824 0.0047375234715478481 0 0.011899255999137742 0.0048952514196680683 0 0.011960820660256584 0.0048441305649559252 0 0.011771732110858824 0.0047375234715478481 0 0.011899255999137742 0.0048952514196680683 0 0.011780909136436972 0.0047005784532338528 0 0.011899255999137742 0.0048952514196680683 0 0.01181560261574854 0.0050417898683239341 0 0.011973471022337728 0.0050876030931590885 0 0.010496484090241374 0.0046327396275142041 0 0.017823652732189187 0.0047345255896130527 0 0.011899255999137742 0.0048952514196680683 0 0.011780909136436972 0.0047005784532338528 0 0.01181560261574854 0.0050417898683239341 0 0.011847237551331269 0.0045933331177862996 0 0.011878654010004345 0.0045779514850391263 0 0.01189362943632394 0.0045263021472066916 0 0.011780909136436972 0.0047005784532338528 0 0.011847237551331269 0.0045933331177862996 0 0.011878654010004345 0.0045779514850391263 0 0.011878654010004345 0.0045779514850391263 0 0.01192700304526491 0.004534941887314908 0 0.011855557873285202 0.0045152055079022875 0 0.011780909136436972 0.0047005784532338528 0 0.011878654010004345 0.0045779514850391263 0 0.011855557873285202 0.0045152055079022875 0 0.011904990537199829 0.0045544189379962529 0 0.01189362943632394 0.0045263021472066916 0 0.01192700304526491 0.004534941887314908 0 0.011878654010004345 0.0045779514850391263 0 0.01189362943632394 0.0045263021472066916 0 0.01192700304526491 0.004534941887314908 0 0.011817672841060405 0.0043795330532071649 0 0.011864690068701117 0.0045389714708780841 0 0.011862911605758494 0.0045051859706180947 0 0.011817672841060405 0.0043795330532071649 0 0.01189362943632394 0.0045263021472066916 0 0.011862911605758494 0.0045051859706180947 0 0.011847237551331269 0.0045933331177862996 0 0.01189362943632394 0.0045263021472066916 0 0.011862911605758494 0.0045051859706180947 0 0.012764055353898379 0.0046883484666068202 0 0.012354647196738852 0.0049410621199429353 0 0.01281759628326116 0.0050757079046635234 0 0.012764055353898379 0.0046883484666068202 0 0.012241357385838394 0.0046404768503838798 0 0.012354647196738852 0.0049410621199429353 0 0.013369211948031904 0.0049189351543351646 0 0.013041125472564981 0.0052309461632010917 0 0.013414611516099158 0.0048761815880362294 0 0.012764055353898379 0.0046883484666068202 0 0.01281759628326116 0.0050757079046635234 0 0.013545595068014669 0.0055155915221680157 0 0.013414611516099158 0.0048761815880362294 0 0.013044614876083303 0.0055663497489644729 0 0.013414611516099158 0.0048761815880362294 0 0.013218505279493285 0.0041364251102667801 0 0.012764055353898379 0.0046883484666068202 0 0.012724334538443949 0.0042518079976251845 0 0.013218505279493285 0.0041364251102667801 0 0.012764055353898379 0.0046883484666068202 0 0.012724334538443949 0.0042518079976251845 0 0.012764055353898379 0.0046883484666068202 0 0.012241357385838394 0.0046404768503838798 0 0.012011350506358869 0.0042318363262645381 0 0.012724334538443949 0.0042518079976251845 0 0.012241357385838394 0.0046404768503838798 0 0.012011350506358869 0.0042318363262645381 0 0.011614587885706401 0.0046486288448129237 0 0.012241357385838394 0.0046404768503838798 0 0.011614587885706401 0.0046486288448129237 0 0.012241357385838394 0.0046404768503838798 0 0.011960820660256584 0.0048441305649559252 0 0.012241357385838394 0.0046404768503838798 0 0.011960820660256584 0.0048441305649559252 0 0.012354647196738852 0.0049410621199429353 0 0.012354647196738852 0.0049410621199429353 0 0.012091019883615542 0.0050289250800038309 0 0.012391809086029026 0.0051470282021483073 0 0.011960820660256584 0.0048441305649559252 0 0.012354647196738852 0.0049410621199429353 0 0.012091019883615542 0.0050289250800038309 0 0.011899255999137742 0.0048952514196680683 0 0.011960820660256584 0.0048441305649559252 0 0.012091019883615542 0.0050289250800038309 0 0.012091019883615542 0.0050289250800038309 0 0.012161577745516749 0.0051775017627262304 0 0.011973471022337728 0.0050876030931590885 0 0.011899255999137742 0.0048952514196680683 0 0.012091019883615542 0.0050289250800038309 0 0.011973471022337728 0.0050876030931590885 0 0.01587900489745089 0.0061698640860634894 0 0.017469926388795708 0.005915208506177984 0 0.01587900489745089 0.0061698640860634894 0 0.012171860582751498 0.0056856790162004974 0 0.012091019883615542 0.0050289250800038309 0 0.012161577745516749 0.0051775017627262304 0 0.012391809086029026 0.0051470282021483073 0 0.012704323147526063 0.0060999656936982132 0 0.013013907074950993 0.0061156162963849547 0 0.012845910650936666 0.0059273865414924912 0 0.013013907074950993 0.0061156162963849547 0 0.012845910650936666 0.0059273865414924912 0 0.013210419767930021 0.0059219468947525975 0 0.012845910650936666 0.0059273865414924912 0 0.013044614876083303 0.0055663497489644729 0 0.013210419767930021 0.0059219468947525975 0 0.012354647196738852 0.0049410621199429353 0 0.012391809086029026 0.0051470282021483073 0 0.01281759628326116 0.0050757079046635234 0 0.012171860582751498 0.0056856790162004974 0 0.013041125472564981 0.0052309461632010917 0 0.013545595068014669 0.0055155915221680157 0 0.013044614876083303 0.0055663497489644729 0 0.013353144964821224 0.0057606632509350645 0 0.013044614876083303 0.0055663497489644729 0 0.013353144964821224 0.0057606632509350645 0 0.013210419767930021 0.0059219468947525975 0 0.013643414629506042 0.0060623293250338323 0 0.013013907074950993 0.0061156162963849547 0 0.013210419767930021 0.0059219468947525975 0 0.014034407809242314 0.0059912988552216669 0 0.017469926388795708 0.005915208506177984 0 0.019103396238082979 0.0053715735270794618 0 0.017469926388795708 0.005915208506177984 0 0.022029446486545212 0.0053369564880196866 0 0.022599295072250079 0.0052592317191320764 0 0.022304612791566127 0.0048943900744252587 0 0.022599295072250079 0.0052592317191320764 0 0.022304612791566127 0.0048943900744252587 0 0.022705792818078222 0.0047767996003169914 0 0.022304612791566127 0.0048943900744252587 0 0.022705792818078222 0.0047767996003169914 0 0.022330865694495952 0.004447237098542463 0 0.022705792818078222 0.0047767996003169914 0 0.022786195193425802 0.0050295539156300527 0 0.022960740747772376 0.0048513928502493774 0 0.022599295072250079 0.0052592317191320764 0 0.022786195193425802 0.0050295539156300527 0 0.023042403612507568 0.0050587491396720417 0 0.022599295072250079 0.0052592317191320764 0 0.022705792818078222 0.0047767996003169914 0 0.022786195193425802 0.0050295539156300527 0 0.017469926388795708 0.005915208506177984 0 0.021959399833230381 0.0053747273832847626 0 0.0203331690950295 0.0064999780273912464 0 0.01767952248218221 0.0067276313501284527 0 0.019847352163894157 0.005881439180464177 0 0.0203331690950295 0.0064999780273912464 0 0.019847352163894157 0.005881439180464177 0 0.021131059993191537 0.0058253266673360003 0 0.023042403612507568 0.0050587491396720417 0 0.023171018786824794 0.0048036778344431865 0 0.022960740747772376 0.0048513928502493774 0 0.022786195193425802 0.0050295539156300527 0 0.023042403612507568 0.0050587491396720417 0 0.022960740747772376 0.0048513928502493774 0 0.020344605982306068 0.0065204120651487438 0 0.021131059993191537 0.0058253266673360003 0 0.022354922624463158 0.0062536149091618485 0 0.01587900489745089 0.0061698640860634894 0 0.01721345461443588 0.0056900242751593754 0 0.021959399833230381 0.0053747273832847626 0 0.022583539009593857 0.0050783901148782852 0 0.019847352163894157 0.005881439180464177 0 0.021131059993191537 0.0058253266673360003 0 0.02197380990037949 0.0051701039121035391 0 0.023042403612507568 0.0050587491396720417 0 0.023414306563208673 0.004871702358275316 0 0.023171018786824794 0.0048036778344431865 0 0.021131059993191537 0.0058253266673360003 0 0.02197380990037949 0.0051701039121035391 0 0.022354922624463158 0.0062536149091618485 0 0.01587900489745089 0.0061698640860634894 0 0.020588517749682105 0.004890216913049741 0 0.023414306563208673 0.004871702358275316 0 0.023171018786824794 0.0048036778344431865 0 0.023334275891160661 0.0046698655834583333 0 0.023171018786824794 0.0048036778344431865 0 0.023334275891160661 0.0046698655834583333 0 0.023085366800795568 0.0045962095273946761 0 0.022705792818078222 0.0047767996003169914 0 0.022960740747772376 0.0048513928502493774 0 0.023085366800795568 0.0045962095273946761 0 0.023171018786824794 0.0048036778344431865 0 0.022960740747772376 0.0048513928502493774 0 0.023085366800795568 0.0045962095273946761 0 0.023085366800795568 0.0045962095273946761 0 0.023387316868568056 0.0041576745863365185 0 0.022889190646377535 0.0042961405928507012 0 0.023334275891160661 0.0046698655834583333 0 0.023085366800795568 0.0045962095273946761 0 0.023387316868568056 0.0041576745863365185 0 0.023334275891160661 0.0046698655834583333 0 0.023387316868568056 0.0041576745863365185 0 0.023532323626958257 0.0045422289913982332 0 0.03529464655985886 0.0043909856646879835 0 0.03343093485731833 0.005375292648623106 0 0.034528099634520033 0.0036044915837623475 0 0.029494596181895091 0.0042037513103638704 0 0.028098748348240218 0.0048543387216816326 0 0.03343093485731833 0.005375292648623106 0 0.031942388519664487 0.0036599001872978073 0 0.034528099634520033 0.0036044915837623475 0 0.031070172857759645 0.0063612476818916998 0 0.03343093485731833 0.005375292648623106 0 0.031942388519664487 0.0036599001872978073 0 0.026692739015219898 0.0053848695940191642 0 0.028098748348240218 0.0048543387216816326 0 0.022705792818078222 0.0047767996003169914 0 0.022330865694495952 0.004447237098542463 0 0.022889190646377535 0.0042961405928507012 0 0.022705792818078222 0.0047767996003169914 0 0.023085366800795568 0.0045962095273946761 0 0.022889190646377535 0.0042961405928507012 0 0.017013350908856507 0.0036824386593324477 0 0.025662270092059597 0.0053821703465450326 0 0.021664811768712051 0.003558503687103573 0 0.022419282599040993 0.0047529005303094778 0 0.022634010841093968 0.0042487749739037756 0 0.022419282599040993 0.0047529005303094778 0 0.022634010841093968 0.0042487749739037756 0 0.022767116614191295 0.0048608229010038643 0 0.017013350908856507 0.0036824386593324477 0 0.017216317451171664 0.004000995555541534 0 0.021664811768712051 0.003558503687103573 0 0.022638100966583034 0.0034849776248208853 0 0.022634010841093968 0.0042487749739037756 0 0.022638100966583034 0.0034849776248208853 0 0.023179470510561857 0.0041555261413712382 0 0.022634010841093968 0.0042487749739037756 0 0.017216317451171664 0.004000995555541534 0 0.017823652732189187 0.0047345255896130527 0 0.022638100966583034 0.0034849776248208853 0 0.023179470510561857 0.0041555261413712382 0 0.023539171044404648 0.0034271680338364475 0 0.023179470510561857 0.0041555261413712382 0 0.022634010841093968 0.0042487749739037756 0 0.023105082679008643 0.0046612291682529752 0 0.022634010841093968 0.0042487749739037756 0 0.023105082679008643 0.0046612291682529752 0 0.022767116614191295 0.0048608229010038643 0 0.023179470510561857 0.0041555261413712382 0 0.023105082679008643 0.0046612291682529752 0 0.02373126360493304 0.0048121587703235475 0 0.02369126258004282 0.0048521301661497264 0 0.023809660046437572 0.0058805140984056758 0 0.023818588923722076 0.0044295103306590047 0 0.02369126258004282 0.0048521301661497264 0 0.023532323626958257 0.0045422289913982332 0 0.023818588923722076 0.0044295103306590047 0 0.017823652732189187 0.0047345255896130527 0 0.023826845719616793 0.004771277092244207 0 0.023179470510561857 0.0041555261413712382 0 0.023539171044404648 0.0034271680338364475 0 0.02373126360493304 0.0048121587703235475 0 0.02369126258004282 0.0048521301661497264 0 0.023809660046437572 0.0058805140984056758 0 0.022998030949470245 0.0055401973699927215 0 0.023809660046437572 0.0058805140984056758 0 0.022998030949470245 0.0055401973699927215 0 0.022354922624463158 0.0062536149091618485 0 0.017823652732189187 0.0047345255896130527 0 0.01721345461443588 0.0056900242751593754 0 0.02197380990037949 0.0051701039121035391 0 0.022998030949470245 0.0055401973699927215 0 0.022354922624463158 0.0062536149091618485 0 0.023414306563208673 0.004871702358275316 0 0.02369126258004282 0.0048521301661497264 0 0.023532323626958257 0.0045422289913982332 0 0.022583539009593857 0.0050783901148782852 0 0.023645757979051874 0.0048199061492656551 0 0.02197380990037949 0.0051701039121035391 0 0.02369126258004282 0.0048521301661497264 0 0.022998030949470245 0.0055401973699927215 0 0.023414306563208673 0.004871702358275316 0 0.023334275891160661 0.0046698655834583333 0 0.023532323626958257 0.0045422289913982332 0 0.023532323626958257 0.0045422289913982332 0 0.023669384860464857 0.0042779949749420709 0 0.023818588923722076 0.0044295103306590047 0 0.023387316868568056 0.0041576745863365185 0 0.023532323626958257 0.0045422289913982332 0 0.023669384860464857 0.0042779949749420709 0 0.03529464655985886 0.0043909856646879835 0 0.036439213387144703 0.0037795559683872766 0 0.035712855324463562 0.0035690026186840297 0 0.023387316868568056 0.0041576745863365185 0 0.023669384860464857 0.0042779949749420709 0 0.0238421120390492 0.0040435871705876833 0 0.029494596181895091 0.0042037513103638704 0 0.029390059316230583 0.0043694949373678437 0 0.023452637889452677 0.0055835592322048457 0 0.02373126360493304 0.0048121587703235475 0 0.023930458580703785 0.0061186019850074883 0 0.023826845719616793 0.004771277092244207 0 0.029390059316230583 0.0043694949373678437 0 0.023669384860464857 0.0042779949749420709 0 0.023818588923722076 0.0044295103306590047 0 0.0238421120390492 0.0040435871705876833 0 0.023452637889452677 0.0055835592322048457 0 0.023460708531540895 0.0062585818261303152 0 0.023930458580703785 0.0061186019850074883 0 0.023452637889452677 0.0055835592322048457 0 0.02373126360493304 0.0048121587703235475 0 0.02309622068027347 0.0050962545108810273 0 0.023105082679008643 0.0046612291682529752 0 0.02373126360493304 0.0048121587703235475 0 0.02309622068027347 0.0050962545108810273 0 0.022767116614191295 0.0048608229010038643 0 0.02309622068027347 0.0050962545108810273 0 0.022633459480039822 0.0049908672564004334 0 0.023105082679008643 0.0046612291682529752 0 0.022767116614191295 0.0048608229010038643 0 0.02309622068027347 0.0050962545108810273 0 0.02553403252179608 0.005920337721329277 0 0.028107050543064546 0.0052596213912865612 0 0.026819628716888998 0.0047485504081822213 0 0.028107050543064546 0.0052596213912865612 0 0.02309622068027347 0.0050962545108810273 0 0.02304659389752621 0.005625688726229444 0 0.022633459480039822 0.0049908672564004334 0 0.030706707044962943 0.0044020988247515302 0 0.031849640335972408 0.0039508285325124759 0 0.030088684873766848 0.0032508989652667102 0 0.023452637889452677 0.0055835592322048457 0 0.02309622068027347 0.0050962545108810273 0 0.02304659389752621 0.005625688726229444 0 0.026819628716888998 0.0047485504081822213 0 0.03123169601715365 0.0035130891793169021 0 0.023452637889452677 0.0055835592322048457 0 0.02304659389752621 0.005625688726229444 0 0.023460708531540895 0.0062585818261303152 0 0.033062469651868889 0.0044069452650037783 0 0.031849640335972408 0.0039508285325124759 0 0.031325041531759509 0.005558352032970078 0 0.030706707044962943 0.0044020988247515302 0 0.031849640335972408 0.0039508285325124759 0 0.031325041531759509 0.005558352032970078 0 0.029282382601077007 0.0051724750482096656 0 0.029280727222882993 0.0050472545317018789 0 0.029395198321781585 0.0050519549878510709 0 0.029280727222882993 0.0050472545317018789 0 0.029373614055409978 0.0050172680155910268 0 0.029395198321781585 0.0050519549878510709 0 0.031125555957049203 0.0048932772950237551 0 0.028107050543064546 0.0052596213912865612 0 0.025662270092059597 0.0053821703465450326 0 0.028107050543064546 0.0052596213912865612 0 0.026366394977883172 0.0054101998492635207 0 0.027060458008613186 0.0056832418931523831 0 0.026695666075540136 0.0060031199611541757 0 0.025662270092059597 0.0053821703465450326 0 0.02553403252179608 0.005920337721329277 0 0.038403834933421761 0.00047690188707562509 0 0.038469353532742376 0.00065739924864199374 0 0.038275729944835427 0.00074601500774496292 0 0.038403834933421761 0.00047690188707562509 0 0.038084068762966855 0.00058973938664346208 0 0.038275729944835427 0.00074601500774496292 0 0.038084068762966855 0.00058973938664346208 0 0.038275729944835427 0.00074601500774496292 0 0.037913101860436928 0.00090685534810780802 0 0.038275729944835427 0.00074601500774496292 0 0.038190056924874705 0.0011002990967602748 0 0.037913101860436928 0.00090685534810780802 0 0.033331220576166991 0.0029880365020253452 0 0.031849640335972408 0.0039508285325124759 0 0.031879617202939262 0.0027227298484762013 0 0.038982611420450793 0.00080820231353339505 0 0.035910270220490495 0.0020314605556798421 0 0.038466612788121239 0.00085038984780541236 0 0.038275729944835427 0.00074601500774496292 0 0.038190056924874705 0.0011002990967602748 0 0.035910270220490495 0.0020314605556798421 0 0.03123169601715365 0.0035130891793169021 0 0.035526419095316168 0.0030895916725097745 0 0.036326958777914198 0.002863157309340789 0 0.03653409463207858 0.0032159431816739126 0 0.035526419095316168 0.0030895916725097745 0 0.03653409463207858 0.0032159431816739126 0 0.036548632339015431 0.0032517251642106824 0 0.038190056924874705 0.0011002990967602748 0 0.037913101860436928 0.00090685534810780802 0 0.037376972252587168 0.0013435402138462389 0 0.035910270220490495 0.0020314605556798421 0 0.037125811865785945 0.0023122748564768799 0 0.031849640335972408 0.0039508285325124759 0 0.031879617202939262 0.0027227298484762013 0 0.030088684873766848 0.0032508989652667102 0 0.037913101860436928 0.00090685534810780802 0 0.037622141907820893 0.00094525355378271821 0 0.037376972252587168 0.0013435402138462389 0 0.038084068762966855 0.00058973938664346208 0 0.037913101860436928 0.00090685534810780802 0 0.037854983547258428 0.00076895732539310592 0 0.037913101860436928 0.00090685534810780802 0 0.037854983547258428 0.00076895732539310592 0 0.037622141907820893 0.00094525355378271821 0 0.037672475431007296 0.00072109443947089493 0 0.037622141907820893 0.00094525355378271821 0 0.037403653171882163 0.00073640930093224098 0 0.037854983547258428 0.00076895732539310592 0 0.037672475431007296 0.00072109443947089493 0 0.037622141907820893 0.00094525355378271821 0 0.037622141907820893 0.00094525355378271821 0 0.037262161498751452 0.0010454412036644315 0 0.037403653171882163 0.00073640930093224098 0 0.037262161498751452 0.0010454412036644315 0 0.036805070818920912 0.0011959220460124108 0 0.036966088548262235 0.00068123676451002646 0 0.037262161498751452 0.0010454412036644315 0 0.036966088548262235 0.00068123676451002646 0 0.037403653171882163 0.00073640930093224098 0 0.037262161498751452 0.0010454412036644315 0 0.037376972252587168 0.0013435402138462389 0 0.036805070818920912 0.0011959220460124108 0 0.037622141907820893 0.00094525355378271821 0 0.037262161498751452 0.0010454412036644315 0 0.037376972252587168 0.0013435402138462389 0 0.03123169601715365 0.0035130891793169021 0 0.035298478526549514 0.0042532259085004435 0 0.03653409463207858 0.0032159431816739126 0 0.036548632339015431 0.0032517251642106824 0 0.036363090930445589 0.0032921558807952533 0 0.036644543297094198 0.0035023407615708269 0 0.03653409463207858 0.0032159431816739126 0 0.036334649912660305 0.0036025504197626174 0 0.03123169601715365 0.0035130891793169021 0 0.029390059316230583 0.0043694949373678437 0 0.029390059316230583 0.0043694949373678437 0 0.034338762460357934 0.0035305942327526992 0 0.03653409463207858 0.0032159431816739126 0 0.036334649912660305 0.0036025504197626174 0 0.036363090930445589 0.0032921558807952533 0 0.036363090930445589 0.0032921558807952533 0 0.035712855324463562 0.0035690026186840297 0 0.035574049948357507 0.0027917515675885871 0 0.036548632339015431 0.0032517251642106824 0 0.036363090930445589 0.0032921558807952533 0 0.035574049948357507 0.0027917515675885871 0 0.036439213387144703 0.0037795559683872766 0 0.036363090930445589 0.0032921558807952533 0 0.035712855324463562 0.0035690026186840297 0 0.037376972252587168 0.0013435402138462389 0 0.036805070818920912 0.0011959220460124108 0 0.036073938935613274 0.0017329608409240569 0 0.037125811865785945 0.0023122748564768799 0 0.03569614172513455 0.0022364547972319403 0 0.036805070818920912 0.0011959220460124108 0 0.036236543744900832 0.00050316667216185145 0 0.036073938935613274 0.0017329608409240569 0 0.036236543744900832 0.00050316667216185145 0 0.037205051092309364 7.3240356589728608e-05 0 0.036966088548262235 0.00068123676451002646 0 0.036805070818920912 0.0011959220460124108 0 0.036236543744900832 0.00050316667216185145 0 0.036966088548262235 0.00068123676451002646 0 0.036236543744900832 0.00050316667216185145 0 0.036508027694587636 -0.00063455025262990549 0 0.037205051092309364 7.3240356589728608e-05 0 0.037477364885875768 -0.0012034245688357921 0 0.037205051092309364 7.3240356589728608e-05 0 0.037849625618195215 -0.00032593628052179083 0 0.037477364885875768 -0.0012034245688357921 0 0.036508027694587636 -0.00063455025262990549 0 0.037205051092309364 7.3240356589728608e-05 0 0.037205051092309364 7.3240356589728608e-05 0 0.036966088548262235 0.00068123676451002646 0 0.037403653171882163 0.00073640930093224098 0 0.037205051092309364 7.3240356589728608e-05 0 0.037403653171882163 0.00073640930093224098 0 0.037796962564573676 0.00043059914743935325 0 0.037796962564573676 0.00043059914743935325 0 0.037849625618195215 -0.00032593628052179083 0 0.038191301121133947 0.00019376793795897879 0 0.037672475431007296 0.00072109443947089493 0 0.037403653171882163 0.00073640930093224098 0 0.037796962564573676 0.00043059914743935325 0 0.037854983547258428 0.00076895732539310592 0 0.037672475431007296 0.00072109443947089493 0 0.037796962564573676 0.00043059914743935325 0 0.038084068762966855 0.00058973938664346208 0 0.037854983547258428 0.00076895732539310592 0 0.037796962564573676 0.00043059914743935325 0 0.037205051092309364 7.3240356589728608e-05 0 0.037796962564573676 0.00043059914743935325 0 0.037849625618195215 -0.00032593628052179083 0 0.037849625618195215 -0.00032593628052179083 0 0.038243503990182642 -0.00026548898020372442 0 0.038191301121133947 0.00019376793795897879 0 0.038445270139357911 -5.1198524654848382e-05 0 0.038573259952012731 -0.0003797301033092341 0 0.038243503990182642 -0.00026548898020372442 0 0.038445270139357911 -5.1198524654848382e-05 0 0.038243503990182642 -0.00026548898020372442 0 0.038191301121133947 0.00019376793795897879 0 0.038445270139357911 -5.1198524654848382e-05 0 0.038495794467203567 0.00021551154641852327 0 0.038191301121133947 0.00019376793795897879 0 0.038084068762966855 0.00058973938664346208 0 0.037796962564573676 0.00043059914743935325 0 0.038191301121133947 0.00019376793795897879 0 0.038403834933421761 0.00047690188707562509 0 0.038084068762966855 0.00058973938664346208 0 0.038191301121133947 0.00019376793795897879 0 0.038403834933421761 0.00047690188707562509 0 0.038495794467203567 0.00021551154641852327 0 0.038191301121133947 0.00019376793795897879 0 0.031942388519664487 0.0036599001872978073 0 0.034528099634520033 0.0036044915837623475 0 0.033982224141399925 0.0020179300663648687 0 0.031230937014253439 0.0019050910972885095 0 0.031942388519664487 0.0036599001872978073 0 0.033982224141399925 0.0020179300663648687 0 0.03529464655985886 0.0043909856646879835 0 0.035712855324463562 0.0035690026186840297 0 0.034528099634520033 0.0036044915837623475 0 0.035712855324463562 0.0035690026186840297 0 0.034528099634520033 0.0036044915837623475 0 0.035574049948357507 0.0027917515675885871 0 0.03569614172513455 0.0022364547972319403 0 0.034051412753922136 0.0020171004586606849 0 0.036073938935613274 0.0017329608409240569 0 0.033982224141399925 0.0020179300663648687 0 0.034891586247577051 0.00050486039189320635 0 0.034528099634520033 0.0036044915837623475 0 0.035574049948357507 0.0027917515675885871 0 0.033982224141399925 0.0020179300663648687 0 0.036236543744900832 0.00050316667216185145 0 0.036073938935613274 0.0017329608409240569 0 0.034891586247577051 0.00050486039189320635 0 0.035426975462787225 -0.00072913792101318492 0 0.036236543744900832 0.00050316667216185145 0 0.034891586247577051 0.00050486039189320635 0 0.035426975462787225 -0.00072913792101318492 0 0.036236543744900832 0.00050316667216185145 0 0.036508027694587636 -0.00063455025262990549 0 0.035426975462787225 -0.00072913792101318492 0 0.034891586247577051 0.00050486039189320635 0 0.034059112416955244 -0.00055925464219000725 0 0.034891586247577051 0.00050486039189320635 0 0.034059112416955244 -0.00055925464219000725 0 0.032662911972318368 0.00058703050519738284 0 0.032684457548837621 -0.0010861937432862095 0 0.034059112416955244 -0.00055925464219000725 0 0.032662911972318368 0.00058703050519738284 0 0.031230937014253439 0.0019050910972885095 0 0.033982224141399925 0.0020179300663648687 0 0.032662911972318368 0.00058703050519738284 0 0.033982224141399925 0.0020179300663648687 0 0.034891586247577051 0.00050486039189320635 0 0.032662911972318368 0.00058703050519738284 0 0.031230937014253439 0.0019050910972885095 0 0.032662911972318368 0.00058703050519738284 0 0.030693536322137699 5.4541817403826542e-05 0 0.032684457548837621 -0.0010861937432862095 0 0.032662911972318368 0.00058703050519738284 0 0.030693536322137699 5.4541817403826542e-05 0 0.03085217855300194 -0.0015225458644824432 0 0.030693536322137699 5.4541817403826542e-05 0 0.028570755954541397 -0.00066536787967943079 0 0.030693536322137699 5.4541817403826542e-05 0 0.028570755954541397 -0.00066536787967943079 0 0.028551777434010855 0.0010575591110930152 0 0.031230937014253439 0.0019050910972885095 0 0.030693536322137699 5.4541817403826542e-05 0 0.028551777434010855 0.0010575591110930152 0 0.031230937014253439 0.0019050910972885095 0 0.028551777434010855 0.0010575591110930152 0 0.029319789477225768 0.0028296659672811886 0 0.031230937014253439 0.0019050910972885095 0 0.031942388519664487 0.0036599001872978073 0 0.029319789477225768 0.0028296659672811886 0 0.028551777434010855 0.0010575591110930152 0 0.029319789477225768 0.0028296659672811886 0 0.026875274672407627 0.0020581436363240543 0 0.029319789477225768 0.0028296659672811886 0 0.027259746836049412 0.0036402914602682739 0 0.029378161245014679 0.004890231707726473 0 0.031942388519664487 0.0036599001872978073 0 0.029319789477225768 0.0028296659672811886 0 0.029378161245014679 0.004890231707726473 0 0.025751838982534248 0.0028880393479419975 0 0.027259746836049412 0.0036402914602682739 0 0.024534079672123003 0.003819973739032229 0 0.025751838982534248 0.0028880393479419975 0 0.02520537530380532 0.0022299230166093285 0 0.024538514446815846 0.0029395891066921901 0 0.025751838982534248 0.0028880393479419975 0 0.024538514446815846 0.0029395891066921901 0 0.024534079672123003 0.003819973739032229 0 0.029319789477225768 0.0028296659672811886 0 0.027259746836049412 0.0036402914602682739 0 0.026875274672407627 0.0020581436363240543 0 0.025751838982534248 0.0028880393479419975 0 0.027259746836049412 0.0036402914602682739 0 0.026875274672407627 0.0020581436363240543 0 0.026875274672407627 0.0020581436363240543 0 0.025792138410657826 0.0015411434955280034 0 0.026519544573506814 0.0010878566998090903 0 0.025751838982534248 0.0028880393479419975 0 0.026875274672407627 0.0020581436363240543 0 0.02520537530380532 0.0022299230166093285 0 0.026875274672407627 0.0020581436363240543 0 0.02520537530380532 0.0022299230166093285 0 0.025792138410657826 0.0015411434955280034 0 0.02520537530380532 0.0022299230166093285 0 0.025792138410657826 0.0015411434955280034 0 0.024942638327700748 0.0015481184701218933 0 0.025792138410657826 0.0015411434955280034 0 0.026519544573506814 0.0010878566998090903 0 0.025616829359227548 0.00088117802201130861 0 0.025792138410657826 0.0015411434955280034 0 0.025616829359227548 0.00088117802201130861 0 0.024942638327700748 0.0015481184701218933 0 0.026519544573506814 0.0010878566998090903 0 0.027034070872957297 0.00019700799610122 0 0.026203765269251011 0.00037960720740050553 0 0.026519544573506814 0.0010878566998090903 0 0.025616829359227548 0.00088117802201130861 0 0.026203765269251011 0.00037960720740050553 0 0.028551777434010855 0.0010575591110930152 0 0.026519544573506814 0.0010878566998090903 0 0.027034070872957297 0.00019700799610122 0 0.028551777434010855 0.0010575591110930152 0 0.026875274672407627 0.0020581436363240543 0 0.026519544573506814 0.0010878566998090903 0 0.028570755954541397 -0.00066536787967943079 0 0.028551777434010855 0.0010575591110930152 0 0.027034070872957297 0.00019700799610122 0 0.02672089662848439 -0.00095848035282204886 0 0.028570755954541397 -0.00066536787967943079 0 0.027034070872957297 0.00019700799610122 0 0.025616829359227548 0.00088117802201130861 0 0.026203765269251011 0.00037960720740050553 0 0.025732006384956568 0.00019486180768578647 0 0.026203765269251011 0.00037960720740050553 0 0.026329894350958769 -0.00023429771895825449 0 0.025732006384956568 0.00019486180768578647 0 0.027034070872957297 0.00019700799610122 0 0.026203765269251011 0.00037960720740050553 0 0.026329894350958769 -0.00023429771895825449 0 0.029220855678682336 0.00045646180573428785 0 0.027097144334915706 -0.00050496123447052704 0 0.026639182946292014 -0.00045872268695662343 0 0.027034070872957297 0.00019700799610122 0 0.026329894350958769 -0.00023429771895825449 0 0.029220855678682336 0.00045646180573428785 0 0.027741667159758631 0.00070746408395490747 0 0.025962051277824961 -0.00036024647801554251 0 0.026329894350958769 -0.00023429771895825449 0 0.025732006384956568 0.00019486180768578647 0 0.025962051277824961 -0.00036024647801554251 0 0.026613392726342194 -0.00037490696221508728 0 0.026329894350958769 -0.00023429771895825449 0 0.025962051277824961 -0.00036024647801554251 0 0.025732006384956568 0.00019486180768578647 0 0.02526149026096312 -7.8660889500995371e-05 0 0.025732006384956568 0.00019486180768578647 0 0.02526149026096312 -7.8660889500995371e-05 0 0.025021182924230383 0.00079510744049213309 0 0.02526149026096312 -7.8660889500995371e-05 0 0.024402607960137913 0.00067328864334309675 0 0.025021182924230383 0.00079510744049213309 0 0.024184836616357938 -0.00071551088963880949 0 0.02451788982630787 -7.8221171142524315e-05 0 0.023627818109615728 0.00044154100645855254 0 0.02526149026096312 -7.8660889500995371e-05 0 0.02451788982630787 -7.8221171142524315e-05 0 0.024402607960137913 0.00067328864334309675 0 0.02451788982630787 -7.8221171142524315e-05 0 0.024402607960137913 0.00067328864334309675 0 0.023627818109615728 0.00044154100645855254 0 0.024402607960137913 0.00067328864334309675 0 0.023713618124137751 0.0013521037437993491 0 0.024206951875827481 0.0016136482735632262 0 0.024402607960137913 0.00067328864334309675 0 0.023713618124137751 0.0013521037437993491 0 0.023627818109615728 0.00044154100645855254 0 0.024402607960137913 0.00067328864334309675 0 0.025021182924230383 0.00079510744049213309 0 0.024206951875827481 0.0016136482735632262 0 0.025021182924230383 0.00079510744049213309 0 0.024942638327700748 0.0015481184701218933 0 0.024206951875827481 0.0016136482735632262 0 0.025616829359227548 0.00088117802201130861 0 0.025021182924230383 0.00079510744049213309 0 0.024942638327700748 0.0015481184701218933 0 0.025616829359227548 0.00088117802201130861 0 0.025732006384956568 0.00019486180768578647 0 0.025021182924230383 0.00079510744049213309 0 0.023166092836866024 -0.00016819074850107514 0 0.021842579103372475 -0.00042799237610937274 0 0.022586379258336706 0.00069511553804779181 0 0.023166092836866024 -0.00016819074850107514 0 0.022586379258336706 0.00069511553804779181 0 0.023627818109615728 0.00044154100645855254 0 0.022586379258336706 0.00069511553804779181 0 0.023627818109615728 0.00044154100645855254 0 0.022979394493861969 0.001396890144030163 0 0.023713618124137751 0.0013521037437993491 0 0.023627818109615728 0.00044154100645855254 0 0.022979394493861969 0.001396890144030163 0 0.023713618124137751 0.0013521037437993491 0 0.022979394493861969 0.001396890144030163 0 0.023159153449662639 0.0019146341436888812 0 0.021721160225290841 0.00099424408033621514 0 0.022586379258336706 0.00069511553804779181 0 0.022146515674947881 0.0017558828663802109 0 0.022586379258336706 0.00069511553804779181 0 0.022979394493861969 0.001396890144030163 0 0.022146515674947881 0.0017558828663802109 0 0.022146515674947881 0.0017558828663802109 0 0.022690633148596918 0.0020331690314632153 0 0.02228435464169801 0.0025665929284235034 0 0.02182530849320953 0.0023423292883467802 0 0.022146515674947881 0.0017558828663802109 0 0.02228435464169801 0.0025665929284235034 0 0.022979394493861969 0.001396890144030163 0 0.022146515674947881 0.0017558828663802109 0 0.022690633148596918 0.0020331690314632153 0 0.022690633148596918 0.0020331690314632153 0 0.022882861625614103 0.002464580002885239 0 0.02228435464169801 0.0025665929284235034 0 0.022979394493861969 0.001396890144030163 0 0.022690633148596918 0.0020331690314632153 0 0.023159153449662639 0.0019146341436888812 0 0.022690633148596918 0.0020331690314632153 0 0.023159153449662639 0.0019146341436888812 0 0.022882861625614103 0.002464580002885239 0 0.023159153449662639 0.0019146341436888812 0 0.022882861625614103 0.002464580002885239 0 0.023555240364162879 0.002170719203971713 0 0.022882861625614103 0.002464580002885239 0 0.02256542082978388 0.0030056411199983935 0 0.023102300137787208 0.0027964948766280354 0 0.02256542082978388 0.0030056411199983935 0 0.02228435464169801 0.0025665929284235034 0 0.022186238332421136 0.0030535957931634903 0 0.022882861625614103 0.002464580002885239 0 0.02256542082978388 0.0030056411199983935 0 0.02228435464169801 0.0025665929284235034 0 0.021657433330342878 0.0029762189747989587 0 0.02228435464169801 0.0025665929284235034 0 0.022186238332421136 0.0030535957931634903 0 0.02182530849320953 0.0023423292883467802 0 0.0217937637293645 0.0029152042007258342 0 0.02228435464169801 0.0025665929284235034 0 0.021780107031396573 0.0020946733884242858 0 0.022066228107169621 0.0026956167869401503 0 0.02520537530380532 0.0022299230166093285 0 0.024042364873832982 0.0024436473462929069 0 0.024538514446815846 0.0029395891066921901 0 0.02520537530380532 0.0022299230166093285 0 0.024042364873832982 0.0024436473462929069 0 0.024942638327700748 0.0015481184701218933 0 0.024042364873832982 0.0024436473462929069 0 0.024942638327700748 0.0015481184701218933 0 0.024206951875827481 0.0016136482735632262 0 0.023713618124137751 0.0013521037437993491 0 0.024206951875827481 0.0016136482735632262 0 0.023555240364162879 0.002170719203971713 0 0.023713618124137751 0.0013521037437993491 0 0.023159153449662639 0.0019146341436888812 0 0.023555240364162879 0.002170719203971713 0 0.024042364873832982 0.0024436473462929069 0 0.023555240364162879 0.002170719203971713 0 0.023102300137787208 0.0027964948766280354 0 0.024042364873832982 0.0024436473462929069 0 0.024206951875827481 0.0016136482735632262 0 0.023555240364162879 0.002170719203971713 0 0.024042364873832982 0.0024436473462929069 0 0.023102300137787208 0.0027964948766280354 0 0.023497172193231556 0.0032776496160337319 0 0.022882861625614103 0.002464580002885239 0 0.023555240364162879 0.002170719203971713 0 0.023102300137787208 0.0027964948766280354 0 0.02256542082978388 0.0030056411199983935 0 0.023102300137787208 0.0027964948766280354 0 0.022825015114828134 0.0032741548202731108 0 0.023102300137787208 0.0027964948766280354 0 0.023497172193231556 0.0032776496160337319 0 0.022825015114828134 0.0032741548202731108 0 0.023497172193231556 0.0032776496160337319 0 0.024538514446815846 0.0029395891066921901 0 0.024534079672123003 0.003819973739032229 0 0.024042364873832982 0.0024436473462929069 0 0.023497172193231556 0.0032776496160337319 0 0.024538514446815846 0.0029395891066921901 0 0.023497172193231556 0.0032776496160337319 0 0.023257316974375577 0.0038132612098399593 0 0.024534079672123003 0.003819973739032229 0 0.023257316974375577 0.0038132612098399593 0 0.022827717258674426 0.0035853995205697114 0 0.022553839247304978 0.003770053688699016 0 0.023497172193231556 0.0032776496160337319 0 0.023257316974375577 0.0038132612098399593 0 0.022827717258674426 0.0035853995205697114 0 0.023497172193231556 0.0032776496160337319 0 0.022825015114828134 0.0032741548202731108 0 0.022827717258674426 0.0035853995205697114 0 0.022825015114828134 0.0032741548202731108 0 0.022482874791757167 0.0035239483352053017 0 0.022447211076167147 0.0033365521435506189 0 0.022482874791757167 0.0035239483352053017 0 0.022827717258674426 0.0035853995205697114 0 0.022396315478305871 0.0036631254275923696 0 0.022825015114828134 0.0032741548202731108 0 0.022482874791757167 0.0035239483352053017 0 0.022827717258674426 0.0035853995205697114 0 0.022827717258674426 0.0035853995205697114 0 0.022553839247304978 0.003770053688699016 0 0.022396315478305871 0.0036631254275923696 0 0.022553839247304978 0.003770053688699016 0 0.022396315478305871 0.0036631254275923696 0 0.022159663215981482 0.0037428618987336839 0 0.022482874791757167 0.0035239483352053017 0 0.022396315478305871 0.0036631254275923696 0 0.022173367050968732 0.0036369923833143632 0 0.022396315478305871 0.0036631254275923696 0 0.022173367050968732 0.0036369923833143632 0 0.022159663215981482 0.0037428618987336839 0 0.022159663215981482 0.0037428618987336839 0 0.021909590768652554 0.0037014666833069623 0 0.021893727653196634 0.0037913747925990829 0 0.022173367050968732 0.0036369923833143632 0 0.022159663215981482 0.0037428618987336839 0 0.021909590768652554 0.0037014666833069623 0 0.022553839247304978 0.003770053688699016 0 0.022159663215981482 0.0037428618987336839 0 0.022186626898921726 0.0038208707689423864 0 0.022159663215981482 0.0037428618987336839 0 0.022186626898921726 0.0038208707689423864 0 0.021893727653196634 0.0037913747925990829 0 0.022553839247304978 0.003770053688699016 0 0.022186626898921726 0.0038208707689423864 0 0.02258922505865275 0.0038333078272342019 0 0.022186626898921726 0.0038208707689423864 0 0.02258922505865275 0.0038333078272342019 0 0.022121092278817592 0.0038654546333082018 0 0.02258922505865275 0.0038333078272342019 0 0.02223403683262545 0.0038851803007111082 0 0.022889578142583026 0.003857330703829296 0 0.02258922505865275 0.0038333078272342019 0 0.022121092278817592 0.0038654546333082018 0 0.02223403683262545 0.0038851803007111082 0 0.023257316974375577 0.0038132612098399593 0 0.02258922505865275 0.0038333078272342019 0 0.022889578142583026 0.003857330703829296 0 0.023257316974375577 0.0038132612098399593 0 0.022553839247304978 0.003770053688699016 0 0.02258922505865275 0.0038333078272342019 0 0.021626645817075175 0.003213648011813456 0 0.02157296352301424 0.0035173845726587808 0 0.021762579905033077 0.0033928886069676746 0 0.021657433330342878 0.0029762189747989587 0 0.022186238332421136 0.0030535957931634903 0 0.022053008320680075 0.0034086003277064088 0 0.021780107031396573 0.0020946733884242858 0 0.021961320801305039 0.0034975920288975934 0 0.022186238332421136 0.0030535957931634903 0 0.022053008320680075 0.0034086003277064088 0 0.022276114016080709 0.0032899950006677436 0 0.022053008320680075 0.0034086003277064088 0 0.022276114016080709 0.0032899950006677436 0 0.022145022580421416 0.0035037740008060287 0 0.02256542082978388 0.0030056411199983935 0 0.022186238332421136 0.0030535957931634903 0 0.022276114016080709 0.0032899950006677436 0 0.02256542082978388 0.0030056411199983935 0 0.022825015114828134 0.0032741548202731108 0 0.022447211076167147 0.0033365521435506189 0 0.02256542082978388 0.0030056411199983935 0 0.022276114016080709 0.0032899950006677436 0 0.022447211076167147 0.0033365521435506189 0 0.022276114016080709 0.0032899950006677436 0 0.022447211076167147 0.0033365521435506189 0 0.022145022580421416 0.0035037740008060287 0 0.022482874791757167 0.0035239483352053017 0 0.022447211076167147 0.0033365521435506189 0 0.022145022580421416 0.0035037740008060287 0 0.022482874791757167 0.0035239483352053017 0 0.022173367050968732 0.0036369923833143632 0 0.022145022580421416 0.0035037740008060287 0 0.022173367050968732 0.0036369923833143632 0 0.022145022580421416 0.0035037740008060287 0 0.021970892134641339 0.0036208555703126678 0 0.022145022580421416 0.0035037740008060287 0 0.021970892134641339 0.0036208555703126678 0 0.021881094593432519 0.0035977129070975454 0 0.022173367050968732 0.0036369923833143632 0 0.021909590768652554 0.0037014666833069623 0 0.021970892134641339 0.0036208555703126678 0 0.021909590768652554 0.0037014666833069623 0 0.021764223039118819 0.0036203938432072869 0 0.021631181571283676 0.0037280857131747145 0 0.021909590768652554 0.0037014666833069623 0 0.021970892134641339 0.0036208555703126678 0 0.021764223039118819 0.0036203938432072869 0 0.021970892134641339 0.0036208555703126678 0 0.021764223039118819 0.0036203938432072869 0 0.021881094593432519 0.0035977129070975454 0 0.021764223039118819 0.0036203938432072869 0 0.021881094593432519 0.0035977129070975454 0 0.02176781216254885 0.0035809685507206157 0 0.022053008320680075 0.0034086003277064088 0 0.022145022580421416 0.0035037740008060287 0 0.021881094593432519 0.0035977129070975454 0 0.02157296352301424 0.0035173845726587808 0 0.02176781216254885 0.0035809685507206157 0 0.021714538482477067 0.003665347651032391 0 0.021764223039118819 0.0036203938432072869 0 0.02176781216254885 0.0035809685507206157 0 0.021714538482477067 0.003665347651032391 0 0.02157296352301424 0.0035173845726587808 0 0.021762579905033077 0.0033928886069676746 0 0.02176781216254885 0.0035809685507206157 0 0.021702386082058791 0.003612989158834159 0 0.02132988118278855 0.0036916311977904866 0 0.021762579905033077 0.0033928886069676746 0 0.021881094593432519 0.0035977129070975454 0 0.02176781216254885 0.0035809685507206157 0 0.021961320801305039 0.0034975920288975934 0 0.021898880647390456 0.0035417892445618639 0 0.02093640076985907 0.0036813054221011814 0 0.021038639837861577 0.0037814822915227119 0 0.021375769273866144 0.0037533202694833303 0 0.020974716159173411 0.0037322763262368618 0 0.020941141300255407 0.0037434333501916964 0 0.02093640076985907 0.0036813054221011814 0 0.020941141300255407 0.0037434333501916964 0 0.02093640076985907 0.0036813054221011814 0 0.021038639837861577 0.0037814822915227119 0 0.021764223039118819 0.0036203938432072869 0 0.02093640076985907 0.0036813054221011814 0 0.021375769273866144 0.0037533202694833303 0 0.021038639837861577 0.0037814822915227119 0 0.021375769273866144 0.0037533202694833303 0 0.021118481334053273 0.0037654401228285352 0 0.021375769273866144 0.0037533202694833303 0 0.021631181571283676 0.0037280857131747145 0 0.021410395632109069 0.003770482329952413 0 0.021764223039118819 0.0036203938432072869 0 0.021375769273866144 0.0037533202694833303 0 0.021631181571283676 0.0037280857131747145 0 0.021909590768652554 0.0037014666833069623 0 0.021631181571283676 0.0037280857131747145 0 0.021677525165463906 0.0037598756691484504 0 0.021631181571283676 0.0037280857131747145 0 0.021410395632109069 0.003770482329952413 0 0.021677525165463906 0.0037598756691484504 0 0.021375769273866144 0.0037533202694833303 0 0.021410395632109069 0.003770482329952413 0 0.021118481334053273 0.0037654401228285352 0 0.021410395632109069 0.003770482329952413 0 0.021207651599878127 0.0037759099985450505 0 0.021118481334053273 0.0037654401228285352 0 0.021410395632109069 0.003770482329952413 0 0.021207651599878127 0.0037759099985450505 0 0.021447198932161075 0.003790816252819748 0 0.021207651599878127 0.0037759099985450505 0 0.020962149617769602 0.0037446906385206835 0 0.021118481334053273 0.0037654401228285352 0 0.020594837728830098 0.003673037037995373 0 0.020962149617769602 0.0037446906385206835 0 0.020791932621898161 0.0036903753942125806 0 0.020594837728830098 0.003673037037995373 0 0.020962149617769602 0.0037446906385206835 0 0.020891137156159159 0.0037605550885702389 0 0.020962149617769602 0.0037446906385206835 0 0.020791932621898161 0.0036903753942125806 0 0.021118481334053273 0.0037654401228285352 0 0.021038639837861577 0.0037814822915227119 0 0.020791932621898161 0.0036903753942125806 0 0.021118481334053273 0.0037654401228285352 0 0.02107506105029644 0.0036425320278497004 0 0.020434928911945028 0.0034548392145584295 0 0.020861412275992187 0.003673371717413 0 0.020941141300255407 0.0037434333501916964 0 0.021038639837861577 0.0037814822915227119 0 0.02086843397846766 0.0037300623109483774 0 0.021038639837861577 0.0037814822915227119 0 0.020791932621898161 0.0036903753942125806 0 0.02086843397846766 0.0037300623109483774 0 0.020434928911945028 0.0034548392145584295 0 0.020791932621898161 0.0036903753942125806 0 0.02086843397846766 0.0037300623109483774 0 0.020434928911945028 0.0034548392145584295 0 0.020861412275992187 0.003673371717413 0 0.02086843397846766 0.0037300623109483774 0 0.020974716159173411 0.0037322763262368618 0 0.020861412275992187 0.003673371717413 0 0.02086843397846766 0.0037300623109483774 0 0.020974716159173411 0.0037322763262368618 0 0.020941141300255407 0.0037434333501916964 0 0.02086843397846766 0.0037300623109483774 0 0.021879701446241951 0.0038736597340292677 0 0.02163799339380347 0.0038406438460550914 0 0.021651087363565667 0.0038703226119298504 0 0.021879701446241951 0.0038736597340292677 0 0.02163799339380347 0.0038406438460550914 0 0.021911167966614447 0.0038404641929586708 0 0.021651087363565667 0.0038703226119298504 0 0.02191307963348357 0.003911230881899588 0 0.021790908394752156 0.0039647500042223885 0 0.021879701446241951 0.0038736597340292677 0 0.021651087363565667 0.0038703226119298504 0 0.02191307963348357 0.003911230881899588 0 0.021879701446241951 0.0038736597340292677 0 0.02191307963348357 0.003911230881899588 0 0.022121092278817592 0.0038654546333082018 0 0.02191307963348357 0.003911230881899588 0 0.022121092278817592 0.0038654546333082018 0 0.02223403683262545 0.0038851803007111082 0 0.02191307963348357 0.003911230881899588 0 0.021790908394752156 0.0039647500042223885 0 0.02223403683262545 0.0038851803007111082 0 0.021879701446241951 0.0038736597340292677 0 0.022121092278817592 0.0038654546333082018 0 0.021911167966614447 0.0038404641929586708 0 0.022186626898921726 0.0038208707689423864 0 0.022121092278817592 0.0038654546333082018 0 0.021911167966614447 0.0038404641929586708 0 0.021911167966614447 0.0038404641929586708 0 0.021893727653196634 0.0037913747925990829 0 0.021707531060336568 0.0038194371452221908 0 0.022186626898921726 0.0038208707689423864 0 0.021911167966614447 0.0038404641929586708 0 0.021893727653196634 0.0037913747925990829 0 0.021893727653196634 0.0037913747925990829 0 0.021665013849562063 0.0037929604348437068 0 0.021707531060336568 0.0038194371452221908 0 0.021909590768652554 0.0037014666833069623 0 0.021893727653196634 0.0037913747925990829 0 0.021677525165463906 0.0037598756691484504 0 0.021893727653196634 0.0037913747925990829 0 0.021665013849562063 0.0037929604348437068 0 0.021677525165463906 0.0037598756691484504 0 0.021665013849562063 0.0037929604348437068 0 0.021677525165463906 0.0037598756691484504 0 0.021447198932161075 0.003790816252819748 0 0.021410395632109069 0.003770482329952413 0 0.021677525165463906 0.0037598756691484504 0 0.021447198932161075 0.003790816252819748 0 0.021665013849562063 0.0037929604348437068 0 0.021447198932161075 0.003790816252819748 0 0.021485446670938491 0.0038094694029848146 0 0.021447198932161075 0.003790816252819748 0 0.021485446670938491 0.0038094694029848146 0 0.021225994099798719 0.0037896604302117835 0 0.02163799339380347 0.0038406438460550914 0 0.021707531060336568 0.0038194371452221908 0 0.021485446670938491 0.0038094694029848146 0 0.02163799339380347 0.0038406438460550914 0 0.021485446670938491 0.0038094694029848146 0 0.021398446093629325 0.0038152057101484165 0 0.02163799339380347 0.0038406438460550914 0 0.021911167966614447 0.0038404641929586708 0 0.021707531060336568 0.0038194371452221908 0 0.021665013849562063 0.0037929604348437068 0 0.021707531060336568 0.0038194371452221908 0 0.021485446670938491 0.0038094694029848146 0 0.021485446670938491 0.0038094694029848146 0 0.021398446093629325 0.0038152057101484165 0 0.021225994099798719 0.0037896604302117835 0 0.021398446093629325 0.0038152057101484165 0 0.021225994099798719 0.0037896604302117835 0 0.02115041986691411 0.00379647081449254 0 0.021207651599878127 0.0037759099985450505 0 0.020962149617769602 0.0037446906385206835 0 0.021225994099798719 0.0037896604302117835 0 0.021207651599878127 0.0037759099985450505 0 0.021447198932161075 0.003790816252819748 0 0.021225994099798719 0.0037896604302117835 0 0.020962149617769602 0.0037446906385206835 0 0.021225994099798719 0.0037896604302117835 0 0.020891137156159159 0.0037605550885702389 0 0.021225994099798719 0.0037896604302117835 0 0.020891137156159159 0.0037605550885702389 0 0.02115041986691411 0.00379647081449254 0 0.020870356804773216 0.0037903381676605455 0 0.020891137156159159 0.0037605550885702389 0 0.02115041986691411 0.00379647081449254 0 0.02115041986691411 0.00379647081449254 0 0.021087776589409732 0.0037971276894649764 0 0.021386434414537529 0.0038234529789505935 0 0.021087776589409732 0.0037971276894649764 0 0.021386434414537529 0.0038234529789505935 0 0.021269539182338756 0.0038034977232513554 0 0.020870356804773216 0.0037903381676605455 0 0.02115041986691411 0.00379647081449254 0 0.021087776589409732 0.0037971276894649764 0 0.021398446093629325 0.0038152057101484165 0 0.02115041986691411 0.00379647081449254 0 0.021386434414537529 0.0038234529789505935 0 0.02163799339380347 0.0038406438460550914 0 0.021651087363565667 0.0038703226119298504 0 0.021386434414537529 0.0038234529789505935 0 0.02163799339380347 0.0038406438460550914 0 0.021398446093629325 0.0038152057101484165 0 0.021386434414537529 0.0038234529789505935 0 0.021651087363565667 0.0038703226119298504 0 0.021386434414537529 0.0038234529789505935 0 0.021269539182338756 0.0038034977232513554 0 0.021651087363565667 0.0038703226119298504 0 0.021269539182338756 0.0038034977232513554 0 0.021439390248136354 0.0038260751305713211 0 0.020953870395205968 0.0037864863847571085 0 0.021269539182338756 0.0038034977232513554 0 0.021073375158798251 0.003774106383468668 0 0.020953870395205968 0.0037864863847571085 0 0.021087776589409732 0.0037971276894649764 0 0.021269539182338756 0.0038034977232513554 0 0.021073375158798251 0.003774106383468668 0 0.021142796838143216 0.0037682636375821876 0 0.021439390248136354 0.0038260751305713211 0 0.021269539182338756 0.0038034977232513554 0 0.021073375158798251 0.003774106383468668 0 0.021439390248136354 0.0038260751305713211 0 0.020890945140777408 0.0037783743497660405 0 0.021073375158798251 0.003774106383468668 0 0.021142796838143216 0.0037682636375821876 0 0.021440301361433739 0.0051839238208572147 0 0.021426605853039241 0.0049606941786994978 0 0.021559048273684121 0.0050182377973502883 0 0.021426605853039241 0.0049606941786994978 0 0.021413980467981451 0.0047460343345434976 0 0.021581958765121867 0.0048600808330615799 0 0.021282358536445375 0.004114971675916115 0 0.023043010822192046 0.0055189314651565846 0 0.021142796838143216 0.0037682636375821876 0 0.021439390248136354 0.0038260751305713211 0 0.021527626201247416 0.0040069838654037031 0 0.021651087363565667 0.0038703226119298504 0 0.021439390248136354 0.0038260751305713211 0 0.021790908394752156 0.0039647500042223885 0 0.021439390248136354 0.0038260751305713211 0 0.021790908394752156 0.0039647500042223885 0 0.021527626201247416 0.0040069838654037031 0 0.02204717393024181 0.0039394013325953648 0 0.02223403683262545 0.0038851803007111082 0 0.022889578142583026 0.003857330703829296 0 0.022328447180218026 0.0051278540572768294 0 0.023043010822192046 0.0055189314651565846 0 0.021790908394752156 0.0039647500042223885 0 0.02204717393024181 0.0039394013325953648 0 0.02223403683262545 0.0038851803007111082 0 0.021581958765121867 0.0048600808330615799 0 0.021759037207261505 0.004911986910370059 0 0.021803816653272079 0.004612886422728342 0 0.023043010822192046 0.0055189314651565846 0 0.025097590863739284 0.0061437985271050721 0 0.021413980467981451 0.0047460343345434976 0 0.021581958765121867 0.0048600808330615799 0 0.021803816653272079 0.004612886422728342 0 0.021581958765121867 0.0048600808330615799 0 0.021559048273684121 0.0050182377973502883 0 0.021759037207261505 0.004911986910370059 0 0.021591792089027315 0.0051733571112576012 0 0.021559048273684121 0.0050182377973502883 0 0.021759037207261505 0.004911986910370059 0 0.018881874954390931 0.0054951890624730876 0 0.021966740246746004 0.0047571380288099355 0 0.021426605853039241 0.0049606941786994978 0 0.021581958765121867 0.0048600808330615799 0 0.021559048273684121 0.0050182377973502883 0 0.022029446486545212 0.0053369564880196866 0 0.021642526684344528 0.0050023600194532107 0 0.021987928152457207 0.0049130577828368502 0 0.022029446486545212 0.0053369564880196866 0 0.022304612791566127 0.0048943900744252587 0 0.021987928152457207 0.0049130577828368502 0 0.022330865694495952 0.004447237098542463 0 0.022139549483892337 0.0047213376021478584 0 0.021934120070792821 0.0046378823484813161 0 0.022304612791566127 0.0048943900744252587 0 0.022330865694495952 0.004447237098542463 0 0.022139549483892337 0.0047213376021478584 0 0.022304612791566127 0.0048943900744252587 0 0.021987928152457207 0.0049130577828368502 0 0.022139549483892337 0.0047213376021478584 0 0.021987928152457207 0.0049130577828368502 0 0.022139549483892337 0.0047213376021478584 0 0.021934120070792821 0.0046378823484813161 0 0.021966740246746004 0.0047571380288099355 0 0.021835311387646151 0.0047568049453040667 0 0.021642526684344528 0.0050023600194532107 0 0.021987928152457207 0.0049130577828368502 0 0.021934120070792821 0.0046378823484813161 0 0.021759037207261505 0.004911986910370059 0 0.021803816653272079 0.004612886422728342 0 0.021934120070792821 0.0046378823484813161 0 0.028338930518424579 0.0073919881513261638 0 0.029378161245014679 0.004890231707726473 0 0.027034204509338959 0.005777990889787264 0 0.022330865694495952 0.004447237098542463 0 0.021803816653272079 0.004612886422728342 0 0.021934120070792821 0.0046378823484813161 0 0.026692739015219898 0.0053848695940191642 0 0.025097590863739284 0.0061437985271050721 0 0.031070172857759645 0.0063612476818916998 0 0.028338930518424579 0.0073919881513261638 0 0.029378161245014679 0.004890231707726473 0 0.031070172857759645 0.0063612476818916998 0 0.031942388519664487 0.0036599001872978073 0 0.029378161245014679 0.004890231707726473 0 0.027259746836049412 0.0036402914602682739 0 0.029378161245014679 0.004890231707726473 0 0.027034204509338959 0.005777990889787264 0 0.027259746836049412 0.0036402914602682739 0 0.024534079672123003 0.003819973739032229 0 0.027034204509338959 0.005777990889787264 0 0.023257316974375577 0.0038132612098399593 0 0.024534079672123003 0.003819973739032229 0 0.022889578142583026 0.003857330703829296 0 0.024534079672123003 0.003819973739032229 0 0.024927735298591353 0.0062105990683293723 0 0.027034204509338959 0.005777990889787264 0 0.024307077841807915 0.0037867181446141537 0 0.023992000964899514 0.0050482647106423785 0 0.025240710928240321 0.0083818778837805221 0 0.024927735298591353 0.0062105990683293723 0 0.027034204509338959 0.005777990889787264 0 0.023043010822192046 0.0055189314651565846 0 0.023992000964899514 0.0050482647106423785 0 0.025240710928240321 0.0083818778837805221 0 0.028338930518424579 0.0073919881513261638 0 0.027034204509338959 0.005777990889787264 0 
</DataArray>
</PointData>
<CellData Scalars="region_id,cross_section_updated," Vectors="" Tensors="stress,">
<DataArray type="Float64" Name="region_id" format="ascii">
5 5 6 5 5 5 5 5 5 5 5 6 5 5 5 5 5 5 5 5 5 5 5 6 5 5 5 6 5 6 5 5 5 5 5 5 5 6 5 5 6 5 5 5 5 5 5 5 5 5 5 5 5 5 5 5 5 5 5 5 6 6 5 6 5 5 5 5 5 5 5 5 5 5 5 5 5 5 5 5 5 5 5 5 5 5 6 5 6 5 5 5 5 5 5 5 5 5 5 5 5 5 5 5 5 5 5 5 5 6 6 5 5 5 5 5 5 5 5 5 5 5 5 5 5 5 5 5 5 5 5 5 6 6 5 6 5 5 6 5 5 5 5 5 6 5 6 5 5 5 6 5 6 5 5 5 5 5 5 6 5 5 6 6 5 5 6 5 5 5 5 6 6 5 5 5 6 5 5 5 6 5 5 5 5 5 5 6 5 5 5 6 6 5 5 6 5 5 5 5 5 5 5 6 5 5 5 5 5 6 5 5 5 5 6 5 5 6 5 5 6 5 5 5 5 5 5 5 5 5 6 5 6 5 5 5 6 6 5 6 5 5 5 6 5 5 5 5 6 5 5 5 5 5 5 5 6 5 5 5 5 5 5 5 6 5 5 5 6 6 5 5 5 5 5 5 6 5 5 5 5 5 6 6 6 6 5 5 5 5 5 5 6 5 5 6 5 5 6 6 5 6 5 5 5 6 5 5 5 5 5 6 5 5 6 5 6 5 5 5 6 5 5 5 5 5 5 6 5 5 5 5 5 5 5 5 5 5 5 5 5 5 5 5 6 5 5 5 5 6 5 5 5 5 5 5 5 5 5 5 5 5 5 5 5 5 5 5 5 5 5 5 5 5 5 5 5 5 5 5 5 5 5 5 5 5 5 5 6 5 6 5 5 6 5 5 6 5 5 6 6 5 5 5 5 6 5 5 6 5 6 5 5 6 5 5 5 6 5 5 5 6 5 5 5 5 5 5 5 5 5 5 6 5 5 5 5 5 6 5 5 5 5 5 5 5 5 5 5 5 5 5 5 5 5 5 5 5 5 5 5 5 5 5 5 5 5 5 5 5 5 5 5 5 5 5 5 5 5 5 5 5 5 6 5 5 5 5 5 5 5 5 5 5 5 5 5 5 5 5 5 6 5 5 5 6 5 5 5 5 5 6 5 5 5 6 5 5 5 5 5 5 5 5 6 5 5 5 5 5 5 6 5 5 5 6 5 5 5 5 6 5 5 5 6 5 5 5 5 5 5 5 5 5 5 5 5 5 5 5 5 5 5 5 5 5 5 5 5 5 5 5 5 5 5 5 5 5 5 5 5 5 5 5 5 5 5 5 5 5 5 5 5 5 5 5 5 5 5 5 5 5 5 5 5 5 5 5 5 5 5 6 5 6 5 5 5 5 5 6 5 5 5 5 5 5 5 5 5 5 5 5 5 6 5 5 5 5 5 5 6 5 5 6 5 5 5 6 5 5 5 5 5 5 5 6 5 6 5 5 5 5 5 5 5 5 5 5 5 5 5 5 5 5 5 6 5 5 5 5 5 5 5 5 5 5 5 5 5 5 5 6 5 5 6 5 5 5 5 5 5 5 5 5 5 6 5 6 5 5 5 5 5 6 5 5 5 5 5 5 6 5 5 5 5 5 5 5 5 5 5 6 5 5 5 5 5 5 5 5 5 5 5 5 6 5 5 5 5 5 5 5 5 5 5 5 5 5 5 6 5 5 5 5 5 5 6 5 5 5 5 5 5 5 5 5 5 5 6 5 6 5 6 5 5 5 5 5 5 5 5 5 5 5 6 5 5 6 5 5 5 5 5 5 5 6 5 6 5 6 5 5 6 5 5 5 5 5 5 6 5 5 5 5 5 5 5 5 5 5 5 5 5 5 5 5 5 5 5 5 6 5 5 5 6 5 5 5 5 5 5 5 5 5 5 5 5 5 5 5 5 5 5 5 5 5 5 5 6 6 5 5 5 5 5 5 5 5 5 6 5 5 5 5 5 5 5 5 5 5 6 5 6 5 6 6 5 5 5 5 6 6 5 5 5 5 5 5 5 6 5 5 5 5 5 6 5 5 6 5 5 6 6 5 6 5 5 5 5 5 5 5 5 6 5 5 5 5 6 6 5 5 6 6 5 5 5 6 5 5 5 5 6 5 5 5 5 5 5 5 5 5 5 5 5 5 5 5 5 5 5 5 5 5 5 5 5 5 5 5 5 5 5 5 5 5 5 5 6 5 5 5 5 5 5 5 5 5 5 5 5 5 5 5 5 5 5 5 5 5 5 5 5 5 5 5 5 5 5 5 5 5 5 5 5 5 5 5 5 5 5 5 5 5 5 5 5 5 5 5 5 5 5 5 5 5 5 5 5 5 5 5 5 5 5 5 6 5 5 5 5 5 5 5 5 5 5 5 5 5 5 5 5 5 5 5 5 5 5 5 5 6 5 5 5 5 5 5 5 5 5 6 5 5 5 5 6 5 5 5 5 5 5 5 5 5 5 5 5 5 5 5 5 5 5 5 5 5 5 5 5 5 5 5 5 5 5 5 5 5 5 5 5 5 6 5 5 5 5 5 5 6 5 6 5 6 5 5 5 5 5 6 5 6 5 6 5 5 5 5 6 6 5 6 5 5 5 5 6 5 5 5 5 5 6 6 5 5 5 5 5 5 5 5 5 5 5 5 5 5 5 5 5 5 5 5 5 5 5 5 5 5 5 5 5 5 5 5 5 5 5 5 5 6 5 6 5 5 5 5 6 5 5 5 5 5 5 5 5 5 5 5 5 5 5 5 5 5 5 5 5 5 5 5 5 5 5 5 5 5 5 5 5 5 5 5 5 5 5 5 5 5 5 5 5 5 5 5 5 5 5 5 5 5 5 5 5 5 5 5 5 5 5 5 5 5 5 5 5 5 5 6 5 5 5 5 6 5 5 5 5 5 5 5 5 5 5 5 6 5 5 6 5 5 6 5 6 5 5 5 5 5 5 5 6 5 5 5 5 5 5 5 5 5 5 5 5 5 5 6 5 5 5 5 5 5 5 5 5 5 5 6 5 5 5 5 5 5 5 5 5 6 5 5 5 5 5 5 5 5 5 5 5 5 5 5 5 5 5 5 5 5 5 5 5 5 5 5 5 5 5 5 5 5 5 6 5 5 5 5 5 5 5 6 5 5 6 5 6 5 5 5 6 5 5 5 5 5 5 6 6 5 5 6 6 5 5 5 5 5 5 5 5 5 5 5 5 5 5 5 5 5 5 5 5 5 5 5 5 5 5 6 5 5 6 5 5 5 5 6 5 5 5 5 6 5 5 5 5 5 5 5 5 5 5 6 5 5 5 5 5 6 6 5 5 6 5 5 6 5 5 5 5 6 6 5 5 6 5 5 5 5 5 5 5 5 5 6 5 5 5 5 5 5 6 5 5 6 6 5 5 5 5 6 5 5 5 5 5 5 5 5 5 5 5 5 5 5 5 5 5 5 5 5 5 5 5 5 5 6 5 6 5 5 6 5 5 5 5 5 5 5 5 5 5 5 5 5 5 5 5 6 5 6 5 6 5 5 5 5 5 5 5 5 5 5 5 5 5 6 6 5 5 5 5 5 5 5 5 5 5 5 5 5 5 5 5 5 5 5 5 5 5 5 5 5 5 5 5 5 5 5 5 5 5 5 5 5 6 5 6 5 5 5 6 5 5 5 5 5 5 5 5 5 5 5 5 6 5 5 5 5 5 5 5 5 5 5 6 5 5 5 6 5 5 5 5 5 6 5 6 5 5 5 5 5 6 5 5 5 5 5 5 5 5 5 5 5 5 5 5 5 5 5 5 5 5 5 5 5 5 5 5 5 5 5 5 5 5 6 5 5 6 5 5 5 5 5 5 5 5 5 5 5 5 6 5 5 5 5 5 5 5 5 5 5 5 5 6 5 5 5 5 5 5 5 6 5 5 5 6 5 5 5 6 5 5 6 5 5 5 5 5 5 5 5 5 5 5 5 5 5 5 5 5 6 5 6 6 5 5 5 5 5 5 6 5 6 5 5 5 5 5 5 5 5 5 6 5 5 5 5 5 6 5 5 5 5 5 5 6 5 5 5 5 5 5 5 5 5 6 5 5 5 5 5 6 5 5 5 5 5 5 5 5 6 5 5 5 5 6 5 5 5 5 6 5 6 5 5 6 5 5 5 5 5 5 5 5 5 5 5 6 5 5 5 5 5 5 5 5 5 5 5 5 5 5 5 5 5 5 5 5 5 6 5 6 5 5 5 5 6 5 5 5 5 5 5 5 6 5 5 6 6 5 5 5 5 5 5 5 6 5 6 5 5 5 5 5 5 5 6 5 5 5 5 5 6 5 5 5 5 5 5 5 5 5 5 5 5 5 5 5 5 5 5 5 5 6 5 5 6 5 5 5 5 5 5 5 5 5 5 5 5 5 5 5 5 5 5 5 5 5 5 5 5 5 6 5 5 5 6 5 5 5 5 5 5 6 5 6 6 5 5 5 5 5 6 5 5 5 5 5 5 5 5 5 5 5 5 5 5 6 5 5 6 5 5 5 5 5 5 5 5 5 5 5 5 5 5 5 5 5 5 5 5 5 5 5 5 6 5 5 5 5 5 5 5 5 5 5 6 6 6 5 5 5 5 5 5 5 5 5 5 5 5 5 5 5 5 5 5 5 5 5 5 6 5 5 5 5 5 5 5 5 5 5 5 5 5 5 5 5 5 6 5 5 5 6 5 5 5 5 5 5 6 5 5 5 5 5 6 5 5 5 5 5 5 6 5 5 5 5 5 6 5 5 5 5 5 5 6 5 5 5 5 6 5 5 5 5 5 5 5 5 6 5 5 6 5 5 6 5 5 5 6 5 5 5 5 5 5 5 5 5 6 5 5 5 5 6 5 5 5 5 5 5 6 5 5 5 6 5 5 5 5 5 5 5 5 5 5 5 5 5 5 6 5 6 5 6 5 6 5 5 5 5 5 5 5 5 5 5 6 5 5 5 5 6 5 5 5 6 5 5 5 5 5 6 5 5 5 5 5 5 5 5 5 5 5 5 5 5 5 5 5 5 5 5 5 5 5 5 5 5 5 5 5 5 5 5 5 5 5 5 5 5 5 5 5 5 5 5 5 5 6 5 5 6 5 5 5 5 5 5 5 5 5 5 5 5 5 5 5 5 5 5 6 5 6 5 6 5 5 5 5 5 5 6 5 5 5 5 5 5 5 5 6 5 5 6 6 5 5 5 5 5 5 5 5 5 5 5 5 5 5 5 5 5 5 5 5 5 5 5 5 5 5 5 5 5 5 6 5 5 6 5 5 5 5 5 5 5 5 5 5 5 5 5 5 5 5 5 5 5 5 5 5 5 5 5 5 5 5 5 5 5 5 5 5 5 5 5 5 5 5 5 5 5 5 5 5 5 6 6 5 5 5 5 5 5 5 5 6 5 5 5 6 5 5 5 5 5 5 5 5 5 5 5 5 5 5 5 5 5 5 5 6 5 5 5 5 5 5 5 5 5 5 5 5 5 5 5 5 5 5 5 5 5 5 5 5 5 5 5 5 5 5 5 5 5 5 5 5 5 5 5 5 5 5 5 5 5 5 5 6 6 5 5 5 5 5 5 6 5 5 5 5 5 5 5 5 5 5 5 5 5 5 5 5 5 5 5 5 5 5 5 5 5 5 5 5 5 5 5 5 5 5 6 5 5 6 5 6 5 5 5 5 5 5 5 5 5 5 5 5 5 5 5 6 6 5 5 5 5 5 5 5 6 6 5 5 6 5 5 6 5 6 5 6 5 5 5 5 5 5 5 5 5 5 6 5 5 5 5 6 6 5 5 5 5 5 5 6 5 5 5 5 5 5 5 5 5 6 5 5 5 6 5 5 5 6 5 5 5 5 5 6 5 5 5 5 5 5 5 5 5 5 5 5 5 5 5 6 5 5 5 5 5 5 5 5 5 5 5 5 5 5 5 5 5 5 6 6 5 5 5 5 5 5 5 5 5 5 5 5 5 5 5 5 5 6 5 5 5 5 5 5 5 5 5 5 5 5 5 5 5 5 6 5 5 6 5 5 6 6 5 5 6 5 5 5 5 5 5 5 5 6 5 5 5 6 5 5 5 6 5 5 5 5 6 5 5 5 6 6 6 5 6 5 6 5 6 6 5 5 5 6 5 5 5 5 5 5 5 6 6 5 5 5 5 6 5 5 5 5 5 5 5 5 5 5 5 5 5 5 5 6 5 5 5 5 5 5 5 6 5 5 5 5 5 5 5 5 5 5 5 5 5 5 5 5 6 5 5 5 5 5 5 5 5 5 5 5 5 5 5 5 5 5 5 5 5 5 5 5 5 5 5 5 5 5 5 5 5 5 5 5 5 5 5 5 5 5 5 5 5 5 5 5 5 5 5 5 5 5 5 5 5 5 5 5 5 5 5 5 5 5 5 5 5 5 5 5 5 5 5 5 5 5 5 5 5 5 5 5 5 5 5 5 5 5 5 5 6 5 5 5 5 5 5 6 5 5 5 5 5 6 5 5 5 6 5 5 6 6 5 5 5 5 6 6 5 5 5 5 5 6 5 5 5 5 5 5 6 6 6 6 5 5 6 5 6 5 5 5 5 6 5 5 5 5 5 5 5 5 5 5 5 5 5 5 5 5 5 5 5 5 5 5 5 5 5 5 5 5 5 5 6 5 5 5 5 5 5 5 5 6 5 6 5 5 5 5 5 5 5 5 5 5 5 5 5 5 5 5 5 5 5 5 5 5 5 5 5 5 6 5 5 5 5 5 5 5 5 5 5 5 5 6 5 6 5 5 5 5 5 5 5 5 5 5 5 5 5 5 6 5 5 5 5 5 5 5 6 5 5 5 5 5 5 5 5 5 5 5 5 5 5 5 5 5 5 5 5 5 5 5 5 5 5 5 5 5 5 6 5 5 5 5 5 5 5 5 5 5 5 5 5 5 5 5 5 5 5 5 5 5 5 5 5 5 5 5 5 5 5 5 5 5 5 5 6 6 5 5 6 5 5 5 5 5 5 5 5 5 5 5 5 5 5 5 5 5 5 6 5 5 5 5 5 5 5 5 5 5 5 5 5 5 6 5 6 5 5 5 6 5 5 6 5 6 5 6 5 5 6 5 5 5 5 5 5 6 6 5 5 5 5 5 5 5 5 5 5 5 6 5 5 5 5 5 5 5 6 5 5 5 5 6 5 5 5 5 6 5 5 5 5 5 5 5 6 5 5 5 5 6 5 5 5 5 5 5 5 5 5 5 6 5 5 5 6 5 5 6 5 6 5 5 5 5 5 5 5 5 5 5 5 5 5 5 5 5 5 5 5 5 5 5 5 5 5 5 5 5 5 5 5 5 5 5 5 5 6 5 5 5 5 6 5 5 5 5 5 5 5 6 5 6 5 5 5 5 5 5 5 5 6 5 5 5 5 5 5 5 5 5 5 5 6 6 5 5 5 5 6 5 5 5 5 5 5 6 5 5 6 5 5 6 5 5 5 5 6 5 5 5 5 6 5 5 5 5 5 5 5 5 6 5 5 5 5 5 6 6 5 5 6 5 5 5 5 6 5 5 5 5 5 5 5 5 5 5 5 5 5 5 5 6 6 5 6 5 5 6 5 6 5 5 5 6 6 6 5 5 5 5 6 5 6 6 5 5 5 5 6 5 5 5 5 5 6 5 5 6 5 5 5 5 5 5 5 5 5 5 5 5 5 5 5 5 5 5 5 5 5 5 5 5 5 5 5 5 5 5 5 5 5 5 5 5 5 5 5 5 5 5 5 5 5 5 5 5 5 5 5 5 5 5 6 5 5 5 5 5 5 5 5 5 5 5 5 5 6 5 6 5 5 5 5 5 6 6 6 6 5 5 5 5 5 5 5 5 5 5 5 5 5 5 5 5 5 5 5 5 6 5 5 5 6 5 5 6 5 5 5 5 5 5 5 5 5 5 5 5 5 5 5 5 5 5 5 5 5 5 5 5 5 5 5 5 6 5 5 5 5 6 6 5 5 5 5 5 5 6 6 6 5 5 5 5 5 6 5 5 5 5 5 5 5 5 5 5 5 6 5 6 5 5 5 5 5 5 5 5 5 5 5 6 5 5 5 5 5 5 5 5 5 5 5 6 5 5 6 5 5 5 5 5 5 5 5 6 6 5 5 5 6 5 5 5 5 5 6 5 6 5 6 5 5 5 5 5 5 5 5 6 5 5 5 5 5 6 5 5 5 5 5 5 5 5 5 5 5 5 5 5 5 5 5 6 5 5 5 5 5 5 5 5 5 5 5 5 5 5 5 5 5 5 5 5 5 5 5 5 5 5 5 5 5 5 5 5 5 5 5 5 5 5 5 5 6 5 5 6 5 5 5 5 5 5 5 5 5 5 5 6 5 5 5 6 5 6 5 5 5 5 5 6 5 6 5 5 5 5 5 6 5 5 6 5 5 5 6 5 5 5 6 6 5 5 5 5 6 6 5 5 5 6 5 5 6 5 5 5 5 5 5 5 5 5 5 5 5 5 5 5 6 5 5 5 6 5 6 5 5 6 6 5 6 5 6 5 5 5 5 5 5 5 5 5 5 5 5 5 5 5 5 5 5 5 5 5 5 6 5 6 5 5 5 6 5 5 5 5 5 5 5 5 5 5 5 5 5 5 5 5 5 5 5 5 5 5 5 5 5 5 5 5 5 5 5 5 5 6 5 5 5 5 5 5 5 6 5 5 5 5 5 5 5 5 5 5 5 5 5 5 5 5 5 5 5 5 5 5 5 5 5 5 5 6 5 6 5 5 5 5 5 5 5 6 5 5 5 5 5 6 6 5 5 5 5 5 5 5 5 6 5 6 5 6 5 5 5 5 5 5 5 5 5 5 5 5 6 5 5 5 5 5 5 5 5 5 5 5 5 5 5 5 5 5 5 5 5 5 5 5 5 5 5 5 6 5 6 5 6 5 5 5 5 6 5 5 6 5 5 5 5 5 5 5 5 5 5 5 6 5 5 6 5 5 6 5 5 6 5 5 5 5 5 5 6 6 5 5 6 6 5 5 5 6 6 5 5 6 6 5 6 6 6 5 5 5 5 5 5 5 5 5 6 5 5 5 6 5 5 5 5 5 5 5 5 5 5 5 5 5 5 5 5 5 5 5 5 5 5 5 5 5 5 5 5 5 5 5 5 5 5 5 5 5 5 5 5 6 5 5 5 5 6 5 5 5 6 5 5 5 5 5 5 5 5 5 5 6 5 5 6 5 5 6 6 5 5 6 5 6 5 5 5 5 5 5 5 5 5 5 5 6 5 5 5 5 5 5 6 5 6 6 5 6 5 6 5 6 6 5 6 5 5 5 5 5 6 5 6 5 5 5 5 6 6 5 5 5 5 6 6 5 6 5 5 5 5 6 5 5 5 6 5 6 6 5 5 5 6 5 5 5 5 6 5 5 5 5 6 6 5 6 5 6 6 5 5 5 5 5 5 5 5 6 5 5 5 5 6 6 5 5 6 5 5 6 6 5 5 5 5 5 5 6 5 5 6 6 5 5 6 5 5 6 5 5 6 5 5 6 6 5 5 5 6 5 6 5 6 6 6 5 5 6 5 5 5 6 5 6 5 6 5 5 5 5 5 5 5 5 5 5 5 5 6 5 6 6 5 5 5 5 5 5 5 5 5 5 5 6 6 5 5 5 5 5 5 5 6 5 5 5 5 5 5 6 5 5 5 5 5 5 5 6 5 5 5 5 5 5 5 5 5 5 5 6 5 5 5 6 5 5 6 5 5 5 5 5 6 5 5 5 5 5 5 5 5 5 5 5 5 5 5 6 5 5 5 6 5 5 5 6 6 5 5 5 5 5 5 5 5 5 5 5 5 5 5 5 5 5 5 5 5 5 5 6 5 5 5 5 5 6 5 5 5 5 5 6 5 5 5 5 5 6 5 5 5 5 5 6 6 5 5 5 5 5 6 5 5 6 5 5 5 5 5 5 5 6 5 5 5 5 5 6 5 5 5 5 5 5 5 5 5 5 5 5 5 5 6 5 6 5 5 5 5 5 5 5 6 5 5 6 5 5 5 5 5 6 5 5 5 5 5 5 5 5 5 6 6 5 5 5 6 5 6 5 5 5 5 5 5 6 5 5 5 5 5 6 5 5 6 5 5 5 5 6 5 5 6 5 6 5 5 6 5 5 6 5 5 6 5 5 5 5 5 6 5 5 5 5 5 6 5 5 5 5 5 5 5 5 5 5 5 5 5 5 6 5 5 5 5 6 5 5 5 5 5 6 5 5 6 5 5 5 5 6 5 5 5 5 5 5 5 5 5 5 5 5 5 6 5 5 5 5 5 5 5 6 6 5 6 5 5 5 5 5 5 6 5 5 5 5 5 6 5 6 5 6 5 5 6 5 5 5 5 5 5 5 5 5 6 6 5 5 5 5 5 5 5 5 6 5 5 5 5 5 5 5 5 5 5 5 5 5 5 6 5 5 6 5 5 5 5 5 5 5 5 5 5 5 6 5 5 5 5 5 5 5 5 5 5 6 5 5 6 6 5 5 5 5 6 5 5 5 5 5 5 5 5 5 5 5 5 5 5 5 5 5 5 5 5 5 5 5 5 5 5 5 5 5 6 5 5 6 5 6 6 5 5 6 5 5 6 6 5 5 5 5 5 6 5 5 6 5 5 5 5 5 5 5 5 5 6 5 5 6 5 5 5 5 5 5 5 5 6 5 5 5 5 5 5 5 6 5 5 5 5 5 5 5 5 5 6 5 5 5 5 5 5 6 5 5 5 5 5 5 6 5 5 5 5 5 6 6 5 6 6 5 5 5 5 5 5 5 5 5 6 5 5 5 5 6 5 5 5 6 5 5 5 5 5 5 5 6 5 5 5 5 5 5 5 5 5 5 5 6 5 5 5 5 5 5 5 5 5 5 5 5 5 5 5 5 5 6 5 5 5 5 5 5 5 5 5 5 5 5 5 5 5 5 5 5 5 6 5 5 5 5 6 5 5 5 5 5 5 6 5 5 6 6 5 5 5 5 5 6 5 5 5 5 5 5 5 5 6 5 5 5 5 5 5 5 5 5 5 5 5 5 5 5 5 6 5 6 5 5 6 5 6 5 5 6 5 5 5 5 5 5 5 5 5 5 6 5 5 5 5 5 5 5 5 5 5 5 5 5 5 5 5 5 5 5 5 5 6 5 5 6 5 5 5 5 6 6 5 5 6 5 5 5 5 5 6 6 5 5 6 5 5 5 5 6 5 5 5 5 5 5 5 5 5 5 5 5 5 5 5 5 5 6 5 5 6 5 5 5 6 5 6 5 5 5 5 6 5 5 6 5 5 5 5 6 5 6 5 5 5 5 5 5 5 5 5 5 5 5 5 5 5 5 5 5 5 5 5 5 5 5 5 5 5 5 5 5 5 5 5 5 5 5 5 5 5 5 5 5 5 5 5 5 5 5 5 5 5 5 5 5 5 5 5 5 5 5 5 5 5 5 5 5 5 5 5 5 5 5 5 5 5 5 5 5 5 5 5 5 5 5 5 6 5 5 5 5 5 5 6 5 6 5 5 6 5 5 5 5 5 5 5 5 5 5 5 5 5 5 6 6 5 5 6 5 5 5 5 5 5 5 5 6 5 5 6 5 5 5 5 5 6 6 5 6 5 5 5 5 5 5 5 5 5 5 5 5 5 5 5 6 5 5 5 5 6 5 6 5 5 6 5 5 5 5 5 5 5 5 6 5 5 5 6 5 5 5 5 5 5 6 5 5 5 5 5 5 6 5 5 6 5 5 6 5 5 6 5 5 5 5 5 5 5 5 6 5 5 5 5 5 5 5 5 5 5 5 5 5 5 5 5 5 6 5 5 5 6 5 5 6 5 5 5 5 6 5 6 5 5 5 5 5 5 5 5 5 5 6 5 5 5 5 5 5 5 5 5 6 5 5 5 6 5 6 5 6 5 5 5 6 5 5 5 5 5 5 6 5 6 5 5 6 5 5 5 5 5 5 5 5 6 5 5 5 5 5 5 5 5 5 6 5 5 5 5 5 5 5 5 5 5 6 5 5 5 6 5 5 5 5 5 5 5 5 5 5 5 5 5 5 5 5 5 5 5 5 6 5 5 5 5 5 6 5 5 5 5 5 6 5 5 5 5 5 5 5 5 6 5 5 5 5 5 5 5 5 5 5 5 5 5 5 6 5 5 5 5 5 6 5 5 5 6 5 6 5 5 5 5 5 5 5 5 5 6 5 5 5 6 5 5 6 5 5 5 5 5 5 5 5 5 5 5 5 5 5 5 5 5 6 5 6 5 5 5 5 5 5 6 5 5 5 5 5 5 5 5 5 5 5 6 5 6 6 5 5 5 5 5 5 5 5 5 5 5 5 5 5 5 5 5 6 6 5 5 5 6 5 5 6 5 5 5 5 5 6 5 5 5 6 5 5 5 5 6 5 5 5 6 5 5 5 5 5 5 5 5 5 5 5 6 5 5 5 5 5 5 6 5 5 5 5 5 6 6 5 6 5 5 5 5 6 6 5 5 5 5 5 5 5 5 5 5 5 5 5 5 5 6 6 5 5 5 5 5 5 5 5 6 5 5 5 5 5 5 5 5 5 5 5 5 5 5 5 5 5 5 5 5 6 5 5 5 5 5 5 6 5 5 5 5 5 5 5 5 5 5 5 5 6 5 5 5 5 5 6 5 5 5 6 5 5 5 6 5 5 5 5 5 6 5 5 5 6 5 5 5 5 5 5 5 5 5 5 5 5 5 5 5 5 5 5 5 5 5 5 5 5 5 5 5 6 5 5 5 5 5 5 6 5 5 5 6 5 5 5 5 5 5 5 5 5 5 5 5 5 5 5 5 5 5 5 5 5 5 5 5 5 5 6 5 5 5 5 5 5 5 5 5 6 5 5 5 5 6 5 5 5 5 5 5 5 5 5 5 5 5 5 6 5 5 5 5 5 5 6 5 5 6 5 5 6 5 6 6 5 6 6 5 5 6 6 5 5 5 6 5 6 5 5 5 5 6 5 5 5 5 5 5 6 5 6 5 5 5 5 5 5 5 5 5 5 5 5 5 5 6 5 5 5 5 5 5 5 6 5 5 5 5 5 5 5 6 5 6 5 5 5 6 5 5 5 5 6 5 5 6 5 5 5 5 6 6 6 5 5 6 5 5 6 5 5 5 6 5 5 5 6 5 5 6 5 5 5 5 5 5 5 5 5 5 5 5 5 5 5 5 6 5 5 5 5 5 5 5 5 5 5 5 5 5 5 5 5 5 6 5 5 5 5 5 5 5 5 5 5 5 5 5 5 5 5 5 5 5 6 5 5 5 5 5 5 5 5 5 5 5 5 5 5 5 6 5 5 5 5 5 5 5 5 5 5 6 5 6 6 5 5 6 5 6 5 5 6 6 5 5 5 5 5 5 5 5 6 5 5 5 5 5 5 5 6 5 6 5 6 5 5 5 5 5 5 5 5 5 5 5 5 6 5 5 5 5 5 5 5 5 5 5 5 5 5 5 5 5 6 5 5 5 5 5 6 6 5 5 5 5 5 5 6 5 5 6 5 5 6 5 6 5 5 5 5 5 5 5 5 5 6 6 5 5 5 5 6 5 6 5 5 5 5 5 5 5 5 5 5 5 5 5 5 5 5 5 6 5 6 5 5 5 5 5 5 5 5 5 5 6 5 6 5 5 5 5 5 5 5 5 5 5 5 5 5 5 5 6 5 5 5 5 5 5 5 5 5 5 5 5 5 5 5 5 5 5 5 5 5 5 5 5 5 5 5 5 5 5 5 5 5 6 5 5 6 5 5 5 5 5 5 6 5 5 5 5 5 5 5 5 5 5 5 5 5 5 6 5 5 5 5 6 5 5 5 5 5 5 5 5 5 5 5 5 5 5 5 5 5 5 5 5 5 5 5 5 5 5 5 5 5 5 5 5 5 5 5 5 6 5 5 5 5 5 5 5 6 5 5 5 6 5 6 5 5 5 5 5 5 5 5 5 6 5 5 5 6 6 5 5 5 5 5 5 5 5 5 5 5 6 5 5 6 6 5 5 5 5 5 5 5 5 6 5 5 5 5 5 5 6 5 5 5 5 6 5 5 6 5 5 6 5 5 5 5 5 5 5 5 5 5 6 5 5 6 5 5 6 6 6 6 5 5 5 6 5 6 5 5 5 5 5 5 5 5 5 5 5 6 5 5 6 5 5 5 5 6 5 5 5 5 5 5 5 5 5 5 5 5 5 5 5 6 5 5 6 5 6 6 5 5 5 5 5 5 5 6 5 6 5 6 5 5 5 5 5 5 5 5 5 5 5 5 5 5 5 5 6 5 5 5 5 6 5 5 6 6 5 6 5 5 5 5 5 6 5 6 5 5 5 5 5 5 5 5 6 5 6 6 5 5 5 5 5 5 5 5 5 6 5 5 5 5 5 5 5 5 5 5 5 5 5 6 6 5 5 5 6 6 5 5 5 6 5 6 5 5 5 5 6 5 5 5 5 5 5 5 5 5 5 5 6 5 5 5 5 5 5 5 5 5 5 5 5 5 5 6 5 5 5 6 5 6 5 5 5 5 5 6 5 6 5 6 5 5 5 5 6 6 5 5 5 5 6 6 5 5 6 5 6 5 5 5 6 5 5 5 5 5 5 5 5 5 6 5 5 5 5 5 5 5 5 5 5 5 5 5 5 5 5 6 6 5 5 6 5 5 5 5 5 5 5 5 5 6 5 5 5 5 5 5 5 6 5 5 5 5 5 5 5 5 5 5 5 5 5 5 5 6 5 5 5 5 5 5 5 5 5 5 5 5 5 5 6 5 5 6 5 5 5 5 5 5 5 5 5 5 5 6 5 5 6 5 5 5 5 6 5 5 5 5 6 5 6 5 6 5 6 6 6 5 5 6 5 6 5 6 5 5 5 5 5 5 6 6 5 5 6 5 5 6 6 5 5 5 6 5 6 5 5 5 5 5 5 5 6 5 6 6 6 5 5 5 6 5 6 5 5 5 5 5 5 5 5 5 5 5 5 5 5 5 5 5 5 5 5 5 5 5 5 5 5 5 6 6 6 6 5 6 5 5 5 5 6 6 5 5 6 5 5 5 6 5 5 5 6 5 5 5 5 5 6 5 5 5 5 5 5 5 6 5 6 5 5 5 5 5 5 6 5 5 6 5 6 5 5 5 6 5 5 5 6 5 5 5 6 5 5 5 5 5 5 5 5 5 5 5 6 5 5 5 5 5 5 5 5 5 5 6 5 5 5 5 5 5 5 5 5 5 5 5 5 5 5 5 5 5 5 5 5 5 5 5 5 5 5 5 5 5 5 5 5 5 5 5 5 5 5 5 6 5 5 5 5 5 5 5 5 5 5 5 6 5 5 6 5 5 5 5 6 6 5 5 6 5 5 5 5 5 5 5 5 5 5 5 5 5 5 5 5 5 5 5 5 5 5 5 5 5 5 5 5 5 5 5 5 5 5 5 5 5 5 5 5 5 5 5 6 5 5 5 5 5 5 6 5 5 5 5 5 6 5 6 5 5 6 5 5 6 5 5 5 5 5 5 5 5 5 5 5 5 5 5 5 5 5 5 5 5 5 5 5 6 5 5 5 5 5 5 5 5 5 5 5 6 5 5 6 6 5 5 5 6 5 5 5 5 5 6 6 5 5 5 5 5 5 5 5 5 6 6 5 6 5 5 5 5 5 5 5 6 5 5 5 6 5 5 5 5 5 5 5 6 5 5 5 5 6 5 5 5 5 5 5 5 5 5 5 5 6 6 5 5 5 5 5 5 5 5 5 6 5 6 5 5 5 5 5 5 5 5 5 5 5 5 5 6 5 5 5 5 5 5 5 5 5 5 5 5 5 5 5 6 5 5 5 6 5 5 5 5 5 5 5 5 5 5 5 5 5 5 5 5 5 5 5 5 5 5 5 5 6 5 5 5 5 5 5 6 5 5 5 5 6 6 6 5 5 5 6 5 5 5 5 5 5 5 5 5 5 5 5 5 5 5 5 5 5 5 5 6 6 5 6 5 6 5 6 6 6 5 5 5 5 5 5 5 5 5 5 5 5 5 5 5 5 5 5 5 5 5 5 5 5 5 5 5 5 5 5 5 5 5 5 5 5 5 5 5 5 5 5 5 5 5 5 5 5 5 5 5 5 5 5 5 5 5 6 6 5 5 5 5 5 5 5 5 5 5 5 5 5 5 5 5 5 5 5 6 5 5 5 5 6 5 6 5 5 5 5 5 5 6 5 5 5 5 5 6 5 5 5 5 5 5 5 6 5 5 5 6 5 5 5 5 5 5 6 5 5 5 6 6 6 5 5 5 5 5 6 5 5 5 5 5 5 5 5 5 5 5 5 5 5 5 5 5 5 5 5 5 5 5 5 5 5 5 5 5 5 5 6 5 5 5 5 5 5 5 5 5 6 5 5 5 5 5 5 5 5 5 5 6 5 5 5 5 6 5 5 5 5 5 5 6 6 5 5 6 5 5 5 5 5 6 5 5 5 5 5 5 5 5 5 5 5 5 5 5 5 5 5 6 5 6 5 5 5 5 5 5 5 5 5 5 5 5 5 5 5 5 5 5 5 5 5 5 5 5 5 5 5 5 5 5 5 5 5 5 5 5 5 5 5 5 5 5 5 5 5 5 5 5 5 5 5 6 5 5 5 5 5 5 5 5 6 5 5 5 5 5 5 6 5 5 5 5 5 5 5 5 5 5 5 6 5 5 5 5 5 5 5 5 5 5 5 5 5 5 5 5 6 5 5 5 5 5 5 6 5 5 5 5 5 5 5 5 5 5 5 5 5 5 5 5 5 5 5 5 5 5 5 6 5 5 5 5 5 5 5 5 5 5 5 5 5 5 5 5 5 5 5 5 5 5 5 5 6 5 6 5 5 5 5 5 5 5 5 5 5 5 5 5 5 5 5 5 5 5 5 5 5 5 5 5 5 5 5 5 5 6 5 5 5 5 5 5 5 5 5 5 6 5 5 5 5 5 5 5 5 5 5 6 5 6 5 5 6 5 5 5 5 5 5 5 5 5 5 5 5 5 5 5 5 5 5 5 5 5 5 6 5 5 5 6 5 5 5 6 5 5 5 5 5 5 5 5 5 5 5 5 5 5 6 5 5 6 5 5 5 5 5 5 5 5 6 5 5 5 5 6 5 5 5 5 5 5 5 5 5 5 5 5 5 6 5 5 5 5 5 6 5 5 5 5 5 5 5 5 5 5 5 5 5 5 6 5 5 5 5 5 5 6 5 5 5 5 5 5 5 5 6 5 5 5 5 5 6 5 5 5 5 5 5 6 5 5 5 5 5 6 5 5 5 5 5 5 5 5 5 5 5 6 5 5 5 6 6 6 5 5 5 5 6 6 5 5 5 5 5 5 5 5 5 5 5 5 5 5 5 5 5 5 5 5 5 6 6 5 6 5 5 5 6 5 5 5 5 5 5 5 5 6 5 5 6 5 5 5 6 5 6 5 5 5 6 5 5 6 5 5 5 6 5 5 6 5 5 5 5 6 5 5 5 5 5 5 5 5 6 5 5 5 6 5 5 6 5 5 5 5 5 5 6 5 5 6 5 5 5 5 6 5 5 5 6 5 6 5 5 6 5 5 5 6 6 5 5 5 5 5 5 5 5 5 5 6 5 5 5 6 5 6 5 6 5 5 5 5 5 5 5 5 6 5 5 5 5 5 5 5 6 5 5 5 5 5 5 6 5 5 5 5 5 5 6 5 5 5 5 5 6 6 5 5 5 5 5 5 5 5 5 5 5 5 5 6 5 6 5 5 5 5 5 5 5 5 5 5 6 5 5 5 5 5 6 5 5 5 5 5 5 5 5 5 5 5 5 6 5 5 5 5 5 5 5 5 5 5 5 5 5 5 5 5 5 5 5 5 6 5 5 5 5 5 5 5 5 5 5 5 5 6 5 5 5 6 6 5 5 5 5 5 6 5 6 5 5 5 5 5 5 5 5 5 5 5 5 5 5 5 6 5 5 6 5 5 5 5 5 5 5 5 6 5 5 5 5 5 5 6 5 5 5 6 5 5 5 5 5 5 5 5 5 5 5 5 5 5 5 5 5 5 5 5 5 5 5 5 5 5 5 5 5 5 5 5 5 5 6 5 6 5 5 5 5 6 5 5 5 5 5 5 6 5 5 5 5 5 6 5 5 5 5 6 5 5 5 5 5 5 5 5 5 5 5 5 5 5 5 5 5 5 5 5 5 5 5 5 5 5 5 5 6 5 6 5 5 5 5 5 5 6 5 5 5 5 5 5 6 5 5 5 5 5 5 5 5 5 5 5 6 5 5 5 5 5 5 5 6 5 5 5 5 5 5 6 5 5 6 6 5 5 5 5 5 5 5 5 5 5 5 5 5 5 5 5 5 5 5 5 5 5 6 5 5 5 6 5 6 6 5 5 5 6 5 5 6 5 5 5 5 5 5 5 5 6 5 5 5 5 5 5 5 5 5 5 5 5 5 5 5 5 5 5 5 6 5 5 5 5 5 5 5 5 6 5 5 5 5 5 6 5 5 5 5 5 5 5 5 5 6 5 5 5 5 5 6 5 5 5 5 5 6 5 5 5 5 5 5 5 5 5 5 5 5 5 5 5 6 5 5 5 5 5 5 5 6 5 6 5 5 5 5 5 5 5 5 5 5 5 6 6 6 5 5 5 6 5 5 5 5 5 5 5 5 5 5 5 6 5 6 5 5 5 6 5 5 5 5 5 5 6 5 5 5 5 5 5 5 5 6 5 5 6 5 5 5 5 6 5 5 6 5 5 5 5 5 5 5 5 5 5 6 5 5 6 5 5 5 5 5 5 5 5 5 5 5 5 5 5 5 5 6 5 5 6 5 5 5 6 5 5 6 6 5 5 5 5 5 5 5 5 5 5 5 5 5 5 5 5 5 5 5 6 6 5 5 5 5 5 5 5 5 5 5 5 6 5 5 5 5 5 5 5 5 5 6 5 6 5 5 5 5 5 5 5 5 5 5 5 5 5 5 5 5 5 5 5 5 5 5 5 6 5 5 6 5 5 5 5 5 5 5 5 5 6 5 5 5 5 5 5 5 5 6 5 5 5 5 5 5 5 5 6 5 5 5 5 5 6 5 5 5 5 5 5 5 5 5 5 5 5 5 5 5 5 5 5 5 5 5 5 5 5 5 5 5 6 5 5 5 5 5 5 6 5 5 5 5 6 5 5 5 6 5 5 5 5 6 5 6 5 5 5 5 5 5 5 5 5 5 5 5 5 5 5 5 5 5 5 5 5 5 5 5 5 5 5 5 5 5 5 5 5 5 5 5 6 5 6 5 5 5 5 5 5 5 5 5 5 5 6 5 5 5 5 5 5 5 5 5 6 5 6 5 5 5 5 5 5 6 5 5 5 6 5 5 5 5 5 5 5 5 5 5 5 5 6 5 5 5 5 5 5 5 5 5 6 6 5 5 5 5 6 5 5 5 5 5 5 5 5 5 6 5 5 5 5 5 5 5 5 5 5 5 5 5 5 5 5 5 5 5 5 5 5 5 5 5 5 5 5 6 5 5 5 5 5 5 5 6 5 5 5 5 5 5 5 5 5 5 5 5 5 5 5 6 5 5 5 6 5 5 5 5 6 5 5 5 6 5 5 5 5 5 5 5 5 5 5 5 5 5 5 5 5 5 5 5 5 5 6 5 6 5 5 5 5 5 5 6 6 5 5 5 5 5 5 5 5 5 5 5 5 5 5 5 5 5 5 5 5 5 5 6 5 5 5 6 5 5 5 5 5 5 6 5 5 5 5 5 5 5 5 5 5 5 5 5 5 5 5 5 5 6 5 5 5 6 5 5 5 5 5 5 5 5 5 5 5 5 5 5 5 5 5 5 5 6 5 5 5 5 5 5 5 5 5 5 5 5 5 5 5 5 5 5 5 5 6 5 6 5 5 6 5 5 5 6 5 6 5 5 5 5 5 6 5 6 5 5 5 5 5 5 5 5 5 6 5 5 5 5 5 5 5 5 5 5 5 5 5 5 6 5 5 5 5 5 5 5 5 5 5 5 5 5 5 5 5 5 5 5 5 5 5 5 5 5 5 5 5 5 5 5 5 6 5 5 5 5 5 5 5 5 5 5 6 5 5 5 5 5 5 5 5 5 5 6 5 5 5 6 5 5 5 6 5 5 5 5 5 6 5 5 5 6 5 5 5 5 5 5 5 5 5 5 5 5 5 5 6 5 5 5 5 5 5 5 5 5 5 6 5 5 5 5 5 5 6 5 5 5 5 5 6 5 5 5 6 6 6 6 5 5 5 5 6 6 5 5 5 6 5 5 5 6 5 6 5 5 5 5 5 5 5 6 5 5 5 6 6 5 5 5 5 5 5 5 6 5 5 5 5 6 5 5 5 5 6 5 5 6 6 6 6 5 5 5 5 5 5 6 5 5 5 5 5 5 5 6 5 5 5 6 5 5 5 5 6 5 5 5 5 5 6 5 5 5 6 5 5 5 5 6 5 6 5 5 6 5 5 5 5 5 6 5 5 5 5 5 5 5 6 5 5 6 5 6 5 6 5 5 5 6 5 5 5 5 6 5 5 5 6 5 6 5 5 5 5 5 5 5 5 5 5 6 5 5 5 5 5 5 5 5 5 5 5 5 5 5 5 5 5 5 5 5 5 5 5 5 5 5 5 5 5 5 5 5 5 5 5 5 5 5 5 6 5 5 5 5 5 6 5 5 5 5 5 5 5 5 5 5 6 5 5 6 5 5 5 6 5 5 6 6 5 5 5 5 5 6 6 5 5 5 5 5 6 6 5 5 5 5 6 6 5 5 5 5 5 6 5 6 5 5 5 6 5 6 5 5 6 5 5 5 6 6 5 5 5 5 5 5 6 5 6 5 6 5 5 5 5 5 5 5 5 5 5 5 5 6 5 5 5 5 5 5 6 5 5 5 6 6 5 5 5 5 5 5 5 6 6 6 5 5 5 5 5 6 5 5 5 5 5 5 5 5 5 5 6 5 5 5 5 5 5 5 5 5 5 5 5 5 5 5 5 5 5 5 5 5 5 5 5 5 5 6 5 5 5 5 5 5 5 5 6 6 5 5 5 5 5 5 5 6 5 5 5 5 5 6 5 5 5 5 6 5 5 5 5 5 5 5 5 5 5 5 5 5 5 5 5 5 5 5 5 5 5 5 5 6 5 6 5 5 5 5 5 5 5 5 5 6 6 5 5 5 5 5 5 5 5 5 5 5 5 5 5 5 5 5 5 5 5 5 5 5 6 5 5 5 5 5 5 6 5 5 5 5 5 5 5 5 5 6 6 5 5 5 6 5 5 5 5 5 5 6 5 5 6 5 5 5 5 5 6 5 5 6 5 5 5 5 6 5 5 6 5 5 5 5 5 5 5 5 5 5 5 6 5 5 5 6 5 5 6 6 5 5 5 5 5 6 5 6 5 5 5 6 5 5 5 5 5 5 6 5 6 5 5 6 5 5 5 6 5 5 5 5 6 5 5 5 5 6 5 5 5 5 5 6 5 5 5 5 5 6 6 5 5 5 5 5 5 5 5 5 5 5 5 5 5 6 5 5 5 5 5 5 5 5 5 5 5 5 5 6 5 5 6 5 5 5 6 5 5 5 5 5 5 5 5 5 5 5 5 5 5 5 5 6 6 5 6 5 5 5 5 5 6 5 6 5 5 6 5 5 5 6 5 5 5 5 5 5 5 5 5 5 5 5 5 5 6 5 6 5 5 5 5 5 5 5 5 5 5 6 6 5 5 5 5 5 6 5 5 6 5 5 5 6 5 5 5 5 5 5 5 5 5 5 6 5 5 5 5 5 5 5 5 5 5 5 5 5 6 5 5 5 6 5 5 5 5 5 6 5 5 5 5 5 5 5 5 5 5 5 5 5 6 5 5 5 5 6 5 5 5 5 5 6 5 6 5 5 5 5 6 5 5 5 6 5 5 5 5 5 5 5 5 6 6 5 6 5 6 5 6 5 5 5 6 5 5 5 5 5 5 5 5 6 5 5 5 5 6 5 5 5 6 5 6 5 6 5 5 5 5 5 5 5 5 5 5 5 5 5 5 5 5 5 5 5 5 5 5 5 6 6 5 5 5 5 5 5 5 5 5 6 5 5 6 5 5 5 5 5 5 5 5 5 5 6 5 5 5 5 6 5 5 5 5 5 5 5 5 5 5 5 5 5 5 5 5 5 5 5 5 5 5 5 5 5 5 5 5 5 5 5 5 5 5 5 5 5 6 5 5 5 5 5 5 6 5 5 5 5 6 5 5 5 6 5 5 6 5 6 5 6 5 6 5 6 5 5 5 6 5 5 5 6 5 5 5 6 6 5 6 5 5 6 5 5 6 5 5 5 6 6 5 5 6 5 6 5 5 5 6 5 6 5 5 6 5 6 6 5 5 5 5 5 5 5 5 5 5 5 5 5 5 5 5 5 5 5 5 6 5 6 5 5 6 5 5 5 5 6 5 5 6 5 6 5 5 5 5 5 5 5 5 5 5 5 6 5 5 5 5 5 5 6 5 5 5 5 5 5 5 5 5 5 5 5 5 5 5 5 5 5 5 5 5 5 5 5 5 5 5 5 5 6 5 5 5 5 6 5 5 5 5 6 5 5 5 5 5 5 5 5 5 5 5 5 6 5 5 5 5 5 5 5 5 6 5 5 5 5 5 5 5 5 5 5 5 5 5 5 5 5 5 5 5 6 5 5 5 5 5 5 5 5 5 5 5 5 6 5 6 5 6 5 5 5 6 5 5 5 5 5 5 5 5 5 5 6 5 5 5 5 5 5 6 5 5 5 5 6 5 5 5 5 5 5 6 5 5 5 6 5 5 5 5 5 5 5 5 5 5 5 5 5 5 5 5 6 5 5 5 5 5 5 5 5 5 5 5 5 5 5 5 5 5 5 5 5 5 5 5 5 5 5 5 5 5 5 5 6 5 5 5 5 5 5 5 5 6 5 5 5 5 5 5 5 5 5 6 5 5 5 6 5 5 5 5 5 6 5 5 6 5 5 5 5 5 5 5 5 5 5 6 6 5 5 6 5 5 5 5 5 5 5 5 6 5 5 5 5 5 5 5 5 5 5 5 5 5 5 5 5 5 5 5 5 5 5 5 5 5 5 5 5 5 5 5 5 5 5 5 5 5 5 5 5 5 5 5 5 5 5 5 5 5 5 5 6 5 5 5 5 5 5 5 5 5 5 5 5 5 5 5 5 5 5 5 5 5 5 5 5 5 5 5 5 5 5 5 5 6 5 5 5 5 6 5 5 5 5 5 5 5 5 5 5 5 5 5 5 5 5 5 6 5 5 5 5 5 5 5 5 5 5 5 5 5 5 5 5 6 6 6 5 5 5 6 5 5 6 5 6 5 5 5 5 5 5 5 5 5 6 5 5 6 5 5 5 5 5 5 6 5 5 5 5 5 5 5 5 5 5 5 5 6 5 5 5 5 5 5 5 5 5 5 5 5 5 5 6 6 5 5 5 5 5 6 5 5 5 6 6 5 5 5 5 5 5 6 5 5 5 5 5 6 6 5 5 5 6 5 5 5 5 5 5 5 5 6 5 5 6 5 5 6 5 5 6 5 5 6 5 5 5 5 5 5 6 5 5 5 6 5 5 6 5 5 5 5 5 5 6 5 6 5 5 5 5 5 5 6 6 5 5 5 6 5 5 5 5 5 6 6 5 6 5 5 5 5 5 6 5 6 5 5 5 6 5 5 5 5 5 5 5 5 5 5 5 6 5 5 6 6 5 5 5 5 5 6 5 5 5 5 5 5 5 5 5 5 5 5 5 5 5 5 5 5 5 5 5 5 5 5 6 5 5 5 5 5 5 5 5 5 5 5 5 5 5 5 5 5 5 5 5 5 5 5 5 5 5 5 5 5 5 5 5 5 5 5 5 5 5 5 5 6 5 6 5 5 5 5 5 5 5 5 5 5 5 5 5 5 5 5 5 5 5 5 5 5 5 5 5 5 5 5 5 5 5 5 5 6 5 5 5 5 5 5 5 5 5 5 5 5 5 5 5 5 5 5 5 5 5 5 5 5 5 5 5 5 5 5 5 5 5 5 5 5 6 5 5 5 5 5 5 5 5 5 5 5 5 5 5 5 5 5 5 5 6 5 6 5 5 5 5 5 5 5 5 5 5 5 5 5 5 5 5 5 5 5 5 5 5 5 5 5 5 5 5 5 5 5 5 5 5 5 5 5 5 5 5 5 5 5 5 5 5 5 5 5 5 5 5 5 5 5 5 5 5 5 5 5 5 5 5 5 5 5 5 6 5 5 5 5 6 5 5 6 5 5 5 6 5 5 5 5 5 5 5 6 5 5 5 5 6 5 5 5 5 5 5 6 5 6 5 
</DataArray>
<DataArray type="Float64" Name="stress" NumberOfComponents="9" format="ascii">
2674.4423170298323 96.079483226034696 0 96.079483226034696 -0.075230789202998277 0 0 0 0 4497.1962965045677 -2032.1863589004504 0 -2032.1863589004504 680.56070352643235 0 0 0 0 11.874314503920971 0.66801787448790506 0 0.66801787448790506 0.37533974654976765 0 0 0 0 1273.3434887139301 1402.717902478304 0 1402.717902478304 743.48379123362065 0 0 0 0 1653.9987232018029 1375.0045424141208 0 1375.0045424141208 621.94719969561834 0 0 0 0 4278.4504564834897 -1028.3765113742513 0 -1028.3765113742513 181.11192112197099 0 0 0 0 3998.1509212916717 -1186.9635621684934 0 -1186.9635621684934 127.30959812794627 0 0 0 0 -31.196806804538937 -757.52939321952556 0 -757.52939321952556 310.29225000972167 0 0 0 0 -590.79527812465676 -477.36723296071102 0 -477.36723296071102 451.03147572061602 0 0 0 0 4497.5866928018877 677.03239999513482 0 677.03239999513482 -340.62664945064967 0 0 0 0 5285.0134768151329 296.9950692275969 0 296.9950692275969 -225.50377487110589 0 0 0 0 5.4022168809713094 -7.8171400876335611 0 -7.8171400876335611 -1.0311314579838318 0 0 0 0 664.78268390046287 615.93677225916849 0 615.93677225916849 832.67804642005706 0 0 0 0 1182.5847363266657 1216.3390231794538 0 1216.3390231794538 756.42127388964559 0 0 0 0 1220.1553203826334 -216.91936690137018 0 -216.91936690137018 -272.13744540922096 0 0 0 0 210.72453375399346 -0.40910552839227421 0 -0.40910552839227421 -337.52180617856652 0 0 0 0 238.65874143829569 203.01894430966121 0 203.01894430966121 -274.02893056038749 0 0 0 0 261.41938347794712 173.62460205025803 0 173.62460205025803 10.681853105225855 0 0 0 0 795.28461713985598 764.94079166855545 0 764.94079166855545 427.91476465714413 0 0 0 0 641.16989643110719 334.68175953753916 0 334.68175953753916 47.477101673383459 0 0 0 0 703.37578281827882 488.03165111807266 0 488.03165111807266 220.48818678138923 0 0 0 0 974.84186307653727 726.87159425631444 0 726.87159425631444 317.9510418288537 0 0 0 0 619.71475859626662 207.26607208297401 0 207.26607208297401 -6.8202483515172361 0 0 0 0 -0.055079055248086206 1.8388400189798801 0 1.8388400189798801 -2.6779516430409682 0 0 0 0 1394.2466274786711 806.6560015425564 0 806.6560015425564 -15.084770193593172 0 0 0 0 1094.4710516721752 1322.5872759599069 0 1322.5872759599069 922.15504226550479 0 0 0 0 -58.205538408190478 -23.111350822253257 0 -23.111350822253257 256.24414527947977 0 0 0 0 11.74477215047358 -1.8621909795170097 0 -1.8621909795170097 0.49957811450354184 0 0 0 0 56.954173299141985 4.7847882945392186 0 4.7847882945392186 -413.09403873654321 0 0 0 0 22.148600596363849 -2.0043393353944516 0 -2.0043393353944516 -0.65083945802769483 0 0 0 0 263.20505061876611 -395.48787343326154 0 -395.48787343326154 -776.30424317480754 0 0 0 0 -52.12079941360571 -177.33708363564574 0 -177.33708363564574 211.93933207060343 0 0 0 0 275.80651826996473 -200.33056943012679 0 -200.33056943012679 -217.30097301952381 0 0 0 0 685.68811429358902 1367.5912079879754 0 1367.5912079879754 849.25759877100006 0 0 0 0 61.632198216218967 -617.63291632893538 0 -617.63291632893538 -122.2960155623893 0 0 0 0 114.75053477181063 134.85097182711343 0 134.85097182711343 -152.21799237410002 0 0 0 0 64.553963848462445 71.563431158129205 0 71.563431158129205 0.25907596325181326 0 0 0 0 16.572391246440702 -2.5065890128134392 0 -2.5065890128134392 -0.1459492574220711 0 0 0 0 220.21073270992201 242.44785760673952 0 242.44785760673952 53.311036527018814 0 0 0 0 433.14496892454918 -16.880663707462524 0 -16.880663707462524 -64.208852923905809 0 0 0 0 5.9018741819393199 -1.4026238086791274 0 -1.4026238086791274 0.31848304889055457 0 0 0 0 492.96554736551479 -90.17818637546668 0 -90.17818637546668 -202.80092689066669 0 0 0 0 419.67045999843685 217.26483413611109 0 217.26483413611109 -89.525772711026548 0 0 0 0 298.72502492903732 -242.64753298751452 0 -242.64753298751452 -59.859111490671012 0 0 0 0 60.297837729915045 -186.2585369316057 0 -186.2585369316057 67.957988508814594 0 0 0 0 -43.240207168884808 -79.456968393846296 0 -79.456968393846296 -24.76297429030069 0 0 0 0 75.164153413352324 -90.851362844216055 0 -90.851362844216055 -262.82287322969614 0 0 0 0 -46.092798409576062 -129.8794328456936 0 -129.8794328456936 -142.88687564867109 0 0 0 0 62.708020886493614 -176.53212030716378 0 -176.53212030716378 -125.12541040665974 0 0 0 0 179.36536653715302 -186.21731169712098 0 -186.21731169712098 -188.17326258593334 0 0 0 0 77.914887878792797 -110.18087508471601 0 -110.18087508471601 -119.38329982815549 0 0 0 0 219.32550522960446 -56.748959165471689 0 -56.748959165471689 -182.2983554507814 0 0 0 0 56.425841923395637 -137.91886558444457 0 -137.91886558444457 -216.16296099921715 0 0 0 0 -156.41188678250182 -120.57494371763232 0 -120.57494371763232 -117.80769361560397 0 0 0 0 -36.279822318378137 -25.668675474544671 0 -25.668675474544671 -77.129862221661369 0 0 0 0 -34.034878425562056 -72.93736314133389 0 -72.93736314133389 -200.42297614731842 0 0 0 0 -17.866347134928219 -162.85211085930905 0 -162.85211085930905 -326.76882479380379 0 0 0 0 -77.080709818983451 -248.93519028035644 0 -248.93519028035644 -300.78588962238518 0 0 0 0 -39.252734552239417 -149.39178225891283 0 -149.39178225891283 -121.97937113945795 0 0 0 0 -61.295046980580082 -150.52959820235992 0 -150.52959820235992 -117.43127871596539 0 0 0 0 47.872697266295916 -16.618305193352015 0 -16.618305193352015 4.0256404823644392 0 0 0 0 -5.0162261658294369 -8.6212033235056253 0 -8.6212033235056253 4.6099396338384011 0 0 0 0 231.14670965063851 -240.08130338079968 0 -240.08130338079968 -488.09323760787947 0 0 0 0 30.019780692988832 -10.384155616104934 0 -10.384155616104934 3.265988887569601 0 0 0 0 761.39908408021438 265.68102524412649 0 265.68102524412649 -159.59872750753084 0 0 0 0 808.71761790453456 413.78809353241104 0 413.78809353241104 -93.337039822271663 0 0 0 0 915.26685214498139 139.43378682327079 0 139.43378682327079 745.04207541134838 0 0 0 0 375.0532615443226 411.69696416674424 0 411.69696416674424 638.91144869066102 0 0 0 0 124.90168415401422 85.75539929533079 0 85.75539929533079 207.66204110233775 0 0 0 0 829.79970954320743 391.55244575239158 0 391.55244575239158 27.792288937356716 0 0 0 0 -95.459032727114391 6.1008425781469668 0 6.1008425781469668 174.63806346065985 0 0 0 0 -171.5371417413553 -101.54562432689318 0 -101.54562432689318 58.299813769343928 0 0 0 0 45.102028348803287 -242.17921679761457 0 -242.17921679761457 -713.17552756324449 0 0 0 0 456.82249288263847 177.32798869494627 0 177.32798869494627 -30.005068443349955 0 0 0 0 108.61915670814051 192.77182927788135 0 192.77182927788135 450.28369783972448 0 0 0 0 326.03431373411149 31.291392851776209 0 31.291392851776209 -87.941286488884543 0 0 0 0 812.40792525731376 257.93934315891374 0 257.93934315891374 216.41158578749219 0 0 0 0 1003.8137904747637 690.63532187219425 0 690.63532187219425 459.56812704778258 0 0 0 0 750.79202978570538 765.40146614921468 0 765.40146614921468 579.42273981239759 0 0 0 0 1207.0665180911383 948.55289347069152 0 948.55289347069152 521.90172244034966 0 0 0 0 799.50562074128447 813.73862720218892 0 813.73862720218892 995.00843903852092 0 0 0 0 777.97252742646378 532.3519315791159 0 532.3519315791159 326.33843820150196 0 0 0 0 11.232985800703318 -117.2366139593077 0 -117.2366139593077 11.709224827349317 0 0 0 0 29.114569690835197 -77.575279405260972 0 -77.575279405260972 -196.36831214271831 0 0 0 0 86.232333185587777 -354.38680336962716 0 -354.38680336962716 -418.27597003729034 0 0 0 0 168.70183563418686 -150.56424848350116 0 -150.56424848350116 -314.59240236233222 0 0 0 0 5.4882121813258777 5.1370778010075924 0 5.1370778010075924 -5.9337118576012484 0 0 0 0 145.6795165790827 -38.487985501164985 0 -38.487985501164985 -186.91971864814195 0 0 0 0 57.385151249418641 -20.833603283645999 0 -20.833603283645999 6.3930007031434375 0 0 0 0 78.826096400502138 -20.049593807608289 0 -20.049593807608289 -159.6112080325006 0 0 0 0 132.25242348047323 -213.7390823490656 0 -213.7390823490656 133.36565183315179 0 0 0 0 45.451588280557189 4.0672606295788682 0 4.0672606295788682 318.65985116177762 0 0 0 0 8.5211310359591153 -179.52806142076588 0 -179.52806142076588 2.9695622605077006 0 0 0 0 18.621045625332044 -75.971830694177697 0 -75.971830694177697 48.997566972760524 0 0 0 0 103.23988124020252 -134.19595051836416 0 -134.19595051836416 88.103505009106811 0 0 0 0 -21.092321450378222 -146.18783208040929 0 -146.18783208040929 97.631293923966041 0 0 0 0 14.294767195106033 -76.194628228557718 0 -76.194628228557718 75.028218624975125 0 0 0 0 -39.171949759096606 -102.44785753810356 0 -102.44785753810356 8.7945499864106296 0 0 0 0 64.349014335661195 242.52742670611917 0 242.52742670611917 376.09734231165714 0 0 0 0 57.784817566560378 192.35789640897769 0 192.35789640897769 -6.6822715446819529 0 0 0 0 -82.415815099069732 -103.67612586625091 0 -103.67612586625091 113.08966276232468 0 0 0 0 16.558339207520476 -40.481651755708299 0 -40.481651755708299 199.54634954556332 0 0 0 0 462.49778202897869 -46.175332723437123 0 -46.175332723437123 409.85921146301553 0 0 0 0 150.49251468159491 -76.004994392688559 0 -76.004994392688559 164.27269120830988 0 0 0 0 321.88912825213629 126.73271201757962 0 126.73271201757962 211.27610394086923 0 0 0 0 425.49784758496389 330.90917550675545 0 330.90917550675545 444.21951797141082 0 0 0 0 289.03057153598638 367.56016567253039 0 367.56016567253039 297.74171678361131 0 0 0 0 187.03599778611533 129.92738067746814 0 129.92738067746814 422.86503493907799 0 0 0 0 -59.837986057449598 282.91487976608232 0 282.91487976608232 423.78312869949195 0 0 0 0 1.2753414948620616 2.1519198308172065 0 2.1519198308172065 2.4186400071178653 0 0 0 0 6.6333870636852907 -4.37007312714249 0 -4.37007312714249 1.8020316065289865 0 0 0 0 1694.1735690578353 1191.901700697357 0 1191.901700697357 601.39332596371833 0 0 0 0 1803.4767955020798 270.4455416395424 0 270.4455416395424 111.0771775206058 0 0 0 0 650.8837519127992 467.14883616574434 0 467.14883616574434 504.62670929710248 0 0 0 0 995.97883205079415 -207.82013581147896 0 -207.82013581147896 449.64151465752275 0 0 0 0 156.26183186468552 -17.970062233737394 0 -17.970062233737394 545.35126049350856 0 0 0 0 -297.15901439699519 -863.72222411539155 0 -863.72222411539155 -260.45264918767089 0 0 0 0 186.81753101407958 -565.53487501155007 0 -565.53487501155007 -301.52518809112507 0 0 0 0 707.6186825219047 -555.22057880079592 0 -555.22057880079592 -361.48806227050363 0 0 0 0 -3.5776962367235683 -196.43341352554734 0 -196.43341352554734 -541.5708888653935 0 0 0 0 289.94127807210316 -117.02862710103818 0 -117.02862710103818 -527.29231775189055 0 0 0 0 318.78605165856425 79.4861153272509 0 79.4861153272509 -483.85736807525609 0 0 0 0 496.53692520639743 -160.69127190320404 0 -160.69127190320404 -655.88010274859448 0 0 0 0 793.37184932395758 -133.98034052164098 0 -133.98034052164098 -962.10627358661372 0 0 0 0 881.79995263001183 -361.79637583435851 0 -361.79637583435851 -500.29382420651331 0 0 0 0 4503.5768249242537 -465.22013894296936 0 -465.22013894296936 -1509.5811062659072 0 0 0 0 2218.9507194050093 847.82053553488356 0 847.82053553488356 -1673.0116612336587 0 0 0 0 4491.7344694064086 1599.5453864399763 0 1599.5453864399763 -604.09749107540279 0 0 0 0 3189.7963726085654 355.62931180371686 0 355.62931180371686 -1541.9230054876364 0 0 0 0 1306.4324146135477 690.95476923504486 0 690.95476923504486 425.65506080211412 0 0 0 0 178.61943044893269 353.83080953293847 0 353.83080953293847 -925.87431511904833 0 0 0 0 -157.79890744404111 231.96528695430493 0 231.96528695430493 -253.52477607692708 0 0 0 0 12.616781799806191 5.4012820079573203 0 5.4012820079573203 -12.631149565923524 0 0 0 0 78.279670574072213 -2.5904870889521057 0 -2.5904870889521057 -7.5962736356390268 0 0 0 0 -10.070358702509111 -25.77579708781218 0 -25.77579708781218 82.423542318385444 0 0 0 0 12.562395654776537 0.092549222945239151 0 0.092549222945239151 -2.5276383713240529 0 0 0 0 2460.15723529362 2184.9172629067739 0 2184.9172629067739 1712.6620431843812 0 0 0 0 3310.0202381147319 -1065.7249290826851 0 -1065.7249290826851 332.45892956866425 0 0 0 0 21.645858406155213 -16.928885943875287 0 -16.928885943875287 -7.1573716944098953 0 0 0 0 32.104061215599359 -85.226521102477363 0 -85.226521102477363 -84.426909147871356 0 0 0 0 93.761578158737393 -23.031701036150253 0 -23.031701036150253 -44.713034216277975 0 0 0 0 79.937269899892271 -16.416556092611131 0 -16.416556092611131 -26.466915853623959 0 0 0 0 648.68588869538507 593.7261221055237 0 593.7261221055237 288.05532596491105 0 0 0 0 129.86378352814791 42.356977408972512 0 42.356977408972512 -46.822240542957388 0 0 0 0 8.6122548894205124 8.5227165755507315 0 8.5227165755507315 -9.1956966297086886 0 0 0 0 1649.2430482517811 646.38428240287976 0 646.38428240287976 128.00187450097178 0 0 0 0 5.76142231556355 -2.0172519834287073 0 -2.0172519834287073 0.81228537749092866 0 0 0 0 933.60952712553262 1188.3085524447029 0 1188.3085524447029 1229.1252299561675 0 0 0 0 1520.7160221549057 345.5110489042836 0 345.5110489042836 87.977216672283248 0 0 0 0 -5.7319965734204743 -195.07620723995706 0 -195.07620723995706 -450.58993370253847 0 0 0 0 25.281987823227126 -10.568783958713993 0 -10.568783958713993 2.4502754964257747 0 0 0 0 94.440747972897952 9.9113017527738521 0 9.9113017527738521 -58.389376579926534 0 0 0 0 66.472372686391509 -2.3033557818420363 0 -2.3033557818420363 -2.0531597148561609 0 0 0 0 86.240938234095665 202.70341080532012 0 202.70341080532012 -444.75497463504962 0 0 0 0 91.287965836076182 -27.76799861772588 0 -27.76799861772588 447.06624146933791 0 0 0 0 -20.170808213297278 207.47220034747352 0 207.47220034747352 13.145616573465304 0 0 0 0 -73.473449099259597 30.771247504720876 0 30.771247504720876 848.65888204044631 0 0 0 0 -7.365402798110722 -369.6496053778157 0 -369.6496053778157 1016.363474114341 0 0 0 0 -5.6801406225713436 -232.1413829500342 0 -232.1413829500342 312.03724151418044 0 0 0 0 3.5972843437438371 -7.3091620450941832 0 -7.3091620450941832 5.1975716761315809 0 0 0 0 120.36884783416463 -157.21724596943017 0 -157.21724596943017 210.29564672142493 0 0 0 0 86.113495768433495 -102.3155843291529 0 -102.3155843291529 124.99203738887081 0 0 0 0 38.882453848071947 -0.85450734015424246 0 -0.85450734015424246 -15.802360205431174 0 0 0 0 0.2527569805088774 -1.5390869956133457 0 -1.5390869956133457 -2.2722322352347604 0 0 0 0 -75.766946163785178 -13.081826565699885 0 -13.081826565699885 -56.450362389670772 0 0 0 0 18.951438310672529 22.494392546464951 0 22.494392546464951 -3.1243172505692201 0 0 0 0 1.2232783008080901 0.81512456227888208 0 0.81512456227888208 -5.777658388022715 0 0 0 0 37.39493293320993 -6.8941996902346432 0 -6.8941996902346432 5.5224901648234663 0 0 0 0 341.38495120944572 -20.1303871862238 0 -20.1303871862238 -1.852374829368614 0 0 0 0 64.869082095683552 -123.74106418395513 0 -123.74106418395513 -116.71181773926037 0 0 0 0 288.64391686042654 -180.33087326698114 0 -180.33087326698114 -136.64145753529374 0 0 0 0 24.099525963767007 -18.779141481724551 0 -18.779141481724551 11.279463374100535 0 0 0 0 6.1100311675124601 -2.9686276130137514 0 -2.9686276130137514 -0.83375563979544909 0 0 0 0 382.19787546403677 -139.71704909478879 0 -139.71704909478879 -15.953571554360281 0 0 0 0 207.38074517709902 39.353485577241145 0 39.353485577241145 37.449959538633408 0 0 0 0 24.907199653578573 -6.0865133108551284 0 -6.0865133108551284 -2.8982936402404462 0 0 0 0 0.17356514427248726 -0.14150703865834657 0 -0.14150703865834657 -0.55017619241184157 0 0 0 0 6.840233744980651 1.8511858653712183 0 1.8511858653712183 -1.5072193083775076 0 0 0 0 15.507831447423087 -6.8000823566809263 0 -6.8000823566809263 0.0020087776594271902 0 0 0 0 21.372376053084736 -13.329526195873445 0 -13.329526195873445 1.5422039488089521 0 0 0 0 6.5780082321277291 -1.2481229173135659 0 -1.2481229173135659 -0.93477569628285906 0 0 0 0 18.563496557566395 -6.2749747645673795 0 -6.2749747645673795 -6.1470118032652454 0 0 0 0 57.222866035779589 60.630345395058157 0 60.630345395058157 12.69912900052446 0 0 0 0 80.610803449904779 53.049012038810645 0 53.049012038810645 -49.996612973845686 0 0 0 0 32.008955094308476 -9.4636078681644449 0 -9.4636078681644449 24.212404532209504 0 0 0 0 -1.0452299399403273 -6.0448724059273884 0 -6.0448724059273884 -0.0063076990003468995 0 0 0 0 181.76259425813623 145.63511989245049 0 145.63511989245049 60.84431930197951 0 0 0 0 1.075710770085152 -0.58185440986562753 0 -0.58185440986562753 0.44681821406471028 0 0 0 0 222.16725926983418 -22.712526843114901 0 -22.712526843114901 -49.677347310409971 0 0 0 0 117.37782241309469 -26.663285989392108 0 -26.663285989392108 -137.79721768046181 0 0 0 0 43.060347291102516 -20.438475869113283 0 -20.438475869113283 -40.744144188696893 0 0 0 0 36.987062306005328 -5.3296093444700645 0 -5.3296093444700645 0.32442718773029061 0 0 0 0 37.445751364726561 0.020608985818270753 0 0.020608985818270753 -7.8212078607767292 0 0 0 0 71.920443958137184 -3.6233938447467153 0 -3.6233938447467153 -66.998130808993096 0 0 0 0 87.017655315066804 -23.688666602603462 0 -23.688666602603462 11.806178574441674 0 0 0 0 34.048191980678268 -3.4050456760376875 0 -3.4050456760376875 -14.269035148428257 0 0 0 0 26.70713834153139 -6.8864905122697877 0 -6.8864905122697877 -37.394839352660192 0 0 0 0 26.881108759720519 -3.756643272641158 0 -3.756643272641158 4.2190895333397691 0 0 0 0 39.776704921401688 28.915004413679064 0 28.915004413679064 -20.411384313308574 0 0 0 0 -11.691375818147208 48.895610841512486 0 48.895610841512486 -0.11832267292701253 0 0 0 0 72.11384889902547 54.247013160217705 0 54.247013160217705 39.772651125446103 0 0 0 0 44.49440910256817 50.399907128549344 0 50.399907128549344 45.378369003365634 0 0 0 0 150.79805868293624 46.323512863897008 0 46.323512863897008 10.704776297963193 0 0 0 0 0.2318317149916993 0.20974436467466262 0 0.20974436467466262 0.91628296930093955 0 0 0 0 172.92606672365218 -82.361253031437641 0 -82.361253031437641 11.914973560409749 0 0 0 0 69.771680687605112 55.908975225310087 0 55.908975225310087 7.3858626109523584 0 0 0 0 1.5661294118617661 8.7437676287392776 0 8.7437676287392776 28.09194650351516 0 0 0 0 34.907789056880574 33.965244003940988 0 33.965244003940988 -5.5961919250468668 0 0 0 0 68.052226465937565 -1.9421172019843809 0 -1.9421172019843809 -45.806182045212076 0 0 0 0 14.580093073368346 20.07279639661769 0 20.07279639661769 -4.0015554570895144 0 0 0 0 41.749336506327381 -25.350515965316447 0 -25.350515965316447 39.725748925547826 0 0 0 0 104.33577539490216 16.375275529541895 0 16.375275529541895 -36.589814850699639 0 0 0 0 19.718524604188133 -69.330543096895525 0 -69.330543096895525 -58.414097454430475 0 0 0 0 5.1033264234429225 -39.440507135130161 0 -39.440507135130161 -19.530885320529848 0 0 0 0 40.361015911325353 -2.4125323667302752 0 -2.4125323667302752 -1.7821039737400923 0 0 0 0 44.144636582903331 -120.41236622547135 0 -120.41236622547135 0.43228934124910789 0 0 0 0 -79.913096990021586 -35.861709790196869 0 -35.861709790196869 9.8992120704935189 0 0 0 0 3.7732783144178086 -0.58642533738628799 0 -0.58642533738628799 -0.94057304434216049 0 0 0 0 -8.5127122134144884 31.769871484852942 0 31.769871484852942 -31.072396455445087 0 0 0 0 -157.71009489760036 -44.180654590695951 0 -44.180654590695951 -19.563637121865668 0 0 0 0 0.66328529168947625 4.3851828476803334 0 4.3851828476803334 -0.11854176632016379 0 0 0 0 -127.99235806442448 157.42765832785545 0 157.42765832785545 197.3735698383461 0 0 0 0 141.90564899271703 279.39247301207456 0 279.39247301207456 132.82453224853475 0 0 0 0 -86.136140580667416 78.17965540489206 0 78.17965540489206 -9.8599625929903141 0 0 0 0 -89.47535922183306 47.128110880385066 0 47.128110880385066 67.469280896921418 0 0 0 0 74.507436528045218 135.60396131482639 0 135.60396131482639 -18.568273523499329 0 0 0 0 90.296857418376021 69.845286754415156 0 69.845286754415156 -154.51919957081282 0 0 0 0 101.68325192662087 77.296245712349105 0 77.296245712349105 -166.79551958976936 0 0 0 0 -10.761831722629722 -95.043190183709157 0 -95.043190183709157 -6.6932996323048428 0 0 0 0 110.45332414319273 44.723085580142197 0 44.723085580142197 -201.01554911320204 0 0 0 0 64.037072076531501 -17.746292373020331 0 -17.746292373020331 3.661386545506522 0 0 0 0 20.365301183483098 -69.878087488342317 0 -69.878087488342317 -54.017898159328752 0 0 0 0 19.136013860665528 16.152806692727381 0 16.152806692727381 -8.1975887563019096 0 0 0 0 14.802935723360861 3.9312075919001472 0 3.9312075919001472 -2.3951754706480415 0 0 0 0 11.610150922861067 53.023987595601511 0 53.023987595601511 -93.485519014867805 0 0 0 0 16.939604105195031 6.6664746992684059 0 6.6664746992684059 0.34769062882409685 0 0 0 0 17.155980025147755 12.59667256416845 0 12.59667256416845 7.3171024461469347 0 0 0 0 5.0748209372707009 0.57210578720145122 0 0.57210578720145122 4.4311129360231245 0 0 0 0 81.681872243098042 -14.13066097039291 0 -14.13066097039291 -20.763827151658006 0 0 0 0 23.106419073692564 -6.9802561640547935 0 -6.9802561640547935 8.4804633120861173 0 0 0 0 24.505486284382641 3.8512660570683579 0 3.8512660570683579 -0.30892734821841827 0 0 0 0 15.573317468617461 9.6170371737745057 0 9.6170371737745057 13.96910544872901 0 0 0 0 31.21932608136558 13.424795389951214 0 13.424795389951214 3.7996852326471071 0 0 0 0 23.522452939193101 7.590880693841541 0 7.590880693841541 5.574293256639705 0 0 0 0 30.590134944765396 9.7210112785778406 0 9.7210112785778406 15.203805579770687 0 0 0 0 30.634342838398879 7.7910496873597879 0 7.7910496873597879 9.3100113272575697 0 0 0 0 20.27303671016125 4.1019884018668336 0 4.1019884018668336 11.371860647706285 0 0 0 0 -88.454453610262135 -11.389562332592504 0 -11.389562332592504 42.495926761215969 0 0 0 0 5.2473409754325075 3.0458275382188731 0 3.0458275382188731 8.1537569903813623 0 0 0 0 -24.204299603181425 -31.04153451174534 0 -31.04153451174534 27.525229842373847 0 0 0 0 -46.523260417729034 -67.887236267873504 0 -67.887236267873504 7.5038277792609733 0 0 0 0 -37.420829673676053 -91.647187195801507 0 -91.647187195801507 55.059769674522613 0 0 0 0 -114.22881479241187 -47.811892471065676 0 -47.811892471065676 92.139491787424504 0 0 0 0 27.610669398556638 7.9558262732417688 0 7.9558262732417688 -2.6479694383879178 0 0 0 0 60.096424597868463 -15.084392209595762 0 -15.084392209595762 -3.2128347685834235 0 0 0 0 -31.171008894772967 181.28250519217477 0 181.28250519217477 240.08514785308626 0 0 0 0 -0.48929072972413223 -0.4966284818588349 0 -0.4966284818588349 2.1003547726041099 0 0 0 0 -4.5282120569900144 12.946673553262031 0 12.946673553262031 417.21251446333235 0 0 0 0 13.213464507833123 -20.174007272086101 0 -20.174007272086101 50.55775673328435 0 0 0 0 19.76302656304324 120.85398459643091 0 120.85398459643091 -51.545027536667476 0 0 0 0 26.061157656178693 -3.9311670932064722 0 -3.9311670932064722 1.6177935911384438 0 0 0 0 20.785280156094814 10.912233877355661 0 10.912233877355661 10.762102212856846 0 0 0 0 48.924478720116895 16.895627730540582 0 16.895627730540582 15.507706357066866 0 0 0 0 29.777354561290849 5.4842644240403082 0 5.4842644240403082 22.141468323805299 0 0 0 0 25.653618759944408 17.591670706485701 0 17.591670706485701 27.161628259163098 0 0 0 0 47.589449903134664 -3.5970378893155157 0 -3.5970378893155157 66.117640375541669 0 0 0 0 72.476004607349751 33.120822072817987 0 33.120822072817987 39.422417284047015 0 0 0 0 -61.299406149948481 16.910607736546808 0 16.910607736546808 30.387857701879966 0 0 0 0 110.20648009420192 13.283547881999496 0 13.283547881999496 -4.0455268404379554 0 0 0 0 78.582211703647431 12.134621126571133 0 12.134621126571133 -2.5148625114196537 0 0 0 0 289.90502160231699 99.233825716735737 0 99.233825716735737 -48.640190407660953 0 0 0 0 33.512426022716681 -15.174149489570027 0 -15.174149489570027 60.693575419319586 0 0 0 0 97.170122877578251 -11.95706803270059 0 -11.95706803270059 14.080894348850052 0 0 0 0 66.789088176272344 19.727222993740725 0 19.727222993740725 25.361169614670985 0 0 0 0 65.493736425425595 -5.9870275596810529 0 -5.9870275596810529 18.917708174406471 0 0 0 0 49.612634009419708 11.59084426197785 0 11.59084426197785 27.624717481119433 0 0 0 0 12.432480397219422 14.507434963083966 0 14.507434963083966 6.6271190462698399 0 0 0 0 99.231317625366501 -10.50518636219465 0 -10.50518636219465 17.085998981663124 0 0 0 0 45.445650838730216 3.3826505867923196 0 3.3826505867923196 1.0884591965516393 0 0 0 0 41.969866235012887 46.275139566515918 0 46.275139566515918 -0.66943773936418438 0 0 0 0 64.146454936359078 2.8214224741361704 0 2.8214224741361704 -23.960169762272926 0 0 0 0 15.790688304841751 11.053437324205788 0 11.053437324205788 -8.8145841843532367 0 0 0 0 14.259979063098569 12.66909950245698 0 12.66909950245698 0.26568851261716153 0 0 0 0 35.10134371497773 12.784125464832016 0 12.784125464832016 -5.2625866387895766 0 0 0 0 3.6287086678561309 7.8937902188778111 0 7.8937902188778111 -2.7583325021317506 0 0 0 0 37.537350212093656 2.5147130678475591 0 2.5147130678475591 0.84693682370648038 0 0 0 0 59.519768771948293 16.587643014912942 0 16.587643014912942 7.6799356807205186 0 0 0 0 55.567645371826075 21.702962182968605 0 21.702962182968605 6.73225269487898 0 0 0 0 69.985963482817169 8.9623948581206605 0 8.9623948581206605 -6.6666290972943898 0 0 0 0 51.765947530977428 5.7529482631721294 0 5.7529482631721294 7.7314290076235466 0 0 0 0 32.150723759015818 9.6168760169924212 0 9.6168760169924212 12.380764078358879 0 0 0 0 20.482918169815093 6.1086633684599292 0 6.1086633684599292 1.8787968092733536 0 0 0 0 7.078216032822354 -4.2882387855288613 0 -4.2882387855288613 -3.9220830509666724 0 0 0 0 52.754543993534753 -9.5972072370037083 0 -9.5972072370037083 1.7579268020186873 0 0 0 0 60.108581981301541 -13.888380370121922 0 -13.888380370121922 -10.533525959969424 0 0 0 0 7.4629978702187145 -1.2431538162500715 0 -1.2431538162500715 0.55814178415814331 0 0 0 0 64.439546679699561 -12.155813931533558 0 -12.155813931533558 -13.941360512213606 0 0 0 0 22.185634031076916 71.599054500192651 0 71.599054500192651 -55.91086018548787 0 0 0 0 14.209869493454164 0.30027016487161973 0 0.30027016487161973 -1.8571197410160072 0 0 0 0 27.650257068899691 9.9100063622654773 0 9.9100063622654773 -0.52328618722458997 0 0 0 0 74.099042911897413 26.565792755769884 0 26.565792755769884 -42.628965971457895 0 0 0 0 45.418917406361118 11.076264929746088 0 11.076264929746088 -7.4750313042206749 0 0 0 0 52.399256565084215 23.233906558749041 0 23.233906558749041 -26.933235220704205 0 0 0 0 86.925897625478683 13.300831335880446 0 13.300831335880446 -4.9515493162901976 0 0 0 0 378.35442507285916 -267.15258895343936 0 -267.15258895343936 -41.926827431947459 0 0 0 0 -5.7993257015308188 -0.052001827626384056 0 -0.052001827626384056 7.7281749456977913 0 0 0 0 37.718306626615231 -31.87136907300021 0 -31.87136907300021 26.391816255189951 0 0 0 0 116.58998232164595 -25.772859225946263 0 -25.772859225946263 10.153830412573825 0 0 0 0 79.408461341416114 -26.128779153829555 0 -26.128779153829555 25.363240963671842 0 0 0 0 102.53034122026293 0.85642088857252929 0 0.85642088857252929 -5.468940074723605 0 0 0 0 90.981706350627064 -18.354767847659332 0 -18.354767847659332 72.148165293103375 0 0 0 0 31.652208803784816 -7.1427526552265022 0 -7.1427526552265022 16.449184963991936 0 0 0 0 161.11692506770487 -42.318261921059275 0 -42.318261921059275 16.689511548396922 0 0 0 0 116.42804398543376 7.8007369705208021 0 7.8007369705208021 31.268279657445419 0 0 0 0 74.932027692126795 27.886299083053672 0 27.886299083053672 -9.4964348633418805 0 0 0 0 73.83943084240309 -31.491899939608402 0 -31.491899939608402 2.3286987784206303 0 0 0 0 87.589737609094641 11.553164354426393 0 11.553164354426393 -6.1340434543864735 0 0 0 0 67.965202333623893 135.01837080849049 0 135.01837080849049 1.5374950839045596 0 0 0 0 201.62867381547039 161.57354251390359 0 161.57354251390359 -170.63662870752228 0 0 0 0 331.22142299720872 -50.634051882507265 0 -50.634051882507265 -48.967745889913203 0 0 0 0 196.90763876556122 20.526418834246542 0 20.526418834246542 -21.179384720091836 0 0 0 0 163.97537701790134 101.7973253548669 0 101.7973253548669 -113.38837327499527 0 0 0 0 266.23513921404083 76.922027432594405 0 76.922027432594405 -146.05862130227945 0 0 0 0 331.3357258176984 53.896954033875716 0 53.896954033875716 -138.3260114036575 0 0 0 0 249.60038369085305 111.90879508174817 0 111.90879508174817 -259.38541182531412 0 0 0 0 207.75834645647774 70.076218805858389 0 70.076218805858389 -134.17689518738462 0 0 0 0 228.34751521438011 -281.76157154546559 0 -281.76157154546559 -244.2030006779537 0 0 0 0 223.57931741516046 23.535321574379886 0 23.535321574379886 -18.447994325766363 0 0 0 0 267.2092421388661 28.907615384136989 0 28.907615384136989 -429.24323839746785 0 0 0 0 184.41324304133013 -63.355109522321072 0 -63.355109522321072 68.169764369122277 0 0 0 0 93.201011558325263 -250.16579197631631 0 -250.16579197631631 133.93218645907814 0 0 0 0 240.60827314204653 -134.06678211238875 0 -134.06678211238875 9.4109799884827225 0 0 0 0 24.681149248295696 -157.89952465295545 0 -157.89952465295545 -144.26884337544857 0 0 0 0 335.98488376705791 -335.14719922727431 0 -335.14719922727431 -199.06470258886566 0 0 0 0 93.250432301952969 -258.04802006322529 0 -258.04802006322529 310.76777149400868 0 0 0 0 459.27989974858338 -90.491836448191634 0 -90.491836448191634 -61.837155200216557 0 0 0 0 231.01503502609194 -23.414794531714051 0 -23.414794531714051 -51.5188896485447 0 0 0 0 301.29098022553808 199.15294490823766 0 199.15294490823766 -269.29683102119952 0 0 0 0 477.97984070292978 -17.314789658084337 0 -17.314789658084337 -334.12336403985523 0 0 0 0 388.19511052838789 83.510959914293949 0 83.510959914293949 -156.01344253099114 0 0 0 0 372.64342874018257 61.49504694118535 0 61.49504694118535 -146.35372660228109 0 0 0 0 288.76373536297979 95.235234814440474 0 95.235234814440474 -134.78716357646044 0 0 0 0 338.86114098939288 200.38340517992907 0 200.38340517992907 -64.268575927647873 0 0 0 0 279.33148356845049 25.401643056511375 0 25.401643056511375 -799.48064725210747 0 0 0 0 1.2304484528596902 -0.72710680077071022 0 -0.72710680077071022 -0.38852445565322968 0 0 0 0 99.742169839097187 210.74044925792998 0 210.74044925792998 321.90758139872037 0 0 0 0 -14.94605287455488 70.156132570562292 0 70.156132570562292 49.39523404936066 0 0 0 0 41.222635453856128 68.171284531390143 0 68.171284531390143 -16.944157747851477 0 0 0 0 51.862651080718933 269.79211330621638 0 269.79211330621638 -564.07856878424218 0 0 0 0 -0.42706455554406375 8.9821492697245517 0 8.9821492697245517 -0.4272759519300795 0 0 0 0 34.821424512716476 207.66764778096081 0 207.66764778096081 -627.84608668674173 0 0 0 0 0.0096510165312793106 175.86590017124308 0 175.86590017124308 -288.36001382939463 0 0 0 0 -14.921348097122973 173.01368598811268 0 173.01368598811268 -447.59719415723498 0 0 0 0 98.358903364046 218.90257185227358 0 218.90257185227358 -431.67737924236053 0 0 0 0 -51.654378729837845 172.06601450131063 0 172.06601450131063 -372.96003664399177 0 0 0 0 90.137127148002037 35.661601236710112 0 35.661601236710112 -310.70431869004437 0 0 0 0 302.37307078960293 90.550814469071156 0 90.550814469071156 -305.50947490012709 0 0 0 0 93.078827255700162 136.66092137398437 0 136.66092137398437 -68.999428063239066 0 0 0 0 149.83530711473577 110.0123165697928 0 110.0123165697928 -297.66322367520172 0 0 0 0 46.580197840383335 186.63795050284898 0 186.63795050284898 -323.98751179845476 0 0 0 0 42.360430701504811 218.51302744996497 0 218.51302744996497 -255.71761941175555 0 0 0 0 -12.326562365960854 179.96307118619302 0 179.96307118619302 -324.62103749659491 0 0 0 0 27.340190784525475 269.3328998085417 0 269.3328998085417 -450.77605363260136 0 0 0 0 -22.824528030745569 303.41695787435128 0 303.41695787435128 -366.52562717363799 0 0 0 0 -40.20653096222668 328.43900430391795 0 328.43900430391795 -399.26982925187417 0 0 0 0 -103.70607922454656 271.14541846792872 0 271.14541846792872 -274.82010456208809 0 0 0 0 -41.796119381993776 181.20543799362667 0 181.20543799362667 -137.37455052003588 0 0 0 0 -25.589063274150249 186.73978136575033 0 186.73978136575033 -167.52341965498181 0 0 0 0 -0.89016862955759279 168.79407215779975 0 168.79407215779975 -254.31055562985557 0 0 0 0 -5.4694943010290444 137.6012196824563 0 137.6012196824563 -192.01506522730779 0 0 0 0 24.31438620944391 214.71511739824609 0 214.71511739824609 -380.83090957885179 0 0 0 0 -50.31855057872599 290.40701370622264 0 290.40701370622264 -457.31306422019088 0 0 0 0 -20.632228519123601 201.3779739902775 0 201.3779739902775 -352.15541925993239 0 0 0 0 89.812350549153052 -1.0529940145661385 0 -1.0529940145661385 -201.71182502819647 0 0 0 0 88.10395931135281 109.28333125789959 0 109.28333125789959 -601.11266812506528 0 0 0 0 221.25937388312468 27.677242164870421 0 27.677242164870421 -551.36765710226427 0 0 0 0 -268.33002283782116 416.21136858108184 0 416.21136858108184 -622.77007095982481 0 0 0 0 -48.62126847836771 287.4186006822124 0 287.4186006822124 -430.34073561482273 0 0 0 0 -61.540332666336326 210.60355490912571 0 210.60355490912571 -493.16803033035649 0 0 0 0 -28.997000277498955 258.17737056747882 0 258.17737056747882 -403.48373666208226 0 0 0 0 -23.260130939495866 278.72575916403866 0 278.72575916403866 -377.59652240660216 0 0 0 0 44.540466104859661 223.8579250806722 0 223.8579250806722 -425.16014736812031 0 0 0 0 -51.142967998428503 217.54643056714758 0 217.54643056714758 -528.96602892375222 0 0 0 0 4.38764477573568 255.2319787341271 0 255.2319787341271 -503.45333842004084 0 0 0 0 -70.881585482109585 194.03874415759395 0 194.03874415759395 -430.6615342473915 0 0 0 0 -144.78234065046126 242.91407736563679 0 242.91407736563679 -528.25529062620546 0 0 0 0 235.31942312621322 257.86918476013187 0 257.86918476013187 -1533.8749406099778 0 0 0 0 612.82779298000969 -702.25866909468095 0 -702.25866909468095 -1606.5768503634101 0 0 0 0 14.995311809970431 -0.29193648667632033 0 -0.29193648667632033 -7.8129946207580154 0 0 0 0 -312.24517289060896 545.38645110410448 0 545.38645110410448 1159.3139586834295 0 0 0 0 46.735302503584521 35.147637306622912 0 35.147637306622912 -17.195367838739156 0 0 0 0 203.69670929189306 73.06060232652726 0 73.06060232652726 19.134142464700062 0 0 0 0 80.915911288051575 23.409357203226818 0 23.409357203226818 0.64806435180707922 0 0 0 0 21.141731045653103 0.86296166388744666 0 0.86296166388744666 -8.9265479073153262 0 0 0 0 70.878862808232952 -8.593644460388532 0 -8.593644460388532 -7.3007307076113648 0 0 0 0 147.59199487051228 -68.736369053249291 0 -68.736369053249291 29.647260664350824 0 0 0 0 -3.0156029453111444 8.4457682409646324 0 8.4457682409646324 -0.19147285579349882 0 0 0 0 -1.8678355425363407 6.1976274792159529 0 6.1976274792159529 -105.9833999006994 0 0 0 0 143.02301636025368 0.48768976476162607 0 0.48768976476162607 -37.911170789205244 0 0 0 0 73.332228378766501 6.1284127853311077 0 6.1284127853311077 -9.3674661124680849 0 0 0 0 8.7484064790942568 6.3706142666776167 0 6.3706142666776167 -6.909439290225154 0 0 0 0 -63.601762898935704 -175.29808619342111 0 -175.29808619342111 10.783221054441583 0 0 0 0 202.92723991568346 161.32566068517644 0 161.32566068517644 -153.09335408556217 0 0 0 0 324.08570246127783 -676.41493976516176 0 -676.41493976516176 -672.89526341247074 0 0 0 0 -65.730454780132277 114.40573485494497 0 114.40573485494497 -75.042103440354822 0 0 0 0 26.712936248711941 -0.47758236857157499 0 -0.47758236857157499 -4.1288391561577438 0 0 0 0 21.981423701816311 4.0906974728036403 0 4.0906974728036403 -50.692677422516681 0 0 0 0 101.73997697253071 -96.155939257702812 0 -96.155939257702812 89.77988512272259 0 0 0 0 76.880835490328636 -6.2340889102353856 0 -6.2340889102353856 -19.819744989497284 0 0 0 0 115.71860126916727 -21.823234195364876 0 -21.823234195364876 -77.90685690927603 0 0 0 0 50.302728981630594 13.520404071330631 0 13.520404071330631 3.8674759362808047 0 0 0 0 36.60948196424215 12.070236952775929 0 12.070236952775929 -7.4389364047774507 0 0 0 0 43.9501960062953 1.4424880868257333 0 1.4424880868257333 8.2226453513903834 0 0 0 0 78.265534874079378 19.636109175051217 0 19.636109175051217 7.1983444851535623 0 0 0 0 25.030829127899779 -91.226461442203544 0 -91.226461442203544 -178.77826930910487 0 0 0 0 85.335269272691221 -6.8093444562855439 0 -6.8093444562855439 -49.11845453735441 0 0 0 0 227.1693386293191 91.557770083241849 0 91.557770083241849 -345.18735008970179 0 0 0 0 28.758639758826575 -30.98820297601312 0 -30.98820297601312 -21.578959616037842 0 0 0 0 423.70299700798932 82.407405780542831 0 82.407405780542831 -99.363222247175145 0 0 0 0 116.02410226556822 -0.20011844997134176 0 -0.20011844997134176 -50.662352224996084 0 0 0 0 349.58766796852433 195.46185539913813 0 195.46185539913813 -45.30109314587753 0 0 0 0 35.070694749931732 2.4211462056976032 0 2.4211462056976032 -4.1521050191890847 0 0 0 0 212.7769364249898 -4.4367285795583484 0 -4.4367285795583484 -135.10695784793279 0 0 0 0 279.76716235435742 -130.22425744169595 0 -130.22425744169595 -20.742513388821408 0 0 0 0 -65.051289640119649 -100.6315557533726 0 -100.6315557533726 -79.072476754688978 0 0 0 0 6.1300452715149731 -59.204321001630888 0 -59.204321001630888 -127.33397582111502 0 0 0 0 -89.417028476491396 -91.832527745461448 0 -91.832527745461448 -51.870134655937363 0 0 0 0 -56.85193790201447 -82.043234682512775 0 -82.043234682512775 -75.249109096876055 0 0 0 0 -47.087879895669175 -47.212785806668307 0 -47.212785806668307 -29.446702653203829 0 0 0 0 -75.947696864095633 -83.809600801530905 0 -83.809600801530905 -67.281753282437421 0 0 0 0 -12.859352826602844 174.88477364637754 0 174.88477364637754 -231.29594219689079 0 0 0 0 107.90104505881754 -12.015690677934799 0 -12.015690677934799 -106.93821802984985 0 0 0 0 10.390163131555965 -7.5310610248035204 0 -7.5310610248035204 -17.398895746659221 0 0 0 0 -71.238911471646134 193.05988632406604 0 193.05988632406604 -169.56126942078117 0 0 0 0 -61.465799701753895 8.403917510580186 0 8.403917510580186 -13.978179207571884 0 0 0 0 -192.23513277254096 -152.09487223958286 0 -152.09487223958286 4.5992907929522744 0 0 0 0 0.26021310262876796 316.08235270757268 0 316.08235270757268 -881.54640997979732 0 0 0 0 -589.54167383418098 544.87421979136889 0 544.87421979136889 -400.20221071040032 0 0 0 0 -1.6383198101834751 -2.7004907455346512 0 -2.7004907455346512 -5.6623019238032413 0 0 0 0 -132.01794404541579 -241.3167069406868 0 -241.3167069406868 -206.52474310500838 0 0 0 0 112.90430090914742 -124.90115664878795 0 -124.90115664878795 -609.13993684424895 0 0 0 0 -401.04025620411267 484.21357656323062 0 484.21357656323062 -140.15890348108633 0 0 0 0 259.61745660429733 331.60377137573096 0 331.60377137573096 -669.57849431204886 0 0 0 0 -362.35606149603245 -178.9759054351324 0 -178.9759054351324 -408.10179335222392 0 0 0 0 -91.486725805785682 160.43897651103362 0 160.43897651103362 -82.280424063800183 0 0 0 0 103.12769068379566 -20.638874764879915 0 -20.638874764879915 -2.6589666576583113 0 0 0 0 234.46918557778554 240.24025334806004 0 240.24025334806004 -49.425784871786504 0 0 0 0 -113.17004429765257 356.37370930893013 0 356.37370930893013 198.70896862552581 0 0 0 0 456.92107007174855 280.27200356231799 0 280.27200356231799 206.78604821754288 0 0 0 0 373.72509122928022 352.52561816076332 0 352.52561816076332 929.82740584053215 0 0 0 0 546.4934754432179 281.65034377386689 0 281.65034377386689 471.30066522537021 0 0 0 0 271.82292316882013 41.136817686209213 0 41.136817686209213 469.90866512012974 0 0 0 0 42.398818681467674 160.54697810768209 0 160.54697810768209 475.02651909026713 0 0 0 0 208.40641712698562 -1.3365655144681341 0 -1.3365655144681341 265.18568985122852 0 0 0 0 42.430952411807084 -16.692555945141521 0 -16.692555945141521 439.62515829777675 0 0 0 0 348.04556608186977 -26.462294509390802 0 -26.462294509390802 435.91783040717633 0 0 0 0 126.34614867250639 -135.10422559046515 0 -135.10422559046515 443.78488234794952 0 0 0 0 25.060228232308873 -131.13791538011867 0 -131.13791538011867 494.74236724319167 0 0 0 0 151.75715220632992 -197.35328568402406 0 -197.35328568402406 528.85881310617037 0 0 0 0 73.265372281755845 -153.10864847576488 0 -153.10864847576488 423.71054525797513 0 0 0 0 28.851774970089537 -91.413979178601551 0 -91.413979178601551 178.54618928941409 0 0 0 0 112.84719421084446 -19.383915857954094 0 -19.383915857954094 227.3113203563239 0 0 0 0 -94.985618021273694 19.509356748463119 0 19.509356748463119 266.63151026093215 0 0 0 0 98.256852673606772 49.977455822444199 0 49.977455822444199 3.8194889145570414 0 0 0 0 -62.974014351057122 -97.883994376290801 0 -97.883994376290801 -100.50114280916796 0 0 0 0 67.351427022411372 165.51169794969701 0 165.51169794969701 -366.26015004896021 0 0 0 0 87.310207835862457 38.077288282403799 0 38.077288282403799 -149.37685093865048 0 0 0 0 113.63585806993069 140.89108612627138 0 140.89108612627138 -12.743881959641612 0 0 0 0 209.59709760731494 -22.887480281488251 0 -22.887480281488251 -51.436678374002611 0 0 0 0 289.50224181748581 -77.275483058284522 0 -77.275483058284522 92.528527533395845 0 0 0 0 267.96334809498194 107.0362168942377 0 107.0362168942377 148.86197598762874 0 0 0 0 306.39934215933317 71.275609992252384 0 71.275609992252384 444.69133703957641 0 0 0 0 270.80990713307256 -29.347142855049924 0 -29.347142855049924 166.57992768076025 0 0 0 0 110.05167501146207 -56.457857107731343 0 -56.457857107731343 452.65063992363366 0 0 0 0 75.384279250865802 -16.257967184208724 0 -16.257967184208724 475.38163922494186 0 0 0 0 26.862312781078799 -146.979310213394 0 -146.979310213394 622.98756242554714 0 0 0 0 29.596836518590862 -221.36795350927673 0 -221.36795350927673 566.14280671667029 0 0 0 0 238.22700788200018 -133.05921970142549 0 -133.05921970142549 655.04457174844936 0 0 0 0 28.081122487514222 -76.068340080806365 0 -76.068340080806365 703.49221612082874 0 0 0 0 415.19563515456684 39.792200830940374 0 39.792200830940374 433.86325898959058 0 0 0 0 134.45188847924146 43.546906406176277 0 43.546906406176277 775.34992633464446 0 0 0 0 573.27937741451024 326.0036971253038 0 326.0036971253038 859.38187435693135 0 0 0 0 230.08884688830585 -54.493076068412392 0 -54.493076068412392 1163.4822478575375 0 0 0 0 15.588322491320241 -5.0818366964105763 0 -5.0818366964105763 1.5142142629204205 0 0 0 0 1180.554326348436 11.563056623137527 0 11.563056623137527 246.28162179241713 0 0 0 0 829.13050652574748 -541.67452598091791 0 -541.67452598091791 197.86582903294448 0 0 0 0 616.88112375180208 50.581330862784398 0 50.581330862784398 142.45406725998737 0 0 0 0 553.818861473781 -177.51341394260953 0 -177.51341394260953 190.06882997044909 0 0 0 0 528.71156682900619 -76.615007892288986 0 -76.615007892288986 -73.913655016074244 0 0 0 0 586.24498564942041 -237.72686101443264 0 -237.72686101443264 118.82559706338088 0 0 0 0 464.83562884495768 -61.936711328973615 0 -61.936711328973615 99.813993836485679 0 0 0 0 483.78347117290468 315.84229543560696 0 315.84229543560696 -210.09089477643647 0 0 0 0 25.542614083114358 -44.752185838806668 0 -44.752185838806668 113.71583132242449 0 0 0 0 54.675100497588573 567.40147159316984 0 567.40147159316984 1058.4753579686949 0 0 0 0 664.10591134725837 832.79873867138838 0 832.79873867138838 764.533282920548 0 0 0 0 1141.4689497324725 2131.9034977615938 0 2131.9034977615938 2355.4238263889392 0 0 0 0 2894.7414542585611 2561.6470029357961 0 2561.6470029357961 1782.7760354743268 0 0 0 0 5106.1629769328574 2987.3652232483441 0 2987.3652232483441 1863.417554127152 0 0 0 0 4494.7911135190516 1709.3654241689273 0 1709.3654241689273 7226.521823707445 0 0 0 0 -254.9508388532704 384.80706373190242 0 384.80706373190242 1976.4077049694788 0 0 0 0 1284.5070447664475 2466.2854293316063 0 2466.2854293316063 4474.5600417827636 0 0 0 0 39.829516917195008 11.206787191848225 0 11.206787191848225 7.3209273987096868 0 0 0 0 1778.2857540917757 -1339.2348792893695 0 -1339.2348792893695 1962.4658114452077 0 0 0 0 -244.61909867477516 -614.9360973588133 0 -614.9360973588133 891.6863702918763 0 0 0 0 -236.92875494067266 -775.1600229010096 0 -775.1600229010096 1838.2372403791687 0 0 0 0 10.746503717091457 -2.8044265016064713 0 -2.8044265016064713 -2.0742519214018844 0 0 0 0 1783.8199520475464 278.49149588631951 0 278.49149588631951 300.10925189785559 0 0 0 0 5722.6594934483983 -287.01248518377042 0 -287.01248518377042 334.46024850051549 0 0 0 0 4488.2589463976501 -1929.6271313871537 0 -1929.6271313871537 163.99746301543067 0 0 0 0 1395.0193743421551 -340.22219061903036 0 -340.22219061903036 -642.74007968119759 0 0 0 0 875.10548217275937 144.94220954911265 0 144.94220954911265 -490.95709569553782 0 0 0 0 9.679232635404901 -1.6795073682233834 0 -1.6795073682233834 -2.6310796532409455 0 0 0 0 378.30450946826022 -1117.224747990208 0 -1117.224747990208 1136.7638389449112 0 0 0 0 778.42303718313997 -48.105577191261602 0 -48.105577191261602 -760.03201444240233 0 0 0 0 502.48609237030905 -423.94427826733283 0 -423.94427826733283 198.30194496285571 0 0 0 0 105.58807676865493 25.98399986589612 0 25.98399986589612 7.0932760514352076 0 0 0 0 776.90042181988247 -757.82950005788427 0 -757.82950005788427 450.56644093545265 0 0 0 0 337.29557172559726 -70.78866253961678 0 -70.78866253961678 38.287618443606107 0 0 0 0 -53.537291702625225 -459.41038429595869 0 -459.41038429595869 265.91650407574036 0 0 0 0 1033.7196620649338 -59.237883529084627 0 -59.237883529084627 -249.49761834772664 0 0 0 0 -76.010690462600905 -26.327566945828664 0 -26.327566945828664 -241.12456301138857 0 0 0 0 -558.63197152774956 231.41858756967304 0 231.41858756967304 481.87116927950774 0 0 0 0 1389.3091269941942 -603.49245235914896 0 -603.49245235914896 -379.19709224115286 0 0 0 0 -421.68846401879273 -207.68264526671283 0 -207.68264526671283 567.9796084578702 0 0 0 0 147.98522931816174 34.153442036943019 0 34.153442036943019 6.5058827420290388 0 0 0 0 394.28125580706546 -154.50095035466467 0 -154.50095035466467 -383.04258646462426 0 0 0 0 36.965283201476268 593.42437029902794 0 593.42437029902794 -725.8532244010371 0 0 0 0 201.12160521371698 575.26818707133373 0 575.26818707133373 -215.64035157210424 0 0 0 0 285.63658150704578 -170.24162438890016 0 -170.24162438890016 -855.09188899073388 0 0 0 0 363.85623932267481 389.80310991494207 0 389.80310991494207 -630.94285175104994 0 0 0 0 237.76499997026986 190.65756400559621 0 190.65756400559621 -748.61001563054924 0 0 0 0 159.81907903363458 34.732420303615626 0 34.732420303615626 5.5876151050282097 0 0 0 0 -71.625990693835774 -140.02439788403024 0 -140.02439788403024 -163.89503667835766 0 0 0 0 741.23346480092005 311.32233742641864 0 311.32233742641864 -861.48333707832649 0 0 0 0 318.23963927399018 -248.81371103200945 0 -248.81371103200945 224.1404316254966 0 0 0 0 169.48390382207526 35.839116012634932 0 35.839116012634932 5.2668355921610175 0 0 0 0 1108.5829433871259 599.81778978624243 0 599.81778978624243 -1251.9522096415044 0 0 0 0 -373.19709971167322 -816.07558538476269 0 -816.07558538476269 365.84388448893878 0 0 0 0 -480.32344696568907 -419.07523063982808 0 -419.07523063982808 806.27198527476094 0 0 0 0 -121.58687254652614 30.117169658296916 0 30.117169658296916 172.54559114722042 0 0 0 0 7.9632207590881592 -2.7622485700049104 0 -2.7622485700049104 0.72324291850249978 0 0 0 0 -191.85807859922352 -682.5443941587364 0 -682.5443941587364 -262.86239133827257 0 0 0 0 -96.173710229981225 10.125161787145771 0 10.125161787145771 503.85078032833553 0 0 0 0 222.46343248715038 156.51659734822186 0 156.51659734822186 -49.953228021040559 0 0 0 0 12.41898288103971 1.7987238877343206 0 1.7987238877343206 0.9710843631213355 0 0 0 0 380.69729405574617 188.90542365808187 0 188.90542365808187 -61.321063972129195 0 0 0 0 -38.337045047004722 51.768447087470804 0 51.768447087470804 -16.180824432154623 0 0 0 0 258.79502272530226 180.49305355441265 0 180.49305355441265 -28.2946885673407 0 0 0 0 936.66628739221778 109.1403794223088 0 109.1403794223088 -159.4172136731886 0 0 0 0 544.16183664594428 210.96293269517946 0 210.96293269517946 -55.376033877303826 0 0 0 0 475.39867896275973 162.89980436398673 0 162.89980436398673 -44.897627106019172 0 0 0 0 458.80284867895534 122.15904262080494 0 122.15904262080494 1.2229136498208391 0 0 0 0 454.26717556640142 92.089192753770249 0 92.089192753770249 -138.78762070075209 0 0 0 0 401.76380047488783 227.47817723622848 0 227.47817723622848 -81.723456632812031 0 0 0 0 326.92096480607142 86.577971233227345 0 86.577971233227345 -280.0124001938284 0 0 0 0 206.22273282016249 91.716594235953835 0 91.716594235953835 -110.66854293406504 0 0 0 0 65.330088821836398 -34.654301078649951 0 -34.654301078649951 -155.65239375624969 0 0 0 0 283.68877006989351 -158.32856390553752 0 -158.32856390553752 235.8194132226904 0 0 0 0 -20.043872081019799 94.421206057379095 0 94.421206057379095 138.10892113155205 0 0 0 0 939.94864950421129 -376.92888875348785 0 -376.92888875348785 114.90059204243516 0 0 0 0 263.09066413443361 -541.36372881719308 0 -541.36372881719308 558.71862942857013 0 0 0 0 549.76259755044157 161.77328985032318 0 161.77328985032318 294.02470862674727 0 0 0 0 377.50317924660339 -83.476472138708687 0 -83.476472138708687 102.46695536639891 0 0 0 0 592.44035393302329 660.25635359549347 0 660.25635359549347 657.88184722968003 0 0 0 0 -16.157698597424314 274.7211599262705 0 274.7211599262705 712.53058542488634 0 0 0 0 428.98688094089448 521.33983797217036 0 521.33983797217036 561.24867820605277 0 0 0 0 497.17606013099794 324.19861848273473 0 324.19861848273473 156.64401642478879 0 0 0 0 655.36936250905273 805.40019840807633 0 805.40019840807633 620.9127452221594 0 0 0 0 719.888711316431 648.0223042252079 0 648.0223042252079 200.17553973530059 0 0 0 0 715.1740305412095 741.64708789707402 0 741.64708789707402 438.61646081115993 0 0 0 0 411.37625804470736 277.53440808189089 0 277.53440808189089 -161.14368482477539 0 0 0 0 247.61627835809304 331.03773183632973 0 331.03773183632973 -152.01016178506961 0 0 0 0 541.32863184928283 501.50053574606511 0 501.50053574606511 394.07336126678842 0 0 0 0 574.10269228841207 409.29257227387893 0 409.29257227387893 -27.288849493606222 0 0 0 0 424.97694093722112 402.8975627294916 0 402.8975627294916 48.316925162527696 0 0 0 0 336.80646151477413 541.36598855168108 0 541.36598855168108 -53.25435116174782 0 0 0 0 370.12753772066935 423.8535305471969 0 423.8535305471969 186.86367126581945 0 0 0 0 691.79177859156334 535.2012492470144 0 535.2012492470144 154.25790243504892 0 0 0 0 311.58993485902101 401.75082297840129 0 401.75082297840129 440.94916841794634 0 0 0 0 603.06368134106015 630.74825864340824 0 630.74825864340824 319.19126592196324 0 0 0 0 1160.4320441457457 670.73182144627572 0 670.73182144627572 260.77630632305818 0 0 0 0 789.51027010856342 422.50078781104173 0 422.50078781104173 197.8130832740726 0 0 0 0 824.45798814875889 299.36745328482027 0 299.36745328482027 456.21149354189663 0 0 0 0 862.09168124948701 913.76342288194257 0 913.76342288194257 478.75896613983883 0 0 0 0 840.68942663831695 971.69893486335434 0 971.69893486335434 363.13635562097568 0 0 0 0 983.99135814077817 1055.2473056741071 0 1055.2473056741071 287.61449928574689 0 0 0 0 1392.7301750039405 908.35099101076787 0 908.35099101076787 245.26157481979044 0 0 0 0 1515.2799730468032 1143.6917239321092 0 1143.6917239321092 355.6011101361056 0 0 0 0 1388.6024583271465 1040.9944562662652 0 1040.9944562662652 424.50003130065119 0 0 0 0 686.3685395558341 917.18015237233101 0 917.18015237233101 869.12357480145283 0 0 0 0 1359.0100154807878 1156.4671404438632 0 1156.4671404438632 566.44857624297526 0 0 0 0 2046.3563316993313 1231.7333203018279 0 1231.7333203018279 408.75541939910568 0 0 0 0 847.19785564083577 1332.6464079592627 0 1332.6464079592627 1335.0225500505683 0 0 0 0 562.66993536469818 686.63678303706888 0 686.63678303706888 648.2118257104263 0 0 0 0 4501.6706341219688 2393.2694840316062 0 2393.2694840316062 441.83627328335598 0 0 0 0 2549.7262326984637 1799.0931800629808 0 1799.0931800629808 868.03031919313275 0 0 0 0 2457.1648971025134 2038.7259157199587 0 2038.7259157199587 879.89595623782134 0 0 0 0 3167.9646358344871 1441.7913203327425 0 1441.7913203327425 -157.38213073272703 0 0 0 0 4497.6525135489428 1414.8974751678518 0 1414.8974751678518 -480.3009463327557 0 0 0 0 2710.6150126896318 418.47461426819962 0 418.47461426819962 -521.78869545615294 0 0 0 0 2860.6293893615439 710.56707292341957 0 710.56707292341957 -748.31928414162076 0 0 0 0 2787.2455574009946 -416.5873027794126 0 -416.5873027794126 -1269.0274255683983 0 0 0 0 4499.5071749071867 336.40039121236441 0 336.40039121236441 -1092.617422520392 0 0 0 0 2303.972068616109 414.10867315010785 0 414.10867315010785 -521.13277285689912 0 0 0 0 4500.2406682821857 -736.53272908809981 0 -736.53272908809981 -1390.4323115963057 0 0 0 0 478.37663298961706 730.58123133127424 0 730.58123133127424 211.11141425396522 0 0 0 0 870.53325094000684 838.51034555057845 0 838.51034555057845 -113.6402630713942 0 0 0 0 1432.092914291643 -291.58062566484875 0 -291.58062566484875 -656.27231447050963 0 0 0 0 81.492659497023851 80.46626824734517 0 80.46626824734517 -840.77499964415483 0 0 0 0 1837.2456171594604 -233.35089878471931 0 -233.35089878471931 -1255.9069343585138 0 0 0 0 474.36477718469177 891.15445008655365 0 891.15445008655365 -1867.5099432464792 0 0 0 0 73.983470444006088 25.307363458698944 0 25.307363458698944 2.6494953006794066 0 0 0 0 237.38864594315964 206.89784278500133 0 206.89784278500133 -534.37047535413478 0 0 0 0 69.507244119130149 24.292132414889011 0 24.292132414889011 4.6471231008428209 0 0 0 0 -514.1768018055227 1150.429341398215 0 1150.429341398215 -785.25196171315247 0 0 0 0 926.36759411167077 1022.7875818767551 0 1022.7875818767551 -1523.3975286367727 0 0 0 0 469.79295728931902 -638.61193180864041 0 -638.61193180864041 -72.633201749742966 0 0 0 0 1712.5826444219238 -827.17154496613534 0 -827.17154496613534 -606.04588450093627 0 0 0 0 4492.2370428489885 -2523.2748806673185 0 -2523.2748806673185 393.34471367576089 0 0 0 0 29.741641483201903 9.2823952331674917 0 9.2823952331674917 4.9821880622237575 0 0 0 0 211.37613905614126 2074.6705620921516 0 2074.6705620921516 1642.9312289715176 0 0 0 0 4490.00466660436 2261.07395356182 0 2261.07395356182 113.57264432972315 0 0 0 0 -300.03617095517848 47.490069881737845 0 47.490069881737845 689.17340006286781 0 0 0 0 684.62621355587908 -26.966363039202633 0 -26.966363039202633 -383.97602701681535 0 0 0 0 1599.9092518335528 -153.87457022523495 0 -153.87457022523495 88.588103458663454 0 0 0 0 247.09252164401187 -65.466681686200047 0 -65.466681686200047 557.47756156119817 0 0 0 0 1307.1028781611967 -870.37420527144172 0 -870.37420527144172 449.97173699071936 0 0 0 0 1515.6326022825515 -181.65541920753725 0 -181.65541920753725 491.92148208141271 0 0 0 0 1391.8074219688369 -502.5267665967047 0 -502.5267665967047 320.10430342050358 0 0 0 0 1137.7093221497416 811.71554029984304 0 811.71554029984304 834.61805006872419 0 0 0 0 854.83592120403409 135.45931261869191 0 135.45931261869191 386.34249508734803 0 0 0 0 1737.7139205137137 65.535029732323778 0 65.535029732323778 18.145626228398442 0 0 0 0 3827.3091279252949 -1354.5204973368632 0 -1354.5204973368632 212.06197947862393 0 0 0 0 11.257234490517334 4.6442230466734244 0 4.6442230466734244 -1.2209814676940551 0 0 0 0 213.18170140392976 1035.4791188816594 0 1035.4791188816594 -299.94778499495976 0 0 0 0 1217.9538143640857 -428.484315104026 0 -428.484315104026 -199.27384465961859 0 0 0 0 1751.7201700999212 893.86448598988341 0 893.86448598988341 -334.32595757939333 0 0 0 0 2602.3826063814595 776.32956341701345 0 776.32956341701345 -318.46624301420405 0 0 0 0 4500.5983492808773 53.050822761812007 0 53.050822761812007 -1129.8477237651466 0 0 0 0 48.915227862300526 -30.40380694593091 0 -30.40380694593091 -16.752237927712372 0 0 0 0 10.511310670804313 -13.033449097733566 0 -13.033449097733566 -8.4655855864908425 0 0 0 0 71.387714195210719 -3.3635770385953325 0 -3.3635770385953325 21.91202060974156 0 0 0 0 33.823364679657971 -11.121111662493149 0 -11.121111662493149 -5.1791970511526415 0 0 0 0 30.78658474590361 -18.803059775813885 0 -18.803059775813885 5.3073902429674256 0 0 0 0 16.144317093967402 -29.448185304060416 0 -29.448185304060416 -12.75129422765076 0 0 0 0 26.426043749750534 -13.273649035925473 0 -13.273649035925473 -25.837781231345161 0 0 0 0 31.919611601988436 -4.367874735444957 0 -4.367874735444957 -14.864695780470328 0 0 0 0 -3.7216808367626655 -10.047064487710429 0 -10.047064487710429 -3.1295475021142964 0 0 0 0 39.239767212930019 -15.490118327097889 0 -15.490118327097889 0.59237897221441926 0 0 0 0 101.2670451629092 31.081417218963452 0 31.081417218963452 100.08369483677484 0 0 0 0 69.221530639435514 -16.933053878351529 0 -16.933053878351529 -16.282334990949948 0 0 0 0 2681.7586336772692 227.82496668641829 0 227.82496668641829 -40.80003643952648 0 0 0 0 2126.3633734072973 -351.63528548445549 0 -351.63528548445549 41.356663525488699 0 0 0 0 2218.8823934018437 -221.58738461299626 0 -221.58738461299626 221.47692494951391 0 0 0 0 2168.8784083626488 -127.64818210681385 0 -127.64818210681385 67.351940721832079 0 0 0 0 1.5815862539523642 3.8419984145181942 0 3.8419984145181942 -2.0593911085135117 0 0 0 0 236.03501812536706 -41.954514140676395 0 -41.954514140676395 -58.774959862240223 0 0 0 0 9.6486349908110522 8.1808795117865927 0 8.1808795117865927 -5.6743404504933981 0 0 0 0 2834.8278130083017 -30.562850101272033 0 -30.562850101272033 16.992156508989865 0 0 0 0 110.02430453682678 -33.542392181850055 0 -33.542392181850055 -9.1002437149062239 0 0 0 0 3150.5245663404676 -358.63520634792224 0 -358.63520634792224 -145.30371262995232 0 0 0 0 2415.1709569251034 -373.89855652091671 0 -373.89855652091671 27.399283018329356 0 0 0 0 2387.0681322455494 -193.79198293216371 0 -193.79198293216371 10.875057825511703 0 0 0 0 2224.8055984166858 -496.73943876803332 0 -496.73943876803332 212.24708635876482 0 0 0 0 3053.3101872051338 -283.54035575497846 0 -283.54035575497846 -25.089277190877056 0 0 0 0 2441.8179174713478 -947.12826542685434 0 -947.12826542685434 544.65040167848565 0 0 0 0 3379.9436346801613 -529.47704690963042 0 -529.47704690963042 329.56461976949595 0 0 0 0 3344.6457625025778 -428.49894893653106 0 -428.49894893653106 1288.9260713700751 0 0 0 0 1768.2719318894597 -771.4271465901154 0 -771.4271465901154 817.00892976239084 0 0 0 0 -34.602168046869338 -73.692918313430255 0 -73.692918313430255 -565.33612899674517 0 0 0 0 -238.745333666855 116.70001363789197 0 116.70001363789197 -578.25059008570952 0 0 0 0 4078.2914751166245 586.45258138097552 0 586.45258138097552 -164.504926849806 0 0 0 0 3460.4673429787799 -781.37726754983214 0 -781.37726754983214 486.56337230446297 0 0 0 0 4661.3600621248479 -1130.8124595665577 0 -1130.8124595665577 579.59627074565697 0 0 0 0 6300.7774898906064 462.23821614087683 0 462.23821614087683 -317.57293940164982 0 0 0 0 3.1543261239901597 -0.9772733659600803 0 -0.9772733659600803 -1.2515691357029173 0 0 0 0 5505.2061542477313 -310.50519745512793 0 -310.50519745512793 1250.8511912946515 0 0 0 0 5498.1455489574728 -216.51465744865891 0 -216.51465744865891 283.3048502100246 0 0 0 0 -471.6706562183972 -198.40310839242079 0 -198.40310839242079 -57.25197072650235 0 0 0 0 -1048.5074343201995 214.50654660194687 0 214.50654660194687 -131.92000987300253 0 0 0 0 378.25924028227746 -12.606565092456549 0 -12.606565092456549 -441.09090221092447 0 0 0 0 203.65038980674581 247.95658977172047 0 247.95658977172047 -97.703958136075016 0 0 0 0 -61.512712993833702 -127.22583494432456 0 -127.22583494432456 -359.39528750533555 0 0 0 0 113.06956117972004 134.03406833920099 0 134.03406833920099 -20.047582765493928 0 0 0 0 73.838750221359078 1.000177402229383 0 1.000177402229383 -212.21519877286346 0 0 0 0 140.92068383086735 62.808928107298698 0 62.808928107298698 -239.9449562383893 0 0 0 0 -12.902944848850893 -48.48755352505259 0 -48.48755352505259 -195.52944842954957 0 0 0 0 10.405194521415979 -167.81390709955213 0 -167.81390709955213 -375.0266437970256 0 0 0 0 212.82165719814657 -34.369792889251812 0 -34.369792889251812 -434.98176594883262 0 0 0 0 68.737041997112101 -166.75489426382501 0 -166.75489426382501 -407.50530239292743 0 0 0 0 -12.600678848539246 -195.83253743081468 0 -195.83253743081468 -472.13811172649156 0 0 0 0 48.790543111512719 -24.230884368578295 0 -24.230884368578295 -2.4216777253221586 0 0 0 0 -24.622400300067966 -220.29369883708011 0 -220.29369883708011 -329.14753795991271 0 0 0 0 -123.99665016714061 -162.33455400381905 0 -162.33455400381905 -102.54306842600522 0 0 0 0 14.697386746560628 -3.0366671717165161 0 -3.0366671717165161 0.32860661475361286 0 0 0 0 -5.3776761429016915 -64.355991935089662 0 -64.355991935089662 -4.6121363769889001 0 0 0 0 127.88838838269294 49.576667222276264 0 49.576667222276264 -53.786465392617345 0 0 0 0 22.81247369277844 -96.065613453044591 0 -96.065613453044591 -82.195966847123259 0 0 0 0 107.38368053107115 -41.095208003279595 0 -41.095208003279595 -243.11282223524563 0 0 0 0 73.151596556519507 -22.984765957362811 0 -22.984765957362811 -131.17765223458673 0 0 0 0 140.55024701053844 25.84840554553216 0 25.84840554553216 5.8171033805106163 0 0 0 0 137.32318162519368 69.158023554735337 0 69.158023554735337 -142.50723211963029 0 0 0 0 92.77850944079546 30.586206025049023 0 30.586206025049023 -36.003598734050684 0 0 0 0 71.797674691501015 112.95834347422146 0 112.95834347422146 149.02750898522868 0 0 0 0 -462.56079749722994 275.75522802676926 0 275.75522802676926 -168.41561676313648 0 0 0 0 32.407272549194857 -5.1782017296107981 0 -5.1782017296107981 -7.3005039469881226 0 0 0 0 94.39426361018559 81.125491575628985 0 81.125491575628985 97.663328359408979 0 0 0 0 11.660215884227881 -2.8628052181718111 0 -2.8628052181718111 0.56320446437811933 0 0 0 0 1912.9031766970402 -996.6744176811718 0 -996.6744176811718 -1159.645881855771 0 0 0 0 906.52460220572539 608.85716998224643 0 608.85716998224643 633.42375724783733 0 0 0 0 -96.012561132476549 313.82547523496214 0 313.82547523496214 578.53174991139394 0 0 0 0 2273.7961557127928 1154.7760103968478 0 1154.7760103968478 227.61447972051451 0 0 0 0 -237.337158222781 625.40365301887903 0 625.40365301887903 322.60278591394081 0 0 0 0 2.6080144146948854 6.4063906761780629 0 6.4063906761780629 -8.6881210190260685 0 0 0 0 170.86507101635652 -501.02283090962317 0 -501.02283090962317 1137.2363588295373 0 0 0 0 3278.5185201324639 -975.48476646834524 0 -975.48476646834524 33.921816447606943 0 0 0 0 2336.4473311866459 -58.588381780811915 0 -58.588381780811915 -204.77382059350555 0 0 0 0 3431.4034924578445 -590.43030837364586 0 -590.43030837364586 301.27461341511616 0 0 0 0 2900.3959758579585 -1137.834232688766 0 -1137.834232688766 0.79627086312007123 0 0 0 0 3292.6402338020926 -1978.0372962791455 0 -1978.0372962791455 1066.7956770096789 0 0 0 0 13.782703949275094 -7.1978610139775441 0 -7.1978610139775441 -3.1573432012939584 0 0 0 0 6300.3031957551284 -871.70272999162921 0 -871.70272999162921 -508.67376615231478 0 0 0 0 -1658.1095539042963 -1389.0733377024844 0 -1389.0733377024844 777.32785877956849 0 0 0 0 2661.4517510158475 -2045.6163485120601 0 -2045.6163485120601 977.09654408090955 0 0 0 0 5508.7885891163569 -2496.4569240208866 0 -2496.4569240208866 108.69596694170104 0 0 0 0 4297.8441328253102 -504.25565492590295 0 -504.25565492590295 -387.48869353364853 0 0 0 0 544.6951198237366 -478.73124828402842 0 -478.73124828402842 -111.3154063312877 0 0 0 0 963.36337344738422 -356.95218624199924 0 -356.95218624199924 -94.413948468729814 0 0 0 0 -666.55432064032357 -2856.7890942096246 0 -2856.7890942096246 629.30127896003978 0 0 0 0 3144.1490951344022 -641.50623418059649 0 -641.50623418059649 -526.93373321242916 0 0 0 0 1606.3638856549514 -3498.7786456491103 0 -3498.7786456491103 -122.61079879714271 0 0 0 0 35.080255734007807 9.8904935905044553 0 9.8904935905044553 0.92215200492763039 0 0 0 0 2294.417431785485 -1893.5181460360623 0 -1893.5181460360623 -15.024463115493063 0 0 0 0 3360.0186163621256 -2243.7921982584021 0 -2243.7921982584021 -5.1804917422451382 0 0 0 0 2712.2515874028613 -507.6721051864705 0 -507.6721051864705 -949.15133550702967 0 0 0 0 2953.9399533416072 -1725.4556634388673 0 -1725.4556634388673 -545.52296314904504 0 0 0 0 4425.1503167599585 -1140.4974944588062 0 -1140.4974944588062 -730.11722697379673 0 0 0 0 2905.3228487588494 -1716.2466546490014 0 -1716.2466546490014 -72.007731743570503 0 0 0 0 1019.5798630614954 -1727.8375813926032 0 -1727.8375813926032 455.65727866284647 0 0 0 0 -543.09686164788582 967.49434574650695 0 967.49434574650695 62.920876565703566 0 0 0 0 455.05269896139725 1972.4727676454531 0 1972.4727676454531 -656.4776998939401 0 0 0 0 921.35609064532582 1073.4139321321022 0 1073.4139321321022 283.01657196215933 0 0 0 0 2294.5658130104348 1422.1872599288918 0 1422.1872599288918 -596.96074826827328 0 0 0 0 943.07294122552594 1021.205106175837 0 1021.205106175837 -30.283140489671041 0 0 0 0 -1.0858642891231156 0.87260088582115714 0 0.87260088582115714 2.9013084793113704 0 0 0 0 509.6898610729495 786.42720501094732 0 786.42720501094732 687.91954540338418 0 0 0 0 -60.72083500125882 -961.98674116094321 0 -961.98674116094321 1289.5959945697082 0 0 0 0 2361.437309786586 -29.757313316137378 0 -29.757313316137378 265.19328756848336 0 0 0 0 480.58564476035099 695.52949745099568 0 695.52949745099568 877.7087882404785 0 0 0 0 761.65232774912874 912.86610236085585 0 912.86610236085585 766.99560179153116 0 0 0 0 1513.4892010837939 165.53212195849008 0 165.53212195849008 278.0407715104667 0 0 0 0 420.57125626932248 104.43720920541062 0 104.43720920541062 495.92485067445034 0 0 0 0 576.16069934173356 -159.72713832404975 0 -159.72713832404975 425.08713373820456 0 0 0 0 17.686571761056257 -245.21701650864588 0 -245.21701650864588 528.55219508336745 0 0 0 0 161.78670888745546 -341.31921346601098 0 -341.31921346601098 533.82561486629425 0 0 0 0 32.102143884218094 -135.37874466098373 0 -135.37874466098373 427.55402428005937 0 0 0 0 12.314960005109242 65.869190506675736 0 65.869190506675736 104.16115617303012 0 0 0 0 -43.398561147339933 -84.540123632527525 0 -84.540123632527525 505.39094153926976 0 0 0 0 477.8734563925791 -348.11449715024469 0 -348.11449715024469 428.5946680944254 0 0 0 0 15.078161967612857 2.8463253760507028 0 2.8463253760507028 0.97977647292327985 0 0 0 0 736.22494269997696 850.47763145075623 0 850.47763145075623 855.41086551643866 0 0 0 0 525.3804341568466 438.4989529461381 0 438.4989529461381 295.12437605467198 0 0 0 0 -69.000508063549205 100.37746051297017 0 100.37746051297017 190.28247549149125 0 0 0 0 1086.9333696267058 510.30794949059555 0 510.30794949059555 87.466540590827663 0 0 0 0 1116.8804767087677 746.08386913501045 0 746.08386913501045 179.8388790410454 0 0 0 0 413.66160453091288 425.88544936984317 0 425.88544936984317 174.51370038582368 0 0 0 0 11.628749108696837 0.39297162418307607 0 0.39297162418307607 -6.8884425861513821 0 0 0 0 649.21722458373551 -0.29687022100415561 0 -0.29687022100415561 -342.89190363077478 0 0 0 0 -178.60363671700725 -71.945787254955405 0 -71.945787254955405 417.55189127813014 0 0 0 0 541.45239151029818 146.9305589402461 0 146.9305589402461 -61.368123103343123 0 0 0 0 1873.557996664018 492.06406586775915 0 492.06406586775915 166.07534872377073 0 0 0 0 340.45967839037621 267.87520219874762 0 267.87520219874762 1261.8135575277149 0 0 0 0 1037.2293758653541 573.34201925516868 0 573.34201925516868 18.709097158578629 0 0 0 0 747.00367453487343 531.78642017224502 0 531.78642017224502 327.01142815916364 0 0 0 0 1672.8689059790654 1157.928556851746 0 1157.928556851746 561.7721073776097 0 0 0 0 181.59276422691619 239.88339705068802 0 239.88339705068802 232.33066276772479 0 0 0 0 1576.3513211996983 -329.43851434678334 0 -329.43851434678334 433.74122797828568 0 0 0 0 6.410614254331449 -16.388084454143723 0 -16.388084454143723 -19.871518165900724 0 0 0 0 -0.28738842312827728 -0.85882305429589134 0 -0.85882305429589134 0.34208008012960145 0 0 0 0 826.58786779545426 -171.39697806439528 0 -171.39697806439528 -226.85673449301316 0 0 0 0 3.9085478218223315 -3.7015658375198228 0 -3.7015658375198228 -1.0018914765368874 0 0 0 0 -54.766742177940614 127.79706601438284 0 127.79706601438284 -190.66634755502582 0 0 0 0 19.495090523883221 -5.1722115809102549 0 -5.1722115809102549 -4.4557548503871391 0 0 0 0 59.13519647384237 8.1745260078382671 0 8.1745260078382671 -96.65536416898945 0 0 0 0 161.33239724913733 -239.70704439138228 0 -239.70704439138228 100.41754445820288 0 0 0 0 34.125321566090861 -17.012664256855487 0 -17.012664256855487 -118.50245714535822 0 0 0 0 158.6338207309891 -59.521338728869523 0 -59.521338728869523 -330.93447887691354 0 0 0 0 224.486365253641 -374.53393212218378 0 -374.53393212218378 111.63465581358605 0 0 0 0 3.560020917946531 -339.88096521643058 0 -339.88096521643058 637.97012662275711 0 0 0 0 46.76783829600754 -177.71022417697156 0 -177.71022417697156 183.20036394629483 0 0 0 0 30.557333080403623 -264.9565615322656 0 -264.9565615322656 397.26520140881144 0 0 0 0 -10.233778259098472 -159.39921526260378 0 -159.39921526260378 505.08556227351914 0 0 0 0 87.637365141854389 -10.033445528133825 0 -10.033445528133825 -5.8192540472271332 0 0 0 0 22.440416077486589 -188.52902965507906 0 -188.52902965507906 362.96385502473686 0 0 0 0 39.087628291031749 1.4547392814179418 0 1.4547392814179418 -1.2115360928024701 0 0 0 0 -12.465690733193696 -58.020378080046811 0 -58.020378080046811 145.193545399512 0 0 0 0 86.23765873897355 -150.53644634853151 0 -150.53644634853151 12.451896046675756 0 0 0 0 8.1696855498924492 5.5323008035457804 0 5.5323008035457804 -3.5160627223840915 0 0 0 0 344.64703200894292 11.991380327446791 0 11.991380327446791 -127.43287893206211 0 0 0 0 277.17881829760881 -42.091636299091704 0 -42.091636299091704 -14.625261154891859 0 0 0 0 -16.246726244942693 -13.231331597188955 0 -13.231331597188955 -11.607593119410922 0 0 0 0 13.71405707037411 -74.836824844117018 0 -74.836824844117018 56.489068231333476 0 0 0 0 740.1862123502433 155.06532786206071 0 155.06532786206071 -1.2119846112598225 0 0 0 0 47.681795496733685 3.2479503926074358 0 3.2479503926074358 -115.88025399536491 0 0 0 0 42.543618227657134 19.153950270496807 0 19.153950270496807 -91.82755780442676 0 0 0 0 10.393838688964223 -5.073037489317251 0 -5.073037489317251 -13.07320514422327 0 0 0 0 -57.329701125850988 -3.9462676610079335 0 -3.9462676610079335 38.040140127194064 0 0 0 0 32.516500371213638 -3.2990776500007257 0 -3.2990776500007257 -7.5668216223423928 0 0 0 0 -50.619720264050557 -71.949029760972863 0 -71.949029760972863 -40.736572762785983 0 0 0 0 27.983892605594903 -18.505451264639255 0 -18.505451264639255 -2.7905750744390949 0 0 0 0 19.170308379194466 -4.5309398326268138 0 -4.5309398326268138 -12.862855946350992 0 0 0 0 -121.08132850207039 45.201772211120556 0 45.201772211120556 3.3694249426512215 0 0 0 0 42.410627465542547 -19.513900602842185 0 -19.513900602842185 0.56961094026160808 0 0 0 0 230.28634344585589 -69.173531321946029 0 -69.173531321946029 5.5421099904727882 0 0 0 0 305.35143172225798 -121.13688362392804 0 -121.13688362392804 -13.191736635078087 0 0 0 0 180.70570284491987 -101.82876118224885 0 -101.82876118224885 65.370110993029257 0 0 0 0 50.922994804466725 1.8289318547822404 0 1.8289318547822404 -129.51300269544845 0 0 0 0 44.160305692734255 -10.139579485088234 0 -10.139579485088234 -232.93484915841691 0 0 0 0 44.429118890619065 23.662522713469571 0 23.662522713469571 -128.15998532128651 0 0 0 0 32.880226933496687 -10.616506520810699 0 -10.616506520810699 0.67118968371871901 0 0 0 0 139.30098819102022 -113.3632927995036 0 -113.3632927995036 -536.38303957013341 0 0 0 0 609.19480070668214 297.40166954121287 0 297.40166954121287 110.20081553349837 0 0 0 0 357.70397269618252 296.68096029633949 0 296.68096029633949 155.41672228113748 0 0 0 0 825.50498748573591 370.68356668430738 0 370.68356668430738 -92.111527263104108 0 0 0 0 594.4984110430596 -201.92545214957636 0 -201.92545214957636 -67.06355916166649 0 0 0 0 392.12350067115767 -78.744032307542966 0 -78.744032307542966 27.332730453532349 0 0 0 0 458.12394096356002 18.750021528142497 0 18.750021528142497 -40.775606146507016 0 0 0 0 356.81394993749564 -126.0052144200954 0 -126.0052144200954 -81.856370017310837 0 0 0 0 267.07114153665498 -172.22825490666082 0 -172.22825490666082 -97.677664472977995 0 0 0 0 149.79398676287747 108.25070052031197 0 108.25070052031197 -166.5251145211023 0 0 0 0 -143.97677449206094 63.278095823483454 0 63.278095823483454 -229.75990702709987 0 0 0 0 213.20589430276596 49.733435914772599 0 49.733435914772599 -311.81952498127293 0 0 0 0 140.1053126766783 156.78646367403303 0 156.78646367403303 -216.36564693671062 0 0 0 0 225.70702499575737 205.79523937019218 0 205.79523937019218 -70.432652881634567 0 0 0 0 263.1016511005364 -29.562800634368614 0 -29.562800634368614 -44.513568953904723 0 0 0 0 114.88512258505624 243.80781299625886 0 243.80781299625886 -232.38629557881723 0 0 0 0 -619.7754952313735 331.44048087224473 0 331.44048087224473 172.35750437859861 0 0 0 0 114.73258005530079 105.49085030596279 0 105.49085030596279 -160.69829976547953 0 0 0 0 -171.85836530451343 261.76920856157608 0 261.76920856157608 -139.77731611931631 0 0 0 0 -23.512110916883103 120.50965594174704 0 120.50965594174704 -151.44943967739528 0 0 0 0 -0.16036647557202599 0.88589198043862893 0 0.88589198043862893 -3.4410027175200852 0 0 0 0 1086.6162245396117 10.211517930653827 0 10.211517930653827 -28.435053002957375 0 0 0 0 18.037265846574883 54.29467859452086 0 54.29467859452086 165.53658042273673 0 0 0 0 1176.8632362886437 784.69602433475211 0 784.69602433475211 636.09806669564932 0 0 0 0 0.42522471426028829 0.84864975263742082 0 0.84864975263742082 0.67849905711253911 0 0 0 0 801.68917738700839 661.48700398744313 0 661.48700398744313 140.18864676206067 0 0 0 0 777.13952036791852 598.63368612607201 0 598.63368612607201 75.626302040649534 0 0 0 0 755.90841609492418 622.84186924815276 0 622.84186924815276 121.48816070602788 0 0 0 0 619.86180586735281 651.76279678592755 0 651.76279678592755 359.60444480109618 0 0 0 0 738.72375418266165 456.53549558562463 0 456.53549558562463 240.66729735256922 0 0 0 0 634.85450854917144 523.19158092412999 0 523.19158092412999 222.82876754343738 0 0 0 0 113.12608767265374 270.62381116017309 0 270.62381116017309 186.65937160515568 0 0 0 0 431.23877500669914 721.7962393917087 0 721.7962393917087 310.55950746934604 0 0 0 0 561.94008463968203 107.12854295618308 0 107.12854295618308 112.2446818866465 0 0 0 0 419.59953026766743 110.5183756090637 0 110.5183756090637 -45.647293887678643 0 0 0 0 335.47312243522902 30.3887414324372 0 30.3887414324372 87.335605817610485 0 0 0 0 518.54681110503589 88.429056896765132 0 88.429056896765132 218.35893370704252 0 0 0 0 690.94156450798255 233.39928006981154 0 233.39928006981154 293.47627088011313 0 0 0 0 600.93512227133033 62.811318159583607 0 62.811318159583607 196.64797292114599 0 0 0 0 651.7280610544949 52.765993213599359 0 52.765993213599359 189.61398321354227 0 0 0 0 649.37172815778104 -11.872026367926537 0 -11.872026367926537 60.976240991052691 0 0 0 0 514.31981333812291 -31.124336369291086 0 -31.124336369291086 105.15024469318359 0 0 0 0 600.06820876183338 -48.010938776430521 0 -48.010938776430521 31.380878679168745 0 0 0 0 3.380574852861173 -60.693072302010478 0 -60.693072302010478 189.53283660835496 0 0 0 0 -2.0134130901133176 -23.777637962758035 0 -23.777637962758035 -57.96934565018455 0 0 0 0 23.52037355597713 31.922196975592215 0 31.922196975592215 -100.31369417628684 0 0 0 0 -33.223112182435216 4.5280121978894385 0 4.5280121978894385 36.152056929384344 0 0 0 0 165.79300169180533 47.803619077680757 0 47.803619077680757 -89.675406396908642 0 0 0 0 8.7262017222401909 -6.2897200545517222 0 -6.2897200545517222 -28.33754266274299 0 0 0 0 6.2045653947442929 2.2605426005603402 0 2.2605426005603402 -0.93452472077532001 0 0 0 0 37.540663794105058 76.303750761372157 0 76.303750761372157 39.063916081562638 0 0 0 0 261.43043434009087 -156.14895693564836 0 -156.14895693564836 -83.044919998338628 0 0 0 0 1546.1199518285139 773.58126764499048 0 773.58126764499048 145.21532977072326 0 0 0 0 677.60578895008803 416.31529429524608 0 416.31529429524608 174.33129504658882 0 0 0 0 769.14391849873937 990.8611780268493 0 990.8611780268493 438.38147492851931 0 0 0 0 886.99968029530282 304.64714337335863 0 304.64714337335863 30.496478538576412 0 0 0 0 87.30533172590367 577.36729605951223 0 577.36729605951223 378.58200588749162 0 0 0 0 -107.09842293350084 -19.27987662497344 0 -19.27987662497344 192.48097289838051 0 0 0 0 1389.9949803509153 -25.69148324992193 0 -25.69148324992193 -8.1078494163211872 0 0 0 0 4.7914999069229651 5.6627513287145703 0 5.6627513287145703 7.1672781926272506 0 0 0 0 309.57803007459006 -126.16774536258799 0 -126.16774536258799 15.158811035379586 0 0 0 0 1438.2301094930845 910.1604834273744 0 910.1604834273744 212.47648666692839 0 0 0 0 796.27983280743501 532.35404015018958 0 532.35404015018958 154.95850976733163 0 0 0 0 843.05091035342866 125.67729696339461 0 125.67729696339461 -32.033385053162419 0 0 0 0 262.46134045191138 15.882294158638615 0 15.882294158638615 11.549422332260747 0 0 0 0 523.92357266175168 202.1862409451046 0 202.1862409451046 89.588926851791257 0 0 0 0 399.89040743793157 345.33346817876009 0 345.33346817876009 68.913677587314851 0 0 0 0 -47.291977295662946 46.055109499367973 0 46.055109499367973 130.79984568854707 0 0 0 0 260.50408353684907 26.347755729952041 0 26.347755729952041 -37.333219647742226 0 0 0 0 16.332838080008514 83.782657730620485 0 83.782657730620485 -173.12169497716968 0 0 0 0 18.699135173993923 14.637737234058889 0 14.637737234058889 8.848805784970363 0 0 0 0 -52.809008462582824 17.487218678521344 0 17.487218678521344 -1.6758744632206799 0 0 0 0 1.9824268157905607 -2.8534741935888661 0 -2.8534741935888661 -2.3601172605585461 0 0 0 0 10.997567597951274 3.0375872560216521 0 3.0375872560216521 -1.1201999662871458 0 0 0 0 17.143391163039425 6.4091917098931113 0 6.4091917098931113 -2.9212571434589591 0 0 0 0 35.79995316412446 -0.9495757324320806 0 -0.9495757324320806 -31.193742417892246 0 0 0 0 4.1793460200569825 67.745201987338532 0 67.745201987338532 10.89220533803018 0 0 0 0 80.74054448363313 -21.278211722650212 0 -21.278211722650212 -148.04248783658477 0 0 0 0 85.275479533047474 -128.13521615814807 0 -128.13521615814807 -137.95880077937909 0 0 0 0 73.166886624938343 5.6606528147322024 0 5.6606528147322024 -237.44466319325966 0 0 0 0 10.39690882696431 -3.7344697266890847 0 -3.7344697266890847 -34.281114080385777 0 0 0 0 25.935781312577973 -15.482264212126392 0 -15.482264212126392 -2.1012786966749246 0 0 0 0 52.347688212670619 -47.886300497849334 0 -47.886300497849334 -50.304463321436742 0 0 0 0 96.573330618284672 -24.898350587606615 0 -24.898350587606615 -65.514299571452511 0 0 0 0 24.728427332089268 -42.638369256473084 0 -42.638369256473084 -43.847431649741793 0 0 0 0 -22.127308702269147 -57.404554564860973 0 -57.404554564860973 -66.2722837653846 0 0 0 0 9.8120388017632649 -6.5347825742405803 0 -6.5347825742405803 -12.633566476542001 0 0 0 0 4.9141760100392275 -36.82495611926015 0 -36.82495611926015 -26.626606000123274 0 0 0 0 38.117337262330693 -9.2564865095841924 0 -9.2564865095841924 -48.070730718946834 0 0 0 0 6.8528539494849774 4.6338120288531073 0 4.6338120288531073 1.6443791886400536 0 0 0 0 59.579826308123302 6.0522164449139382 0 6.0522164449139382 -60.751271449726119 0 0 0 0 47.490969646343729 -14.448857160908119 0 -14.448857160908119 -41.026288133116566 0 0 0 0 53.86169196490664 -33.876214965546751 0 -33.876214965546751 -25.456381875053921 0 0 0 0 59.278222968750924 -11.801783353100063 0 -11.801783353100063 -14.823544882950955 0 0 0 0 50.183789198349359 7.3507978699479963 0 7.3507978699479963 -8.7704887669297023 0 0 0 0 1.8052511190073517 4.0856203346356805 0 4.0856203346356805 -5.5446287080890482 0 0 0 0 16.524859242577804 -21.830059024047387 0 -21.830059024047387 16.057889612684448 0 0 0 0 -12.596057346003363 20.66258537795602 0 20.66258537795602 -13.903817875837831 0 0 0 0 27.204361130110968 -9.3247319542871097 0 -9.3247319542871097 -6.0568343485825871 0 0 0 0 8.1182817200606223 3.0585462562376051 0 3.0585462562376051 -17.174591105598665 0 0 0 0 17.972345223417506 -18.344953016538966 0 -18.344953016538966 -20.151327511841373 0 0 0 0 18.494978910967632 -1.7591942447122229 0 -1.7591942447122229 -5.2188638992341243 0 0 0 0 12.750109449420194 5.2303374561386677 0 5.2303374561386677 -11.881055347374966 0 0 0 0 10.693913173618057 37.437790503820906 0 37.437790503820906 -131.74642674510687 0 0 0 0 6.0402427116090749 -3.4792270420825702 0 -3.4792270420825702 0.78188051541665615 0 0 0 0 45.66025514453213 88.72745750314607 0 88.72745750314607 -183.64631212695713 0 0 0 0 53.391999008854327 68.408916268772828 0 68.408916268772828 -252.73861800330178 0 0 0 0 6.5187919885081556 76.467256172627032 0 76.467256172627032 -185.40019373248924 0 0 0 0 45.288430711116234 47.179251868126357 0 47.179251868126357 -208.99151395890658 0 0 0 0 66.424071537188865 -17.436720760162643 0 -17.436720760162643 -326.57032303003507 0 0 0 0 76.03910092955266 36.811378613816487 0 36.811378613816487 -213.85180524281168 0 0 0 0 77.723556259273209 37.294014614288926 0 37.294014614288926 -254.41817465979329 0 0 0 0 27.830163316433755 -48.642158408157229 0 -48.642158408157229 -208.72530574200391 0 0 0 0 20.927290735344201 -1.90311184697712 0 -1.90311184697712 -4.8496898596215701 0 0 0 0 18.177469046248007 -4.6424203473316084 0 -4.6424203473316084 -26.489787083598458 0 0 0 0 25.698918632619097 5.5066633582666782 0 5.5066633582666782 -100.80762222557132 0 0 0 0 33.304571834123635 8.5010022159704022 0 8.5010022159704022 -148.23133565706303 0 0 0 0 27.544499521813123 0.39302610347931477 0 0.39302610347931477 -21.470172885234206 0 0 0 0 18.626926588527567 -7.7867779152709993 0 -7.7867779152709993 -7.9902483303568648 0 0 0 0 19.086378521971781 -11.320981371424857 0 -11.320981371424857 -19.008022390030529 0 0 0 0 23.383292001730297 -3.3487785299239476 0 -3.3487785299239476 -19.240554970925587 0 0 0 0 -63.05236734150094 -13.797649373935201 0 -13.797649373935201 -6.6155735340589672 0 0 0 0 29.734436612758316 3.1200633561895934 0 3.1200633561895934 -4.9181121191238653 0 0 0 0 36.052713825772003 -4.0886594649665078 0 -4.0886594649665078 -1.428563944593507 0 0 0 0 75.216962534927006 9.9598290057001577 0 9.9598290057001577 -118.23405381376688 0 0 0 0 -66.004562586998873 -16.711349186998632 0 -16.711349186998632 2.9958584731684823 0 0 0 0 27.604153178563479 -53.433255550439526 0 -53.433255550439526 -273.8041535804532 0 0 0 0 3.1347263658724458 7.5520646019275883 0 7.5520646019275883 -3.8421666781459507 0 0 0 0 218.29150798102637 -33.460919792782988 0 -33.460919792782988 -62.285652423482134 0 0 0 0 148.13951459289819 -61.28764949593824 0 -61.28764949593824 58.076430722142845 0 0 0 0 -68.363477167991732 181.86268867207059 0 181.86268867207059 -13.367220695572541 0 0 0 0 -69.207884739465953 122.56741130662931 0 122.56741130662931 -331.28704883477985 0 0 0 0 -2.8034145370404389 1.064596519883338 0 1.064596519883338 0.21293819456011676 0 0 0 0 -31.016324237469235 -211.09657859551589 0 -211.09657859551589 -649.19760131672592 0 0 0 0 55.814982097985194 -26.493139457903453 0 -26.493139457903453 -264.51939229863615 0 0 0 0 64.365312152014894 86.022073825857348 0 86.022073825857348 -313.37267097476888 0 0 0 0 72.060492380450569 0.63257524072574256 0 0.63257524072574256 -338.05790689423702 0 0 0 0 101.26472779803589 57.236690863787771 0 57.236690863787771 -304.06167494341435 0 0 0 0 157.17363931650834 64.463465845935389 0 64.463465845935389 -308.37926897088164 0 0 0 0 15.211170781192777 141.81085146593614 0 141.81085146593614 -504.0706090970682 0 0 0 0 -200.58115415004249 -113.54821625280874 0 -113.54821625280874 -232.63900441991791 0 0 0 0 8.1876971179844986 -94.247109937714413 0 -94.247109937714413 -210.67737033989852 0 0 0 0 220.02194227650762 -143.44669557539419 0 -143.44669557539419 -261.63442983323512 0 0 0 0 226.10440874713095 -55.95795101720023 0 -55.95795101720023 -216.56408505991885 0 0 0 0 165.87808064930869 -78.65221541812025 0 -78.65221541812025 -188.1948819888762 0 0 0 0 86.276206465310679 24.757408713613586 0 24.757408713613586 -223.5577315505534 0 0 0 0 127.22418591295354 9.8849439141927178 0 9.8849439141927178 -168.49992510808715 0 0 0 0 170.91038359146114 20.721842152780027 0 20.721842152780027 -227.55328184465907 0 0 0 0 166.91474781153738 -9.7131677732136268 0 -9.7131677732136268 -185.86489265389719 0 0 0 0 178.54856365443629 33.940403590012465 0 33.940403590012465 -261.73407460808448 0 0 0 0 119.97530459631889 103.21100135245933 0 103.21100135245933 -301.45374444277468 0 0 0 0 187.77104396791219 62.615803678695215 0 62.615803678695215 -446.14188743496197 0 0 0 0 54.570051988492196 163.05159352016744 0 163.05159352016744 -300.29075390896514 0 0 0 0 117.18612937865691 133.62455642454734 0 133.62455642454734 -286.66720848205932 0 0 0 0 93.845436676536337 102.58103068888249 0 102.58103068888249 -246.99003033497922 0 0 0 0 51.954628265850261 138.67109974897471 0 138.67109974897471 -277.33081127746482 0 0 0 0 116.26021817988658 79.535215576142036 0 79.535215576142036 -357.79104142826804 0 0 0 0 98.957643055910012 84.471265256885999 0 84.471265256885999 -297.98177502102135 0 0 0 0 135.68983986580861 105.26349421651662 0 105.26349421651662 -307.47854676697898 0 0 0 0 309.62155147063459 327.99918250509063 0 327.99918250509063 368.88629818072241 0 0 0 0 535.18528143654839 374.36718700249003 0 374.36718700249003 334.20102525697075 0 0 0 0 606.00443919289773 275.03062460203603 0 275.03062460203603 439.68893610026134 0 0 0 0 1054.1739283992138 1.3359784817562286 0 1.3359784817562286 411.28246442675481 0 0 0 0 905.72446032716471 596.96218462171964 0 596.96218462171964 318.72476891159386 0 0 0 0 544.57825298800969 219.41204734572156 0 219.41204734572156 807.17901708301997 0 0 0 0 853.2977943272017 -324.26987097577467 0 -324.26987097577467 -335.38004028245132 0 0 0 0 1308.7045452790462 118.61493122495676 0 118.61493122495676 -378.49720807569156 0 0 0 0 1257.9588738832717 601.14542783505749 0 601.14542783505749 231.78274873341866 0 0 0 0 14.018052369310951 -0.4292587507974126 0 -0.4292587507974126 0.58964412935157373 0 0 0 0 584.90370696394348 775.84307000610852 0 775.84307000610852 790.77145130457211 0 0 0 0 126.80783488912857 307.27478982175307 0 307.27478982175307 312.36077113853867 0 0 0 0 311.4078778340845 -210.23147910015814 0 -210.23147910015814 -138.58655188380362 0 0 0 0 253.99992247241607 -228.8973179707782 0 -228.8973179707782 -387.72360826102624 0 0 0 0 334.06150909744247 -107.66835261668439 0 -107.66835261668439 -261.65318991366439 0 0 0 0 491.0890982534147 -275.32002036527501 0 -275.32002036527501 -278.2049039773101 0 0 0 0 235.85779745301988 -125.29302405663452 0 -125.29302405663452 -249.6304656552411 0 0 0 0 251.46876340621156 -168.31259304673409 0 -168.31259304673409 -237.91173786535455 0 0 0 0 439.02542028060998 -122.79433573940059 0 -122.79433573940059 -257.72157482523266 0 0 0 0 555.28982151396485 -111.31664117246328 0 -111.31664117246328 -339.43177530284447 0 0 0 0 445.32454123296657 -79.889510136753245 0 -79.889510136753245 -308.11186753365655 0 0 0 0 581.12342267976419 -33.291791144731633 0 -33.291791144731633 -289.45680994408212 0 0 0 0 643.93304480622464 -68.932480516556097 0 -68.932480516556097 -338.79132605802977 0 0 0 0 564.98229432480366 189.00743526435645 0 189.00743526435645 -167.40507073522895 0 0 0 0 543.11450212683985 64.807431298865367 0 64.807431298865367 -367.45495035614385 0 0 0 0 712.61280501840884 16.034110351528852 0 16.034110351528852 -363.16862473088077 0 0 0 0 431.44597895275729 253.74610891822613 0 253.74610891822613 -197.26837891551077 0 0 0 0 459.70534595155186 294.24363511292722 0 294.24363511292722 -352.05118753429633 0 0 0 0 93.566502644542197 197.76517498237808 0 197.76517498237808 -329.80653486874417 0 0 0 0 477.7037055635019 475.12981926461475 0 475.12981926461475 130.75028013848714 0 0 0 0 133.20762655738872 167.25080857190551 0 167.25080857190551 -142.50210272182085 0 0 0 0 75.742231128173444 130.91516773471335 0 130.91516773471335 -78.614331162926646 0 0 0 0 81.169879296940053 153.11091637259733 0 153.11091637259733 -72.018957843721637 0 0 0 0 53.340148877343381 145.93684318773433 0 145.93684318773433 -73.683323223440311 0 0 0 0 62.031830101754167 127.06294355637021 0 127.06294355637021 -79.610438112002157 0 0 0 0 -211.11882849803078 228.21903881779554 0 228.21903881779554 -117.02394472117885 0 0 0 0 -31.159512102971348 267.92943835455628 0 267.92943835455628 -280.37658978083164 0 0 0 0 225.22122394438338 300.49383360493357 0 300.49383360493357 -380.22000628357046 0 0 0 0 167.08056881778612 261.14503569310546 0 261.14503569310546 -299.10203759832939 0 0 0 0 376.74783478749305 111.09749042170824 0 111.09749042170824 -351.62719757314676 0 0 0 0 170.86447817999533 213.06955290060384 0 213.06955290060384 -284.72452315806731 0 0 0 0 272.83686132269213 143.48963876399375 0 143.48963876399375 -238.97589573570713 0 0 0 0 408.09509825649366 144.25435524043451 0 144.25435524043451 -345.04256865410025 0 0 0 0 277.28087801225047 105.65559054077266 0 105.65559054077266 -218.40107610839732 0 0 0 0 340.03958615323791 100.18080111207109 0 100.18080111207109 -302.91007746157811 0 0 0 0 225.7782063152772 105.00455773056274 0 105.00455773056274 -108.48337175790402 0 0 0 0 306.22389756458142 86.456750135127095 0 86.456750135127095 -208.52282144092806 0 0 0 0 140.85915972654766 195.9285354885501 0 195.9285354885501 -196.70046608834991 0 0 0 0 201.36711659136199 99.438554814510098 0 99.438554814510098 -107.77750027507409 0 0 0 0 231.09974873616738 39.742815903652172 0 39.742815903652172 -68.428214399647914 0 0 0 0 347.63479064908461 -1.0232060417488356 0 -1.0232060417488356 -135.54700627179318 0 0 0 0 347.69260585330312 -0.78768524827523834 0 -0.78768524827523834 -146.3855949398876 0 0 0 0 304.79921465884104 58.392919278955787 0 58.392919278955787 -202.27538478985389 0 0 0 0 408.0734154772872 18.613742712468593 0 18.613742712468593 -220.99574986644666 0 0 0 0 451.74395806415851 54.251729297066959 0 54.251729297066959 -308.96305252569073 0 0 0 0 463.39038595278271 -18.004730752988451 0 -18.004730752988451 -276.25912877825795 0 0 0 0 433.87112235643144 -48.39270665303502 0 -48.39270665303502 -306.9894003305692 0 0 0 0 402.54343543684809 -5.6807817379058179 0 -5.6807817379058179 -278.75282756586694 0 0 0 0 406.72685939757866 -23.240758027741549 0 -23.240758027741549 -215.20624423134905 0 0 0 0 397.30466048612652 -43.674171353364727 0 -43.674171353364727 -253.71167698895988 0 0 0 0 425.83540998088574 -58.848410296362999 0 -58.848410296362999 -251.79494363029335 0 0 0 0 261.83331892318165 -61.984360548276527 0 -61.984360548276527 -196.90227523290559 0 0 0 0 350.60488165218703 -104.84701049750311 0 -104.84701049750311 -261.35535205589622 0 0 0 0 352.13330264233809 -32.251639426010115 0 -32.251639426010115 -197.45722461017067 0 0 0 0 348.11261241506327 -39.38622005346997 0 -39.38622005346997 -195.12250976405267 0 0 0 0 398.64126241866325 -28.819032045231779 0 -28.819032045231779 -210.70477770374055 0 0 0 0 398.46580222832563 2.6663764111522141 0 2.6663764111522141 -179.17656474836303 0 0 0 0 431.31752039462299 -62.702782207347354 0 -62.702782207347354 -100.75018750991831 0 0 0 0 436.91372655740997 24.615734275168961 0 24.615734275168961 -115.89242573696629 0 0 0 0 408.93281341916736 -12.948723923899252 0 -12.948723923899252 -161.80961481264376 0 0 0 0 376.4694653812021 67.829015052182513 0 67.829015052182513 -114.1280979222538 0 0 0 0 470.11094583477097 -1.5564186555338893 0 -1.5564186555338893 -97.928157825531343 0 0 0 0 608.93828939941886 165.68916736058873 0 165.68916736058873 -89.546354420094758 0 0 0 0 391.26452784285357 -213.1509681885301 0 -213.1509681885301 110.09580398370963 0 0 0 0 1225.2797555870638 -34.81729536905209 0 -34.81729536905209 -139.38632896771878 0 0 0 0 720.77119990506981 57.734136616915293 0 57.734136616915293 -89.45715273872429 0 0 0 0 -211.3451121498947 395.39718848652956 0 395.39718848652956 958.324071169749 0 0 0 0 10.137736851139294 -6.9556306020020227 0 -6.9556306020020227 3.0404161443547899 0 0 0 0 253.55477050557965 -211.44001294699183 0 -211.44001294699183 100.76787211193454 0 0 0 0 1681.0653744535612 -212.37989338355783 0 -212.37989338355783 -784.3758257944603 0 0 0 0 809.40606351082897 -273.51953208442706 0 -273.51953208442706 44.637705487837138 0 0 0 0 -43.761316219035507 37.543027280087244 0 37.543027280087244 139.55458810369237 0 0 0 0 156.77427005685604 100.20411190530126 0 100.20411190530126 -42.636885073645999 0 0 0 0 76.921349386830116 146.62426932944436 0 146.62426932944436 -0.13783731844227987 0 0 0 0 102.96260448344401 104.42781917029083 0 104.42781917029083 52.653089686445128 0 0 0 0 133.097415744709 10.616090305149555 0 10.616090305149555 56.890009293530056 0 0 0 0 147.98314970084448 64.02379040158479 0 64.02379040158479 32.722490284643754 0 0 0 0 302.83075612971516 -50.859456691872651 0 -50.859456691872651 7.0916119603580228 0 0 0 0 225.35172785359464 -78.73022318168978 0 -78.73022318168978 136.83128604896666 0 0 0 0 286.73782481137459 -44.548816954214544 0 -44.548816954214544 4.711978927221935 0 0 0 0 290.42742327335691 -18.532915885516445 0 -18.532915885516445 -11.557419237708928 0 0 0 0 155.86520802759333 89.035680574701928 0 89.035680574701928 2.1410521149668966 0 0 0 0 234.87332319486086 50.622909448759174 0 50.622909448759174 -40.535138195758918 0 0 0 0 153.60316661492107 76.051527511699533 0 76.051527511699533 6.8593012965920934 0 0 0 0 126.21923450752183 105.57226120762687 0 105.57226120762687 -21.893737166352366 0 0 0 0 129.96769915980258 119.46028426850626 0 119.46028426850626 -26.248627286815463 0 0 0 0 122.42209129696857 100.71599411880607 0 100.71599411880607 30.955671448095472 0 0 0 0 106.0083375889426 73.380734184245739 0 73.380734184245739 86.832558270880781 0 0 0 0 125.14558931227521 85.258384972559682 0 85.258384972559682 54.879573833813083 0 0 0 0 124.77528289680049 77.903939560390882 0 77.903939560390882 66.549947331245676 0 0 0 0 159.36442359867215 80.590658669250843 0 80.590658669250843 33.32046382235967 0 0 0 0 141.06646740482392 107.93909878680279 0 107.93909878680279 -3.1692482712223864 0 0 0 0 75.102663223725671 69.660701647011962 0 69.660701647011962 50.459636259472376 0 0 0 0 194.57026302477243 40.896023666421115 0 40.896023666421115 16.312107870756449 0 0 0 0 187.19579812358279 72.039563178041817 0 72.039563178041817 -17.193291053530373 0 0 0 0 145.83448517258876 45.204643746773741 0 45.204643746773741 65.748267306840262 0 0 0 0 -976.05026037899233 -222.86711671280591 0 -222.86711671280591 105.38001400214853 0 0 0 0 279.87702656212059 -417.2141651528691 0 -417.2141651528691 -619.64980912635724 0 0 0 0 1923.5657553253877 -120.30299422746612 0 -120.30299422746612 -678.82585608714726 0 0 0 0 -46.905257787180744 -1770.4628351057222 0 -1770.4628351057222 -1299.9086552446242 0 0 0 0 53.574364661241816 143.26496478964884 0 143.26496478964884 -22.326396490321713 0 0 0 0 6937.0049236074774 2409.5675484053545 0 2409.5675484053545 1971.8587455248535 0 0 0 0 59.103482663707091 75.713413975557145 0 75.713413975557145 54.82126930729941 0 0 0 0 6005.3404006477067 -1319.8886754050945 0 -1319.8886754050945 -2051.0846554029849 0 0 0 0 55.274222216445196 130.21931048508759 0 130.21931048508759 31.531502460479715 0 0 0 0 312.03717463557041 44.580707692075521 0 44.580707692075521 -60.493199856441038 0 0 0 0 140.71349159032911 54.0265064352091 0 54.0265064352091 140.49654708128855 0 0 0 0 81.150868283636541 4.9882680999759614 0 4.9882680999759614 -11.456668378594667 0 0 0 0 85.743133947082242 7.8891955644835434 0 7.8891955644835434 -3.0087376358717393 0 0 0 0 140.65986298519783 51.294473485525941 0 51.294473485525941 17.246964317259426 0 0 0 0 75.189835182773095 -0.94586626369618898 0 -0.94586626369618898 -18.876765124294252 0 0 0 0 141.2334748905887 57.548313941510514 0 57.548313941510514 -182.60801295113379 0 0 0 0 195.5966841430527 40.522543095871924 0 40.522543095871924 -193.11115328378264 0 0 0 0 169.49586079077199 21.069285983749978 0 21.069285983749978 -64.183513433014468 0 0 0 0 213.32751946955977 5.612923909427991 0 5.612923909427991 -149.50265924963423 0 0 0 0 139.64039375387074 49.424200684726657 0 49.424200684726657 -165.27916269006982 0 0 0 0 179.06090893711735 -22.148617332768936 0 -22.148617332768936 -152.4045794007925 0 0 0 0 155.71114941384803 5.2174145501817293 0 5.2174145501817293 -117.18008029161138 0 0 0 0 184.58682515077817 -8.1057792616516053 0 -8.1057792616516053 -112.51586623910157 0 0 0 0 168.0233788249443 -18.904779390259364 0 -18.904779390259364 -29.788535351372957 0 0 0 0 269.69401752108388 -44.050479593669593 0 -44.050479593669593 -178.96422448646535 0 0 0 0 233.6451223687036 -45.932951234451139 0 -45.932951234451139 -168.14226701848156 0 0 0 0 192.1969720450943 2.1587437106081779 0 2.1587437106081779 -107.69231337226847 0 0 0 0 176.28258952169563 -19.041865800424603 0 -19.041865800424603 -83.132187508270363 0 0 0 0 279.33545834596953 0.95861276716505017 0 0.95861276716505017 -133.20307463083918 0 0 0 0 235.07667003365532 74.211091940940605 0 74.211091940940605 -54.332363827540576 0 0 0 0 321.97563921951223 14.537244316888518 0 14.537244316888518 -143.96906302515663 0 0 0 0 204.88037977268505 31.951162260735828 0 31.951162260735828 -44.004360480401374 0 0 0 0 155.41607979711443 29.517767215954336 0 29.517767215954336 -36.770053978907526 0 0 0 0 188.21853204053514 72.956188685083134 0 72.956188685083134 -45.826176653084076 0 0 0 0 310.67591946617176 82.251369575027638 0 82.251369575027638 -109.69238116339557 0 0 0 0 342.60611171682103 153.05595718771247 0 153.05595718771247 -8.9728315034553816 0 0 0 0 142.64886369690794 -6.064323123565373 0 -6.064323123565373 -30.856410970349629 0 0 0 0 140.60478481051905 13.447095275919992 0 13.447095275919992 61.699852986700535 0 0 0 0 224.63556655605862 -97.518531088046757 0 -97.518531088046757 61.34982240469526 0 0 0 0 36.555730915406457 -4.7932590039149687 0 -4.7932590039149687 99.898626439084182 0 0 0 0 41.639880807182635 75.360275695058817 0 75.360275695058817 17.692668953382963 0 0 0 0 51.590645962940471 51.114695352017407 0 51.114695352017407 59.031943184811269 0 0 0 0 72.316310134858213 82.74928400126305 0 82.74928400126305 -25.896854745637029 0 0 0 0 90.601049720738956 6.4243969979602298 0 6.4243969979602298 -95.812986125911721 0 0 0 0 314.6797103256722 277.13861980665092 0 277.13861980665092 88.222564584432803 0 0 0 0 89.637150963964814 51.174246268961497 0 51.174246268961497 -1.4525803581564105 0 0 0 0 32.42656417364924 144.81841393292552 0 144.81841393292552 59.488091330124917 0 0 0 0 945.82813300405451 767.88438909444722 0 767.88438909444722 390.10655281037816 0 0 0 0 -139.69049630099471 191.15562631997682 0 191.15562631997682 115.29402919466213 0 0 0 0 165.93486488023404 -24.950622210508442 0 -24.950622210508442 -25.226702933821429 0 0 0 0 -389.75983605992951 -508.54117798066068 0 -508.54117798066068 -16.663606945508775 0 0 0 0 -903.05431417004002 372.07885337237803 0 372.07885337237803 1150.8870606372448 0 0 0 0 197.68024298037926 -137.19606660996033 0 -137.19606660996033 -168.76074193525346 0 0 0 0 153.68965877691153 -89.295633284202722 0 -89.295633284202722 -91.342378467976232 0 0 0 0 243.03559405192937 19.812592110431069 0 19.812592110431069 -100.29571964234492 0 0 0 0 246.82250153566201 2.1905655195096188 0 2.1905655195096188 -119.90185636070419 0 0 0 0 171.37073001367449 -22.111180748040411 0 -22.111180748040411 -21.850067705075197 0 0 0 0 280.68538840480323 -98.200143587621824 0 -98.200143587621824 -108.85988748059026 0 0 0 0 25.519141448414075 -39.026737866654628 0 -39.026737866654628 -22.703000953721631 0 0 0 0 180.00169867060322 47.972450749454765 0 47.972450749454765 -0.59086168445901421 0 0 0 0 120.91572427328042 18.77496393346766 0 18.77496393346766 -4.5762028948163422 0 0 0 0 237.33467251112916 71.682834608845951 0 71.682834608845951 -60.349202529734612 0 0 0 0 97.860733302886956 14.860389925217532 0 14.860389925217532 -26.084207190800953 0 0 0 0 129.79133955734505 86.187338241028556 0 86.187338241028556 -29.66438523890065 0 0 0 0 182.57362845139869 110.76967787482408 0 110.76967787482408 -88.200942275664602 0 0 0 0 35.34357410706798 33.067945453385164 0 33.067945453385164 16.688427758669377 0 0 0 0 12.44148769100202 35.671449222531272 0 35.671449222531272 11.345847675042329 0 0 0 0 40.236898827719415 29.948477009719227 0 29.948477009719227 17.716411507079101 0 0 0 0 46.804124456633481 22.080278608432355 0 22.080278608432355 10.491352457219881 0 0 0 0 39.524966698112621 28.003070513857438 0 28.003070513857438 28.099324206980327 0 0 0 0 54.952666467588827 28.724691095807717 0 28.724691095807717 7.2091591821487926 0 0 0 0 64.975625730497768 18.912883855231257 0 18.912883855231257 -11.707219042944416 0 0 0 0 37.939190221008744 35.411174258653546 0 35.411174258653546 23.028295649226493 0 0 0 0 74.208188648606324 26.643559428924164 0 26.643559428924164 25.118269093429262 0 0 0 0 71.547050862735091 55.189552093521343 0 55.189552093521343 5.1354160510059046 0 0 0 0 46.31222835871764 26.820555385717086 0 26.820555385717086 11.985893780306679 0 0 0 0 32.093312104672933 10.152983746885511 0 10.152983746885511 1.0838470490664829 0 0 0 0 80.465017566668848 50.26580517041657 0 50.26580517041657 7.8120899018949785 0 0 0 0 67.9506455964559 -0.65867567541030425 0 -0.65867567541030425 -12.806854441767459 0 0 0 0 100.33888909503821 29.128260848616833 0 29.128260848616833 -20.576637234304599 0 0 0 0 114.29351910966966 37.758268299272913 0 37.758268299272913 17.968257468471165 0 0 0 0 92.480355076917704 40.417406519037286 0 40.417406519037286 19.46849779007789 0 0 0 0 81.965756418341016 53.414455883246774 0 53.414455883246774 10.8444396853547 0 0 0 0 41.940162735822064 36.761501436136626 0 36.761501436136626 15.056836594593063 0 0 0 0 -32.763031891980063 105.60257075870891 0 105.60257075870891 73.95775440006696 0 0 0 0 102.66769208461841 25.957020634722085 0 25.957020634722085 20.035573216637204 0 0 0 0 38.803177842222794 181.8947652677009 0 181.8947652677009 -866.44147790147713 0 0 0 0 174.00637809943873 71.352120655251383 0 71.352120655251383 60.143615356487999 0 0 0 0 227.63460552476317 106.81499125840401 0 106.81499125840401 37.202230267478626 0 0 0 0 2.8712876580543778 6.3536692789047233 0 6.3536692789047233 0.82417527761477771 0 0 0 0 10.770723294529517 0.25771011307720926 0 0.25771011307720926 -5.4311352045847503 0 0 0 0 65.389443716790993 82.088980735925361 0 82.088980735925361 -498.03983984378556 0 0 0 0 125.54949556441352 -63.312769693260634 0 -63.312769693260634 -91.003524254649847 0 0 0 0 937.10000171930005 -261.57912457002953 0 -261.57912457002953 -195.44625291026932 0 0 0 0 810.32724722452986 -152.25209546560473 0 -152.25209546560473 -289.2042677620866 0 0 0 0 743.33987163757047 17.400879639499294 0 17.400879639499294 -374.15285583427885 0 0 0 0 948.18843823960924 -271.18676207222279 0 -271.18676207222279 -296.13918627339956 0 0 0 0 1071.8289702729307 -250.20114028731314 0 -250.20114028731314 -463.07901061011489 0 0 0 0 1325.5363938235678 -552.70301992340455 0 -552.70301992340455 -353.37425011620849 0 0 0 0 1326.3597929561656 -428.54263739862381 0 -428.54263739862381 -513.07010836853794 0 0 0 0 1221.2927581777403 -419.22166969205455 0 -419.22166969205455 -279.36457281571808 0 0 0 0 1063.1112444920436 -244.99843442957945 0 -244.99843442957945 -385.22681009745065 0 0 0 0 981.44802356249056 -100.78717126267838 0 -100.78717126267838 -425.33283675556595 0 0 0 0 873.09827635472902 44.346145487359081 0 44.346145487359081 -575.17020574716867 0 0 0 0 284.89787966625136 127.58544112048841 0 127.58544112048841 -132.81507439834559 0 0 0 0 -473.92460559069877 273.81268467604605 0 273.81268467604605 -792.4852549992429 0 0 0 0 400.52497936612053 534.36068405104561 0 534.36068405104561 -886.37140752931407 0 0 0 0 872.00156967516523 29.796324940008162 0 29.796324940008162 -346.72998473708867 0 0 0 0 220.47294792186585 2.6095974138422662 0 2.6095974138422662 -17.359956224254461 0 0 0 0 594.22178858222833 -56.419464497359968 0 -56.419464497359968 -96.907388104873917 0 0 0 0 307.28707097341248 225.71412394125127 0 225.71412394125127 -330.5548345608405 0 0 0 0 339.83292260349845 12.724430029175437 0 12.724430029175437 -21.618007882158963 0 0 0 0 353.2705353227102 -50.007582893278865 0 -50.007582893278865 -3.0727077586057021 0 0 0 0 361.47069843227291 -1.2352848260337623 0 -1.2352848260337623 -85.971569456339552 0 0 0 0 140.63895189719187 -43.533108822847225 0 -43.533108822847225 49.18555914733065 0 0 0 0 215.1591539500987 -93.140470049280054 0 -93.140470049280054 136.27799213065794 0 0 0 0 519.16385476567666 -135.54138847791864 0 -135.54138847791864 -12.58826296176494 0 0 0 0 615.10781076388957 -160.57827575572833 0 -160.57827575572833 -108.80864014219424 0 0 0 0 579.62327841790466 -185.45161842245432 0 -185.45161842245432 7.1486260558622234 0 0 0 0 813.95816215491777 -388.00776279074631 0 -388.00776279074631 47.079194888357051 0 0 0 0 827.4315980672327 -304.2386446429208 0 -304.2386446429208 -19.893346930685539 0 0 0 0 719.37663315000464 -377.24895393083693 0 -377.24895393083693 131.53149556256494 0 0 0 0 512.94344262233449 -247.98636387905847 0 -247.98636387905847 70.332942970882414 0 0 0 0 67.179355022304662 31.713828471974921 0 31.713828471974921 175.23741602015576 0 0 0 0 407.34356818235574 -209.45698529289126 0 -209.45698529289126 173.76478130791668 0 0 0 0 430.24704800761538 -203.39038857456791 0 -203.39038857456791 116.39480826528711 0 0 0 0 29.166110675807431 101.11322758853782 0 101.11322758853782 49.070689482854391 0 0 0 0 241.34031753609452 -0.65244419753128113 0 -0.65244419753128113 -23.781141153970168 0 0 0 0 102.887475631659 27.44830103649242 0 27.44830103649242 4.9975893278830679 0 0 0 0 204.31553149931278 72.068139266622552 0 72.068139266622552 -93.957598611960975 0 0 0 0 16.590159541832122 -0.80907523532820136 0 -0.80907523532820136 10.632889409060731 0 0 0 0 58.982567637785905 20.179082492652469 0 20.179082492652469 13.564200014757262 0 0 0 0 -208.31107219879232 -371.73343537067217 0 -371.73343537067217 -361.99396766549467 0 0 0 0 248.18760961099633 -312.17518926980853 0 -312.17518926980853 279.85675896905559 0 0 0 0 438.33344596181632 -88.37929308957996 0 -88.37929308957996 -30.728203900250037 0 0 0 0 74.050078718906818 16.719294808202122 0 16.719294808202122 2.4409702750796409 0 0 0 0 2383.3649972165076 831.1985589353767 0 831.1985589353767 -1666.1711235343782 0 0 0 0 187.32674597794357 -194.95671597784144 0 -194.95671597784144 470.91339014923972 0 0 0 0 1831.3557249905498 -1325.4028114972266 0 -1325.4028114972266 1078.5505021666709 0 0 0 0 2808.55673836202 -653.29007852143786 0 -653.29007852143786 809.16957848733341 0 0 0 0 2160.1283845807284 -1133.2654295063733 0 -1133.2654295063733 655.59354498733683 0 0 0 0 1935.0289128373988 -755.11953810712203 0 -755.11953810712203 251.49794450923122 0 0 0 0 729.17443808103781 -1139.6219887672544 0 -1139.6219887672544 1145.0635951406532 0 0 0 0 1503.4561689392758 -980.17953568953544 0 -980.17953568953544 383.10780983039047 0 0 0 0 2222.3527007964071 -678.67109853920022 0 -678.67109853920022 42.209711418526354 0 0 0 0 1373.0851989262101 -660.44396457720393 0 -660.44396457720393 202.10565746636016 0 0 0 0 1112.2094897309325 -699.478668903683 0 -699.478668903683 303.29569702034757 0 0 0 0 652.86008582456998 -502.45778081840223 0 -502.45778081840223 335.80121280389324 0 0 0 0 981.04205579591508 -472.42214458988173 0 -472.42214458988173 107.24532786923737 0 0 0 0 461.60794514496229 -241.7474136004717 0 -241.7474136004717 236.33629302389292 0 0 0 0 734.22344289035391 -741.50834456124142 0 -741.50834456124142 647.91922207772518 0 0 0 0 2015.1032862888169 -1587.5033891963985 0 -1587.5033891963985 476.56829306702707 0 0 0 0 2321.2896700342526 -976.99415176326136 0 -976.99415176326136 1248.5713284414724 0 0 0 0 2505.2689689305826 -192.18307436830082 0 -192.18307436830082 1942.3499592908347 0 0 0 0 2555.1249406985971 -649.04301862074362 0 -649.04301862074362 487.2844613745234 0 0 0 0 2710.0581787264746 -902.70152525084325 0 -902.70152525084325 167.52713890536478 0 0 0 0 2586.868794293372 -972.36860690178378 0 -972.36860690178378 108.80107477910423 0 0 0 0 2226.1937032996366 -789.87231175245415 0 -789.87231175245415 182.14458030423776 0 0 0 0 2769.5329042730446 -1349.6707449317173 0 -1349.6707449317173 465.80385771684121 0 0 0 0 4500.1158400721733 -1318.3991459944421 0 -1318.3991459944421 -377.19807146576164 0 0 0 0 3819.6213972878104 -702.99974558094937 0 -702.99974558094937 -641.70644599684556 0 0 0 0 3219.2825059387396 -700.80456366907651 0 -700.80456366907651 -626.54830009938053 0 0 0 0 3218.513500931183 -811.48387545470655 0 -811.48387545470655 -301.15303961606287 0 0 0 0 2672.0757985677483 -561.33491976449739 0 -561.33491976449739 -325.22035490344888 0 0 0 0 2456.1982246261741 -576.23930477599811 0 -576.23930477599811 -323.97709588005864 0 0 0 0 2520.2519566970732 -159.64772263707005 0 -159.64772263707005 -392.65297811397113 0 0 0 0 2677.7153694069075 -204.81003014983196 0 -204.81003014983196 -542.74219061666861 0 0 0 0 3067.288829882531 -175.09591620479799 0 -175.09591620479799 -554.64537632056374 0 0 0 0 4499.4606718569976 -421.23775830776333 0 -421.23775830776333 -974.32868249294052 0 0 0 0 4237.874932268187 64.532356196356204 0 64.532356196356204 -1169.0355005757151 0 0 0 0 1263.8654724156877 -563.92617685007417 0 -563.92617685007417 -32.111781178867432 0 0 0 0 1310.4310606828803 -599.16297413689472 0 -599.16297413689472 -58.472596547776334 0 0 0 0 1337.7932928822829 -543.3552570124325 0 -543.3552570124325 -50.376309585216404 0 0 0 0 1230.6953347099407 -618.22185335643371 0 -618.22185335643371 -39.017813442532997 0 0 0 0 1102.0374099090841 -446.15432174378066 0 -446.15432174378066 -155.68850294011349 0 0 0 0 943.98468749860695 -550.21729247987776 0 -550.21729247987776 162.65878762912394 0 0 0 0 809.06969095169188 -340.2134233198301 0 -340.2134233198301 21.634511384320149 0 0 0 0 1580.8956798552936 -786.5166702266755 0 -786.5166702266755 8.5449904624172177 0 0 0 0 2096.4612376092791 -656.03109781247667 0 -656.03109781247667 59.838378651284984 0 0 0 0 2060.5292922744775 -887.04418194925984 0 -887.04418194925984 -12.021624115177616 0 0 0 0 1674.258803638455 -586.0610050357983 0 -586.0610050357983 -48.254112703043347 0 0 0 0 1553.4886462202849 -579.95689856573267 0 -579.95689856573267 -186.64042650539477 0 0 0 0 1910.9834274678906 -786.48309814398931 0 -786.48309814398931 -116.94291392256383 0 0 0 0 2159.3964449383893 -418.47468787215439 0 -418.47468787215439 -269.22891555226875 0 0 0 0 1934.3796550747666 -620.72118858542933 0 -620.72118858542933 -326.3081110976027 0 0 0 0 1769.0206781721208 -502.45453662961449 0 -502.45453662961449 -255.46353706148008 0 0 0 0 1546.8203138480021 -599.95809606982812 0 -599.95809606982812 -303.58983117470677 0 0 0 0 1364.4563524660334 -554.39748756105359 0 -554.39748756105359 -271.82883419476457 0 0 0 0 1553.1888347286545 -652.23064991577962 0 -652.23064991577962 -235.31238409813341 0 0 0 0 1092.8420641250214 -449.93668217427944 0 -449.93668217427944 -152.59468357571268 0 0 0 0 1225.8267144237961 -441.80083225997714 0 -441.80083225997714 -400.66881674091155 0 0 0 0 1362.4161072171082 -563.06758137096767 0 -563.06758137096767 -303.86484209540708 0 0 0 0 1492.7326876452425 -535.07523953270459 0 -535.07523953270459 -406.65646531581569 0 0 0 0 1396.9330636036502 -538.10246110343974 0 -538.10246110343974 -352.8757474293086 0 0 0 0 1625.3273838715722 -679.80413153300731 0 -679.80413153300731 -412.0523017730784 0 0 0 0 1504.2692864342384 -561.59481307825183 0 -561.59481307825183 -504.27761145336217 0 0 0 0 657.65090427338691 -58.563758640013134 0 -58.563758640013134 -468.56777319901028 0 0 0 0 1874.1371362924147 -474.94439465037203 0 -474.94439465037203 -401.60052917175335 0 0 0 0 1281.5702753587975 -716.22849996234504 0 -716.22849996234504 -206.93552309638699 0 0 0 0 1495.1317877143329 -406.74263677627482 0 -406.74263677627482 -301.42102969107236 0 0 0 0 1532.0589364297484 -464.6309214037517 0 -464.6309214037517 -425.74797691078334 0 0 0 0 4500.4888302329655 -327.41795342674652 0 -327.41795342674652 -153.9892312536337 0 0 0 0 4337.3622668112657 -690.9071168605434 0 -690.9071168605434 -210.54413952515549 0 0 0 0 909.42769859497821 1097.1157850764246 0 1097.1157850764246 -1032.4305559237623 0 0 0 0 2938.8931143397713 603.04835438109808 0 603.04835438109808 -1201.0746133902048 0 0 0 0 1429.0003725689676 -127.40342267935273 0 -127.40342267935273 -392.28173516925636 0 0 0 0 14.111303400718874 5.1004600241028797 0 5.1004600241028797 -3.3970793477411978 0 0 0 0 5239.8472926123395 -1236.6960887632733 0 -1236.6960887632733 -76.271639016704697 0 0 0 0 2522.5515865628495 -676.52383617680812 0 -676.52383617680812 -156.36063004975608 0 0 0 0 4498.9088336767345 51.931069123729849 0 51.931069123729849 -1129.8738815125948 0 0 0 0 1603.8734312142519 -360.21190046242953 0 -360.21190046242953 96.10658617579702 0 0 0 0 23.751419096076177 10.849329318159164 0 10.849329318159164 -5.3654467531919243 0 0 0 0 1677.4136016320226 -599.25130065271878 0 -599.25130065271878 -223.16336589031414 0 0 0 0 2241.5369731195669 208.74873604077058 0 208.74873604077058 -639.74310930118781 0 0 0 0 2020.2247656972322 -765.30367357910086 0 -765.30367357910086 426.21463241538959 0 0 0 0 2428.2448889867665 -181.25550400977704 0 -181.25550400977704 -194.01982456415226 0 0 0 0 1957.1703487752493 -428.86597085765879 0 -428.86597085765879 -220.87479896039281 0 0 0 0 1689.5782053638977 -122.11431731593802 0 -122.11431731593802 -133.70878675891208 0 0 0 0 1571.4147794967284 -74.31227548804145 0 -74.31227548804145 -150.38545110330733 0 0 0 0 1337.5754316436432 85.187030323032104 0 85.187030323032104 -0.06261204155168798 0 0 0 0 1647.450700723326 53.224011104236524 0 53.224011104236524 -113.42318323626978 0 0 0 0 1124.4170907307343 58.890013334955256 0 58.890013334955256 71.304605376977634 0 0 0 0 1190.5749745672729 -361.5571751626826 0 -361.5571751626826 -398.96405150395708 0 0 0 0 1.7875762570332654 -1.7418490004905145 0 -1.7418490004905145 -1.4541097948768789 0 0 0 0 410.1655704314162 158.59262119409141 0 158.59262119409141 286.63331543186086 0 0 0 0 1742.5112354074117 -31.920966593597541 0 -31.920966593597541 330.44241900394672 0 0 0 0 1.5745688303705565 0.77643839362652045 0 0.77643839362652045 -0.099663174222898832 0 0 0 0 1893.1539997787659 266.37073866932747 0 266.37073866932747 17.514226790257453 0 0 0 0 389.95323854892467 -39.187635874814447 0 -39.187635874814447 -154.80203069395702 0 0 0 0 1.0061983358889108 -10.479730241159324 0 -10.479730241159324 1.1459038994944635 0 0 0 0 48.183974082860004 -8.3858801337768512 0 -8.3858801337768512 -6.105728877724232 0 0 0 0 28.449177243041404 -1.3266798309568451 0 -1.3266798309568451 -6.6424773649219011 0 0 0 0 79.877071021277516 -21.098768256561016 0 -21.098768256561016 -15.147429513814131 0 0 0 0 37.761449179757619 2.1573206257412494 0 2.1573206257412494 -18.85592977152271 0 0 0 0 28.181071494786011 -4.4623788583974147 0 -4.4623788583974147 -1.4924972020483551 0 0 0 0 39.834784882361419 54.238931353194857 0 54.238931353194857 -119.81498982627818 0 0 0 0 11.538913703956496 77.829165488406943 0 77.829165488406943 -139.61727113959751 0 0 0 0 2.0205693617390352 67.140731678965494 0 67.140731678965494 -108.46671294062162 0 0 0 0 37.857664201568696 103.26845877638198 0 103.26845877638198 -208.12524354915695 0 0 0 0 30.890426153153399 -1.5032215604059473 0 -1.5032215604059473 -7.0544200182771695 0 0 0 0 -11.963606930970855 5.9636444478883277 0 5.9636444478883277 -30.648529692454758 0 0 0 0 -48.853672353936417 52.639052784978958 0 52.639052784978958 -39.31833532040946 0 0 0 0 -25.407727792749938 81.042913404751744 0 81.042913404751744 -88.550633045025279 0 0 0 0 -9.5864727591670089 67.276768254440412 0 67.276768254440412 -109.85525194450838 0 0 0 0 -29.743821579195355 57.74227900230926 0 57.74227900230926 -111.62027930877593 0 0 0 0 -63.837192789829714 61.320179030545205 0 61.320179030545205 -97.076455379945401 0 0 0 0 15.367369707793841 168.81985318657962 0 168.81985318657962 -277.14825196324273 0 0 0 0 41.789000724824291 124.26184392638947 0 124.26184392638947 -203.77692926083 0 0 0 0 -92.72927865004749 139.84055037327471 0 139.84055037327471 -138.02666958986376 0 0 0 0 40.563184346985508 135.77600507312718 0 135.77600507312718 -282.44956836253544 0 0 0 0 -4.9045678351722017 267.47742177088094 0 267.47742177088094 -559.37988158184453 0 0 0 0 -177.22884675948535 165.65429128485403 0 165.65429128485403 -104.39547541910542 0 0 0 0 1352.8375376728691 -547.92327952851736 0 -547.92327952851736 -458.84660057146937 0 0 0 0 1427.9456714694024 -421.28617735888395 0 -421.28617735888395 -362.33668845433681 0 0 0 0 1.1932654790644897 2.3799988486801382 0 2.3799988486801382 -4.4717882530858351 0 0 0 0 -408.45620942467212 452.7240198593995 0 452.7240198593995 -449.37382475634013 0 0 0 0 1386.8960370927034 -250.07844207239185 0 -250.07844207239185 -53.191258496167848 0 0 0 0 1294.66496872672 -117.08941082848287 0 -117.08941082848287 -914.74286819922736 0 0 0 0 1376.5286286436531 -355.62273470071659 0 -355.62273470071659 -747.61344325307311 0 0 0 0 1256.5900174354811 -450.62498042546963 0 -450.62498042546963 -391.65125678542518 0 0 0 0 1423.1912187334237 -450.84711944724518 0 -450.84711944724518 -402.73880189367696 0 0 0 0 1328.1229988507876 -485.3489527448703 0 -485.3489527448703 -268.24154252577864 0 0 0 0 1446.2764004013879 -438.29703516476957 0 -438.29703516476957 -220.30787154181144 0 0 0 0 1600.2881926593254 -296.38966772607478 0 -296.38966772607478 -194.82880030951958 0 0 0 0 1494.4163815056654 -88.072546648406046 0 -88.072546648406046 -84.786668708453362 0 0 0 0 1484.2601395604288 -127.42164039671036 0 -127.42164039671036 -34.02298712023412 0 0 0 0 7.7493391293647811 3.2257713723470047 0 3.2257713723470047 -9.7551473845171692 0 0 0 0 1345.3113262717707 29.12807351435913 0 29.12807351435913 -75.6367942869432 0 0 0 0 246.80970319805783 110.21084770757943 0 110.21084770757943 -47.433636945698254 0 0 0 0 610.18878443316498 146.94550949364475 0 146.94550949364475 -139.60167741951773 0 0 0 0 711.28875920106657 192.74869142476837 0 192.74869142476837 -161.72685410940267 0 0 0 0 658.8174702130691 255.25039364531153 0 255.25039364531153 -57.805495258951851 0 0 0 0 432.16744006056251 347.85385236088314 0 347.85385236088314 -16.584967229787026 0 0 0 0 80.252648528246937 -28.425506465769331 0 -28.425506465769331 -186.61878670992189 0 0 0 0 474.56315796449053 260.55289707236489 0 260.55289707236489 -65.597125645029337 0 0 0 0 256.6795480846813 46.161495863796802 0 46.161495863796802 -380.11810854463874 0 0 0 0 17.027547873171745 -1.0777575223131919 0 -1.0777575223131919 -4.1592528184666051 0 0 0 0 -84.876567497685755 -204.00256290925813 0 -204.00256290925813 -261.26527427420922 0 0 0 0 22.039606363967323 123.68200515298895 0 123.68200515298895 -255.20140674308459 0 0 0 0 98.088176223678602 4.8787920997256151 0 4.8787920997256151 -199.65498137033683 0 0 0 0 104.70220900758432 -87.726662760200725 0 -87.726662760200725 -435.89965676033398 0 0 0 0 104.69511724521112 -86.536083523459041 0 -86.536083523459041 -133.29194198932964 0 0 0 0 65.956176164701901 -103.40206078615938 0 -103.40206078615938 -128.84383088555774 0 0 0 0 13.442639583012351 -193.37149419041134 0 -193.37149419041134 -30.574985576207837 0 0 0 0 35.666866837429552 -194.98451500457531 0 -194.98451500457531 -92.976422350762732 0 0 0 0 -19.198506503831595 -244.19399356637496 0 -244.19399356637496 -147.00047409033778 0 0 0 0 -23.162631066959875 67.897117478304608 0 67.897117478304608 -34.804903061251935 0 0 0 0 29.250496754575579 -128.58096829211445 0 -128.58096829211445 13.003064268441449 0 0 0 0 257.22577835194738 21.2160523087976 0 21.2160523087976 103.91090991635429 0 0 0 0 233.85560440829249 -176.45674409051253 0 -176.45674409051253 65.535329893869857 0 0 0 0 97.697043888940243 -77.036676088072454 0 -77.036676088072454 4.0894221845869652 0 0 0 0 110.61909146361359 -138.54910758312508 0 -138.54910758312508 -41.914197541321982 0 0 0 0 13.488425732191899 -165.61153093441726 0 -165.61153093441726 89.098962939622652 0 0 0 0 54.799900888256161 -90.417873379059984 0 -90.417873379059984 135.63618627136202 0 0 0 0 -67.253856710529362 -13.900563101815351 0 -13.900563101815351 92.723571750095019 0 0 0 0 73.010168440290727 -3.5098017944214916 0 -3.5098017944214916 263.2492211230765 0 0 0 0 240.01818675533286 -171.80484542218983 0 -171.80484542218983 425.73410082119335 0 0 0 0 599.04976315240492 72.421011458027806 0 72.421011458027806 132.71138833031091 0 0 0 0 644.58141209172391 -87.73439985862251 0 -87.73439985862251 104.41795153924886 0 0 0 0 437.01185961797773 164.50158802804981 0 164.50158802804981 10.861527209492124 0 0 0 0 416.68737251118364 -13.187998054681884 0 -13.187998054681884 -55.563655343802566 0 0 0 0 809.87017811450642 98.333750593152672 0 98.333750593152672 -7.9611874433212506 0 0 0 0 780.54383207590217 216.93667265075328 0 216.93667265075328 -56.921596430531281 0 0 0 0 792.85938365609513 321.29160688814716 0 321.29160688814716 148.20305314592224 0 0 0 0 787.39969947143254 355.45168089126309 0 355.45168089126309 112.80899014581792 0 0 0 0 787.03532587653172 374.31254190477102 0 374.31254190477102 87.436983114497707 0 0 0 0 752.63371528984499 386.389638493034 0 386.389638493034 135.39084122709255 0 0 0 0 497.41234028685358 -138.04388389930227 0 -138.04388389930227 -60.264771115147596 0 0 0 0 243.14808047682891 73.548912231291979 0 73.548912231291979 17.27003607458937 0 0 0 0 -37.349233784014359 69.044278599935296 0 69.044278599935296 99.587003130158337 0 0 0 0 4.7791500626361625 1.8303690441135676 0 1.8303690441135676 -1.1494242087297657 0 0 0 0 776.51590079808011 534.84154605944696 0 534.84154605944696 257.24673676522434 0 0 0 0 307.2079760292836 243.51834967321975 0 243.51834967321975 94.371653194815735 0 0 0 0 234.40011707102531 -9.7015163887199378 0 -9.7015163887199378 -14.436187717918074 0 0 0 0 186.15298052477738 -179.40304546845937 0 -179.40304546845937 32.638349307921089 0 0 0 0 780.81485991197405 226.42574015492619 0 226.42574015492619 267.07099412190837 0 0 0 0 969.53898488152299 215.20084914063614 0 215.20084914063614 -130.46987138455916 0 0 0 0 29.096693892426629 -16.368574276032632 0 -16.368574276032632 1.4478079113587228 0 0 0 0 11.272464436690242 -20.151563768903625 0 -20.151563768903625 8.1056281364050555 0 0 0 0 44.908965821246966 -19.047586417834282 0 -19.047586417834282 0.76640969206800946 0 0 0 0 -79.34147261243379 5.1003788359439568 0 5.1003788359439568 12.34608653689429 0 0 0 0 5.0492203147064743 -6.2465966601365919 0 -6.2465966601365919 4.2763895742941607 0 0 0 0 173.64884020031604 36.335858866458693 0 36.335858866458693 -8.2689737093851363 0 0 0 0 23.391583420540989 -14.842232481588216 0 -14.842232481588216 6.1832692513612937 0 0 0 0 28.738679309715735 -19.30101267779537 0 -19.30101267779537 17.542634939158233 0 0 0 0 19.327093376166886 -6.870104289810115 0 -6.870104289810115 16.030092898734438 0 0 0 0 14.776572231691262 -14.957912240855876 0 -14.957912240855876 8.2407891118728003 0 0 0 0 12.610222986015433 -14.301124264069156 0 -14.301124264069156 11.124101574901143 0 0 0 0 -33.809467860179211 -44.905381458518832 0 -44.905381458518832 48.741809803777869 0 0 0 0 177.25405991859589 -82.452743677996295 0 -82.452743677996295 -20.727395118585264 0 0 0 0 170.35082200423199 43.921937136530516 0 43.921937136530516 51.493835168188525 0 0 0 0 179.65197150427639 -14.584938340566481 0 -14.584938340566481 40.095749984682698 0 0 0 0 181.42049407977174 17.320845163972081 0 17.320845163972081 -15.842218820595008 0 0 0 0 -49.897425864426623 -35.604815199902077 0 -35.604815199902077 91.606090080262675 0 0 0 0 -0.91959544493771261 -1.0309138706460104 0 -1.0309138706460104 5.6654617915445602 0 0 0 0 -1.5509341730679544 3.8060861618488246 0 3.8060861618488246 1.2022502550587291 0 0 0 0 244.00717898476341 -128.80928490178576 0 -128.80928490178576 92.304937022470767 0 0 0 0 -4.6906952037561496 27.712498527277262 0 27.712498527277262 34.445499410995581 0 0 0 0 -13.731836984617345 3.1828565589837936 0 3.1828565589837936 17.939609506890712 0 0 0 0 1.1510664840116789 -13.355061073349098 0 -13.355061073349098 27.535653524493107 0 0 0 0 17.405196666939446 -11.162157101882258 0 -11.162157101882258 18.663300306956444 0 0 0 0 17.287329445309297 -9.5476982643476731 0 -9.5476982643476731 23.013142834599421 0 0 0 0 794.03988064422811 297.07988444642524 0 297.07988444642524 -225.31326519475579 0 0 0 0 862.65741429148329 215.8231254813586 0 215.8231254813586 -129.28462574692458 0 0 0 0 835.0876557890515 171.2938098691302 0 171.2938098691302 -160.3528902367525 0 0 0 0 566.44945356252356 -51.036678525277011 0 -51.036678525277011 -74.567595902080939 0 0 0 0 464.18240254551347 58.513898488546147 0 58.513898488546147 -3.6130983696639305 0 0 0 0 720.05940255574387 124.98109922312869 0 124.98109922312869 -178.94909838822832 0 0 0 0 865.2235458286741 -205.71212053638101 0 -205.71212053638101 -77.29091005967166 0 0 0 0 473.08901038573822 -68.184025376655882 0 -68.184025376655882 -71.98277090117881 0 0 0 0 451.63347263335891 -131.30186207832685 0 -131.30186207832685 46.244958589193629 0 0 0 0 459.31727718510228 -280.69156340407881 0 -280.69156340407881 -66.80998351638209 0 0 0 0 468.02287079601956 -230.8284096162879 0 -230.8284096162879 132.23338513077579 0 0 0 0 1003.1453116883204 0.19848115947252154 0 0.19848115947252154 -327.42704831421725 0 0 0 0 1146.5219137159293 354.68344378700203 0 354.68344378700203 -248.15804638052987 0 0 0 0 992.07842465363501 51.659184266658485 0 51.659184266658485 -260.2444303257671 0 0 0 0 1154.5953908767351 624.4420144962437 0 624.4420144962437 64.793248640160073 0 0 0 0 1591.8883063223329 -82.942408316447654 0 -82.942408316447654 -317.83658956584975 0 0 0 0 1230.0522579671306 -459.84505065622193 0 -459.84505065622193 -53.054862742418663 0 0 0 0 355.15588923526593 54.148992853721666 0 54.148992853721666 933.95367673483224 0 0 0 0 354.89082157450321 72.566393212731782 0 72.566393212731782 -225.70601265082018 0 0 0 0 1319.3332868678008 545.57447923142558 0 545.57447923142558 246.37128934238626 0 0 0 0 647.87991084498935 143.5905214945592 0 143.5905214945592 39.153082379935768 0 0 0 0 649.57045766188821 170.91603740144933 0 170.91603740144933 -171.31776668606244 0 0 0 0 771.19137101416709 -182.25363710066222 0 -182.25363710066222 -124.93292377849173 0 0 0 0 1486.0184081195393 -149.50582362734764 0 -149.50582362734764 -145.0288324772564 0 0 0 0 0.25396949258195178 1.0088520960722605 0 1.0088520960722605 6.058158382599629 0 0 0 0 21.914261792720936 39.466289429234166 0 39.466289429234166 15.126924103711644 0 0 0 0 -0.14264743647345313 -2.3714421229226446 0 -2.3714421229226446 25.075773569004014 0 0 0 0 -0.80288806122317169 -6.997003371443185 0 -6.997003371443185 30.684084259618025 0 0 0 0 -80.787071963943163 11.946164543764098 0 11.946164543764098 53.513009827212954 0 0 0 0 59.240958683256395 -40.023821537293088 0 -40.023821537293088 413.45099702360767 0 0 0 0 -12.085271869800636 -12.304247190029855 0 -12.304247190029855 12.919406817621166 0 0 0 0 -56.12361260967009 51.529051630403956 0 51.529051630403956 44.495671910504825 0 0 0 0 0.0026766324733031865 -0.094600039681075998 0 -0.094600039681075998 1.8263367011033154 0 0 0 0 97.430537959176036 -64.625364994079519 0 -64.625364994079519 42.275838897610811 0 0 0 0 95.749401704979391 53.409557566208605 0 53.409557566208605 -21.319735234646032 0 0 0 0 -136.99618398043458 -46.56145305921109 0 -46.56145305921109 181.9872643745457 0 0 0 0 136.82544781277829 -1.5418067831551525 0 -1.5418067831551525 -16.860256572423168 0 0 0 0 2.3009373772572594 -8.6112328681000818 0 -8.6112328681000818 30.599376218349942 0 0 0 0 354.3022375500932 108.86922479339501 0 108.86922479339501 50.77492001291921 0 0 0 0 571.29183386429941 72.901924906218937 0 72.901924906218937 -3.3699623431461987 0 0 0 0 65.356696035643836 -58.753012138738995 0 -58.753012138738995 -23.19993728225495 0 0 0 0 666.72535143718051 -4.3601273783992838 0 -4.3601273783992838 -130.23817167909743 0 0 0 0 980.2723397247828 8.8060200566196727 0 8.8060200566196727 -129.8868504180582 0 0 0 0 568.27207049000208 16.505817172214847 0 16.505817172214847 58.151083710839885 0 0 0 0 708.52346333973946 -111.03767728427601 0 -111.03767728427601 68.353110084650325 0 0 0 0 678.83975321672187 -181.31134094875551 0 -181.31134094875551 -94.55614235203501 0 0 0 0 348.97442986182614 132.12340611565446 0 132.12340611565446 -101.05065195071529 0 0 0 0 24.555420780474378 -101.81706600341658 0 -101.81706600341658 5.990022378858157 0 0 0 0 3.9589007581012368 -1.7424077173635535 0 -1.7424077173635535 0.42487505930165237 0 0 0 0 713.26122249814762 -108.54045683058644 0 -108.54045683058644 -105.22916894321406 0 0 0 0 85.887580357652041 -183.78518421622732 0 -183.78518421622732 211.43610268338216 0 0 0 0 118.51545899287157 61.635662942380208 0 61.635662942380208 -38.452192975551952 0 0 0 0 60.400372287051141 1.1672160671701022 0 1.1672160671701022 -101.34170319503184 0 0 0 0 141.85202582280817 -87.188110918608118 0 -87.188110918608118 -210.8641363103161 0 0 0 0 41.394159503250364 -3.4449025950721834 0 -3.4449025950721834 -4.8126791557809057 0 0 0 0 16.028651937545391 -0.14227398762815868 0 -0.14227398762815868 0.81342683331528565 0 0 0 0 723.74174354374372 -500.46778404457712 0 -500.46778404457712 169.94319308702347 0 0 0 0 31.673060253597214 57.075543631749269 0 57.075543631749269 -90.218085600665745 0 0 0 0 75.904043149353356 10.446587655769552 0 10.446587655769552 -4.8730180388772597 0 0 0 0 152.87446803822877 -18.690505552305694 0 -18.690505552305694 -72.141087666308522 0 0 0 0 -8.6147142262980196 36.919467447078205 0 36.919467447078205 24.890491426591325 0 0 0 0 6.0600969831443763 -16.574859409032989 0 -16.574859409032989 -29.690503937744158 0 0 0 0 151.57277387507202 -132.73316337420988 0 -132.73316337420988 -92.61789498219332 0 0 0 0 -17.989699411082256 -28.765334898587298 0 -28.765334898587298 -33.044446385985339 0 0 0 0 -4.6886075382535637 19.491061210660746 0 19.491061210660746 113.27139112981058 0 0 0 0 12.120272834421485 -47.685746551928787 0 -47.685746551928787 -81.387552035578665 0 0 0 0 9.6908434314686218 -4.0145847985442735 0 -4.0145847985442735 -2.0080870997418341 0 0 0 0 -7.4119211507061706 -13.538342128832106 0 -13.538342128832106 -15.846469201320783 0 0 0 0 -26.17697003646208 -21.14333252374945 0 -21.14333252374945 -15.336537277918978 0 0 0 0 40.933617912141926 -161.24857134947615 0 -161.24857134947615 279.20947577536845 0 0 0 0 -4.5329892105020519 -3.267762660946147 0 -3.267762660946147 -1.8946560945688302 0 0 0 0 115.74211553471469 -71.696886676156282 0 -71.696886676156282 -21.858425412378892 0 0 0 0 88.853463311294036 21.652876499006197 0 21.652876499006197 -273.63308129366106 0 0 0 0 6.4851579298265278 5.5809474585507814 0 5.5809474585507814 -114.83425712680037 0 0 0 0 -65.846578989643604 -441.40633256520778 0 -441.40633256520778 -293.38191553745719 0 0 0 0 214.14034476145025 -605.4134154660037 0 -605.4134154660037 -630.13530712031752 0 0 0 0 479.59658662793663 -443.77804081974227 0 -443.77804081974227 -1236.1292800139408 0 0 0 0 -49.403288574434555 -567.4886305207192 0 -567.4886305207192 -419.77274446364572 0 0 0 0 547.49243886739714 802.7146772300548 0 802.7146772300548 -739.98962388816358 0 0 0 0 -9.1749683033049223 -466.37381598618686 0 -466.37381598618686 -390.76878456026679 0 0 0 0 -7.1077573381557926 -6.5864607423816182 0 -6.5864607423816182 -8.0089529336298426 0 0 0 0 -64.770499464335444 333.37955485942803 0 333.37955485942803 -904.06323845148881 0 0 0 0 175.02526357793977 -26.244094440302433 0 -26.244094440302433 -125.40722925233422 0 0 0 0 154.82830891360936 -113.75397334803529 0 -113.75397334803529 -59.500655027834 0 0 0 0 88.310496721147501 -10.697858954375988 0 -10.697858954375988 -84.824072536575841 0 0 0 0 79.128245147418056 -67.581251305449769 0 -67.581251305449769 3.1273906943310976 0 0 0 0 79.922274770702643 -37.047867556100755 0 -37.047867556100755 -125.9547726420642 0 0 0 0 68.54061646701183 11.554584099653699 0 11.554584099653699 3.6475976141474873 0 0 0 0 107.16838832853318 -14.416510923445458 0 -14.416510923445458 -224.74490480204986 0 0 0 0 66.275060397951165 1.5749256601884554 0 1.5749256601884554 -113.02994197142834 0 0 0 0 106.48506140306671 2.9221682816816354 0 2.9221682816816354 -16.952528318675462 0 0 0 0 12.420353864061639 -16.898313748585764 0 -16.898313748585764 -31.273623792723328 0 0 0 0 201.45025570376674 64.176274139232191 0 64.176274139232191 -58.491416216321113 0 0 0 0 195.42209611977523 -93.436556806094814 0 -93.436556806094814 -119.20934793794004 0 0 0 0 132.79586135239151 -80.916793886128289 0 -80.916793886128289 -83.095080695755314 0 0 0 0 58.216388040382299 9.5475103697317536 0 9.5475103697317536 -44.749803837478396 0 0 0 0 75.007611907622262 13.292306897662858 0 13.292306897662858 -11.544540939239381 0 0 0 0 118.92381980728896 -14.17302044495591 0 -14.17302044495591 -121.02603094383488 0 0 0 0 96.806605961181049 31.263607275579943 0 31.263607275579943 -81.452467030241678 0 0 0 0 70.263583875506811 20.520950282253125 0 20.520950282253125 -113.59632176865307 0 0 0 0 863.40478839207572 1897.083487351043 0 1897.083487351043 422.15213563340512 0 0 0 0 136.0665993632465 1396.5879131737383 0 1396.5879131737383 594.63169330616074 0 0 0 0 3109.0394369392016 2603.3271291972178 0 2603.3271291972178 119.21175846868209 0 0 0 0 1605.7881224739649 1425.0155792914811 0 1425.0155792914811 -427.13988447558586 0 0 0 0 1384.8324507075959 872.7925686887811 0 872.7925686887811 -573.87577708753633 0 0 0 0 803.63070098066237 433.7753868218897 0 433.7753868218897 -306.51329115481713 0 0 0 0 988.90086529335167 657.4239256966448 0 657.4239256966448 -276.9093359361832 0 0 0 0 906.7862415133277 730.40480623389703 0 730.40480623389703 -100.02457309186684 0 0 0 0 823.06901465534247 644.13693434779907 0 644.13693434779907 -139.9896114911835 0 0 0 0 936.03886423145741 632.69979694307949 0 632.69979694307949 -6.3207323266797175 0 0 0 0 940.29564955391947 571.79809373929186 0 571.79809373929186 -315.72355174525001 0 0 0 0 60.298371344593761 318.90446105758565 0 318.90446105758565 -86.454436931824603 0 0 0 0 869.5430068259011 582.93259331028639 0 582.93259331028639 -282.61925802748374 0 0 0 0 639.14744912333845 373.00911643552899 0 373.00911643552899 -319.5077462913996 0 0 0 0 814.18655186094111 550.83421895533047 0 550.83421895533047 -276.25282013907417 0 0 0 0 881.25455268279256 544.11168878955959 0 544.11168878955959 -308.51727848914743 0 0 0 0 1002.0138049361267 795.67994974197791 0 795.67994974197791 -285.71235791830787 0 0 0 0 697.85119362298428 -57.528480653074439 0 -57.528480653074439 -1067.7761438929347 0 0 0 0 918.88862825524393 242.88811336905314 0 242.88811336905314 -668.31294731062007 0 0 0 0 161.90496665747196 -91.639955681397623 0 -91.639955681397623 -292.68990569066227 0 0 0 0 87.721872820326098 30.74928326225745 0 30.74928326225745 -185.22267615104374 0 0 0 0 226.1790114713076 8.8012454245181289 0 8.8012454245181289 -181.83024187228875 0 0 0 0 2.8033359278389369 6.3660550978624642 0 6.3660550978624642 3.921346636342721 0 0 0 0 325.61980795185082 99.547457687582209 0 99.547457687582209 10.74646647785994 0 0 0 0 52.409033282702147 16.030338122035751 0 16.030338122035751 4.6092388730621963 0 0 0 0 140.85176587009119 -11.805603384726055 0 -11.805603384726055 -406.51529609258432 0 0 0 0 737.1611228538568 -989.23379736391507 0 -989.23379736391507 881.68447860866218 0 0 0 0 16.888035710919411 7.2557383060608487 0 7.2557383060608487 3.9012956165836137 0 0 0 0 192.96945456631875 -343.79916388531637 0 -343.79916388531637 356.16947198030539 0 0 0 0 550.13010631464567 -397.19990563307874 0 -397.19990563307874 186.83877221040166 0 0 0 0 589.53082079353771 -89.130542115788558 0 -89.130542115788558 -347.72973371121407 0 0 0 0 283.95880637301525 598.88724925172301 0 598.88724925172301 128.40616597921326 0 0 0 0 -92.099344927937636 107.66641217343749 0 107.66641217343749 -52.979117951505032 0 0 0 0 427.27824932408294 391.34152504035683 0 391.34152504035683 73.084754817515204 0 0 0 0 1240.9182933465854 777.24831319011901 0 777.24831319011901 -166.51147108925579 0 0 0 0 1468.6551773206552 -46.544381706100921 0 -46.544381706100921 -20.214287678241817 0 0 0 0 -1300.5235760058058 -746.44801426235063 0 -746.44801426235063 588.44037743966601 0 0 0 0 981.851232777306 1631.5962186312172 0 1631.5962186312172 1196.5655635448147 0 0 0 0 -676.63232220299687 1634.0462825797867 0 1634.0462825797867 -156.73386589465645 0 0 0 0 1435.6617824922505 -907.37622489632849 0 -907.37622489632849 175.39337147996412 0 0 0 0 2086.0498092204871 7.4968599618914595 0 7.4968599618914595 -822.48991585554904 0 0 0 0 176.12466565969953 630.03253838543606 0 630.03253838543606 -388.79865546146902 0 0 0 0 58.067053564540402 -164.43182920114668 0 -164.43182920114668 -2191.1947874420657 0 0 0 0 -93.710861541960185 491.14402608371574 0 491.14402608371574 -493.6031347761882 0 0 0 0 47.188709028690788 51.747786218051658 0 51.747786218051658 34.554078008865105 0 0 0 0 -391.79568503169867 506.97076659304776 0 506.97076659304776 -233.64556747543247 0 0 0 0 56.324156342585084 66.030213998373199 0 66.030213998373199 47.437626348629841 0 0 0 0 6097.6615934150595 -1852.5964255934593 0 -1852.5964255934593 2018.8956948549026 0 0 0 0 21.674440134530688 23.106459165086356 0 23.106459165086356 20.101463730743987 0 0 0 0 5141.6981540754314 -4004.7446770636093 0 -4004.7446770636093 -447.92190001323979 0 0 0 0 -1334.5444227334738 -677.1450789510709 0 -677.1450789510709 1159.4439949715597 0 0 0 0 -2003.6181499098293 1483.3908577503453 0 1483.3908577503453 1008.3621237264124 0 0 0 0 -1066.6423837942893 1077.5074075398657 0 1077.5074075398657 437.47457543603196 0 0 0 0 -52.896855908868019 405.53047238676209 0 405.53047238676209 254.18384668729232 0 0 0 0 291.54535814025439 1537.093330463756 0 1537.093330463756 544.14551704765563 0 0 0 0 136.83614409204952 540.95096171684008 0 540.95096171684008 80.355604494461659 0 0 0 0 6081.5587564705229 -1940.6086567203431 0 -1940.6086567203431 1753.0765539684739 0 0 0 0 118.34872674816506 306.62948250459249 0 306.62948250459249 -604.63098509163319 0 0 0 0 -554.73240404292301 78.986024459194596 0 78.986024459194596 -214.33185980387407 0 0 0 0 -597.02663663419344 107.91022240545465 0 107.91022240545465 -106.23286567489413 0 0 0 0 225.93111638824848 -18.52625138145595 0 -18.52625138145595 -721.64204608227737 0 0 0 0 4737.7588535575633 -4049.8827883353943 0 -4049.8827883353943 -657.24540775907917 0 0 0 0 19.088087828529417 17.868160160100643 0 17.868160160100643 10.662857065161377 0 0 0 0 74.44718608767451 87.145176914156167 0 87.145176914156167 57.2302962451421 0 0 0 0 5560.0776552910647 1900.2628823129619 0 1900.2628823129619 1921.0425654388073 0 0 0 0 81.479716782640025 323.5313819869516 0 323.5313819869516 -249.73543557444373 0 0 0 0 27.020283623442083 146.05710737333902 0 146.05710737333902 89.22662660993592 0 0 0 0 251.53616612644691 95.711295741488357 0 95.711295741488357 -4.1715681331197629 0 0 0 0 327.68509399373579 196.38435836809367 0 196.38435836809367 -39.757032970643195 0 0 0 0 314.21667895593055 115.48716561072706 0 115.48716561072706 -273.43878665168086 0 0 0 0 322.59541289389745 310.75773289960216 0 310.75773289960216 -416.86099581095914 0 0 0 0 253.55278323685434 138.21473496707222 0 138.21473496707222 -337.95110304206901 0 0 0 0 380.09121741631679 58.897511302038765 0 58.897511302038765 -374.76009603084594 0 0 0 0 320.6558720496505 -153.44786728810504 0 -153.44786728810504 -245.93473101796553 0 0 0 0 473.21117559738195 121.16993757195087 0 121.16993757195087 -509.86527245615798 0 0 0 0 524.46657261985092 13.179377522412324 0 13.179377522412324 -173.79232560565106 0 0 0 0 504.84516919373164 -61.992597123981568 0 -61.992597123981568 -279.34944075817475 0 0 0 0 447.7759805575497 19.612441714524721 0 19.612441714524721 -252.69757545282118 0 0 0 0 407.2097489829066 86.946046555922294 0 86.946046555922294 -355.42998221354719 0 0 0 0 253.4966578384774 -185.99271270713143 0 -185.99271270713143 0.052053392581228763 0 0 0 0 321.84972544960328 -55.768106386056388 0 -55.768106386056388 -220.5792805687106 0 0 0 0 531.44993565645234 -134.71711505788983 0 -134.71711505788983 -195.42583439270675 0 0 0 0 41.54639598914946 -54.445049434849352 0 -54.445049434849352 -55.696424435423978 0 0 0 0 316.80908801083569 -50.629350813755082 0 -50.629350813755082 -141.96335035674565 0 0 0 0 250.10386074066264 23.311910598536997 0 23.311910598536997 -116.76703013946099 0 0 0 0 172.27825662101122 -18.417757391888017 0 -18.417757391888017 -139.12775481865901 0 0 0 0 252.21925310654478 97.079226640831621 0 97.079226640831621 -64.761195139115443 0 0 0 0 277.15654145491317 81.496912609979518 0 81.496912609979518 -86.904171777019656 0 0 0 0 173.3250275743776 55.243548632612146 0 55.243548632612146 -47.980478345249139 0 0 0 0 188.97297956152579 33.524876729701646 0 33.524876729701646 -46.074381848724443 0 0 0 0 216.85836421736894 45.925911597063532 0 45.925911597063532 -13.917571667507218 0 0 0 0 194.15685920468604 47.733792917913888 0 47.733792917913888 -7.9971551459639159 0 0 0 0 196.89245116277016 18.145441582380954 0 18.145441582380954 10.0319769517655 0 0 0 0 180.21434666570076 45.039684892173682 0 45.039684892173682 -0.96376114037411753 0 0 0 0 205.32006297525004 20.93427047506475 0 20.93427047506475 -4.4567541227024776 0 0 0 0 217.39498601764353 13.276118622250578 0 13.276118622250578 1.5829276128843048 0 0 0 0 205.61777886174605 2.1849865280710219 0 2.1849865280710219 41.638157132963897 0 0 0 0 225.21035945131916 31.013092363131364 0 31.013092363131364 37.563664189876363 0 0 0 0 211.17448444696493 9.5458642410612811 0 9.5458642410612811 11.974880217076134 0 0 0 0 203.10757250747702 15.198327210315028 0 15.198327210315028 20.415557854612416 0 0 0 0 227.71124322742617 22.012470269357436 0 22.012470269357436 1.2083283557112736 0 0 0 0 38.893066158192887 7.5131785313415946 0 7.5131785313415946 5.8487150908044754 0 0 0 0 252.90706830365252 195.28933299964444 0 195.28933299964444 -59.399924172443207 0 0 0 0 71.527191436587273 88.949313681476411 0 88.949313681476411 48.603308539096133 0 0 0 0 250.76675516423347 4.4226952494723264 0 4.4226952494723264 17.011421508708736 0 0 0 0 225.68258884173633 6.7412839688516897 0 6.7412839688516897 42.903331764691757 0 0 0 0 214.76150740231606 52.891921815532442 0 52.891921815532442 74.767731127734805 0 0 0 0 52.24067805345701 20.984495049007897 0 20.984495049007897 5.6833545455917474 0 0 0 0 273.89905397179973 120.16652281970437 0 120.16652281970437 18.032200433837716 0 0 0 0 3218.6653659298463 -916.04428329527218 0 -916.04428329527218 -1116.6156411650772 0 0 0 0 2894.6043650891106 1643.409383094149 0 1643.409383094149 -33.687128029681844 0 0 0 0 808.57369262062275 141.99020822656985 0 141.99020822656985 -235.98830259839633 0 0 0 0 1032.4614334187463 222.61472693076212 0 222.61472693076212 -225.3224192549369 0 0 0 0 -100.31718051690405 -1068.7294305134387 0 -1068.7294305134387 -497.26331538093882 0 0 0 0 621.95806761035419 314.95961282145231 0 314.95961282145231 -16.302072265943934 0 0 0 0 813.24591453040193 196.12970446894724 0 196.12970446894724 42.209434926409813 0 0 0 0 319.6187781558998 670.0415386420168 0 670.0415386420168 438.64292729784393 0 0 0 0 862.79748584940535 661.51450572481372 0 661.51450572481372 204.55771269706884 0 0 0 0 849.09951412048395 534.96964278049973 0 534.96964278049973 -618.71913921916894 0 0 0 0 622.32255491444084 662.89906280540163 0 662.89906280540163 1069.7513114389731 0 0 0 0 15.33004123632789 17.251699850095036 0 17.251699850095036 -30.486662252028221 0 0 0 0 86.871209868795631 -54.581336636606693 0 -54.581336636606693 24.23796817978473 0 0 0 0 535.38573558863209 132.17048161818093 0 132.17048161818093 -286.57397229136404 0 0 0 0 471.35798575112676 287.52571446417642 0 287.52571446417642 -121.23352019998492 0 0 0 0 203.48173624395713 290.91394061074789 0 290.91394061074789 52.669423671679397 0 0 0 0 59.739831449187477 177.57048667933122 0 177.57048667933122 -36.703573482942375 0 0 0 0 118.30268061239258 128.09992440190945 0 128.09992440190945 -156.71218571385543 0 0 0 0 190.8351032912542 154.91719066567384 0 154.91719066567384 -163.01081378269282 0 0 0 0 204.60893942275834 215.45207355731873 0 215.45207355731873 -81.008341189895873 0 0 0 0 414.16972600471945 48.196034718930605 0 48.196034718930605 -330.00234421726418 0 0 0 0 -75.354709787970933 -124.36279548773655 0 -124.36279548773655 -15.921388493203949 0 0 0 0 -6.7435939746867319 3.6372824355355462 0 3.6372824355355462 -2.6566851013572048 0 0 0 0 19.512705668701528 -203.31254034230096 0 -203.31254034230096 -82.772048133399949 0 0 0 0 47.027051447552367 -79.727561461886125 0 -79.727561461886125 4.2073761988876868 0 0 0 0 166.40478298730886 -64.249764125426736 0 -64.249764125426736 -25.557869301153687 0 0 0 0 8.4872105114264933 -5.3332708107960052 0 -5.3332708107960052 -3.6039019903381195 0 0 0 0 130.32619513942336 -21.409896501062576 0 -21.409896501062576 -110.09017981560737 0 0 0 0 143.2381476876717 -70.335100049833727 0 -70.335100049833727 -44.883442367459793 0 0 0 0 90.064021623773442 6.2048700805471526 0 6.2048700805471526 -91.385647553915987 0 0 0 0 35.218040890114935 -440.5261986657224 0 -440.5261986657224 177.69844522617495 0 0 0 0 104.10143640087699 7.6280671569893457 0 7.6280671569893457 -88.278980929952013 0 0 0 0 8.6314795536188953 -0.39129894889250494 0 -0.39129894889250494 -1.9374471123961747 0 0 0 0 18.553149043747908 -883.59388536048209 0 -883.59388536048209 -751.7950619035837 0 0 0 0 49.618769542632407 4.2429723404135551 0 4.2429723404135551 -50.462465683736092 0 0 0 0 87.266644674640702 -22.965660170450064 0 -22.965660170450064 34.146367285662564 0 0 0 0 39.523652962863707 182.81495231033114 0 182.81495231033114 55.376621059323952 0 0 0 0 87.337708458826214 -30.077452829237245 0 -30.077452829237245 189.1527321958929 0 0 0 0 -69.072525792347733 105.94613381863019 0 105.94613381863019 19.214773024967144 0 0 0 0 -26.915444318712616 -20.972468741258126 0 -20.972468741258126 -132.34933989073579 0 0 0 0 24.904007322139158 -0.30345536629482694 0 -0.30345536629482694 -3.5875166420945632 0 0 0 0 77.590959907040087 72.287183195716352 0 72.287183195716352 -210.1540932543594 0 0 0 0 33.206555385524894 74.219333957600099 0 74.219333957600099 -117.58503335946807 0 0 0 0 83.473121029823233 -19.260473822987478 0 -19.260473822987478 -106.84869385576258 0 0 0 0 149.23943214959581 21.254340863650214 0 21.254340863650214 -84.515376631303297 0 0 0 0 159.95430400444002 27.979376811092607 0 27.979376811092607 -87.760620729495713 0 0 0 0 52.276567816888928 59.389389037427463 0 59.389389037427463 -53.532751056889538 0 0 0 0 85.977780977760631 51.24928245648789 0 51.24928245648789 -52.587021073039068 0 0 0 0 93.308570882585627 61.133985651098556 0 61.133985651098556 -42.636539506489498 0 0 0 0 62.296100792736524 157.93449368330357 0 157.93449368330357 -13.942767779855785 0 0 0 0 60.571213078372239 137.66904880480433 0 137.66904880480433 -33.364810791954369 0 0 0 0 91.804938391098403 80.288158289351486 0 80.288158289351486 -29.547728324318086 0 0 0 0 31.8004040287924 99.47675053687999 0 99.47675053687999 -35.683926088375301 0 0 0 0 86.553138863189815 107.24324988112858 0 107.24324988112858 -85.453711881978961 0 0 0 0 117.04786817503555 143.09156285698191 0 143.09156285698191 -58.657135536461283 0 0 0 0 91.799091910523202 80.773864438612691 0 80.773864438612691 -46.562198769432143 0 0 0 0 112.59354895350771 77.296196033666092 0 77.296196033666092 -43.769825484259854 0 0 0 0 95.644945186644009 69.412106362576196 0 69.412106362576196 -15.680317544170975 0 0 0 0 96.906476446627494 75.366112770151631 0 75.366112770151631 -48.712154792484398 0 0 0 0 146.40202707349818 49.586938874350381 0 49.586938874350381 -43.726379590546458 0 0 0 0 150.36029591834813 58.648540028911157 0 58.648540028911157 -22.984180404095241 0 0 0 0 112.45661595347701 52.208050231960442 0 52.208050231960442 -16.74974311313963 0 0 0 0 154.11465322470394 62.653740747309712 0 62.653740747309712 -25.256786692449168 0 0 0 0 166.31936546478028 31.5751749698602 0 31.5751749698602 -11.702228890407696 0 0 0 0 134.42297904022416 47.813997249465501 0 47.813997249465501 -1.3144359290199645 0 0 0 0 156.94200282816746 81.034643481184048 0 81.034643481184048 -6.0457242722031879 0 0 0 0 161.34190390060394 46.689694525117375 0 46.689694525117375 14.205000062365798 0 0 0 0 184.07644683518265 21.816288181015352 0 21.816288181015352 12.437172692712011 0 0 0 0 193.43416852467271 50.246896830364676 0 50.246896830364676 -15.011482585850899 0 0 0 0 88.760803018537786 63.610756793888953 0 63.610756793888953 -21.571332028361212 0 0 0 0 133.79605128199546 65.226562962157914 0 65.226562962157914 -22.354433740501463 0 0 0 0 88.392205853606356 65.756770462543045 0 65.756770462543045 10.332406581733267 0 0 0 0 -247.86218898279185 -25.23033906762339 0 -25.23033906762339 112.93135438183981 0 0 0 0 -14.35426109732531 23.019128706862269 0 23.019128706862269 4.6798167308247187 0 0 0 0 2.9652544246791877 59.092275530067127 0 59.092275530067127 25.52953337001918 0 0 0 0 66.404104492912666 60.347403075386865 0 60.347403075386865 -47.94068354403862 0 0 0 0 -8.7900880488668918 27.236833587329468 0 27.236833587329468 -13.650343634302875 0 0 0 0 68.591874560569522 76.574006794211073 0 76.574006794211073 -20.388844582429556 0 0 0 0 -4.1127156944903618 -100.75222548217516 0 -100.75222548217516 -184.82863531478324 0 0 0 0 89.610047985086567 66.260987693372954 0 66.260987693372954 -124.98036797870373 0 0 0 0 -144.92602087166597 -122.8633063253119 0 -122.8633063253119 2.1195558814706601 0 0 0 0 -126.15747563146942 -76.980020348376456 0 -76.980020348376456 -112.76908261476819 0 0 0 0 -40.392865735611849 -64.008936823659496 0 -64.008936823659496 -101.38304864104077 0 0 0 0 -58.487446159495448 -55.024457360828819 0 -55.024457360828819 -12.43731917349146 0 0 0 0 -128.7266327861762 30.306351257998585 0 30.306351257998585 284.93147208561004 0 0 0 0 -87.693123538379041 20.858099005358781 0 20.858099005358781 29.432848372978697 0 0 0 0 -101.73220018078246 176.05021949802313 0 176.05021949802313 265.53404087681974 0 0 0 0 -100.99094856082229 146.04175771059977 0 146.04175771059977 96.267168440821479 0 0 0 0 -118.64116109947827 93.993069289602772 0 93.993069289602772 86.151205491959445 0 0 0 0 -15.58123981612162 18.380917184637454 0 18.380917184637454 20.203561160850459 0 0 0 0 -85.962079005004853 133.54621672402891 0 133.54621672402891 101.44441446514793 0 0 0 0 108.55655886090426 82.023035584915533 0 82.023035584915533 7.0483422711627099 0 0 0 0 122.75026750120287 50.71704955361497 0 50.71704955361497 43.871751393853629 0 0 0 0 258.25530154244188 78.843093404739193 0 78.843093404739193 8.7053758199390359 0 0 0 0 271.39552921664153 -11.973269285879667 0 -11.973269285879667 12.091228488299748 0 0 0 0 294.8256464939841 85.437170455162686 0 85.437170455162686 56.669027188873997 0 0 0 0 160.61375064554704 89.58812026242208 0 89.58812026242208 62.349590956684551 0 0 0 0 448.96020165649952 212.21656249547289 0 212.21656249547289 101.62406294013545 0 0 0 0 649.09268507566412 -213.18220684060839 0 -213.18220684060839 50.106795127472651 0 0 0 0 215.49765494935491 164.21640067562475 0 164.21640067562475 225.31186139336876 0 0 0 0 65.530620385427028 37.478098452781296 0 37.478098452781296 180.74585986904481 0 0 0 0 70.577708926019113 10.836109500858129 0 10.836109500858129 159.35147790845679 0 0 0 0 4.5415780163503641 3.7924531147019369 0 3.7924531147019369 0.66641282281463532 0 0 0 0 719.44153768524643 -136.92563854090469 0 -136.92563854090469 -11.401972187469255 0 0 0 0 -28.323932246458753 -4.6521280014544715 0 -4.6521280014544715 83.307996951034156 0 0 0 0 108.09365500157583 -44.443003765917638 0 -44.443003765917638 -2.3465865945478299 0 0 0 0 59.130558450225635 63.576351387717231 0 63.576351387717231 79.305557469889294 0 0 0 0 71.756117152188381 -12.927172866189721 0 -12.927172866189721 27.049430841972935 0 0 0 0 92.599211813208967 -35.706601209376004 0 -35.706601209376004 -6.9455332441316386 0 0 0 0 130.03679007020946 120.48457752452532 0 120.48457752452532 -24.181311250678846 0 0 0 0 18.589555797685044 20.310968047415276 0 20.310968047415276 34.835640416251493 0 0 0 0 161.12596963929354 -113.22551168618702 0 -113.22551168618702 134.98100572179692 0 0 0 0 246.75732994720875 204.60044653636299 0 204.60044653636299 68.931701648446506 0 0 0 0 172.49841320308587 -85.045492883796669 0 -85.045492883796669 -27.688145918484224 0 0 0 0 33.411180182068279 -0.98276475832361321 0 -0.98276475832361321 9.6339714197388986 0 0 0 0 8.7457842137464468 54.175233483843158 0 54.175233483843158 -21.48015109260632 0 0 0 0 147.55736900133343 35.463018491752337 0 35.463018491752337 -22.795983567244548 0 0 0 0 -27.243478944525123 128.33790373941338 0 128.33790373941338 -10.294575217121746 0 0 0 0 17.452607690123472 3.4472031539297561 0 3.4472031539297561 -6.8538819820086339 0 0 0 0 103.7743218253745 43.864833345221996 0 43.864833345221996 3.7267790194182453 0 0 0 0 104.81466280460154 52.788597902193032 0 52.788597902193032 2.4449054809265363 0 0 0 0 117.24710610429041 18.876095140802196 0 18.876095140802196 1.8733558112898501 0 0 0 0 87.74871095828712 62.858353497995267 0 62.858353497995267 -15.344639020022441 0 0 0 0 102.66938944630965 50.921086682989881 0 50.921086682989881 6.2428186152501439 0 0 0 0 99.53301680405275 49.027110873186757 0 49.027110873186757 -0.21016415574558778 0 0 0 0 96.251715441991109 57.819014573417007 0 57.819014573417007 -0.63458939702468342 0 0 0 0 98.866969154303661 58.898681386493081 0 58.898681386493081 6.8789866177010595 0 0 0 0 89.245321576017886 42.247691641836354 0 42.247691641836354 18.216354165749181 0 0 0 0 83.238512864263612 62.405082309140198 0 62.405082309140198 3.0121272483720531 0 0 0 0 100.27596557719517 52.720104843198897 0 52.720104843198897 7.8108443542841997 0 0 0 0 94.855819624470314 55.376891447580419 0 55.376891447580419 -3.6025785668134631 0 0 0 0 100.72165184068945 54.764715416957188 0 54.764715416957188 -11.034974025315023 0 0 0 0 82.46394267375581 57.217245567000646 0 57.217245567000646 -2.5101642939953308 0 0 0 0 75.309927864029305 63.897083496652158 0 63.897083496652158 -1.7373677377436252 0 0 0 0 77.842154382582521 65.220330286956596 0 65.220330286956596 -7.1829155316954711 0 0 0 0 45.628318434763059 75.724913099558762 0 75.724913099558762 2.7067377836592641 0 0 0 0 72.803555491969746 47.585687178107491 0 47.585687178107491 16.500504771567648 0 0 0 0 26.266896493470995 65.896910671643127 0 65.896910671643127 36.514688295741507 0 0 0 0 117.5471501699285 57.56056046745357 0 57.56056046745357 4.9108686792415028 0 0 0 0 58.926679298881545 8.1925726065117814 0 8.1925726065117814 40.797099547508282 0 0 0 0 27.591848320415011 18.830864189007528 0 18.830864189007528 -7.2544753634059873 0 0 0 0 109.00197172337531 10.466739985880942 0 10.466739985880942 11.574489139744315 0 0 0 0 160.919059953914 24.194459938600914 0 24.194459938600914 18.070994612497518 0 0 0 0 112.15097565361793 38.250670911379984 0 38.250670911379984 42.167185139111098 0 0 0 0 110.01418171354453 53.710858463404293 0 53.710858463404293 0.068942683588829823 0 0 0 0 16.636726870692655 17.014681341077065 0 17.014681341077065 104.07452102240006 0 0 0 0 31.794789746845709 142.29694925029594 0 142.29694925029594 21.614444634196843 0 0 0 0 239.70500186675054 -54.784863996770468 0 -54.784863996770468 -94.863195070583515 0 0 0 0 67.737354949294968 150.31091489567825 0 150.31091489567825 -37.479383408618105 0 0 0 0 149.69275554193229 28.347615826084187 0 28.347615826084187 11.366656536911087 0 0 0 0 28.840519768910326 159.47024048489084 0 159.47024048489084 -74.547969445381568 0 0 0 0 150.43207753793126 26.564136523055236 0 26.564136523055236 3.1208495475104829 0 0 0 0 -9.8382037257688353 247.6309922172411 0 247.6309922172411 -54.591488524362831 0 0 0 0 -18.348685236363963 202.24021403263396 0 202.24021403263396 121.1890345116567 0 0 0 0 14.358870643340197 85.394729872814423 0 85.394729872814423 79.250980600330877 0 0 0 0 -26.984507326909807 165.21638644022642 0 165.21638644022642 16.27143559407159 0 0 0 0 794.62209127334427 -29.730217026932678 0 -29.730217026932678 -31.118453898343432 0 0 0 0 714.4075627438724 -106.9630084841574 0 -106.9630084841574 -83.006736677666368 0 0 0 0 587.90410177741796 -54.111862561429916 0 -54.111862561429916 57.889881660110404 0 0 0 0 687.31652555097025 20.169194685016009 0 20.169194685016009 21.001021160042001 0 0 0 0 751.78345550555969 -44.596304654840424 0 -44.596304654840424 -12.495208104948688 0 0 0 0 -1.0780999333647241 -4.4523999152427294 0 -4.4523999152427294 -0.052928031219394711 0 0 0 0 728.6513813425081 -64.733446476616791 0 -64.733446476616791 -49.957186305669893 0 0 0 0 773.08828635116515 -39.030824220764771 0 -39.030824220764771 -171.10003904875248 0 0 0 0 772.68913573286409 46.956974677223116 0 46.956974677223116 112.05263897521218 0 0 0 0 330.75652038209728 230.89237162177909 0 230.89237162177909 -98.401908303087112 0 0 0 0 312.79254593834048 48.731167428139543 0 48.731167428139543 160.81543195037102 0 0 0 0 0.99816007405534179 -0.93476808324270166 0 -0.93476808324270166 2.2611562158650251 0 0 0 0 279.72707074441678 198.65229841912628 0 198.65229841912628 113.45034927195229 0 0 0 0 277.75697096616932 210.53927216882585 0 210.53927216882585 46.775981255450461 0 0 0 0 327.60560555750908 199.43382383412168 0 199.43382383412168 -175.53205672557124 0 0 0 0 437.77149411861228 50.41472660105569 0 50.41472660105569 83.374428525172334 0 0 0 0 230.38578778626834 -175.7902725336653 0 -175.7902725336653 -162.78778420466961 0 0 0 0 -137.90608096281903 243.91336463234688 0 243.91336463234688 407.99151586947391 0 0 0 0 66.629156450504126 82.0167799684682 0 82.0167799684682 32.366464374785487 0 0 0 0 -6.9038863758760272 -0.16044793124279977 0 -0.16044793124279977 184.88921279116744 0 0 0 0 187.34210649851229 15.418270928238599 0 15.418270928238599 40.054025627355543 0 0 0 0 179.32532272128446 -4.6480925898717942 0 -4.6480925898717942 41.57587809057668 0 0 0 0 362.35280319682352 -63.77842910371146 0 -63.77842910371146 41.481930697315363 0 0 0 0 212.21763577254387 -30.89999853973859 0 -30.89999853973859 44.013684827550605 0 0 0 0 -26.650563129143848 -194.74658347487212 0 -194.74658347487212 337.65610418509505 0 0 0 0 207.93347334007558 -408.72826222629664 0 -408.72826222629664 365.41685296768674 0 0 0 0 207.65935684020224 77.632817507652362 0 77.632817507652362 -194.58037659494221 0 0 0 0 806.33211552168314 302.40094535295708 0 302.40094535295708 -230.30269255582698 0 0 0 0 73.004499272758167 65.401716875962308 0 65.401716875962308 8.6656846117839734 0 0 0 0 -123.96603361796952 98.595860952209932 0 98.595860952209932 55.994569198081081 0 0 0 0 -80.807924805592847 -10.950547988605194 0 -10.950547988605194 135.18742525173911 0 0 0 0 21.547336076830106 30.397678931969494 0 30.397678931969494 56.49155285664483 0 0 0 0 -78.44501049830069 93.228874986967185 0 93.228874986967185 47.02774153208793 0 0 0 0 32.242043880141864 126.60610328039729 0 126.60610328039729 -122.80466449062669 0 0 0 0 -5.7103677769446648 16.121933151310866 0 16.121933151310866 5.2270294350495874 0 0 0 0 -30.227041105521494 99.859300668036212 0 99.859300668036212 63.03675379050128 0 0 0 0 14.913229994519497 95.991548973288445 0 95.991548973288445 -17.183352394553822 0 0 0 0 446.59735192204789 204.12188396386296 0 204.12188396386296 -16.149957084026937 0 0 0 0 309.86678704557198 4.1293326973436706 0 4.1293326973436706 -229.44438463069764 0 0 0 0 286.88534305583744 23.981800387201474 0 23.981800387201474 94.112797046069772 0 0 0 0 548.57538975099033 92.096049018091207 0 92.096049018091207 -9.2705351199992947 0 0 0 0 176.32554208261718 174.86722785118945 0 174.86722785118945 242.54251020037236 0 0 0 0 535.74298845783051 62.126746123644807 0 62.126746123644807 146.21681256802731 0 0 0 0 1.0852384443320204 -0.86182782877889608 0 -0.86182782877889608 -0.45520321509402351 0 0 0 0 0.86984499084792333 118.29350244810303 0 118.29350244810303 268.50063259284616 0 0 0 0 265.82385778568278 92.970443437599897 0 92.970443437599897 28.980588365095173 0 0 0 0 265.37142614388267 94.189296224583302 0 94.189296224583302 207.60607250864632 0 0 0 0 656.19626976123618 278.16126651645936 0 278.16126651645936 -296.16254913184639 0 0 0 0 2.8036656086325653 -1.9628286942973361 0 -1.9628286942973361 -0.42559926655570024 0 0 0 0 1046.8004699204794 151.14181082414279 0 151.14181082414279 -244.47256581880356 0 0 0 0 2450.0160303614102 -101.67860366383366 0 -101.67860366383366 -686.26426126883962 0 0 0 0 1114.5446994381455 68.96770150436987 0 68.96770150436987 -675.84391548854546 0 0 0 0 513.69365574961193 -123.75414909454594 0 -123.75414909454594 407.2320461472782 0 0 0 0 2.3089127706774271 -2.8013787697427617 0 -2.8013787697427617 5.2734837584303982 0 0 0 0 2048.2013365498788 -323.03823213536225 0 -323.03823213536225 1434.9671367685733 0 0 0 0 2.7120380040949179 -2.0383794942162794 0 -2.0383794942162794 -0.22510826350867674 0 0 0 0 902.05011642731188 752.17991472086942 0 752.17991472086942 -805.29070617237085 0 0 0 0 2370.4340956419146 1034.9209454136949 0 1034.9209454136949 149.44138225107781 0 0 0 0 13.663990449869175 -3.1709245198972624 0 -3.1709245198972624 -0.32679552962569147 0 0 0 0 1775.755911767963 1487.4669890108398 0 1487.4669890108398 785.96057454265247 0 0 0 0 1359.2297378539515 -785.44446522155613 0 -785.44446522155613 -244.69814989832548 0 0 0 0 166.75486219588493 -771.92854920216087 0 -771.92854920216087 -210.13782702418484 0 0 0 0 446.67215437818959 -499.18016580137191 0 -499.18016580137191 -237.42808206582231 0 0 0 0 1225.7589353307467 -284.92840980663254 0 -284.92840980663254 -227.16453444628132 0 0 0 0 643.75518581787037 -149.93732868718871 0 -149.93732868718871 -95.313280753268373 0 0 0 0 819.61022422023962 421.90650480950552 0 421.90650480950552 94.695254000176419 0 0 0 0 1149.1551521934307 356.25876229511664 0 356.25876229511664 74.458823237322804 0 0 0 0 607.9396960237209 380.68701547141484 0 380.68701547141484 331.81277126830901 0 0 0 0 1339.4216151228848 234.84213936134108 0 234.84213936134108 -110.76393533565897 0 0 0 0 1158.8919191857858 872.64743899778341 0 872.64743899778341 748.30429956390856 0 0 0 0 2.7160764950787417 -2.9392686862913848 0 -2.9392686862913848 2.3203640520260684 0 0 0 0 1071.8657534880185 303.89474634395697 0 303.89474634395697 59.097930624276614 0 0 0 0 1098.3629042141474 -366.08523155853322 0 -366.08523155853322 784.19263722801975 0 0 0 0 598.95190666964481 239.31783589248391 0 239.31783589248391 91.707408876867703 0 0 0 0 312.71990218348947 255.90085835439095 0 255.90085835439095 311.20146500871522 0 0 0 0 -11.78419206585022 -115.80880573366014 0 -115.80880573366014 409.26850452585774 0 0 0 0 136.84734593626126 -198.95066782687644 0 -198.95066782687644 -40.159351888312514 0 0 0 0 85.057466115689749 47.685344207637399 0 47.685344207637399 202.14916949662438 0 0 0 0 322.36501330185274 158.44524909766028 0 158.44524909766028 133.97194313412183 0 0 0 0 112.29277040267516 14.761170291956887 0 14.761170291956887 112.42251550774199 0 0 0 0 406.18596671384148 29.849845122399074 0 29.849845122399074 73.0388897478133 0 0 0 0 159.69123144833793 98.93899135867764 0 98.93899135867764 154.06471776918079 0 0 0 0 155.09355284088269 75.69994253432651 0 75.69994253432651 61.066900999228892 0 0 0 0 -12.316282782172493 69.361581892150753 0 69.361581892150753 144.84586006915151 0 0 0 0 -18.804364207084291 62.237935894974726 0 62.237935894974726 98.569922647488056 0 0 0 0 -24.451662811383358 33.060029832071109 0 33.060029832071109 87.229239834544387 0 0 0 0 -30.230551762848336 73.839169705063568 0 73.839169705063568 92.508596263775871 0 0 0 0 -5.7489802079035144 46.314167105553679 0 46.314167105553679 1.8836163348478294 0 0 0 0 122.11936438128214 93.812031769301427 0 93.812031769301427 51.693568013858567 0 0 0 0 148.01710838903455 40.991800945891555 0 40.991800945891555 -234.61225746145374 0 0 0 0 100.62460518656735 97.69168949142545 0 97.69168949142545 -50.013285142824316 0 0 0 0 102.33765135222347 -188.74871902533187 0 -188.74871902533187 -298.12150125613107 0 0 0 0 50.497672804953652 -22.805652759490947 0 -22.805652759490947 7.7664481574774387 0 0 0 0 826.10898917912164 251.45495448417535 0 251.45495448417535 -85.942333014295855 0 0 0 0 39.018828181194536 -15.70825342867596 0 -15.70825342867596 3.9525131079503684 0 0 0 0 68.803470276769076 -263.98652427652928 0 -263.98652427652928 -421.84485594580769 0 0 0 0 676.94911793731808 420.64363029086076 0 420.64363029086076 154.34475122614504 0 0 0 0 318.04185073254121 -169.70854344378114 0 -169.70854344378114 42.023662323581206 0 0 0 0 -33.985783384578099 39.229916966177313 0 39.229916966177313 -9.5678397834564635 0 0 0 0 2.3320322231921082 7.2279139477073358 0 7.2279139477073358 10.285087842684661 0 0 0 0 243.14296542785632 -92.446889189171941 0 -92.446889189171941 121.89710386007346 0 0 0 0 124.09229218134715 -61.224738357812328 0 -61.224738357812328 39.095627133005564 0 0 0 0 249.72017436673195 78.144947411392593 0 78.144947411392593 -214.13280959550656 0 0 0 0 146.40065560370931 -31.924706613010187 0 -31.924706613010187 71.525595744776979 0 0 0 0 189.31984023680707 -92.557373945648919 0 -92.557373945648919 -75.875064069930716 0 0 0 0 251.66120770665293 -28.74855236707225 0 -28.74855236707225 -13.891564064733529 0 0 0 0 123.4283064436313 69.527523125463631 0 69.527523125463631 52.190513294804987 0 0 0 0 44.864466889537645 -2.0944229065198883 0 -2.0944229065198883 -0.27105403590885757 0 0 0 0 250.4264813042646 -71.328591526488935 0 -71.328591526488935 -60.402628143085963 0 0 0 0 60.627673946932191 -33.219273158468468 0 -33.219273158468468 -2.3940856738454386 0 0 0 0 30.377226074552709 5.0805860679438197 0 5.0805860679438197 15.338373766195595 0 0 0 0 8.1478943444985816 3.95094998826265 0 3.95094998826265 -5.6835169163359698 0 0 0 0 181.34947060297281 138.29333167782406 0 138.29333167782406 60.08024612976169 0 0 0 0 192.28167187649524 52.988633361179382 0 52.988633361179382 -56.647517067864101 0 0 0 0 19.407552625656535 28.440470001083213 0 28.440470001083213 62.261317497552227 0 0 0 0 38.324431041401112 44.247843614240537 0 44.247843614240537 40.454065189493122 0 0 0 0 8.8597735614021076 68.699200252305673 0 68.699200252305673 36.957873769427465 0 0 0 0 118.30443143755838 43.627429423315334 0 43.627429423315334 13.709019304301364 0 0 0 0 86.854817171741161 25.050028886425935 0 25.050028886425935 46.897781723554544 0 0 0 0 -6.5155079873311408 24.956652584470511 0 24.956652584470511 -19.469912532171772 0 0 0 0 189.80886037513847 -53.651264888315609 0 -53.651264888315609 -115.97478324825988 0 0 0 0 57.765403825594987 -25.184061305862372 0 -25.184061305862372 6.9781179034013823 0 0 0 0 -17.766159144799076 -30.416292239787339 0 -30.416292239787339 73.176593096524812 0 0 0 0 115.34820303287779 54.9379451487344 0 54.9379451487344 -33.604263015324136 0 0 0 0 127.02470692057977 -15.705854102826152 0 -15.705854102826152 -53.537945537653691 0 0 0 0 102.40041027725965 52.749768211831451 0 52.749768211831451 7.6340180529631425 0 0 0 0 54.240871332762254 39.872922421953987 0 39.872922421953987 5.1257864632268593 0 0 0 0 347.51434901745961 74.00187911852754 0 74.00187911852754 -128.16009027439441 0 0 0 0 82.795295240386622 53.413433187728629 0 53.413433187728629 7.4768081561446706 0 0 0 0 -13.41961369982689 24.851381730178367 0 24.851381730178367 -12.539170172791152 0 0 0 0 63.137868224181148 52.123554384405224 0 52.123554384405224 10.71534797571212 0 0 0 0 39.951315361862726 79.073420558494718 0 79.073420558494718 -5.5608982216140248 0 0 0 0 31.640445639943209 81.15425745688799 0 81.15425745688799 91.215232164308418 0 0 0 0 -25.230960541044624 -6.6633042840711596 0 -6.6633042840711596 25.71270681729024 0 0 0 0 52.196184981495662 29.565643324978517 0 29.565643324978517 -34.459723928002518 0 0 0 0 1.8979269199895441 1.9032939898274392 0 1.9032939898274392 3.7951534487841228 0 0 0 0 704.48044667659269 -180.16745006387771 0 -180.16745006387771 65.581154908720009 0 0 0 0 249.52498686753097 292.27427051756786 0 292.27427051756786 182.91480925158078 0 0 0 0 -63.7431562427073 73.297490395840214 0 73.297490395840214 122.46893686379963 0 0 0 0 141.35283284401521 -14.125193843286979 0 -14.125193843286979 314.31523410758518 0 0 0 0 544.95417413613905 159.19379161438223 0 159.19379161438223 143.00860751920141 0 0 0 0 60.201016333943699 -50.110713121655863 0 -50.110713121655863 145.35648886709419 0 0 0 0 163.22382208303407 -81.330879001467054 0 -81.330879001467054 3.9042819151127333 0 0 0 0 149.44003667086145 81.230477349500632 0 81.230477349500632 87.679234257261669 0 0 0 0 179.02479093638249 -7.1182236367893665 0 -7.1182236367893665 126.71473520983579 0 0 0 0 79.721590389373887 -53.182001898537237 0 -53.182001898537237 -32.386970544924452 0 0 0 0 74.334111483613015 -39.98791932566121 0 -39.98791932566121 -37.694579263270498 0 0 0 0 69.96556612945642 -50.289662296170263 0 -50.289662296170263 -5.3274323274622475 0 0 0 0 58.940717972607672 -40.025835064367129 0 -40.025835064367129 29.405206718958198 0 0 0 0 96.988292165295206 19.122120187099938 0 19.122120187099938 14.139431244254524 0 0 0 0 84.552771868391574 31.23833576006416 0 31.23833576006416 29.323885682296659 0 0 0 0 85.495146618072795 10.669182743615977 0 10.669182743615977 -29.251420461939006 0 0 0 0 94.354950624071535 3.6355205829387387 0 3.6355205829387387 -57.773272370480072 0 0 0 0 92.555575551701622 29.832174986265727 0 29.832174986265727 -25.619291146746356 0 0 0 0 106.20096484434475 72.923916584271524 0 72.923916584271524 -96.98755742766167 0 0 0 0 103.94304409447591 67.933819712203956 0 67.933819712203956 19.236756734513847 0 0 0 0 134.67152297132742 19.358640110650466 0 19.358640110650466 1.2955765661339251 0 0 0 0 103.43881272992803 356.5853729401249 0 356.5853729401249 -852.6140993443114 0 0 0 0 388.18675675350823 57.19796803872444 0 57.19796803872444 -19.330831096281372 0 0 0 0 145.96127449025005 24.65279860280269 0 24.65279860280269 2.9617232031429506 0 0 0 0 193.33706499643813 100.00795040868435 0 100.00795040868435 -165.84621931537367 0 0 0 0 128.53253093574313 -8.0903156627592807 0 -8.0903156627592807 -22.59962433071658 0 0 0 0 83.131398646994057 359.58128111417182 0 359.58128111417182 -364.81432620286205 0 0 0 0 -4.0756098811034462 175.14307468941979 0 175.14307468941979 182.47987921210824 0 0 0 0 -44.346836887820245 314.55900748780778 0 314.55900748780778 127.92033911973067 0 0 0 0 267.24688959915511 405.72371072265787 0 405.72371072265787 -131.42447186022446 0 0 0 0 -8.2013938909494755 131.44796290213242 0 131.44796290213242 -241.81669732151749 0 0 0 0 248.2661021651038 521.1392837566641 0 521.1392837566641 -834.62694610769404 0 0 0 0 28.375288185166937 28.266876828768773 0 28.266876828768773 -195.04878309611195 0 0 0 0 592.97018509797635 -238.31217687669141 0 -238.31217687669141 -469.15151702553794 0 0 0 0 1027.7411993044279 -651.01670895752466 0 -651.01670895752466 212.72984033990724 0 0 0 0 630.25701266992837 -139.13647937529822 0 -139.13647937529822 -150.41229516798558 0 0 0 0 171.61806437634732 431.63960188678448 0 431.63960188678448 282.69405820185602 0 0 0 0 526.24461897879155 459.00448303945586 0 459.00448303945586 870.44949259603709 0 0 0 0 306.43985582481037 112.03423723591186 0 112.03423723591186 336.03752183748634 0 0 0 0 1327.6142819984889 228.97838495443875 0 228.97838495443875 22.419894466080223 0 0 0 0 1417.1966587547377 -267.86773376858775 0 -267.86773376858775 269.11576164789949 0 0 0 0 1396.4953563778931 500.80952240283119 0 500.80952240283119 -29.21386494885337 0 0 0 0 491.43449325212532 -282.76788437865707 0 -282.76788437865707 995.41697760898296 0 0 0 0 20.252062153660518 27.714367194923739 0 27.714367194923739 500.71089214801304 0 0 0 0 292.37867719589121 79.232344338055555 0 79.232344338055555 382.4854331780241 0 0 0 0 -1.6775588873060769 126.97665027110634 0 126.97665027110634 198.40034572969898 0 0 0 0 195.87836520335622 348.229638378044 0 348.229638378044 327.74058433424761 0 0 0 0 -25.37595806117497 -53.791963432890043 0 -53.791963432890043 -1.4505292086237205 0 0 0 0 31.24175864172139 -63.412896450233347 0 -63.412896450233347 -105.77953078409337 0 0 0 0 23.04452299544338 -17.700808883371323 0 -17.700808883371323 -3.0883145617686871 0 0 0 0 29.823151917064024 -17.205505871824244 0 -17.205505871824244 -15.936825235531728 0 0 0 0 28.892335374736263 -22.046024784699568 0 -22.046024784699568 -5.5920791234530043 0 0 0 0 32.586644948977209 -21.356617015423581 0 -21.356617015423581 -5.8020631839026464 0 0 0 0 15.280413485839141 -17.340508773466752 0 -17.340508773466752 -7.7791070386013281 0 0 0 0 28.710061660384326 -23.100814809874691 0 -23.100814809874691 -6.7213463578827941 0 0 0 0 181.05982030621817 -43.254120608577523 0 -43.254120608577523 -145.40027914769053 0 0 0 0 -15.126564369517837 -112.57472985761319 0 -112.57472985761319 63.38039763544657 0 0 0 0 616.5088688831529 671.20442223990131 0 671.20442223990131 420.38721311008885 0 0 0 0 36.524153221151209 101.21690787370517 0 101.21690787370517 254.70963989619941 0 0 0 0 236.00376068773221 -609.4144976376233 0 -609.4144976376233 932.85583078373156 0 0 0 0 13.776194337406523 1.2042952401124047 0 1.2042952401124047 0.97305030795744152 0 0 0 0 262.62371496671585 -169.14566291475876 0 -169.14566291475876 109.10951763124172 0 0 0 0 8.806889353945321 -3.2273587122008767 0 -3.2273587122008767 8.7450307542752128 0 0 0 0 37.794826074009777 -1.4151201530731612 0 -1.4151201530731612 -2.0594626589454261 0 0 0 0 941.06464606964437 -259.37131699767087 0 -259.37131699767087 -6.6617754393257655 0 0 0 0 228.9695551570926 -128.75348966466288 0 -128.75348966466288 69.052183034458722 0 0 0 0 317.47486421496251 -219.99107009144609 0 -219.99107009144609 -43.283596616688556 0 0 0 0 503.49877972893682 -598.53954569140853 0 -598.53954569140853 51.913599267260906 0 0 0 0 -278.76855831290277 -229.29351391547698 0 -229.29351391547698 -71.513878125340852 0 0 0 0 -0.73830947908484035 1.5398715147504163 0 1.5398715147504163 4.6143976057509271 0 0 0 0 -71.979481616779594 -441.33371429909039 0 -441.33371429909039 118.10580650253178 0 0 0 0 65.529770980265312 -112.39127184948575 0 -112.39127184948575 -67.650905562039043 0 0 0 0 82.137916997411594 -138.80977184215442 0 -138.80977184215442 -456.99332836199846 0 0 0 0 68.125610403697465 42.635529442296047 0 42.635529442296047 -194.76801455011901 0 0 0 0 57.605004399490838 35.159727076889112 0 35.159727076889112 -42.965550883272954 0 0 0 0 -296.60832782358625 -357.07593772651671 0 -357.07593772651671 2.5972698088871766 0 0 0 0 46.596951118908237 -428.44032140298805 0 -428.44032140298805 -385.08922858899041 0 0 0 0 110.39411125914489 -371.42301608200955 0 -371.42301608200955 1.9247391690132645 0 0 0 0 135.24733508279587 -559.7377155977324 0 -559.7377155977324 387.25705327446758 0 0 0 0 110.14090457303985 -103.7928272138347 0 -103.7928272138347 597.73660571778146 0 0 0 0 239.11606306202611 -508.0515281539773 0 -508.0515281539773 89.266379832093492 0 0 0 0 -41.602516161103267 -421.03201381518318 0 -421.03201381518318 301.86364603193852 0 0 0 0 32.172608848108439 -294.22014969479926 0 -294.22014969479926 199.40133565464464 0 0 0 0 106.87875820751287 13.744949515272424 0 13.744949515272424 -157.18989757082829 0 0 0 0 89.69419392983697 7.8273370070536785 0 7.8273370070536785 -0.27555783937327849 0 0 0 0 68.781505161725363 4.8119739248911628 0 4.8119739248911628 -120.26627825915261 0 0 0 0 344.72251641138064 -345.47046469365591 0 -345.47046469365591 17.756807944234026 0 0 0 0 114.97513576505079 13.108598288727535 0 13.108598288727535 0.1013341424233265 0 0 0 0 475.20552802204747 -56.419004578735041 0 -56.419004578735041 -558.29084334431741 0 0 0 0 95.155401522066313 20.320436154443428 0 20.320436154443428 -95.226591961752206 0 0 0 0 100.1626430456181 21.608755262844284 0 21.608755262844284 -45.154854458266755 0 0 0 0 105.17200865283667 16.819317808460482 0 16.819317808460482 -102.18930965558584 0 0 0 0 87.453697458946408 -29.723757202658362 0 -29.723757202658362 -29.831508968294884 0 0 0 0 109.53755809552968 -23.059027318617609 0 -23.059027318617609 -87.159503553554373 0 0 0 0 105.86404033740473 -32.654987827957484 0 -32.654987827957484 -56.81723920913646 0 0 0 0 105.38994241530327 -16.559917149517958 0 -16.559917149517958 -77.895475854963024 0 0 0 0 106.99071583431214 -39.163262849866896 0 -39.163262849866896 -54.49754398888939 0 0 0 0 94.536766807485037 -28.832004965778367 0 -28.832004965778367 -52.900772456276172 0 0 0 0 102.04405023425716 -14.03188631657008 0 -14.03188631657008 -123.7168481964089 0 0 0 0 56.977002916240053 33.500811907893706 0 33.500811907893706 -131.17315182646803 0 0 0 0 76.509101601594011 7.8182492839803217 0 7.8182492839803217 -93.880531887806228 0 0 0 0 99.751635831995145 15.956969199183504 0 15.956969199183504 -138.30173183083753 0 0 0 0 89.809257835612698 -4.9287057611502973 0 -4.9287057611502973 -80.82071118524982 0 0 0 0 121.56948581778852 -14.232908060880618 0 -14.232908060880618 -83.431661404676845 0 0 0 0 102.54147516260059 7.8001085720580576 0 7.8001085720580576 -48.844265789378824 0 0 0 0 101.28938893443603 -28.189930449742789 0 -28.189930449742789 -45.320339472041269 0 0 0 0 130.44802001986318 -28.81190233603138 0 -28.81190233603138 -29.322100183141401 0 0 0 0 96.875011050628018 -5.8435602545484926 0 -5.8435602545484926 22.025080653230361 0 0 0 0 131.56212533965299 6.7407360387733206 0 6.7407360387733206 -29.962554017809907 0 0 0 0 128.5881697692497 -30.970139674727193 0 -30.970139674727193 -43.354962815532872 0 0 0 0 60.146371448179707 157.59137503471538 0 157.59137503471538 -46.847698542686885 0 0 0 0 -79.067937800904474 -104.35891185500662 0 -104.35891185500662 -98.116444025903093 0 0 0 0 120.0622129732271 1.9151153699230239 0 1.9151153699230239 -2.0400297329278088 0 0 0 0 420.6076397568977 -89.373808629058061 0 -89.373808629058061 -469.45510288029237 0 0 0 0 329.81127911778458 126.41523619346481 0 126.41523619346481 -314.75462464853217 0 0 0 0 -22.070625593391014 -154.45628464488755 0 -154.45628464488755 -83.503049768059498 0 0 0 0 548.6020308171137 -105.42009838498052 0 -105.42009838498052 -111.30356261761744 0 0 0 0 617.98097813949244 175.45177864568649 0 175.45177864568649 -49.760231789623504 0 0 0 0 425.99963627037505 247.96961506729667 0 247.96961506729667 200.4762605963133 0 0 0 0 191.67608758708957 197.26974308262515 0 197.26974308262515 192.85501518388924 0 0 0 0 218.12360111756425 -52.990261761978218 0 -52.990261761978218 229.18414040610423 0 0 0 0 215.95023489036885 64.014439918409778 0 64.014439918409778 106.02592705016195 0 0 0 0 194.37627445528051 113.04710218945138 0 113.04710218945138 276.90093504375182 0 0 0 0 138.3229110185089 -34.811146613687256 0 -34.811146613687256 1.0384064890737443 0 0 0 0 82.305057136018291 -19.43217398242534 0 -19.43217398242534 4.2347634048669676 0 0 0 0 69.820372331486908 -23.127836670133163 0 -23.127836670133163 -6.2969457452901629 0 0 0 0 -50.614559913869016 -88.494292885057803 0 -88.494292885057803 106.31058290784495 0 0 0 0 84.788814531770186 -425.27186730185258 0 -425.27186730185258 -422.36375868183268 0 0 0 0 69.75155026835273 44.476452017347583 0 44.476452017347583 256.02210150148335 0 0 0 0 58.587072702823207 38.281295799295549 0 38.281295799295549 320.05866050697477 0 0 0 0 88.994364168713219 7.5261344262517014 0 7.5261344262517014 269.39121455918075 0 0 0 0 69.356040489590669 61.252545857803852 0 61.252545857803852 257.60703693675987 0 0 0 0 31.639369402415468 60.896935415795269 0 60.896935415795269 267.60867314116365 0 0 0 0 87.142315311968559 25.112372316661549 0 25.112372316661549 207.10813933198824 0 0 0 0 43.051709869352635 165.65495026101689 0 165.65495026101689 51.227873450985271 0 0 0 0 25.785815023860778 95.371708364060396 0 95.371708364060396 179.23423813833142 0 0 0 0 -16.766646826392389 -19.709760208058924 0 -19.709760208058924 37.937410734570221 0 0 0 0 80.98897491345997 79.87734481511734 0 79.87734481511734 -166.00389810468641 0 0 0 0 -70.261274717573542 -4.3401826842455193 0 -4.3401826842455193 29.373107192727502 0 0 0 0 219.0182766404323 -20.6752920124095 0 -20.6752920124095 14.983012849412262 0 0 0 0 254.74707121899337 56.417206770231132 0 56.417206770231132 -38.852810895661605 0 0 0 0 386.24653786460112 284.45446847217499 0 284.45446847217499 191.60182506951423 0 0 0 0 558.27878738996515 40.758627539948179 0 40.758627539948179 -99.253251760144849 0 0 0 0 124.54728038484609 -35.947807248669051 0 -35.947807248669051 -105.7121876438523 0 0 0 0 -212.58370705944253 333.16523953292722 0 333.16523953292722 -120.62334142660802 0 0 0 0 -874.27719831437571 -417.47266056516401 0 -417.47266056516401 386.68525169841087 0 0 0 0 436.89260024708346 -251.00846642805493 0 -251.00846642805493 -16.068766127238632 0 0 0 0 158.59418214150355 81.538290655509627 0 81.538290655509627 -577.8102466775714 0 0 0 0 129.10652549990721 -1.5810200578865317 0 -1.5810200578865317 -1.5253826217060487 0 0 0 0 110.52667705363638 -15.608283141667926 0 -15.608283141667926 -20.461232897523018 0 0 0 0 113.0850344978353 -20.929980833468562 0 -20.929980833468562 -49.249727514571759 0 0 0 0 109.33753206050051 -39.54520361244613 0 -39.54520361244613 -56.05511553688757 0 0 0 0 92.417095858510947 -52.57939120186029 0 -52.57939120186029 -62.928523737506566 0 0 0 0 104.17765757911911 -46.638327874476545 0 -46.638327874476545 -63.846025365576679 0 0 0 0 111.01930206566612 -43.623663942293206 0 -43.623663942293206 -75.80681691070231 0 0 0 0 133.66973524108107 -20.102816468881883 0 -20.102816468881883 -80.375982278758784 0 0 0 0 128.67847003191127 -8.0215682934408505 0 -8.0215682934408505 -57.033046795282644 0 0 0 0 117.58723344769533 -25.965543250673363 0 -25.965543250673363 -47.563208194646904 0 0 0 0 89.083193773061794 -68.087573154642087 0 -68.087573154642087 -87.078837328974259 0 0 0 0 86.249527492007928 -54.883773393367676 0 -54.883773393367676 -79.575418836610879 0 0 0 0 77.502893698638218 -75.066259043700711 0 -75.066259043700711 -71.60593621763519 0 0 0 0 50.20469803999913 -69.403946551251806 0 -69.403946551251806 3.6750326902656525 0 0 0 0 89.419824436921772 -120.61249462282831 0 -120.61249462282831 -95.076587709870182 0 0 0 0 64.724562311177579 -69.46700989339115 0 -69.46700989339115 -87.566131030863289 0 0 0 0 79.273582312718645 -28.209174278389128 0 -28.209174278389128 -165.90568590501061 0 0 0 0 52.677320225993753 64.972623927381392 0 64.972623927381392 -303.48701609027603 0 0 0 0 126.63565040964977 -4.3931326164545474 0 -4.3931326164545474 -1.1874282939278036 0 0 0 0 108.63229692585082 -62.867357631294453 0 -62.867357631294453 -125.03901514433346 0 0 0 0 669.09829001614708 -424.45068551350982 0 -424.45068551350982 -681.89782844716774 0 0 0 0 -47.702564800012624 -308.80724862400348 0 -308.80724862400348 -677.86763900129733 0 0 0 0 6.7508151419993965 -2.1736995342930854 0 -2.1736995342930854 -0.35305161531125862 0 0 0 0 117.19948538810399 42.349750770443706 0 42.349750770443706 -135.77409976398803 0 0 0 0 491.42259910413486 -134.16304647727611 0 -134.16304647727611 -87.072281919126908 0 0 0 0 92.2437671733569 -193.28053416534931 0 -193.28053416534931 -139.38822836747704 0 0 0 0 71.150246964680264 -64.586390873373148 0 -64.586390873373148 2.163895655811757 0 0 0 0 168.97341545143718 -123.4913759993467 0 -123.4913759993467 -337.94603823551006 0 0 0 0 -6.7449091528833378 -20.564257479509251 0 -20.564257479509251 -166.83241012173357 0 0 0 0 116.8937436989667 -3.742628421172963 0 -3.742628421172963 -0.97185792310888752 0 0 0 0 142.29757797366256 19.259957934994645 0 19.259957934994645 -293.3855887816153 0 0 0 0 102.86120369826676 7.8431672062083635 0 7.8431672062083635 -173.25414950704726 0 0 0 0 32.170714227468125 -100.76937074174714 0 -100.76937074174714 -235.6618074337739 0 0 0 0 -131.24886944043465 -18.968498783145492 0 -18.968498783145492 48.429288265973355 0 0 0 0 -4.3749844473131816 163.46586555319686 0 163.46586555319686 -48.545016564497928 0 0 0 0 9.4011159784562892 -4.1977559466079271 0 -4.1977559466079271 1.5991669286137977 0 0 0 0 -16.14765441612326 -119.33713184344685 0 -119.33713184344685 -109.78974902587015 0 0 0 0 96.910591450076026 87.260114931344106 0 87.260114931344106 -117.36458505381688 0 0 0 0 572.41874047974125 346.35251378669727 0 346.35251378669727 -234.90471143919513 0 0 0 0 567.7218757973933 92.597042015800525 0 92.597042015800525 -351.07227418759612 0 0 0 0 376.43693231213547 197.86685698920246 0 197.86685698920246 -50.370537691385834 0 0 0 0 62.662307928294467 -90.66753025123603 0 -90.66753025123603 -359.49308986262986 0 0 0 0 12.331279486265316 -4.9924304424948787 0 -4.9924304424948787 0.91857261166003923 0 0 0 0 94.799576951656491 -455.01793178395519 0 -455.01793178395519 -246.36681529815587 0 0 0 0 -474.7633726165368 -99.77712512628068 0 -99.77712512628068 233.5454829971568 0 0 0 0 -16.576354989534593 101.38305867846623 0 101.38305867846623 363.88541492886952 0 0 0 0 531.11044006435259 -341.35761090282176 0 -341.35761090282176 273.30378913508002 0 0 0 0 195.43005670099228 426.15878393078037 0 426.15878393078037 711.12496177748631 0 0 0 0 1.4870444455403273 0.088000257354281075 0 0.088000257354281075 6.3310153112163725 0 0 0 0 864.50851464405969 324.18333023576309 0 324.18333023576309 130.18001729524985 0 0 0 0 656.07100557785361 608.35577590310731 0 608.35577590310731 310.53804274879803 0 0 0 0 142.30220807422302 232.49774954811164 0 232.49774954811164 740.59340083275856 0 0 0 0 134.08952681656228 -233.73344529762653 0 -233.73344529762653 432.48200051433741 0 0 0 0 108.1037071331948 -3.5430137075550761 0 -3.5430137075550761 83.3149702266237 0 0 0 0 225.64623261446832 86.445061946843225 0 86.445061946843225 76.963127182838889 0 0 0 0 24.479075000430761 1.9910658623737163 0 1.9910658623737163 17.118314994270612 0 0 0 0 320.54639043023053 89.047042823097854 0 89.047042823097854 29.595847656524711 0 0 0 0 322.07597943721339 250.50600773891674 0 250.50600773891674 134.20330147039749 0 0 0 0 200.72517035101191 97.972653484716147 0 97.972653484716147 102.97375890728927 0 0 0 0 121.87998410219006 193.17867482476538 0 193.17867482476538 119.7639513330181 0 0 0 0 27.415162987133215 -20.863639771214864 0 -20.863639771214864 10.243539713316036 0 0 0 0 74.531454597214179 107.07637830513238 0 107.07637830513238 169.31417059299088 0 0 0 0 36.928286978601989 -2.2095238895585219 0 -2.2095238895585219 -50.553137343783419 0 0 0 0 35.461950478311337 170.42328868877439 0 170.42328868877439 206.80691124203122 0 0 0 0 133.92002977015136 174.82888125290478 0 174.82888125290478 237.61082165326752 0 0 0 0 86.969528594068834 144.79387758198391 0 144.79387758198391 218.56019542410206 0 0 0 0 114.45160263507478 17.685362384675884 0 17.685362384675884 236.46277646248518 0 0 0 0 640.70082461647689 203.1358116595095 0 203.1358116595095 204.90401835559521 0 0 0 0 31.253610546191339 -64.022989726726109 0 -64.022989726726109 -3.1070804340420182 0 0 0 0 19.330890672565545 -11.377413065899923 0 -11.377413065899923 7.4439661808697615 0 0 0 0 15.022644249049335 -9.3614990975093377 0 -9.3614990975093377 50.465600554288812 0 0 0 0 34.215704148540681 -133.03674625774988 0 -133.03674625774988 176.35318383980825 0 0 0 0 5.2257498314038457 -5.0855686003014711 0 -5.0855686003014711 4.5980229856855424 0 0 0 0 -8.4923827385728146 -132.11717823320265 0 -132.11717823320265 556.88557348660242 0 0 0 0 352.82141371851321 -501.55988289960237 0 -501.55988289960237 343.66045394197749 0 0 0 0 11.732757875449231 -30.001151580238087 0 -30.001151580238087 -23.825548281013369 0 0 0 0 41.796166526663001 -31.59358635074193 0 -31.59358635074193 -23.02497667406567 0 0 0 0 16.080945220954163 -17.356862338995413 0 -17.356862338995413 13.054673739977488 0 0 0 0 36.58103843958088 -78.49631369464737 0 -78.49631369464737 19.842414723267581 0 0 0 0 -9.2823051466997768 -29.069269679539389 0 -29.069269679539389 -14.978907617357194 0 0 0 0 22.239985656051431 -54.240366006943077 0 -54.240366006943077 2.2732511701671001 0 0 0 0 75.203887566938647 -38.69430683331575 0 -38.69430683331575 -17.38296566113786 0 0 0 0 21.155292759824079 -59.753662125310598 0 -59.753662125310598 1.8865885442580037 0 0 0 0 92.555240851760573 -59.898794142425821 0 -59.898794142425821 -43.025679841451847 0 0 0 0 29.205086183210369 -99.910944878450209 0 -99.910944878450209 20.512661494520444 0 0 0 0 17.01046193887305 -72.515339103226154 0 -72.515339103226154 -11.398731727887821 0 0 0 0 -28.825081292990944 -71.783621736552504 0 -71.783621736552504 27.524375171808629 0 0 0 0 -10.476870150559989 -27.848172260370688 0 -27.848172260370688 4.8310364755252522 0 0 0 0 -201.22413470402535 -94.660640593617359 0 -94.660640593617359 167.18020552025769 0 0 0 0 1.1178915883358798 -3.8502526793797358 0 -3.8502526793797358 11.444609448341529 0 0 0 0 33.426961541830678 -43.749730740140791 0 -43.749730740140791 36.009720703682234 0 0 0 0 5.7447374688053969 -22.267207849001352 0 -22.267207849001352 -12.718997689897151 0 0 0 0 -19.726300198424724 -18.236928561893194 0 -18.236928561893194 -12.273266886009544 0 0 0 0 -127.92717494039971 -47.689561147939912 0 -47.689561147939912 8.9025971714909247 0 0 0 0 -0.22315429860350378 -0.64551502986137166 0 -0.64551502986137166 5.0464594468153461 0 0 0 0 -146.51010120945284 -63.210394791661798 0 -63.210394791661798 291.20877346346674 0 0 0 0 7.1227619453275111 -189.46252304676727 0 -189.46252304676727 -292.93579575626518 0 0 0 0 143.57365579006728 -405.34637051492939 0 -405.34637051492939 -14.173845785693175 0 0 0 0 -40.628237477852963 -89.88714708759062 0 -89.88714708759062 2.7004276230968571 0 0 0 0 -156.68159068308887 -336.96811042774084 0 -336.96811042774084 -230.149500041279 0 0 0 0 -64.306912200292572 -169.12765001377261 0 -169.12765001377261 13.651340289871314 0 0 0 0 130.81801140758827 -27.926436210167878 0 -27.926436210167878 -6.1877979163685843 0 0 0 0 -63.014214801811477 -209.7524627742356 0 -209.7524627742356 -106.95009898298667 0 0 0 0 -33.563557675442098 -124.93189575230123 0 -124.93189575230123 -89.277302829708333 0 0 0 0 203.54455012085236 -34.866636176412158 0 -34.866636176412158 77.630282596514917 0 0 0 0 107.00974446609746 -22.617874320317966 0 -22.617874320317966 -11.559077763999579 0 0 0 0 42.70650839395239 -74.991904160236629 0 -74.991904160236629 -47.057645657902754 0 0 0 0 -38.704809159655269 -97.64185628159899 0 -97.64185628159899 -21.603329883939068 0 0 0 0 42.693340710859047 -74.160403502622728 0 -74.160403502622728 -57.015905941035726 0 0 0 0 524.07947862670335 -120.55430715163311 0 -120.55430715163311 509.35620994923829 0 0 0 0 520.32821229730325 -182.15914523477841 0 -182.15914523477841 135.33222407820949 0 0 0 0 836.25226117314742 -135.62607112646765 0 -135.62607112646765 135.15343762619159 0 0 0 0 343.77044405803463 -441.03357168874618 0 -441.03357168874618 499.10834466860535 0 0 0 0 -90.933399562825798 -627.59030482847129 0 -627.59030482847129 251.48994547172151 0 0 0 0 256.16733531610043 87.406185579963562 0 87.406185579963562 -119.37081917698652 0 0 0 0 170.73780104720208 -60.355578024689294 0 -60.355578024689294 133.61160949227951 0 0 0 0 902.08717039070689 -114.80242449461684 0 -114.80242449461684 77.468833107589035 0 0 0 0 330.67665101937564 203.56337223955501 0 203.56337223955501 9.4403221975621818 0 0 0 0 178.62665921831649 82.201437073053739 0 82.201437073053739 -56.166683002284117 0 0 0 0 294.92954266288871 192.718305155606 0 192.718305155606 -19.059085987418257 0 0 0 0 -13.163996573821734 22.951753642037907 0 22.951753642037907 -4.701943171015202 0 0 0 0 32.310387717676349 93.751983972577364 0 93.751983972577364 171.90404095978033 0 0 0 0 -4.1319817972897326 21.372430371585885 0 21.372430371585885 4.0366065578451682 0 0 0 0 -149.70336559377392 -91.884153448247389 0 -91.884153448247389 163.23730093559971 0 0 0 0 11.46393546248607 3.4493957344223105 0 3.4493957344223105 0.91468340755350042 0 0 0 0 308.88827745915114 235.19700509454287 0 235.19700509454287 202.17910248556154 0 0 0 0 8.2009742966090187 1.7901332661360669 0 1.7901332661360669 2.7521575409367158 0 0 0 0 207.70808869638131 -312.86639887481806 0 -312.86639887481806 587.10776122598531 0 0 0 0 289.34198281858698 -350.34812401638987 0 -350.34812401638987 219.48191146555655 0 0 0 0 704.60613756088969 -482.37560022937714 0 -482.37560022937714 258.78709458441017 0 0 0 0 247.51347776561306 -267.06128618982268 0 -267.06128618982268 165.6613542872974 0 0 0 0 119.19572602076369 -321.68683831582689 0 -321.68683831582689 206.87847093945311 0 0 0 0 4.056434842699673 -169.04993193677728 0 -169.04993193677728 181.77722750750308 0 0 0 0 312.27320241306734 -300.89494305838753 0 -300.89494305838753 137.9689496526596 0 0 0 0 16.216089169463885 -31.885359211479056 0 -31.885359211479056 -57.312248106140487 0 0 0 0 126.38029942976937 -110.74398550732121 0 -110.74398550732121 -243.13452670640572 0 0 0 0 91.656574927332258 -236.36933059145986 0 -236.36933059145986 -6.1933267403983336 0 0 0 0 72.348421927057046 2.1687218280383718 0 2.1687218280383718 -0.84357284824368706 0 0 0 0 67.638227420324256 56.161527915160832 0 56.161527915160832 4.544263114657042 0 0 0 0 101.52774318044521 39.721374335351697 0 39.721374335351697 -47.800221133182276 0 0 0 0 103.63641694428588 68.872712689063519 0 68.872712689063519 -12.070950778356746 0 0 0 0 64.365614930747142 45.436856479083701 0 45.436856479083701 -11.056138236091556 0 0 0 0 92.265670993208872 -1.2163185215481747 0 -1.2163185215481747 -1.3411869842479769 0 0 0 0 91.735695911662333 72.013108405846197 0 72.013108405846197 -186.4768677427619 0 0 0 0 69.890364678300102 109.97411660776697 0 109.97411660776697 -20.560090308961378 0 0 0 0 63.297518239396595 88.888205699519744 0 88.888205699519744 -23.466354339526788 0 0 0 0 107.03963469847091 -1.8120841107060706 0 -1.8120841107060706 -1.3375854171145896 0 0 0 0 262.84017489052349 -51.818342942217669 0 -51.818342942217669 -405.05815337680178 0 0 0 0 123.185309669243 74.221479263589117 0 74.221479263589117 -223.2306278528531 0 0 0 0 35.173832255328307 14.274871638439436 0 14.274871638439436 -58.974674776864958 0 0 0 0 329.90249016521557 -79.087382573580953 0 -79.087382573580953 -448.15755812930007 0 0 0 0 409.18605419661617 213.26362640516231 0 213.26362640516231 37.13445083192164 0 0 0 0 3.0514636544119185 -1.9470808763877088 0 -1.9470808763877088 1.3220577902417237 0 0 0 0 163.30009335420618 -284.88253208961373 0 -284.88253208961373 161.44387576910435 0 0 0 0 370.26394246681593 -195.1610144373287 0 -195.1610144373287 149.70802357669947 0 0 0 0 559.73222212646124 -325.73150631246381 0 -325.73150631246381 221.27619866943519 0 0 0 0 629.15125596494181 260.18515238992654 0 260.18515238992654 -11.805239795920897 0 0 0 0 171.81201614414749 76.835497751835305 0 76.835497751835305 -129.20978773249544 0 0 0 0 -23.632175907536293 106.89644142013958 0 106.89644142013958 568.33147802200517 0 0 0 0 194.84247161978419 -294.61755304369467 0 -294.61755304369467 572.95907896963786 0 0 0 0 176.93454973925691 -127.29894896317467 0 -127.29894896317467 250.00448832521636 0 0 0 0 158.91580626720088 -30.837619492743382 0 -30.837619492743382 155.704101570695 0 0 0 0 84.459667605035065 3.5311272900045196 0 3.5311272900045196 215.52135829533222 0 0 0 0 227.43046372080789 -7.5775992743550873 0 -7.5775992743550873 97.780675463230381 0 0 0 0 149.01624666043426 126.63034262943938 0 126.63034262943938 -119.54553705960461 0 0 0 0 228.05106861915556 -75.333625969285535 0 -75.333625969285535 80.847660310825376 0 0 0 0 173.82079038812662 -67.64718857766718 0 -67.64718857766718 172.46806351557825 0 0 0 0 175.2477197037515 -117.28809915283614 0 -117.28809915283614 259.30766457218533 0 0 0 0 371.73639602386885 -81.760316513723268 0 -81.760316513723268 216.61284050018708 0 0 0 0 139.83451287679054 -94.219966750114622 0 -94.219966750114622 340.26301420555262 0 0 0 0 99.857713463023174 -200.16301879375501 0 -200.16301879375501 237.25137917906 0 0 0 0 163.64467531294213 -218.60074995650007 0 -218.60074995650007 187.90052419809359 0 0 0 0 351.96925116850343 -239.33630690103587 0 -239.33630690103587 134.68503346445459 0 0 0 0 153.49387696364283 -265.94668475645881 0 -265.94668475645881 185.54710834767036 0 0 0 0 644.38787176134065 -282.15537379554576 0 -282.15537379554576 62.838623700773496 0 0 0 0 349.04647178178675 -219.4860827252061 0 -219.4860827252061 50.598185499304691 0 0 0 0 350.63238871458816 -108.69819941754568 0 -108.69819941754568 -37.670913161088265 0 0 0 0 221.80332622808419 -119.82228579338359 0 -119.82228579338359 149.35038352572204 0 0 0 0 236.59724861468567 -151.67578316279588 0 -151.67578316279588 83.998628216194916 0 0 0 0 306.81152646882401 -43.719577486897819 0 -43.719577486897819 -18.32449177007172 0 0 0 0 289.96793541900115 -5.9100406091511672 0 -5.9100406091511672 -100.50051932031761 0 0 0 0 359.00160165310444 -56.743513130732367 0 -56.743513130732367 -103.74758615992209 0 0 0 0 353.76236515851633 -120.26925005707848 0 -120.26925005707848 4.7155552473613138 0 0 0 0 435.89415981897037 -80.270122828761828 0 -80.270122828761828 -83.954576138326132 0 0 0 0 368.32936461223289 -15.584902772421572 0 -15.584902772421572 -129.67771257932213 0 0 0 0 345.95417389754584 -21.085542797706466 0 -21.085542797706466 -109.74409841974074 0 0 0 0 319.60207966803137 46.287403433058785 0 46.287403433058785 -138.18204183023755 0 0 0 0 398.69899061943943 -9.4069669624757921 0 -9.4069669624757921 -130.40928682322124 0 0 0 0 418.54934937696089 5.9912027851717653 0 5.9912027851717653 -128.37708999860408 0 0 0 0 503.19978044650634 -93.678197641084466 0 -93.678197641084466 -89.705024087933339 0 0 0 0 493.04489072957949 16.276871195658828 0 16.276871195658828 -206.35857322508866 0 0 0 0 494.76547914528282 -83.454424044856168 0 -83.454424044856168 -67.081427695769889 0 0 0 0 501.83492944821774 -193.24066474104438 0 -193.24066474104438 -10.107863543937526 0 0 0 0 612.02341023345798 -188.30702405923739 0 -188.30702405923739 -5.6987516393883197 0 0 0 0 541.13440022482973 -18.830639282534321 0 -18.830639282534321 -2.8492621588641214 0 0 0 0 1686.8367147581885 720.90925151788917 0 720.90925151788917 112.45398143896546 0 0 0 0 660.66903664826532 -909.46285660857814 0 -909.46285660857814 456.15282935584105 0 0 0 0 -88.605184541956987 -114.75950822669694 0 -114.75950822669694 -279.33049596832689 0 0 0 0 407.58145897384384 828.1355102717896 0 828.1355102717896 -1060.9643677416243 0 0 0 0 241.74023883223578 38.433574769109747 0 38.433574769109747 -10.76043942632244 0 0 0 0 270.07152660036809 32.184916214434907 0 32.184916214434907 -129.25531014957505 0 0 0 0 247.79322186897662 25.417090194867285 0 25.417090194867285 -105.18817782402402 0 0 0 0 237.66353578541271 33.17197272388924 0 33.17197272388924 -14.303796142744126 0 0 0 0 921.04929024714511 485.5625715059594 0 485.5625715059594 -1132.0490284257835 0 0 0 0 256.5043470217206 72.051061437922726 0 72.051061437922726 -210.90299354806007 0 0 0 0 241.87233766733334 25.377967269271949 0 25.377967269271949 -154.06465268258717 0 0 0 0 311.05089464220146 28.395805413027915 0 28.395805413027915 -161.96979496821587 0 0 0 0 289.45806981817805 10.052319342389069 0 10.052319342389069 -128.8832855194978 0 0 0 0 281.02412820921745 22.548199548032244 0 22.548199548032244 -140.24325702857601 0 0 0 0 325.19536473441258 -15.761130926641158 0 -15.761130926641158 -137.08015179498565 0 0 0 0 317.45970216683054 -15.967370374620714 0 -15.967370374620714 -119.85356498023066 0 0 0 0 313.04417926740643 -31.018736508838856 0 -31.018736508838856 -101.75005228796454 0 0 0 0 336.5569246186642 -37.874515032582622 0 -37.874515032582622 -117.63273236304474 0 0 0 0 334.58271071144554 -44.991327230957268 0 -44.991327230957268 -116.53879343899331 0 0 0 0 321.98020564531544 -30.442640972667959 0 -30.442640972667959 -80.594744051153612 0 0 0 0 333.55371377477422 -24.745813494888694 0 -24.745813494888694 -94.495146185598969 0 0 0 0 328.31641412525641 -17.984974424789471 0 -17.984974424789471 -89.311590302038439 0 0 0 0 263.63148784196528 29.509082742715236 0 29.509082742715236 -86.133047794354297 0 0 0 0 305.9737719171826 -18.046487952792404 0 -18.046487952792404 -96.176007616785682 0 0 0 0 -246.83321637063636 653.61547412261416 0 653.61547412261416 -383.96356032489211 0 0 0 0 290.82870095509861 -0.56114647083859381 0 -0.56114647083859381 -58.87003379115049 0 0 0 0 235.06536732108242 44.572794713108181 0 44.572794713108181 -4.4625381361984378 0 0 0 0 288.47030684716992 5.7763387241636224 0 5.7763387241636224 -37.004882117050329 0 0 0 0 247.89462596380014 27.215155235258869 0 27.215155235258869 -14.203423812125749 0 0 0 0 307.66762604254473 -42.608707797335228 0 -42.608707797335228 13.940524065752015 0 0 0 0 145.54130996270351 -74.087250391739914 0 -74.087250391739914 4.1397854293344825 0 0 0 0 33.088282121502857 -153.68151954904269 0 -153.68151954904269 53.883090949442703 0 0 0 0 316.60477788829303 -26.940477298785481 0 -26.940477298785481 -52.406377650046807 0 0 0 0 33.235675991920289 -137.76471830064247 0 -137.76471830064247 77.815940173652962 0 0 0 0 130.52663820769521 -179.7850754680112 0 -179.7850754680112 78.07789564275572 0 0 0 0 298.12957242468838 -138.89729245166382 0 -138.89729245166382 -23.035629365325349 0 0 0 0 130.66679051262327 -176.3442665592188 0 -176.3442665592188 127.23467995312967 0 0 0 0 129.79566914133329 -72.388855663653786 0 -72.388855663653786 -0.1657021992432437 0 0 0 0 206.82251880370313 -114.08874607110579 0 -114.08874607110579 -82.238307985684514 0 0 0 0 215.7920641234814 -101.19017635752539 0 -101.19017635752539 -85.470229001472944 0 0 0 0 327.5645538628014 -20.960213777731497 0 -20.960213777731497 -55.857054203483131 0 0 0 0 338.85674660090444 -34.794443063472954 0 -34.794443063472954 -76.243680506327337 0 0 0 0 348.5027048840002 -29.028824011600591 0 -29.028824011600591 -316.31576872825417 0 0 0 0 336.1765036482102 -52.420383344921447 0 -52.420383344921447 -100.6197476465527 0 0 0 0 257.19487971368653 119.31795567915674 0 119.31795567915674 -483.96502030864053 0 0 0 0 194.39114942573724 -224.64868348620598 0 -224.64868348620598 94.149022857601722 0 0 0 0 8.1625683511799423 -18.992919648186028 0 -18.992919648186028 1.1532900918137163 0 0 0 0 278.92533915674721 -33.87418250548626 0 -33.87418250548626 -153.37425368228708 0 0 0 0 -11.104039536425262 320.06620765334765 0 320.06620765334765 -443.70178691302499 0 0 0 0 192.21713329181568 6.7548324107172917 0 6.7548324107172917 -7.975167950066786 0 0 0 0 37.70401250652165 8.1723731197634919 0 8.1723731197634919 -13.655542108328614 0 0 0 0 59.123611132061342 -146.64482638866116 0 -146.64482638866116 -804.91845223847213 0 0 0 0 -259.98825842871156 404.90920595433909 0 404.90920595433909 -260.50714640557908 0 0 0 0 99.536644337906182 -153.87000315371768 0 -153.87000315371768 -237.75922770537636 0 0 0 0 941.08027619440691 -190.51140289571572 0 -190.51140289571572 -332.6564008993696 0 0 0 0 310.23879084869077 -109.84545244129262 0 -109.84545244129262 -266.09135266296698 0 0 0 0 362.45466807467892 287.32520157697581 0 287.32520157697581 -738.76591978390206 0 0 0 0 190.29929853656358 -23.891067875525323 0 -23.891067875525323 -104.06185500806805 0 0 0 0 280.81219359126408 -97.606959652630621 0 -97.606959652630621 -23.672037848225045 0 0 0 0 316.81723250335199 -176.01614374682003 0 -176.01614374682003 -33.198300215321069 0 0 0 0 386.45800257057999 -233.77577549238504 0 -233.77577549238504 63.861462406090141 0 0 0 0 472.90576522593619 -100.37549809513348 0 -100.37549809513348 -23.669371427477628 0 0 0 0 521.6022789749295 -161.29090323476532 0 -161.29090323476532 52.266189488249438 0 0 0 0 397.40061971341493 9.5296757412402258 0 9.5296757412402258 -100.08810886949982 0 0 0 0 563.66981091289199 58.938504677194487 0 58.938504677194487 -30.81296361719842 0 0 0 0 242.8497947522701 158.77193855109954 0 158.77193855109954 49.172917188733663 0 0 0 0 329.69879094083444 -8.790729493766321 0 -8.790729493766321 -48.286678760320683 0 0 0 0 859.82960774871754 143.48271566350877 0 143.48271566350877 51.03062864387266 0 0 0 0 789.89969451859361 79.674635628620763 0 79.674635628620763 150.7703021807165 0 0 0 0 352.45916313465568 147.53834560263931 0 147.53834560263931 167.24274058180708 0 0 0 0 691.1236579504548 398.16756343692498 0 398.16756343692498 268.85939119532122 0 0 0 0 434.04585725132347 259.6028855730608 0 259.6028855730608 118.73678785006541 0 0 0 0 524.76518857455085 23.760412324251547 0 23.760412324251547 41.694230624428201 0 0 0 0 574.39276061800774 -129.83203442741751 0 -129.83203442741751 64.783227345166779 0 0 0 0 601.10739716971875 -495.6801748127159 0 -495.6801748127159 493.79141256464663 0 0 0 0 36.867352052591741 314.89989156421143 0 314.89989156421143 523.40325627818311 0 0 0 0 601.84480890186387 -338.43548118921717 0 -338.43548118921717 184.64965456159189 0 0 0 0 324.02982866729144 -194.26670445310265 0 -194.26670445310265 109.8805182443075 0 0 0 0 324.16644934640499 -360.06471668877202 0 -360.06471668877202 383.6155743583422 0 0 0 0 817.80263885415661 -282.05621657107366 0 -282.05621657107366 159.0424353770386 0 0 0 0 1319.0810461334477 -276.75864434652021 0 -276.75864434652021 97.33981350719705 0 0 0 0 -0.12770656342144093 0.64443547844555837 0 0.64443547844555837 0.16174990248857668 0 0 0 0 350.62960983871017 853.17498724486541 0 853.17498724486541 -659.02807191246211 0 0 0 0 30.478154417476617 892.96958528018513 0 892.96958528018513 -516.33638061127249 0 0 0 0 8.7256760080619529 7.4956245170650675 0 7.4956245170650675 2.4083104065771446 0 0 0 0 1194.9598155039739 -275.39604939732817 0 -275.39604939732817 -3.0181434224491568 0 0 0 0 221.58622437308077 832.89510686974791 0 832.89510686974791 -459.52576313369678 0 0 0 0 -111.17697211913764 891.80549177035391 0 891.80549177035391 -379.71459001964695 0 0 0 0 81.019449143554084 895.52627607883369 0 895.52627607883369 -462.46370082681108 0 0 0 0 112.35048169834772 821.51318122746852 0 821.51318122746852 -364.02164917605842 0 0 0 0 78.746837641403545 758.570433638125 0 758.570433638125 -196.05457117777769 0 0 0 0 109.30801417751354 816.66863299419629 0 816.66863299419629 -303.88892614156066 0 0 0 0 203.10006794531364 757.83090279228691 0 757.83090279228691 -282.22891912165414 0 0 0 0 247.61235109902918 771.31032229487369 0 771.31032229487369 -333.8373232351787 0 0 0 0 203.35768422651927 792.77126509447851 0 792.77126509447851 -312.50950346243371 0 0 0 0 166.11062850343296 720.76910740209883 0 720.76910740209883 -116.22736384758548 0 0 0 0 315.00690704199951 660.94151909838274 0 660.94151909838274 -175.72318903515134 0 0 0 0 53.501577520451974 772.29995003027489 0 772.29995003027489 -108.48997452399135 0 0 0 0 161.97514677344589 662.46544167344109 0 662.46544167344109 -43.031263049192603 0 0 0 0 981.91947809234262 603.00210956644878 0 603.00210956644878 -772.70008322408466 0 0 0 0 861.02411130617838 395.19117648921019 0 395.19117648921019 -315.67444931604678 0 0 0 0 1175.9823095339234 449.35941568764792 0 449.35941568764792 -708.60689424479824 0 0 0 0 569.15900814410998 647.44364728188748 0 647.44364728188748 -510.98634475341532 0 0 0 0 395.22735725471284 814.21793868028817 0 814.21793868028817 -572.45062994928503 0 0 0 0 547.08715149920317 636.03394107968188 0 636.03394107968188 -370.14817288991799 0 0 0 0 514.49098348984262 557.05618044096263 0 557.05618044096263 -170.5776155062922 0 0 0 0 354.07241751253605 715.20526195277898 0 715.20526195277898 -324.87651336897511 0 0 0 0 337.88546758447774 635.07382452801608 0 635.07382452801608 -169.83453674243671 0 0 0 0 532.09319061625865 570.35007257656434 0 570.35007257656434 -231.59090823181214 0 0 0 0 867.28381270251703 420.42655681088036 0 420.42655681088036 -244.71375144608328 0 0 0 0 844.41884816964739 381.85273459354858 0 381.85273459354858 -289.36048263816156 0 0 0 0 1320.8142295620637 -361.94606354250209 0 -361.94606354250209 82.16408695602513 0 0 0 0 634.06850039790152 -9.540736275060226 0 -9.540736275060226 1349.9768479803988 0 0 0 0 1014.8268618475413 -40.08130305900022 0 -40.08130305900022 241.3995133874887 0 0 0 0 1969.9706739325775 -274.58292430645815 0 -274.58292430645815 -140.34850247260692 0 0 0 0 1375.5567454062402 -936.30467530835176 0 -936.30467530835176 2431.8557466384482 0 0 0 0 1078.1993561487761 348.63937552540392 0 348.63937552540392 586.70285261786739 0 0 0 0 1468.7743780441524 348.70104586688285 0 348.70104586688285 158.52185428141092 0 0 0 0 1302.4917124053463 457.10102240988635 0 457.10102240988635 399.06764601665782 0 0 0 0 1389.533600470284 916.81781724303983 0 916.81781724303983 1420.664301871484 0 0 0 0 722.25351823231904 274.34884206585775 0 274.34884206585775 528.55007865573134 0 0 0 0 1051.6620396662038 452.1530064145054 0 452.1530064145054 533.08222088114599 0 0 0 0 1046.3963903186377 180.70587976531533 0 180.70587976531533 220.14985185893238 0 0 0 0 1346.7562281127321 246.71509107056409 0 246.71509107056409 156.38468010061843 0 0 0 0 330.87394011439756 170.35142722602131 0 170.35142722602131 397.18693468446918 0 0 0 0 709.88680115258649 447.93426311940618 0 447.93426311940618 529.0678639756552 0 0 0 0 316.99086611880921 218.93544025662845 0 218.93544025662845 254.66592733466678 0 0 0 0 80.276795556070283 201.17715816174314 0 201.17715816174314 347.76217585245786 0 0 0 0 161.55755498846702 -173.14194356888083 0 -173.14194356888083 115.04137496732346 0 0 0 0 261.6187064042897 130.07799317819195 0 130.07799317819195 253.98409760451705 0 0 0 0 646.3249528516717 -136.65496173110876 0 -136.65496173110876 410.50344483371555 0 0 0 0 769.14031680033077 -360.06262436251075 0 -360.06262436251075 -43.170692653370736 0 0 0 0 10.156829494267186 4.8277026743882914 0 4.8277026743882914 -1.9378764077030586 0 0 0 0 41.709026384559138 -2.0737807476186134 0 -2.0737807476186134 -2.7172609977781175 0 0 0 0 286.65712593920762 124.65173608561872 0 124.65173608561872 -512.71873772104982 0 0 0 0 145.00431901824777 97.135054931103298 0 97.135054931103298 -80.97457269208553 0 0 0 0 599.13471600890625 -223.69011406893759 0 -223.69011406893759 -677.28915690975703 0 0 0 0 78.004032812779769 -183.90325697762222 0 -183.90325697762222 -284.61253655112887 0 0 0 0 745.67507107352139 -28.959814323334598 0 -28.959814323334598 -359.36338924145826 0 0 0 0 753.45803140400676 63.159842125415821 0 63.159842125415821 -230.54825493322664 0 0 0 0 282.72191249913158 241.1179865788051 0 241.1179865788051 -74.496348937188543 0 0 0 0 24.696154907083837 240.58743882004634 0 240.58743882004634 98.767556976416046 0 0 0 0 0.64458532314353079 -0.45532986380308671 0 -0.45532986380308671 -0.35396765548551845 0 0 0 0 -138.32014012378932 -309.37026432367787 0 -309.37026432367787 0.37092950358310062 0 0 0 0 117.66430896491511 -4.7079995991604227 0 -4.7079995991604227 -266.66068860154957 0 0 0 0 -121.50435300474055 -122.89570527458164 0 -122.89570527458164 183.94978623802015 0 0 0 0 28.732056701708757 2.4017001030702971 0 2.4017001030702971 -2.3632506379839406 0 0 0 0 25.994168412318686 590.80363622100185 0 590.80363622100185 452.80423234498619 0 0 0 0 -4.3156765860621817 406.52830340258618 0 406.52830340258618 347.47853844378841 0 0 0 0 290.74530993122607 449.04708808220721 0 449.04708808220721 -45.310940286556843 0 0 0 0 -85.715446577189141 249.37038225264709 0 249.37038225264709 57.50663752440181 0 0 0 0 259.42547144656419 623.43031130736131 0 623.43031130736131 -14.696313577902174 0 0 0 0 178.79670036234893 559.36635991626554 0 559.36635991626554 -6.1010730392931691 0 0 0 0 308.7061900087283 410.41152785272811 0 410.41152785272811 -132.45399777217699 0 0 0 0 500.20331704628188 429.07184886872506 0 429.07184886872506 -176.23057372145672 0 0 0 0 23.322517439315561 724.27721868505 0 724.27721868505 134.57669367581047 0 0 0 0 108.24338452141092 558.89563314946952 0 558.89563314946952 226.13235464256638 0 0 0 0 85.218590302800294 612.45429618155026 0 612.45429618155026 139.98071459295545 0 0 0 0 -26.249031769752037 599.04311182735091 0 599.04311182735091 330.21504566006553 0 0 0 0 112.45656546443934 669.71991834537448 0 669.71991834537448 9.4189671504309445 0 0 0 0 156.68803423037753 223.58417242413338 0 223.58417242413338 1030.6000814087799 0 0 0 0 164.83797923344537 643.376108949745 0 643.376108949745 308.99381949021949 0 0 0 0 357.1010347858537 421.67647017555828 0 421.67647017555828 300.9184494380853 0 0 0 0 132.33246219155262 201.02037105880265 0 201.02037105880265 -156.61269129443795 0 0 0 0 -85.21600927117106 7.3328875186598479 0 7.3328875186598479 -0.052633219507996154 0 0 0 0 341.67733443703037 962.56810699668426 0 962.56810699668426 1696.5225749835045 0 0 0 0 9.8369722217724984 1.9357236031280181 0 1.9357236031280181 -0.45548059267932872 0 0 0 0 770.92097758260206 -60.101474917774567 0 -60.101474917774567 -534.77771556704272 0 0 0 0 1369.3314528226765 666.26270678739115 0 666.26270678739115 456.96735518082448 0 0 0 0 602.34859152539866 669.69121958848734 0 669.69121958848734 188.40349572055493 0 0 0 0 582.23089075426105 259.05381047051924 0 259.05381047051924 -170.9116196404361 0 0 0 0 388.84120186706423 82.954333917130811 0 82.954333917130811 316.28321485304963 0 0 0 0 75.119681286159903 58.79860869620768 0 58.79860869620768 -236.61799096920822 0 0 0 0 477.1357840927667 235.53777544387924 0 235.53777544387924 -730.67131171559083 0 0 0 0 259.36456649686443 154.43041973631716 0 154.43041973631716 -755.10640598017358 0 0 0 0 275.43212705627957 283.36903143471909 0 283.36903143471909 -1019.3560563060792 0 0 0 0 195.17102748324396 88.305008835795888 0 88.305008835795888 -1027.0207165575102 0 0 0 0 34.593965338601265 143.95311536787449 0 143.95311536787449 -557.56511587990099 0 0 0 0 387.23571084300056 310.46633882364449 0 310.46633882364449 -864.95955808534973 0 0 0 0 321.12875740983145 492.66963111330335 0 492.66963111330335 -341.22906635532718 0 0 0 0 197.38564834365388 256.5732617427409 0 256.5732617427409 -76.078736633782455 0 0 0 0 228.56540960774691 669.36060572554027 0 669.36060572554027 -47.468976828777159 0 0 0 0 -59.357078220578842 424.73078800149779 0 424.73078800149779 -235.58806837999418 0 0 0 0 -81.638327837339602 684.91441996360209 0 684.91441996360209 12.589770783925928 0 0 0 0 -167.09018091729376 607.56790649579216 0 607.56790649579216 -245.42803680202996 0 0 0 0 16.243540451047011 724.1977075725531 0 724.1977075725531 -181.97184318037944 0 0 0 0 -92.513762664864771 791.84272102517025 0 791.84272102517025 -197.87349649258135 0 0 0 0 -309.77850981627125 826.80364598413507 0 826.80364598413507 -449.37001272733869 0 0 0 0 -235.92367135500535 731.72109962940704 0 731.72109962940704 -334.90015710817079 0 0 0 0 -71.000357818324119 812.63992138055983 0 812.63992138055983 -298.48456248739785 0 0 0 0 -258.09798583079828 765.91549936547653 0 765.91549936547653 -382.67068345818552 0 0 0 0 -465.67681520269252 573.98385024609706 0 573.98385024609706 -331.20698812174123 0 0 0 0 -295.51490151800681 672.75796195976 0 672.75796195976 -278.28108140780932 0 0 0 0 -186.68462723366974 422.80675143593589 0 422.80675143593589 -396.84497490218018 0 0 0 0 -734.18737958557904 604.42548772018745 0 604.42548772018745 -454.69086907328528 0 0 0 0 -404.97847970674047 535.86469386917088 0 535.86469386917088 -410.48737390541646 0 0 0 0 -570.83065182220889 336.39478265721937 0 336.39478265721937 -414.64830543436256 0 0 0 0 -680.8464431562461 409.00066316859375 0 409.00066316859375 -468.10636108570088 0 0 0 0 -972.69586298521608 364.81009831691335 0 364.81009831691335 -465.21948933567455 0 0 0 0 -505.98570539453067 728.70415808123289 0 728.70415808123289 -387.41503590036882 0 0 0 0 127.93618806925952 247.47505896574148 0 247.47505896574148 -622.11854793727616 0 0 0 0 -201.04019217996392 468.45046149194059 0 468.45046149194059 -249.01003381150713 0 0 0 0 -209.71701896132436 135.4646145472534 0 135.4646145472534 -665.73721751711491 0 0 0 0 246.3609149910626 162.8107964383762 0 162.8107964383762 -978.81939203930415 0 0 0 0 -252.45042124873726 90.935977617911249 0 90.935977617911249 -662.31865989409016 0 0 0 0 -83.027473043068312 -44.988021935527286 0 -44.988021935527286 -1106.3914751973643 0 0 0 0 130.21763899300549 -554.10816730191743 0 -554.10816730191743 101.15463075743037 0 0 0 0 -818.73922761564609 -64.307713018972208 0 -64.307713018972208 -704.17257488874839 0 0 0 0 136.54619447642472 -288.88880348422026 0 -288.88880348422026 454.13665795978977 0 0 0 0 10.489764614205342 -206.89411387887139 0 -206.89411387887139 400.99414602254546 0 0 0 0 155.82652607408818 -202.00227493862803 0 -202.00227493862803 238.46187073305373 0 0 0 0 293.04039947932324 -275.38566584665136 0 -275.38566584665136 180.6592534994561 0 0 0 0 -49.123985644546337 -60.985478317160869 0 -60.985478317160869 224.86049497418571 0 0 0 0 192.23864886979572 112.0020977897384 0 112.0020977897384 -1097.7800946122734 0 0 0 0 44.409596534718446 -0.099424049509565293 0 -0.099424049509565293 4.7713362052206438 0 0 0 0 2.8166076313540316 -10.191754506769783 0 -10.191754506769783 2.1571029802338222 0 0 0 0 33.110060715102009 -58.128895411797203 0 -58.128895411797203 14.496519445981903 0 0 0 0 38.221379578489177 -60.433033527381006 0 -60.433033527381006 -1195.9281786631664 0 0 0 0 224.36790206280421 144.7778454717045 0 144.7778454717045 -1065.4641334741955 0 0 0 0 -95.396951063507004 332.23761247958828 0 332.23761247958828 -264.46137889720251 0 0 0 0 -305.07401315215975 517.5651158749904 0 517.5651158749904 -354.42764493419509 0 0 0 0 167.1766132908524 -50.511237905094163 0 -50.511237905094163 -1187.8258729537674 0 0 0 0 43.340568563989194 11.673202825822102 0 11.673202825822102 -16.909519616152352 0 0 0 0 42.4557955125033 -209.11852802892543 0 -209.11852802892543 -1364.713698863261 0 0 0 0 221.0791968612466 41.166727309787518 0 41.166727309787518 -363.61805105488941 0 0 0 0 -94.950335854498917 324.54801878894244 0 324.54801878894244 -157.73159357332736 0 0 0 0 150.1037002631947 -100.7268399178129 0 -100.7268399178129 -121.09670409594673 0 0 0 0 352.08054139614978 -360.26454102589872 0 -360.26454102589872 -417.06494999297411 0 0 0 0 133.12871465829085 -479.44313473778715 0 -479.44313473778715 -34.947458194212459 0 0 0 0 249.0547807586845 -166.24119570819079 0 -166.24119570819079 -240.27874531355275 0 0 0 0 -369.05551851485507 -305.00931429289869 0 -305.00931429289869 -247.98000257230024 0 0 0 0 189.69135789282154 48.886823947804714 0 48.886823947804714 -1412.0367629277757 0 0 0 0 -14.410826168139465 426.38181985922279 0 426.38181985922279 -839.28739409402283 0 0 0 0 178.86509165092139 -342.0173107451136 0 -342.0173107451136 157.16882888830384 0 0 0 0 518.05084196475218 -22.448258762207743 0 -22.448258762207743 282.24685878593385 0 0 0 0 1170.5060741478737 457.14287303733005 0 457.14287303733005 0.14630560332799314 0 0 0 0 839.18644320264139 -258.50733611260063 0 -258.50733611260063 440.882509241837 0 0 0 0 449.9022436675732 2.7343712281302079 0 2.7343712281302079 630.04544470005521 0 0 0 0 532.11503547379107 -43.920821838442734 0 -43.920821838442734 290.14586823053025 0 0 0 0 419.30401904910104 -231.32881380894909 0 -231.32881380894909 0.44039080679837311 0 0 0 0 296.12763929084758 -375.8788734171535 0 -375.8788734171535 192.66447590129877 0 0 0 0 317.99000700742181 -313.6938201719185 0 -313.6938201719185 97.972761042731491 0 0 0 0 531.80348470961326 -335.91587911657234 0 -335.91587911657234 -16.271882171341474 0 0 0 0 376.63299156069115 -483.16980897090599 0 -483.16980897090599 -68.082683775401165 0 0 0 0 438.77287892052846 -250.82527246480211 0 -250.82527246480211 14.017963497693756 0 0 0 0 349.34716346181085 -142.23446632773309 0 -142.23446632773309 -15.009685461830884 0 0 0 0 457.19701072307362 -240.15427262743543 0 -240.15427262743543 -0.14567927326848509 0 0 0 0 666.48346461187612 -364.83248848231483 0 -364.83248848231483 -134.36359561837821 0 0 0 0 723.68475224738359 -36.838249099571613 0 -36.838249099571613 -93.730505100055325 0 0 0 0 355.22457615817984 48.633562717138048 0 48.633562717138048 -29.424225894957999 0 0 0 0 331.60275851815823 -332.34204962797276 0 -332.34204962797276 -36.943567563647093 0 0 0 0 616.40762850796455 -566.6544698141148 0 -566.6544698141148 24.871470370768293 0 0 0 0 762.51312653106288 -291.82792412201525 0 -291.82792412201525 -89.663140535250022 0 0 0 0 18.935420427413192 -46.097715069688093 0 -46.097715069688093 199.57446471948953 0 0 0 0 482.02600327759865 -697.01634917891943 0 -697.01634917891943 784.358010999312 0 0 0 0 1565.339936520264 -661.77084128911201 0 -661.77084128911201 -68.12564518398176 0 0 0 0 1562.8840498550853 443.80182906096263 0 443.80182906096263 57.129250436976918 0 0 0 0 6.0421856724391318 -6.7205638851828837 0 -6.7205638851828837 8.4728555520172648 0 0 0 0 67.308938917005435 -14.905060113597756 0 -14.905060113597756 -5.1024776681256299 0 0 0 0 11.658342936279951 -27.024507575882126 0 -27.024507575882126 14.02262765553769 0 0 0 0 37.517167075816985 -12.257561387794048 0 -12.257561387794048 -1.4829948038187872 0 0 0 0 88.762137802492362 -22.610412666941556 0 -22.610412666941556 -31.458759842445943 0 0 0 0 22.331500183513633 -9.660913411683083 0 -9.660913411683083 1.5866867589307461 0 0 0 0 69.099516150410636 -8.3849731185616747 0 -8.3849731185616747 -13.848944191569899 0 0 0 0 72.933698333377833 -1.3602666398724068 0 -1.3602666398724068 -20.886467596104922 0 0 0 0 65.035206991364248 4.0761341257675667 0 4.0761341257675667 -22.169718719815137 0 0 0 0 66.365584621147718 1.6628365562446561 0 1.6628365562446561 -28.091259496416569 0 0 0 0 64.633493822988385 -3.8524110393856006 0 -3.8524110393856006 -15.26390800264744 0 0 0 0 74.121266375703271 1.7977918040505756 0 1.7977918040505756 -31.261333427804573 0 0 0 0 85.543197386199608 10.110243974922923 0 10.110243974922923 -25.950671648592106 0 0 0 0 64.783742207800969 8.2406491859819653 0 8.2406491859819653 -24.445849294397703 0 0 0 0 86.051869179587811 22.931550789105586 0 22.931550789105586 -19.552613973814005 0 0 0 0 51.444555386988213 14.236901205064896 0 14.236901205064896 -15.236301370108777 0 0 0 0 68.063980832448578 3.3224393871937536 0 3.3224393871937536 -25.450397413940664 0 0 0 0 67.922659446019679 3.1436378582211546 0 3.1436378582211546 -26.893367696975474 0 0 0 0 73.067642419453477 1.0922156678902866 0 1.0922156678902866 -47.778799470436752 0 0 0 0 65.016179804224521 -9.4515465410977413 0 -9.4515465410977413 -33.136076530070568 0 0 0 0 55.57843953470001 0.3198426622311672 0 0.3198426622311672 -23.385006814363351 0 0 0 0 6.0166971619476755 -3.5159500881965187 0 -3.5159500881965187 1.0352639288620065 0 0 0 0 6.2364622546738531 -1.8985880184594635 0 -1.8985880184594635 -2.7305447691464249 0 0 0 0 71.600729369878536 3.5743415777087648 0 3.5743415777087648 -25.92171745318683 0 0 0 0 75.318585069129767 -67.419753409100394 0 -67.419753409100394 35.641018694219383 0 0 0 0 23.700801024737302 -7.6492507525579185 0 -7.6492507525579185 -3.1626239311799509 0 0 0 0 63.690324773953762 -3.2309335984591598 0 -3.2309335984591598 -7.4689374683061942 0 0 0 0 66.60899045568658 -0.57244657271621691 0 -0.57244657271621691 -10.807344854265466 0 0 0 0 3.0772728131560143 -19.457398977795947 0 -19.457398977795947 11.701195936381737 0 0 0 0 11.656575008077198 -10.716388696728245 0 -10.716388696728245 1.3862386244227309 0 0 0 0 10.703881048740016 -3.9767176557754169 0 -3.9767176557754169 3.9958465914741619 0 0 0 0 15.709150774149521 -5.2104066279312917 0 -5.2104066279312917 -1.8436325803399112 0 0 0 0 8.9777941643196755 -3.525900770245542 0 -3.525900770245542 -5.7802085233061007 0 0 0 0 17.560890294378623 -7.8676613547763736 0 -7.8676613547763736 -0.74371784973300237 0 0 0 0 12.335294517497147 -7.1971129137379819 0 -7.1971129137379819 -2.9093834372617486 0 0 0 0 23.563258973910706 -9.3576724437402845 0 -9.3576724437402845 -8.244002479219489 0 0 0 0 22.724465703795431 -6.3398664941005336 0 -6.3398664941005336 -13.274922281799263 0 0 0 0 7.6368877509074924 -4.0653602019876018 0 -4.0653602019876018 2.4711743595462341 0 0 0 0 8.6900479444248049 -12.033141780731228 0 -12.033141780731228 8.9279593024803034 0 0 0 0 1.2729669250723532 -2.3350700398962161 0 -2.3350700398962161 -0.28123996774598492 0 0 0 0 14.26772862157668 -0.69940580810180109 0 -0.69940580810180109 12.747749221794493 0 0 0 0 5.6875473108020742 -5.5476592852715214 0 -5.5476592852715214 15.515427639920754 0 0 0 0 1.604231129938853 1.4774313570130744 0 1.4774313570130744 21.157981609144827 0 0 0 0 20.959160228754627 1.3639331295389638 0 1.3639331295389638 10.896256772942479 0 0 0 0 34.790228779631434 7.1461622006891048 0 7.1461622006891048 13.025054599729629 0 0 0 0 34.802601441944716 6.8252382066357313 0 6.8252382066357313 9.9445876464890262 0 0 0 0 19.754963491992385 25.70475847954026 0 25.70475847954026 35.620433905332902 0 0 0 0 23.291212373558665 17.173194159063939 0 17.173194159063939 6.7428201611273835 0 0 0 0 5.5710305945540313 12.975870450642105 0 12.975870450642105 19.425853622651175 0 0 0 0 11.851037651853403 -11.836122737960295 0 -11.836122737960295 12.62625985546066 0 0 0 0 -9.18137691442098 -0.19783194356932654 0 -0.19783194356932654 14.524114847958117 0 0 0 0 50.052433773846133 18.21938593376376 0 18.21938593376376 7.2943885829049577 0 0 0 0 1.9941760572642977 0.91309556382975643 0 0.91309556382975643 0.23122802694859956 0 0 0 0 2.6119359848671593 -6.6531083588090496 0 -6.6531083588090496 34.671638343784615 0 0 0 0 10.412005709804362 14.240613727073196 0 14.240613727073196 -6.7546865132519542 0 0 0 0 36.506928273869562 -21.371501647730724 0 -21.371501647730724 38.237152047489417 0 0 0 0 7.78113040675089 14.484459730423708 0 14.484459730423708 21.152882556627446 0 0 0 0 1.6805920709516329 -5.7250801514059617 0 -5.7250801514059617 14.832102906468734 0 0 0 0 -1.4042034717447862 2.2238895616282548 0 2.2238895616282548 2.7181083403972579 0 0 0 0 201.80885002310242 -57.524482225635438 0 -57.524482225635438 -155.63384497946026 0 0 0 0 -21.123662429134129 -13.864085099519457 0 -13.864085099519457 37.88712430364194 0 0 0 0 -99.94017390080262 -8.6500859531133756 0 -8.6500859531133756 185.9802853464862 0 0 0 0 -90.327085564480512 -41.820146834795196 0 -41.820146834795196 33.307776041633588 0 0 0 0 2.191600754566025 -43.491722511944772 0 -43.491722511944772 5.0770028132046718 0 0 0 0 -36.996851475159929 -3.5929349477137293 0 -3.5929349477137293 -8.8683383763145684 0 0 0 0 5.5310897622252071 -2.35337696659073 0 -2.35337696659073 6.8522832312019766 0 0 0 0 134.70212096082105 -38.369575657064615 0 -38.369575657064615 -94.629460107178602 0 0 0 0 6.4061357340906397 -33.288993610585749 0 -33.288993610585749 7.2500419342322857 0 0 0 0 19.002638419071445 -22.260866662386434 0 -22.260866662386434 -19.870179757938331 0 0 0 0 54.181175247416832 -27.747733709047679 0 -27.747733709047679 -4.9480959034308398 0 0 0 0 19.047073326901341 -42.769792791596139 0 -42.769792791596139 -4.5150113324170889 0 0 0 0 21.008020991343074 -23.505649080954981 0 -23.505649080954981 -3.5092819194724143 0 0 0 0 78.595501739823703 -81.30319607906425 0 -81.30319607906425 -10.755084993393211 0 0 0 0 132.24621022929932 -75.345075683698724 0 -75.345075683698724 -10.249406048110814 0 0 0 0 147.59181074421667 -61.287136234710772 0 -61.287136234710772 -59.712961711878052 0 0 0 0 9.7084553265888758 -29.928609343241902 0 -29.928609343241902 -5.7480877073404884 0 0 0 0 166.08134053558751 -224.46341186840141 0 -224.46341186840141 -66.062523314491955 0 0 0 0 140.67158129285235 -83.67442214368748 0 -83.67442214368748 -232.97334474228228 0 0 0 0 146.3591896489379 -145.75597375731468 0 -145.75597375731468 -75.136039453341539 0 0 0 0 168.43597207929557 12.195884144290126 0 12.195884144290126 -1.7229430911694923 0 0 0 0 348.6513661101344 21.672469136561631 0 21.672469136561631 -611.04896996873686 0 0 0 0 119.01760904319235 48.869368031469094 0 48.869368031469094 -35.704629297096744 0 0 0 0 255.97499619016526 90.018662271913513 0 90.018662271913513 -195.00162679133336 0 0 0 0 145.48192154282745 5.6603235933860034 0 5.6603235933860034 -3.1272841204934703 0 0 0 0 130.68311914173319 69.485605407729111 0 69.485605407729111 -97.870594029164749 0 0 0 0 57.634385109166033 46.179008087966395 0 46.179008087966395 57.557120023174321 0 0 0 0 72.696897717469255 34.867868350100252 0 34.867868350100252 -2.6450751330639832 0 0 0 0 200.05137431889307 101.04919369246272 0 101.04919369246272 -20.858174806640932 0 0 0 0 45.565062607085565 88.649774289373454 0 88.649774289373454 104.03138651964218 0 0 0 0 121.34182294014778 -2.150937079331932 0 -2.150937079331932 -6.5319072041243196 0 0 0 0 120.40247893746709 20.907520174574984 0 20.907520174574984 -70.096342159977212 0 0 0 0 99.064620716701029 4.7177100935750786 0 4.7177100935750786 -51.358616284529489 0 0 0 0 76.27666100220813 27.445476743250197 0 27.445476743250197 -59.080343873727543 0 0 0 0 103.70345665924833 18.607133908832566 0 18.607133908832566 -7.9592142111532667 0 0 0 0 102.3145141590212 25.354578151796431 0 25.354578151796431 -39.282733690472014 0 0 0 0 124.79394686306478 -12.672260776982512 0 -12.672260776982512 -6.8831215788236477 0 0 0 0 84.583479289489333 -4.5085660489717156 0 -4.5085660489717156 48.388460425539506 0 0 0 0 83.274074762273813 -13.950243548976232 0 -13.950243548976232 7.0999192414064964 0 0 0 0 167.73466628533788 -19.760473662563527 0 -19.760473662563527 -20.007516403457998 0 0 0 0 103.77765649752109 3.0671633529632345 0 3.0671633529632345 -15.028433282490369 0 0 0 0 116.14820874726138 16.383059852569659 0 16.383059852569659 -43.393102977050148 0 0 0 0 109.53520522950566 12.426458777288644 0 12.426458777288644 -35.686984279471744 0 0 0 0 86.658109074527601 4.4170044295906337 0 4.4170044295906337 -38.433085573153221 0 0 0 0 115.89298765273998 29.936381201686345 0 29.936381201686345 -20.993941345669555 0 0 0 0 209.90617682448647 8.7880292163799822 0 8.7880292163799822 -14.964668464385795 0 0 0 0 6.0347844924100968 -2.1378112223901127 0 -2.1378112223901127 0.84791623908972502 0 0 0 0 1.5122692338190973 43.082560319959157 0 43.082560319959157 8.8942600955015223 0 0 0 0 112.48209647495969 17.035656043843005 0 17.035656043843005 -22.725852505725925 0 0 0 0 230.80291021009907 -29.401548265188694 0 -29.401548265188694 -20.942006853929342 0 0 0 0 147.46719293047499 89.40128042190554 0 89.40128042190554 -28.862061798787181 0 0 0 0 496.99096469304641 -200.97394008805122 0 -200.97394008805122 75.416473530470284 0 0 0 0 23.78384553574142 -260.92293744157132 0 -260.92293744157132 620.68775934161022 0 0 0 0 162.80908465292305 -47.179855071199199 0 -47.179855071199199 57.750669048492 0 0 0 0 153.96570421547585 -15.89673173432945 0 -15.89673173432945 5.9216435107118741 0 0 0 0 11.179621790128294 -41.626951400935013 0 -41.626951400935013 185.77316948280622 0 0 0 0 149.06104027151923 -74.967989908615777 0 -74.967989908615777 58.447875467616541 0 0 0 0 33.123164489341434 12.748015197394238 0 12.748015197394238 53.24619525496928 0 0 0 0 95.995872655010317 54.375113301219699 0 54.375113301219699 76.796966042225449 0 0 0 0 -101.39510558935581 17.460260428457332 0 17.460260428457332 157.59627397436725 0 0 0 0 -41.808414605155122 39.147372302828899 0 39.147372302828899 164.67467642854899 0 0 0 0 59.202777943413821 -186.05060938841007 0 -186.05060938841007 -416.42899527314603 0 0 0 0 20.078385814442299 320.3146339717232 0 320.3146339717232 -302.07186427566739 0 0 0 0 -20.063944667923352 122.74090065128445 0 122.74090065128445 42.617178218180015 0 0 0 0 -38.242896114985342 -169.01190009178845 0 -169.01190009178845 20.458063614094499 0 0 0 0 11.241490111567202 9.6051528921146172 0 9.6051528921146172 -6.6251361590063915 0 0 0 0 61.739229264968003 -13.716042859044769 0 -13.716042859044769 2.4504217767859586 0 0 0 0 -192.01425149642455 -129.62396569676116 0 -129.62396569676116 464.46291473716383 0 0 0 0 174.51787169056479 42.033272605988714 0 42.033272605988714 -355.44755122635274 0 0 0 0 718.88842783984728 -138.63630001989122 0 -138.63630001989122 -512.9759796907183 0 0 0 0 -237.87617706513265 413.32686598951386 0 413.32686598951386 558.36848481180209 0 0 0 0 213.574501857016 283.12329605967875 0 283.12329605967875 289.9699466229149 0 0 0 0 108.41396589370561 104.50586379688593 0 104.50586379688593 144.13716648419927 0 0 0 0 296.50019859714666 116.8039455886601 0 116.8039455886601 38.966213438743125 0 0 0 0 135.20519059011713 211.26729701234035 0 211.26729701234035 195.86063971320891 0 0 0 0 65.434497301001102 82.485193059957282 0 82.485193059957282 96.609737938664694 0 0 0 0 -116.96317752625328 -32.055851188998531 0 -32.055851188998531 101.8132002786831 0 0 0 0 -55.97977072437061 150.28836726833345 0 150.28836726833345 250.02924754764081 0 0 0 0 -41.220226610079408 84.661545943858982 0 84.661545943858982 182.50898110085609 0 0 0 0 -66.21842895071677 -34.15936877327016 0 -34.15936877327016 75.713267297694074 0 0 0 0 28.983472901862115 2.2453978200915117 0 2.2453978200915117 68.610550821981178 0 0 0 0 33.646013237303123 21.069117305005875 0 21.069117305005875 105.48160084830306 0 0 0 0 68.245835893874755 -18.431264829212068 0 -18.431264829212068 -6.1973739273130377 0 0 0 0 217.14140248741023 -45.464081261217416 0 -45.464081261217416 -265.72975185483574 0 0 0 0 1.8445787988787856 -0.56411643864012717 0 -0.56411643864012717 -0.12185290249009384 0 0 0 0 261.26198604036472 161.98614414090571 0 161.98614414090571 -169.08781943683789 0 0 0 0 127.71485214603308 225.66520243172135 0 225.66520243172135 114.06725498886135 0 0 0 0 -118.52413905813592 -140.74006612871267 0 -140.74006612871267 154.4291142724885 0 0 0 0 -171.85181244660635 -228.85748236916743 0 -228.85748236916743 -87.262822876728023 0 0 0 0 -92.93406128580682 -168.18242831430234 0 -168.18242831430234 -105.60129519667362 0 0 0 0 -66.395999083651986 -8.2327337855743963 0 -8.2327337855743963 15.575996743024916 0 0 0 0 -270.89018205030879 -94.706885080120855 0 -94.706885080120855 19.60381264121952 0 0 0 0 -230.31490057552583 -63.340489986384682 0 -63.340489986384682 178.4170698322705 0 0 0 0 -178.47028332136688 -461.48927902246561 0 -461.48927902246561 -367.00514075439872 0 0 0 0 -120.89825052587548 -108.84652099495793 0 -108.84652099495793 -337.78446676444764 0 0 0 0 -317.07057272476959 -402.35193160372847 0 -402.35193160372847 -139.00675742082188 0 0 0 0 -320.12771740258904 -11.727931590789979 0 -11.727931590789979 125.30891828653563 0 0 0 0 -29.640723590098787 -29.432808687750367 0 -29.432808687750367 76.160447839066364 0 0 0 0 -45.473896437353687 118.70450696971147 0 118.70450696971147 367.94397473643585 0 0 0 0 162.87720498509589 82.970137837177845 0 82.970137837177845 229.35978047185563 0 0 0 0 120.46096246130764 106.1139273827971 0 106.1139273827971 -81.974414223667964 0 0 0 0 43.664647643779801 -2.727618427560472 0 -2.727618427560472 -2.2419372622535949 0 0 0 0 251.54718566786323 -36.273748118492108 0 -36.273748118492108 -167.52926179646101 0 0 0 0 -37.93925255999784 -65.441541344345296 0 -65.441541344345296 20.355806253806577 0 0 0 0 15.783447304095603 4.8331429113965783 0 4.8331429113965783 -3.0427515870383792 0 0 0 0 48.260150930291275 -9.6147093103314916 0 -9.6147093103314916 -8.7094009562713843 0 0 0 0 46.390332740091253 100.43136978588018 0 100.43136978588018 37.109311623585654 0 0 0 0 15.297375632252511 -0.57163056460017003 0 -0.57163056460017003 1.3127638114241775 0 0 0 0 45.234383563161828 -4.7910538469011641 0 -4.7910538469011641 -0.33535766641397435 0 0 0 0 14.381676133423753 -0.67572730837314321 0 -0.67572730837314321 -5.8764489367727109 0 0 0 0 4.5767282084707404 -10.359280686892287 0 -10.359280686892287 -0.007752676625375694 0 0 0 0 2.11418678342352 -1.6101811049672676 0 -1.6101811049672676 0.67258523313272389 0 0 0 0 51.748211143829394 -18.483577001712803 0 -18.483577001712803 -4.0071061677346265 0 0 0 0 46.728194882380194 -19.720499121319641 0 -19.720499121319641 -3.6984256167611438 0 0 0 0 42.15481152573193 -15.369677623418628 0 -15.369677623418628 -0.0090664757569514087 0 0 0 0 47.637988261383725 -15.256956467260697 0 -15.256956467260697 -5.3812490543985447 0 0 0 0 51.007742068897642 -19.674957603805606 0 -19.674957603805606 -0.0066966037532543536 0 0 0 0 57.759863777784631 -18.661055016657809 0 -18.661055016657809 -3.8147286436744032 0 0 0 0 59.927429836625379 -22.376470930424091 0 -22.376470930424091 0.014160488282906092 0 0 0 0 51.764018382257404 -19.305285421522775 0 -19.305285421522775 -3.4645963967587576 0 0 0 0 51.99198382297044 -12.941511323300482 0 -12.941511323300482 3.2941438181362592 0 0 0 0 121.31048267681035 -143.13171557676037 0 -143.13171557676037 -133.94112898825938 0 0 0 0 48.980967386989505 -27.066936993680294 0 -27.066936993680294 -12.156062711299775 0 0 0 0 -14.795465661993148 63.127788542919049 0 63.127788542919049 43.468008143205225 0 0 0 0 19.551453237167607 -3.8006019911185724 0 -3.8006019911185724 0.30546163846879137 0 0 0 0 -96.670096918358468 -76.098726450128197 0 -76.098726450128197 238.75488081726508 0 0 0 0 90.319167656823993 295.53454967894982 0 295.53454967894982 156.3729582034648 0 0 0 0 -65.531047536234837 -20.532868654704544 0 -20.532868654704544 37.118418831383224 0 0 0 0 -0.24995919109085207 -1.474903471526499 0 -1.474903471526499 0.94006818640406242 0 0 0 0 63.979951382585568 -23.543790306788196 0 -23.543790306788196 -64.524065447375961 0 0 0 0 66.305076038916013 113.81046339635259 0 113.81046339635259 -123.10788381147859 0 0 0 0 12.542452326451894 -22.851175622903611 0 -22.851175622903611 -17.716804614750572 0 0 0 0 182.65046270901803 37.011427400873799 0 37.011427400873799 -1.1389806128695454 0 0 0 0 19.612932713731254 -7.4019723602744456 0 -7.4019723602744456 -0.63239413471815276 0 0 0 0 39.001695629762253 -10.579999749453464 0 -10.579999749453464 -23.082826668512553 0 0 0 0 24.642292834672844 -25.300620257179162 0 -25.300620257179162 -29.069612032039004 0 0 0 0 9.7423503858881304 -5.2323092819552244 0 -5.2323092819552244 -17.564435906361723 0 0 0 0 9.8861036813065084 -6.8783832745379172 0 -6.8783832745379172 -4.120520241497216 0 0 0 0 21.621774418595464 -1.6629095795512683 0 -1.6629095795512683 -6.5414291768027102 0 0 0 0 47.879047552353704 -8.8938982191767764 0 -8.8938982191767764 -9.527648049126153 0 0 0 0 14.464772812498268 -12.799136780510707 0 -12.799136780510707 -7.9077899575835318 0 0 0 0 35.328339513350151 -6.6600409987526348 0 -6.6600409987526348 -8.3779729154482894 0 0 0 0 14.245525914186146 -10.367421699278566 0 -10.367421699278566 -16.882537098820933 0 0 0 0 38.828944275436868 -9.9815778127322758 0 -9.9815778127322758 0.18073951770994437 0 0 0 0 6.1345489984523738 -58.911275850795846 0 -58.911275850795846 -47.954596129365655 0 0 0 0 13.12042853479403 -10.459629941446822 0 -10.459629941446822 -1.095587600962306 0 0 0 0 19.351875370832545 -6.1863745031110682 0 -6.1863745031110682 -1.698896376520032 0 0 0 0 9.2139454690041021 -12.96441869571936 0 -12.96441869571936 -9.3505700729372734 0 0 0 0 14.631934620148968 -76.232384559953474 0 -76.232384559953474 -28.441902869418527 0 0 0 0 62.8660407076095 -12.761175098671959 0 -12.761175098671959 -19.61899432115505 0 0 0 0 7.7454010363334227 -0.84302833259636145 0 -0.84302833259636145 -10.478452831239572 0 0 0 0 35.930210716975125 -0.26453094593995274 0 -0.26453094593995274 -10.840651808941402 0 0 0 0 33.167301583453082 -10.101144534940659 0 -10.101144534940659 1.6959290996037453 0 0 0 0 97.74918769953365 33.762398266293843 0 33.762398266293843 -3.4317235539383546 0 0 0 0 86.642207846802194 -25.23651720161979 0 -25.23651720161979 -53.68050752580325 0 0 0 0 51.276789904226462 -9.3140982698187571 0 -9.3140982698187571 -6.8256840163290278 0 0 0 0 93.596472188437474 -9.6171630241585166 0 -9.6171630241585166 -7.8680315192972463 0 0 0 0 873.7644007402705 -606.76483257744962 0 -606.76483257744962 -25.055833159616149 0 0 0 0 -0.58528617891454715 -0.59017460253392073 0 -0.59017460253392073 -3.3617940294677222 0 0 0 0 1.6185958912983267 -1.452134990475372 0 -1.452134990475372 -1.6070997563794884 0 0 0 0 41.119901367084822 31.124959973483723 0 31.124959973483723 63.358445630215797 0 0 0 0 351.67774278458091 -522.73456938998117 0 -522.73456938998117 -0.33399203061229821 0 0 0 0 -86.601799611875322 -781.81546532194375 0 -781.81546532194375 760.38093289605354 0 0 0 0 -266.0151486951363 336.48865350313065 0 336.48865350313065 -229.61273718026951 0 0 0 0 6.2115898986878051 1.0273992934124028 0 1.0273992934124028 0.26280148281752358 0 0 0 0 109.1984500833787 -187.71703707277226 0 -187.71703707277226 312.98040982142084 0 0 0 0 -110.04962256964063 118.35659463564298 0 118.35659463564298 -25.028131660320838 0 0 0 0 -208.8571760309278 244.81357434651659 0 244.81357434651659 -96.146792189602138 0 0 0 0 -0.87971461773850024 37.695054666447547 0 37.695054666447547 0.34514026067682235 0 0 0 0 71.544679947110126 7.6027605815959305 0 7.6027605815959305 -253.17398971513239 0 0 0 0 58.337681681674439 33.114972585233772 0 33.114972585233772 -197.76154480757486 0 0 0 0 51.179106347030029 43.141868604406227 0 43.141868604406227 -222.29435687018076 0 0 0 0 60.594686593103688 -2.3375517561078141 0 -2.3375517561078141 -209.58278401572079 0 0 0 0 61.277027916104998 3.1286614973762426 0 3.1286614973762426 -167.11128437501907 0 0 0 0 63.244480369714438 22.380857323229975 0 22.380857323229975 -184.72713302904594 0 0 0 0 59.058941382445482 12.701608175068102 0 12.701608175068102 -167.42727874842603 0 0 0 0 40.354218101652805 43.335252960005619 0 43.335252960005619 -179.92340868903693 0 0 0 0 57.543717797971112 21.19270222260829 0 21.19270222260829 -210.62140460757746 0 0 0 0 61.386330868088407 -28.427351321131027 0 -28.427351321131027 -97.755648185646351 0 0 0 0 58.333680231240578 28.765208543436529 0 28.765208543436529 -179.29354111192288 0 0 0 0 2.4175436492433562 -1.1632491352134764 0 -1.1632491352134764 -4.5423455249801012 0 0 0 0 18.390432980086189 -68.059783990339383 0 -68.059783990339383 -67.785839971929818 0 0 0 0 66.131026041817677 -20.442980222655251 0 -20.442980222655251 -219.06458978517458 0 0 0 0 27.581167655764148 -47.008219314062899 0 -47.008219314062899 -306.36035253046293 0 0 0 0 -11.092659932590323 186.28903877669086 0 186.28903877669086 -472.00825771291511 0 0 0 0 50.281465247302549 84.979341257380838 0 84.979341257380838 -313.98064398899305 0 0 0 0 65.240852020448074 26.804907946291223 0 26.804907946291223 -179.51049655992824 0 0 0 0 46.830021378496895 58.805980263504807 0 58.805980263504807 -230.95860005126633 0 0 0 0 30.471042162997207 1.51701963793899 0 1.51701963793899 -0.23261021623272171 0 0 0 0 25.365935012174305 -1.5476526218993811 0 -1.5476526218993811 -0.10578351109011623 0 0 0 0 62.00243831356056 55.597325047141567 0 55.597325047141567 -373.55297261793311 0 0 0 0 33.875668532331474 -0.1803117502033722 0 -0.1803117502033722 0.10086713532251779 0 0 0 0 17.123709148610942 76.915171057892167 0 76.915171057892167 -241.5273633843608 0 0 0 0 45.081480876310707 56.261649827650359 0 56.261649827650359 -288.98395781991621 0 0 0 0 44.845460063379505 49.312435967747149 0 49.312435967747149 -283.47180700422086 0 0 0 0 50.645367240067571 90.06932659587801 0 90.06932659587801 -337.54546212404745 0 0 0 0 36.307125948602334 -9.3496476914732511 0 -9.3496476914732511 -350.82115622585832 0 0 0 0 0.38629895111080259 6.9304915623279157 0 6.9304915623279157 -256.93399119922174 0 0 0 0 -19.36120171949733 -29.986297774566083 0 -29.986297774566083 -300.86416823865864 0 0 0 0 47.02541123831179 22.014632656174854 0 22.014632656174854 -338.83111869854019 0 0 0 0 19.137098168896046 31.809372255684593 0 31.809372255684593 -252.048116952143 0 0 0 0 12.899719615932554 13.133412206532739 0 13.133412206532739 -246.73177576251874 0 0 0 0 -13.588120086533308 16.648133447812484 0 16.648133447812484 -194.686603970953 0 0 0 0 19.699669629451819 10.336836188147325 0 10.336836188147325 -17.481134545029349 0 0 0 0 55.933847324107774 39.478610388636298 0 39.478610388636298 -271.66069405786141 0 0 0 0 18.771125791209101 0.99479548526913142 0 0.99479548526913142 -0.18786381159640864 0 0 0 0 -1.3913051043637097 51.459356538767906 0 51.459356538767906 -245.75629742624642 0 0 0 0 -0.94421393639640883 50.39259338130023 0 50.39259338130023 -201.18142171065574 0 0 0 0 2.5379949046182446 26.08374017029837 0 26.08374017029837 -230.70149727907847 0 0 0 0 15.496581100203912 59.52702500286 0 59.52702500286 -226.32820269969761 0 0 0 0 -54.738180927641224 24.061673497628817 0 24.061673497628817 -228.19686081150721 0 0 0 0 39.75240589119494 48.332881858262226 0 48.332881858262226 -245.87811802072591 0 0 0 0 24.224807957361918 43.126790557592813 0 43.126790557592813 -201.01600220876753 0 0 0 0 48.089344597421587 32.578312733806342 0 32.578312733806342 -229.3573452673163 0 0 0 0 43.866589842364192 31.367812971106559 0 31.367812971106559 -200.31864567096929 0 0 0 0 7.8360145349870436 37.678534276373284 0 37.678534276373284 -158.46703313403668 0 0 0 0 21.619663701276295 39.621988814399174 0 39.621988814399174 -158.31621242475285 0 0 0 0 28.193533198907971 26.975028640302298 0 26.975028640302298 -102.53520387889967 0 0 0 0 31.728576362678723 13.038169614330741 0 13.038169614330741 -122.59488694543143 0 0 0 0 4.7891533139627427 30.708689970260821 0 30.708689970260821 -77.601826812448053 0 0 0 0 14.298150174436159 18.445887217601921 0 18.445887217601921 -94.455494953759626 0 0 0 0 3.18049116875045 36.723703720283993 0 36.723703720283993 -106.44202490009866 0 0 0 0 2.1175311264814809 42.435197704294296 0 42.435197704294296 -156.68115665621917 0 0 0 0 14.110931411734782 17.221459214633796 0 17.221459214633796 -133.71770201406889 0 0 0 0 17.090214796422515 26.608977400940375 0 26.608977400940375 -187.54954167980304 0 0 0 0 8.598626681487076 39.587922117304515 0 39.587922117304515 -186.42735839817897 0 0 0 0 -8.2224966602807399 34.01517616790079 0 34.01517616790079 -150.33693126671824 0 0 0 0 8.0691569776972756 24.315324257148859 0 24.315324257148859 -148.73664848059593 0 0 0 0 3.3417386463752337 20.62298222512706 0 20.62298222512706 -155.3151447217042 0 0 0 0 -2.1899517587153241 37.454783530574787 0 37.454783530574787 -129.4737552207107 0 0 0 0 8.8269366714375792 18.739988300351115 0 18.739988300351115 -119.34388880930419 0 0 0 0 7.7137644531321712 12.817580265617835 0 12.817580265617835 -76.855956217211315 0 0 0 0 -3.0211671657161787 30.918132533895914 0 30.918132533895914 -85.788942874798977 0 0 0 0 8.1276222003507428 14.139987729707855 0 14.139987729707855 -103.76973243423345 0 0 0 0 -6.9069192883616779 30.636031993858523 0 30.636031993858523 -105.98591683978793 0 0 0 0 4.1415083270985633 28.695333378389478 0 28.695333378389478 -73.470781247588093 0 0 0 0 3.9104884058078824 7.0751922764869377 0 7.0751922764869377 -67.570070535295599 0 0 0 0 10.785456841869745 16.768427975895975 0 16.768427975895975 -56.579966050183884 0 0 0 0 -1.5102838267339393 35.66189398858296 0 35.66189398858296 -84.673196504996667 0 0 0 0 9.8371389411622658 26.650624632918152 0 26.650624632918152 -127.24647145615381 0 0 0 0 9.0142911086441018 43.110332930420554 0 43.110332930420554 -146.14861136869149 0 0 0 0 7.3776627341576386 19.35915417470369 0 19.35915417470369 -170.91524888841013 0 0 0 0 15.659766593773384 55.891682266275438 0 55.891682266275438 -200.65771777458667 0 0 0 0 16.133355686470168 33.431155514940144 0 33.431155514940144 -193.86627165596292 0 0 0 0 28.060674610140268 58.367437775594681 0 58.367437775594681 -176.2372765351929 0 0 0 0 41.32583135960158 18.944892753740532 0 18.944892753740532 -16.793800703089801 0 0 0 0 24.746672144159675 11.905148146673127 0 11.905148146673127 -34.860713014821158 0 0 0 0 20.163027143251384 11.194330487006482 0 11.194330487006482 -17.853593443069258 0 0 0 0 34.49724901036825 4.2772503166215756 0 4.2772503166215756 -36.418929752577611 0 0 0 0 18.220575469997129 0.525440596957651 0 0.525440596957651 -51.781176466505713 0 0 0 0 9.8609496578574181 6.7004770157045641 0 6.7004770157045641 -61.111265023994747 0 0 0 0 11.056285119317181 18.414058801863348 0 18.414058801863348 -36.021206876621363 0 0 0 0 5.7726285389144323 26.034169593672459 0 26.034169593672459 -52.689176012087046 0 0 0 0 6.242021219979506 11.202088361496862 0 11.202088361496862 -32.875371475491193 0 0 0 0 -1.0529354691971093 24.423026100335846 0 24.423026100335846 -4.689633450087058 0 0 0 0 9.019273205078207 20.675417862206814 0 20.675417862206814 -3.7065609120923 0 0 0 0 13.625628483830951 21.743182408110442 0 21.743182408110442 -27.167071523385857 0 0 0 0 8.9351459891477134 17.624689298802878 0 17.624689298802878 -8.1690779854616267 0 0 0 0 21.680017344595399 21.575204111568382 0 21.575204111568382 -7.8847182331558088 0 0 0 0 4.6567465172847733 23.988993627326636 0 23.988993627326636 5.8213029214475682 0 0 0 0 12.053632065712009 8.1827118296187109 0 8.1827118296187109 -7.4902333540976542 0 0 0 0 6.7126346736276901 25.367907465423656 0 25.367907465423656 -51.962071882460805 0 0 0 0 6.7467375369451474 10.997159305397872 0 10.997159305397872 -26.720594298471042 0 0 0 0 3.9111927687190473 27.040023047224736 0 27.040023047224736 -29.574764199684068 0 0 0 0 -0.45151549874572083 22.170921031051876 0 22.170921031051876 -52.23273369996059 0 0 0 0 21.052407405688427 10.038328431376613 0 10.038328431376613 -62.927460098551819 0 0 0 0 16.184332859091228 10.0101544897243 0 10.0101544897243 -30.465505702204609 0 0 0 0 22.669657807709882 1.0052190276801412 0 1.0052190276801412 10.423212225941825 0 0 0 0 17.7128835594267 21.294980068894802 0 21.294980068894802 -30.421982595811642 0 0 0 0 18.2237747377294 23.74942843219992 0 23.74942843219992 10.161037766667505 0 0 0 0 10.998711928594275 9.1918732930919305 0 9.1918732930919305 24.582876086969918 0 0 0 0 15.6007450686011 22.816750245789081 0 22.816750245789081 19.23835243056601 0 0 0 0 10.185156709107105 22.507095417809978 0 22.507095417809978 33.6993787299225 0 0 0 0 3.7806337030488066 14.869542264210395 0 14.869542264210395 26.925336516760581 0 0 0 0 5.4513917669537477 -6.0480375379665929 0 -6.0480375379665929 19.433965318180981 0 0 0 0 -3.6539491952280514 12.757952720614412 0 12.757952720614412 35.614922445976845 0 0 0 0 1.0638975272886455 23.099772698054949 0 23.099772698054949 23.197863569811034 0 0 0 0 -0.58577802642730603 15.508263598177862 0 15.508263598177862 36.595206419449823 0 0 0 0 -0.51797142543364316 19.375811350275399 0 19.375811350275399 36.350748595705227 0 0 0 0 0.19828040900756605 16.212628444465281 0 16.212628444465281 21.771098322849866 0 0 0 0 5.1966681558114942 24.83532932540129 0 24.83532932540129 23.812219917537732 0 0 0 0 10.24642573975143 24.303637499454453 0 24.303637499454453 23.841013145123725 0 0 0 0 0.046390061033889651 23.939775644537804 0 23.939775644537804 45.137448765952286 0 0 0 0 -0.45370169793022797 12.843181571353853 0 12.843181571353853 47.539950232487172 0 0 0 0 -3.7682249363861047 13.879451966541183 0 13.879451966541183 49.950213350854028 0 0 0 0 0.16854596685152501 -14.915371809493081 0 -14.915371809493081 44.626186158446217 0 0 0 0 0.44473382388241589 -17.849183475902464 0 -17.849183475902464 75.757468444094712 0 0 0 0 0.15262502070982009 19.852441252402969 0 19.852441252402969 76.247941417372203 0 0 0 0 10.456124627176905 19.465709773294293 0 19.465709773294293 57.399804751072224 0 0 0 0 -6.6788778966292739 -7.8611719364280361 0 -7.8611719364280361 122.82855387480595 0 0 0 0 40.481461895687971 48.17537111067395 0 48.17537111067395 58.238856805904561 0 0 0 0 11.623893815587508 41.626694762361694 0 41.626694762361694 111.9525560468428 0 0 0 0 31.133197106813896 35.495158250444547 0 35.495158250444547 54.508691429375176 0 0 0 0 32.197815308580175 31.529694676654799 0 31.529694676654799 16.753558033400623 0 0 0 0 10.819182703911792 31.624699368867368 0 31.624699368867368 58.118649316494498 0 0 0 0 20.661103693535551 25.001117760613852 0 25.001117760613852 16.261262006573816 0 0 0 0 55.964091170346364 53.449004614330079 0 53.449004614330079 7.644333237812134 0 0 0 0 4.338681874984303 1.0306816607155156 0 1.0306816607155156 -8.5702335176856561 0 0 0 0 15.696164103661431 29.479466032791152 0 29.479466032791152 30.916087203342158 0 0 0 0 47.573340727074537 10.586012232830399 0 10.586012232830399 -88.257033941959207 0 0 0 0 42.131745636695996 11.696307693132439 0 11.696307693132439 -97.251389129469089 0 0 0 0 27.961385473245173 9.4674203533297714 0 9.4674203533297714 -30.633782098534539 0 0 0 0 80.364886469615158 21.831599631022073 0 21.831599631022073 -12.475226618708803 0 0 0 0 49.929409127405961 37.112678097231765 0 37.112678097231765 -20.083150647822549 0 0 0 0 0.39107557372426527 -0.8109382499526312 0 -0.8109382499526312 -1.9483505490683917 0 0 0 0 45.22083973629924 47.152114928416722 0 47.152114928416722 65.173554914952547 0 0 0 0 39.229882840794744 -7.9597793561933941 0 -7.9597793561933941 55.887538505972771 0 0 0 0 30.604569177608937 45.445216785725279 0 45.445216785725279 53.149844381007824 0 0 0 0 71.349341379742327 43.370109787845848 0 43.370109787845848 8.1693504981158185 0 0 0 0 70.05486526268578 -19.455508147787341 0 -19.455508147787341 -18.346825113754676 0 0 0 0 15.575773528205417 -1.2155793707196665 0 -1.2155793707196665 -7.9254791896752685 0 0 0 0 25.290573467093054 -14.843087823663154 0 -14.843087823663154 0.80185295183218841 0 0 0 0 -29.454554262047168 6.6818014123550711 0 6.6818014123550711 16.405129979224057 0 0 0 0 82.226380628882907 -2.3378501487150061 0 -2.3378501487150061 -36.171571617760492 0 0 0 0 22.789511098134199 -3.2924259558391107 0 -3.2924259558391107 -2.7483174059292512 0 0 0 0 41.552346987387864 3.405019436202565 0 3.405019436202565 -18.953620150364259 0 0 0 0 -23.053197178582195 -31.251558600341014 0 -31.251558600341014 49.708368737858109 0 0 0 0 2.1478661235830714 3.1401616894298385 0 3.1401616894298385 -2.3805847387132832 0 0 0 0 13.987684314379464 -3.9257915432956274 0 -3.9257915432956274 -0.72542930303499631 0 0 0 0 1.8990257763944101 3.4300031534180562 0 3.4300031534180562 -12.932341406730302 0 0 0 0 14.29603950821911 -1.7774933279629295 0 -1.7774933279629295 -5.3669268010821725 0 0 0 0 68.683817941513553 15.811838944549663 0 15.811838944549663 -52.982697104531326 0 0 0 0 16.050181385269752 -10.272278761998052 0 -10.272278761998052 -16.492539586264684 0 0 0 0 16.742442980429075 -5.0628919394371508 0 -5.0628919394371508 -3.1486812881511899 0 0 0 0 12.661199821527077 -1.412870889966932 0 -1.412870889966932 -1.381886522367739 0 0 0 0 19.730765836546198 -3.8799639079734334 0 -3.8799639079734334 -10.448341555524621 0 0 0 0 13.560523515523528 29.008994740736625 0 29.008994740736625 5.7622130364761688 0 0 0 0 13.368159393590759 15.50122476400611 0 15.50122476400611 -26.200101952364093 0 0 0 0 11.271587653114693 -10.801999711485905 0 -10.801999711485905 18.700051796638718 0 0 0 0 45.364573770617426 14.571987182509702 0 14.571987182509702 -55.922892437749397 0 0 0 0 19.276786718943697 0.057249418316914102 0 0.057249418316914102 -1.9806689998044114 0 0 0 0 9.5590151131618768 -5.7757697326978814 0 -5.7757697326978814 -12.804349910649762 0 0 0 0 30.359617768815951 4.916967291407218 0 4.916967291407218 -26.482134570849666 0 0 0 0 39.459506976272678 11.2716034102923 0 11.2716034102923 -36.852790229335369 0 0 0 0 25.762701902945992 12.57323890635962 0 12.57323890635962 0.71773928862876346 0 0 0 0 22.458833897369914 4.7705259693939297 0 4.7705259693939297 -26.424012615061656 0 0 0 0 6.2779970456613228 -2.8043455234110297 0 -2.8043455234110297 -14.257957457208249 0 0 0 0 17.899405901478531 -1.8113544399581727 0 -1.8113544399581727 -5.0880869201993466 0 0 0 0 18.841771108569048 2.6773582866818195 0 2.6773582866818195 -6.6246050577958115 0 0 0 0 24.091450253278282 6.3044270708806209 0 6.3044270708806209 -6.4094449515954501 0 0 0 0 13.495532986567923 11.983354907509302 0 11.983354907509302 0.67224767246011474 0 0 0 0 21.50567902403418 14.493557028729811 0 14.493557028729811 3.6908552300574229 0 0 0 0 3.6879464799712878 14.10390950580495 0 14.10390950580495 -53.026680746743295 0 0 0 0 14.563378745658554 3.0530926275677217 0 3.0530926275677217 -1.4328798459058838 0 0 0 0 29.473714427091181 26.53048523124744 0 26.53048523124744 18.414225300292401 0 0 0 0 1.7695309177688046 4.1547097545629512 0 4.1547097545629512 0.70948846965213264 0 0 0 0 43.809965082618874 -31.075038354851586 0 -31.075038354851586 -63.542841577878562 0 0 0 0 -107.07452059301431 35.057048929636949 0 35.057048929636949 -84.963656496685871 0 0 0 0 98.827447190065868 8.3690367541712476 0 8.3690367541712476 -81.794798203074606 0 0 0 0 65.973438712302595 33.476002809766214 0 33.476002809766214 -22.741046178504803 0 0 0 0 25.226851250149139 4.6939679503340557 0 4.6939679503340557 -0.042818432056325406 0 0 0 0 8.7545342806261033 0.25528428133065972 0 0.25528428133065972 -9.2507792716151016 0 0 0 0 61.053865482457695 -13.181575240945108 0 -13.181575240945108 -5.0862148144287858 0 0 0 0 52.581541949679377 -1.8294471121394054 0 -1.8294471121394054 -12.607751222226398 0 0 0 0 50.535400696433499 -0.53468528793086989 0 -0.53468528793086989 2.8383814160097245 0 0 0 0 65.122733770753257 13.828180928438087 0 13.828180928438087 1.3288051138832486 0 0 0 0 14.509384173608851 11.401809361480673 0 11.401809361480673 10.394371280107407 0 0 0 0 48.298268987375195 7.1535884685538349 0 7.1535884685538349 5.0875427897542522 0 0 0 0 85.530257541191531 -64.082906579650967 0 -64.082906579650967 107.79668433022847 0 0 0 0 34.479025196269504 -30.970229196565015 0 -30.970229196565015 93.996776935354319 0 0 0 0 31.380079316488263 -10.429000015528118 0 -10.429000015528118 117.63544182647411 0 0 0 0 352.68907561902597 -203.66198132695558 0 -203.66198132695558 171.76897333017132 0 0 0 0 4.3476721846309374 -94.273600162473087 0 -94.273600162473087 324.61770201593822 0 0 0 0 52.526311959147279 -19.845519834512402 0 -19.845519834512402 100.78552886924808 0 0 0 0 54.662807948760019 -51.52206498922834 0 -51.52206498922834 85.605515230285164 0 0 0 0 30.662994960584911 -52.348087280748359 0 -52.348087280748359 143.83312770665793 0 0 0 0 33.812081323456368 -0.62177459849863226 0 -0.62177459849863226 48.519668327795785 0 0 0 0 -12.089958600277896 10.53442711349976 0 10.53442711349976 37.345059312711328 0 0 0 0 34.063535961955495 -5.8183083376779905 0 -5.8183083376779905 33.308711835100667 0 0 0 0 32.004600546060828 6.9090263489690642 0 6.9090263489690642 33.828976382916608 0 0 0 0 431.95446454515331 -216.92058734454304 0 -216.92058734454304 216.49821418809432 0 0 0 0 409.48986182091176 -199.19600324994747 0 -199.19600324994747 211.10789340908605 0 0 0 0 399.87059483013218 -275.13166653068504 0 -275.13166653068504 207.8842098097607 0 0 0 0 682.7628745106922 -215.11256479874044 0 -215.11256479874044 60.061542153175878 0 0 0 0 475.21778687799815 -59.913647079492364 0 -59.913647079492364 8.3769301278229591 0 0 0 0 504.58153143973323 -94.755341671158362 0 -94.755341671158362 49.069310531978317 0 0 0 0 483.2614367177157 -107.36474806057919 0 -107.36474806057919 74.174736517017891 0 0 0 0 412.45119180346956 -112.00912498838736 0 -112.00912498838736 208.5694719765373 0 0 0 0 422.86906683420239 -125.91346057514782 0 -125.91346057514782 135.2498257938708 0 0 0 0 328.55906351951126 -128.83949402065971 0 -128.83949402065971 374.93493838910507 0 0 0 0 -5.9285652812832268 35.166611375605953 0 35.166611375605953 125.32588550082619 0 0 0 0 0.47222649023133556 0.41397923686835725 0 0.41397923686835725 2.3703722013317332 0 0 0 0 647.54432343234657 -307.33856830307491 0 -307.33856830307491 215.0680028048439 0 0 0 0 490.15324397775476 -191.45722533586306 0 -191.45722533586306 196.62456987609767 0 0 0 0 373.43522228619258 -105.97132986580368 0 -105.97132986580368 134.01523845918382 0 0 0 0 501.0266678660937 -142.77776920207722 0 -142.77776920207722 96.982084863874206 0 0 0 0 517.29268790382775 -111.67057054845372 0 -111.67057054845372 97.508411159040605 0 0 0 0 476.30145006517705 -55.481564952420058 0 -55.481564952420058 93.403514737012301 0 0 0 0 24.940229188898229 -23.953456170215304 0 -23.953456170215304 -5.6623040215754372 0 0 0 0 9.4448662708891788 -12.481558302669328 0 -12.481558302669328 -10.657008451195907 0 0 0 0 18.040217852898479 3.8858369923782874 0 3.8858369923782874 2.70253734820733 0 0 0 0 1.8183778008751688 -13.890334330087853 0 -13.890334330087853 -3.1374859931238461 0 0 0 0 2.0889866311151053 0.39086589609749467 0 0.39086589609749467 6.8066282756031615 0 0 0 0 603.39202855768963 -81.03671981755565 0 -81.03671981755565 33.886145463116009 0 0 0 0 4.1260952712327708 -17.858910512126386 0 -17.858910512126386 -1.6318096499608146 0 0 0 0 19.196758782592951 -17.259494164223725 0 -17.259494164223725 -8.4323474676475598 0 0 0 0 441.42159004043788 -45.347140940851205 0 -45.347140940851205 91.232133973109512 0 0 0 0 564.11380226402616 -1.8111129201033975 0 -1.8111129201033975 9.3938188552438078 0 0 0 0 563.70315062833652 -7.5677599587338591 0 -7.5677599587338591 29.243539419901936 0 0 0 0 557.29236625955673 -20.867420365142152 0 -20.867420365142152 87.447626621153177 0 0 0 0 557.29236625926569 -20.867420365037106 0 -20.867420365037106 87.447626621222298 0 0 0 0 557.4093261975213 -39.072740966981655 0 -39.072740966981655 -9.2993870624031842 0 0 0 0 374.34683873975882 50.975696236603426 0 50.975696236603426 57.189142189064114 0 0 0 0 156.96440829601488 0.60969623880146173 0 0.60969623880146173 84.694343293398447 0 0 0 0 253.15459943675523 -223.21561141159884 0 -223.21561141159884 304.2102785455354 0 0 0 0 -78.777280114096357 -80.763040909772826 0 -80.763040909772826 256.78843731999405 0 0 0 0 198.54650377680082 -74.597837475996585 0 -74.597837475996585 190.54168298821128 0 0 0 0 199.64602788470802 -71.950550246624744 0 -71.950550246624744 192.16613013344431 0 0 0 0 387.92571191828756 -179.97398279058726 0 -179.97398279058726 244.96482775608456 0 0 0 0 543.92437133978456 -517.15193997961455 0 -517.15193997961455 240.48429517941713 0 0 0 0 519.64275224052835 -367.01868277759013 0 -367.01868277759013 278.26281877059682 0 0 0 0 134.13235176034505 -308.01222257667678 0 -308.01222257667678 341.24351596074325 0 0 0 0 552.42116211634129 -537.54515007667146 0 -537.54515007667146 247.69184180142202 0 0 0 0 281.42328195385198 -1061.6352627802767 0 -1061.6352627802767 372.95190955028102 0 0 0 0 -183.46073528219131 -327.17040639632069 0 -327.17040639632069 433.39109537829518 0 0 0 0 380.86820277461084 -572.4262679063188 0 -572.4262679063188 497.00038803080861 0 0 0 0 -590.04415895428974 -79.654562196677034 0 -79.654562196677034 214.37839337893956 0 0 0 0 24.771539240973652 -251.49879407155549 0 -251.49879407155549 261.08739714174044 0 0 0 0 -401.14392482532639 -869.88685904378769 0 -869.88685904378769 354.51497065153444 0 0 0 0 9.7593137772568355 -9.8093577014810762 0 -9.8093577014810762 7.567679635538811 0 0 0 0 -992.36991747488355 -566.07319173920223 0 -566.07319173920223 354.51466403566747 0 0 0 0 -82.992456857260549 -128.16331408565247 0 -128.16331408565247 -571.21645301232047 0 0 0 0 -109.38404203866958 -67.571367431686213 0 -67.571367431686213 -58.95755235946126 0 0 0 0 -592.36870882885705 133.87018714904411 0 133.87018714904411 -142.96454001661732 0 0 0 0 -125.44004777426017 0.31660474919317494 0 0.31660474919317494 88.091873767678749 0 0 0 0 220.22120289225131 51.117642172265732 0 51.117642172265732 -137.53456750706482 0 0 0 0 256.90755447431002 -47.839173753528485 0 -47.839173753528485 36.889360376288437 0 0 0 0 -102.67838001821656 -148.54583882067573 0 -148.54583882067573 -33.68002297074645 0 0 0 0 -465.81957669477561 -191.57157207872729 0 -191.57157207872729 129.07505869333136 0 0 0 0 224.56565481628058 -100.86309600908135 0 -100.86309600908135 -269.10315880694634 0 0 0 0 224.64318457746413 -112.19356179737252 0 -112.19356179737252 91.052162890469845 0 0 0 0 -532.61431734675716 -548.81408047387913 0 -548.81408047387913 -185.17864325703863 0 0 0 0 16.947438038516879 -21.468213727265407 0 -21.468213727265407 13.854267140154644 0 0 0 0 702.49531166951783 190.43632557153248 0 190.43632557153248 -74.535658264319665 0 0 0 0 4.1684856601743832 2.6093826645913865 0 2.6093826645913865 1.0239928012160906 0 0 0 0 16.344528930902015 40.996860251318139 0 40.996860251318139 163.13127468423409 0 0 0 0 -307.23762161178456 -129.39525894307053 0 -129.39525894307053 123.54155069171975 0 0 0 0 568.57391155487858 42.949530319179757 0 42.949530319179757 -154.15611439257191 0 0 0 0 63.462096922274213 37.995216227955098 0 37.995216227955098 -1.1202064364101716 0 0 0 0 73.14617316017393 18.752977199176712 0 18.752977199176712 -31.150408114599486 0 0 0 0 125.41253529291134 88.022536869601026 0 88.022536869601026 28.22288753306384 0 0 0 0 121.4230705477039 -0.15571900965426266 0 -0.15571900965426266 -50.402324276848958 0 0 0 0 55.4729090333567 23.579102135113317 0 23.579102135113317 -3.0407325239939382 0 0 0 0 107.00007510842988 115.52452927533886 0 115.52452927533886 147.79395138827022 0 0 0 0 40.696403254827601 53.422094000589368 0 53.422094000589368 99.703956940174976 0 0 0 0 324.76292406686116 118.68821631483115 0 118.68821631483115 16.334558726508476 0 0 0 0 523.7491080572363 -761.86515962029262 0 -761.86515962029262 -56.240275271123892 0 0 0 0 5.0271357276360504 19.059587791986814 0 19.059587791986814 -38.765102202205526 0 0 0 0 25.821680809429381 -25.274915176269133 0 -25.274915176269133 -20.945165781111427 0 0 0 0 3.7556637434147859 2.8972572462388655 0 2.8972572462388655 9.66184329919151 0 0 0 0 903.2570864437439 -127.40915112972107 0 -127.40915112972107 -80.433455512407818 0 0 0 0 677.08808991371188 99.440297003290198 0 99.440297003290198 -7.2259107439267609 0 0 0 0 528.8498123770114 -76.468604406632039 0 -76.468604406632039 101.54452396041961 0 0 0 0 557.29236625984777 -20.867420365053476 0 -20.867420365053476 87.447626621171366 0 0 0 0 534.80520734318998 -78.701216465266953 0 -78.701216465266953 61.186089614605407 0 0 0 0 455.20305298137828 80.665919858026427 0 80.665919858026427 -22.705098806805836 0 0 0 0 491.73301430401625 -121.32621635407941 0 -121.32621635407941 -126.6833489055648 0 0 0 0 0.59299898898302672 0.25514710956997533 0 0.25514710956997533 3.1039132463727519 0 0 0 0 912.6510373869969 -198.73067792767642 0 -198.73067792767642 -160.95922531052997 0 0 0 0 -22.956723873488954 -5.3776930353772059 0 -5.3776930353772059 -3.8730031308200523 0 0 0 0 366.45199103018967 -3.036409186567198 0 -3.036409186567198 80.325199373067335 0 0 0 0 32.456797888356959 -15.816046192754129 0 -15.816046192754129 -59.463404383210445 0 0 0 0 33.456171948520932 -10.349439052540674 0 -10.349439052540674 -32.094751513755909 0 0 0 0 36.257095260894857 -9.2688565880671376 0 -9.2688565880671376 -33.979327112368082 0 0 0 0 20.743671226722654 8.0594374491120107 0 8.0594374491120107 -41.06587882791473 0 0 0 0 19.929183058615308 -8.8779391763555395 0 -8.8779391763555395 -31.837813615820778 0 0 0 0 21.229102792334743 9.2391944642004091 0 9.2391944642004091 -36.502290586820891 0 0 0 0 26.923995351826306 -5.0801854395567716 0 -5.0801854395567716 -31.816496518731583 0 0 0 0 43.090780781232752 -11.926630193991514 0 -11.926630193991514 -43.004578171047797 0 0 0 0 35.738988508994225 12.680103152737502 0 12.680103152737502 -9.4471048475556927 0 0 0 0 53.914119573455537 6.2067751519366539 0 6.2067751519366539 -28.420808162198227 0 0 0 0 32.099839623013395 39.231810280385957 0 39.231810280385957 -168.09391369416335 0 0 0 0 19.231114139867714 64.092464733659654 0 64.092464733659654 -127.82779267651676 0 0 0 0 20.121903517050669 5.7932917522462049 0 5.7932917522462049 -45.462610285247138 0 0 0 0 18.946462384250481 20.389094702744842 0 20.389094702744842 -92.697423749957579 0 0 0 0 8.3852518421772402 20.832784808193537 0 20.832784808193537 -60.474363856470518 0 0 0 0 20.529358246130869 -0.55462395015592847 0 -0.55462395015592847 -56.836093840962349 0 0 0 0 55.1604146268146 82.616940477889443 0 82.616940477889443 80.044099401257881 0 0 0 0 29.618295930122258 4.8073071329770301 0 4.8073071329770301 -52.665526213865633 0 0 0 0 52.290765721001662 89.81046755877378 0 89.81046755877378 -54.664893339465152 0 0 0 0 155.66344718704931 41.468974521506311 0 41.468974521506311 -209.03410096776224 0 0 0 0 143.90853829614935 26.263094047647883 0 26.263094047647883 -180.10397850066147 0 0 0 0 236.62892976892181 46.485987305006347 0 46.485987305006347 -238.02779587238729 0 0 0 0 474.82833969860803 178.92782084307555 0 178.92782084307555 -109.80704719811411 0 0 0 0 108.29846331957378 -62.179429008434454 0 -62.179429008434454 232.51320536707453 0 0 0 0 468.30318987077499 -307.4723292203891 0 -307.4723292203891 -131.98582365309812 0 0 0 0 11.142931406910066 -182.33440254424795 0 -182.33440254424795 -163.39680636325284 0 0 0 0 28.386551894946024 -5.7276775930327597 0 -5.7276775930327597 -0.99063826789064591 0 0 0 0 40.877699472687368 -2.4908684069501188 0 -2.4908684069501188 -1.4481420384852359 0 0 0 0 105.22051967110019 -38.771240052896246 0 -38.771240052896246 -351.15961614308168 0 0 0 0 272.87374011182692 -139.62575797262798 0 -139.62575797262798 -277.04798430645997 0 0 0 0 9.0190572227002122 -59.82640553242959 0 -59.82640553242959 -292.72003376471366 0 0 0 0 90.574139064119663 -106.71027050920156 0 -106.71027050920156 -282.47356362787013 0 0 0 0 -4.1981819941283902 -27.363904244991033 0 -27.363904244991033 -299.81796599267636 0 0 0 0 38.065601719747065 -27.972973216587775 0 -27.972973216587775 -340.52814471089573 0 0 0 0 106.72289002890466 -74.839048307593202 0 -74.839048307593202 -315.93302268015668 0 0 0 0 163.77325622015633 -29.702885177937787 0 -29.702885177937787 -347.53383813405298 0 0 0 0 120.97387209732551 -44.216540306088064 0 -44.216540306088064 -345.77726048620661 0 0 0 0 109.36547767219599 -41.821885294162712 0 -41.821885294162712 -330.91407474438893 0 0 0 0 166.02710795738676 -7.3423623278004015 0 -7.3423623278004015 -316.84193644884908 0 0 0 0 196.46482608059887 -42.090134873131319 0 -42.090134873131319 -349.75622994659102 0 0 0 0 142.07549742443371 -27.715942862920429 0 -27.715942862920429 -296.14159395923161 0 0 0 0 35.663651621827739 -1.1173921255020973 0 -1.1173921255020973 0.023883808724068194 0 0 0 0 112.39495673874626 -42.679256385873032 0 -42.679256385873032 -350.78856029538122 0 0 0 0 91.023927182715852 44.368591836775749 0 44.368591836775749 -209.12571813693199 0 0 0 0 64.858466236153618 6.0107754836135427 0 6.0107754836135427 -265.11364742626029 0 0 0 0 -19.530428322905209 5.4086057414697279 0 5.4086057414697279 -265.10027876326512 0 0 0 0 122.05728880059905 -29.023227417208545 0 -29.023227417208545 -326.57486914933997 0 0 0 0 4.9632930116495118 -47.399939229653683 0 -47.399939229653683 -329.06784941468396 0 0 0 0 -76.062079935392831 -21.240638727689884 0 -21.240638727689884 -271.06951289998142 0 0 0 0 -18.36771352100186 106.56452375610206 0 106.56452375610206 -318.51440650597215 0 0 0 0 -49.882039549702313 102.73922669501371 0 102.73922669501371 -291.28022299032091 0 0 0 0 21.614212354877964 105.64861158166423 0 105.64861158166423 -337.06964490387054 0 0 0 0 35.797610201523639 76.293324427047992 0 76.293324427047992 -307.64121194952827 0 0 0 0 -12.43931552534923 73.679744955692968 0 73.679744955692968 -269.27795963477365 0 0 0 0 45.73307102592662 73.405961225665123 0 73.405961225665123 -270.11379982180461 0 0 0 0 13.207313190563582 60.28166570459689 0 60.28166570459689 -164.75532491627325 0 0 0 0 31.998755054781213 82.948290942239737 0 82.948290942239737 -212.66645534429153 0 0 0 0 27.158026343080564 49.490730485260428 0 49.490730485260428 -222.20157933256814 0 0 0 0 737.36404061237408 189.19811846251517 0 189.19811846251517 -74.600570671892683 0 0 0 0 370.8834487804852 36.305134086945685 0 36.305134086945685 -11.00861659843531 0 0 0 0 104.40601566746045 -383.26502314685911 0 -383.26502314685911 -171.72085621325641 0 0 0 0 116.71138319135571 -46.456128857251997 0 -46.456128857251997 -293.30464455143829 0 0 0 0 -199.45229258170002 -295.84201810524564 0 -295.84201810524564 -136.32044447693977 0 0 0 0 13.894820568471914 -4.912000798077151 0 -4.912000798077151 0.0004870586530971539 0 0 0 0 24.119229728979633 -19.982819818732082 0 -19.982819818732082 7.582087369009237 0 0 0 0 2.089013157019167 -3.1707867579429561 0 -3.1707867579429561 2.0791596791006355 0 0 0 0 271.30139471209259 -191.92599273238423 0 -191.92599273238423 118.728734708858 0 0 0 0 500.43431595587754 -226.70235868884365 0 -226.70235868884365 80.262471079123159 0 0 0 0 58.355152900619913 2.5256081880330328 0 2.5256081880330328 -11.463902442315709 0 0 0 0 882.26143620084622 -0.79470195916305308 0 -0.79470195916305308 -15.195862985730516 0 0 0 0 839.899422980292 94.641003059354276 0 94.641003059354276 1.9391408118677775 0 0 0 0 767.4810012406524 17.014526839925775 0 17.014526839925775 -0.19401519369299308 0 0 0 0 828.62840975191284 57.577139786870035 0 57.577139786870035 -111.5523198960699 0 0 0 0 860.83228751394199 37.227616447043388 0 37.227616447043388 -110.93225190034595 0 0 0 0 776.44792638116633 -37.963878547907321 0 -37.963878547907321 -166.73564208948585 0 0 0 0 810.55788129627763 -107.85805117017769 0 -107.85805117017769 -58.498811133982159 0 0 0 0 473.87128538169782 -79.390907510084915 0 -79.390907510084915 33.791772312998859 0 0 0 0 558.16067499140627 -99.370380638872135 0 -99.370380638872135 -41.106507331280042 0 0 0 0 438.12497640712536 -19.770386307989611 0 -19.770386307989611 -0.011383911303976356 0 0 0 0 259.78134517557919 -124.08482627856125 0 -124.08482627856125 38.192995268405966 0 0 0 0 115.54924658882373 5.5288962854279191 0 5.5288962854279191 59.731389837382608 0 0 0 0 96.610536594525911 -46.531906922457111 0 -46.531906922457111 99.313169654689887 0 0 0 0 353.13334899020992 -208.93826449953991 0 -208.93826449953991 100.23118985721146 0 0 0 0 117.32219650741172 9.3655618893665586 0 9.3655618893665586 5.0302011636719897 0 0 0 0 -57.99954337462259 48.298372525174898 0 48.298372525174898 280.25317213150288 0 0 0 0 -60.303961987970979 20.766764846904096 0 20.766764846904096 -38.016241138235159 0 0 0 0 420.86820069429814 -4.5401768325355079 0 -4.5401768325355079 7.447428509518943 0 0 0 0 2.6603153840214873 2.2939389124522052 0 2.2939389124522052 2.2626598901384938 0 0 0 0 401.58172598832243 -1.7896774162737188 0 -1.7896774162737188 381.86458844766287 0 0 0 0 4.9197785079595633 109.86519815821703 0 109.86519815821703 353.53244297465369 0 0 0 0 410.04682104120729 -645.69547563035781 0 -645.69547563035781 583.95252971960213 0 0 0 0 4308.1179420316766 -283.56768165897233 0 -283.56768165897233 744.72636836098332 0 0 0 0 -335.86201709830493 -655.00665142163655 0 -655.00665142163655 610.14610000854077 0 0 0 0 1144.9720420897356 -986.45891953104501 0 -986.45891953104501 627.29682681315751 0 0 0 0 3690.8012489664106 883.6512024418646 0 883.6512024418646 -640.03526303675142 0 0 0 0 1996.4383279661706 -1069.0107054240093 0 -1069.0107054240093 155.51887699566529 0 0 0 0 877.22494309012836 427.90407140215353 0 427.90407140215353 -231.05530048984872 0 0 0 0 1350.2690677910141 -479.11096738145358 0 -479.11096738145358 -67.677101491724244 0 0 0 0 1314.6955684904824 -107.09015243677433 0 -107.09015243677433 -158.34866284583046 0 0 0 0 812.18852632827475 -321.99198923878743 0 -321.99198923878743 -72.724210606352358 0 0 0 0 813.78650709355134 -275.00003433683861 0 -275.00003433683861 136.27685949819769 0 0 0 0 314.5702777003753 -131.43627065526456 0 -131.43627065526456 191.01617771548729 0 0 0 0 12.084895825508852 0.94480095009777187 0 0.94480095009777187 -5.9966751561225689 0 0 0 0 0.30558231232862454 -2.7454616278280097 0 -2.7454616278280097 -4.4251938529072081 0 0 0 0 2.639813936991402 -0.22859716324590096 0 -0.22859716324590096 -0.029293048219713742 0 0 0 0 19.199051734374734 7.7821542781934268 0 7.7821542781934268 6.6387426969814385 0 0 0 0 43.435179615189554 27.516025607686402 0 27.516025607686402 19.164719441641381 0 0 0 0 14.157265598438244 24.169205193491223 0 24.169205193491223 58.308194029755221 0 0 0 0 0.96796375439470239 0.072310136399480029 0 0.072310136399480029 -0.0072573069395533837 0 0 0 0 1.8116733274655417 -0.028661987448885425 0 -0.028661987448885425 -0.026017054508152511 0 0 0 0 12.303995662601665 68.064949201997848 0 68.064949201997848 55.263293065965961 0 0 0 0 12.968788336133173 1.9441924469644363 0 1.9441924469644363 -5.3396367337644293 0 0 0 0 48.322490666847443 -47.414840013215098 0 -47.414840013215098 -80.48652387498953 0 0 0 0 10.047452136774382 8.8517468658523057 0 8.8517468658523057 6.5918066623080085 0 0 0 0 7.5959169412453775 81.30180741451332 0 81.30180741451332 -115.51724265922348 0 0 0 0 3.8916075403302557 -0.35236764877683413 0 -0.35236764877683413 -3.1740469625513792 0 0 0 0 -41.172208253236022 91.078610687726453 0 91.078610687726453 46.003965255987119 0 0 0 0 145.23429517881596 -66.151670223769628 0 -66.151670223769628 -33.434794884148019 0 0 0 0 1.8649364438526845 2.2261045194319564 0 2.2261045194319564 1.0315014967661116 0 0 0 0 0.74828781210817397 -11.557624413771206 0 -11.557624413771206 0.1670537789086558 0 0 0 0 100.28666942633572 4.9222752533319527 0 4.9222752533319527 -3.7208253483681824 0 0 0 0 24.459008986508707 -21.529041352849639 0 -21.529041352849639 17.775198988577827 0 0 0 0 101.87772725819377 -67.566032675729957 0 -67.566032675729957 15.539205832804953 0 0 0 0 4.9260022821254097 24.785067187420445 0 24.785067187420445 29.650498789939064 0 0 0 0 -98.836660428612959 150.53953763405718 0 150.53953763405718 68.742201229810689 0 0 0 0 6.5667667476079714 6.3427050817102213 0 6.3427050817102213 6.0728458544464345 0 0 0 0 0.86968230992837903 1.2214000678910395 0 1.2214000678910395 2.0296831463008544 0 0 0 0 -168.00639584429155 50.733219073630266 0 50.733219073630266 62.712991040834595 0 0 0 0 315.52528999646165 -7.2015581796201218 0 -7.2015581796201218 -16.740269040647718 0 0 0 0 192.98492869283655 6.9694258462984635 0 6.9694258462984635 -105.66745106370081 0 0 0 0 22.331984599499265 8.2675998600591356 0 8.2675998600591356 -46.103737171780722 0 0 0 0 38.41157255986036 -67.31360660302289 0 -67.31360660302289 84.920043452722439 0 0 0 0 133.72980474450742 91.221343014935655 0 91.221343014935655 96.899473796050415 0 0 0 0 13.155930199296563 -2.108861704968831 0 -2.108861704968831 35.788920037708976 0 0 0 0 18.466770249011461 -12.546657342067078 0 -12.546657342067078 13.975964238816687 0 0 0 0 -4.4871274907345651 21.266571502136344 0 21.266571502136344 28.968980092591664 0 0 0 0 -11.881767047263565 -67.046586585360615 0 -67.046586585360615 -25.964806612313396 0 0 0 0 -7.5833212531288154 1.8733221692411917 0 1.8733221692411917 6.0489485522990663 0 0 0 0 6.7110988199432313 5.276564399549585 0 5.276564399549585 3.1509989660897428 0 0 0 0 -2.616905055630923 8.4806399746573362 0 8.4806399746573362 5.9956631664890665 0 0 0 0 47.626911321822263 6.7721565528905785 0 6.7721565528905785 -0.29168280636849886 0 0 0 0 111.43142588240153 70.89479931362041 0 70.89479931362041 48.648100872480427 0 0 0 0 87.017455491426517 24.295867427163216 0 24.295867427163216 -18.866161632198214 0 0 0 0 99.17339428984269 -20.027023460071405 0 -20.027023460071405 -21.983900798595187 0 0 0 0 133.60406302105548 -4.4981020813658006 0 -4.4981020813658006 -25.231416828464489 0 0 0 0 155.20632003547144 -27.291086244144253 0 -27.291086244144253 -10.790736001929417 0 0 0 0 2.0380756781742946 3.9009720116428639 0 3.9009720116428639 4.3531275765149893 0 0 0 0 106.34140419473988 37.062260914161527 0 37.062260914161527 -32.133922929260507 0 0 0 0 41.918386698860559 -1.3554637690613163 0 -1.3554637690613163 -11.929906918404413 0 0 0 0 239.22518745597336 115.03003769830127 0 115.03003769830127 18.793168166526129 0 0 0 0 -48.20057462035038 39.493328106176193 0 39.493328106176193 238.38386942158456 0 0 0 0 2.1276451893514832 2.2281702013038114 0 2.2281702013038114 2.2607875314818981 0 0 0 0 -252.50545306960703 96.084461884910752 0 96.084461884910752 156.66727044682102 0 0 0 0 270.91097262347648 -86.169566399325745 0 -86.169566399325745 3.3335664559022007 0 0 0 0 -293.08869102407334 -70.278803460200152 0 -70.278803460200152 166.95774794976387 0 0 0 0 -35.545215364836622 -50.542094107956473 0 -50.542094107956473 130.12449463537814 0 0 0 0 1.5090560939827924 1.0818158926221599 0 1.0818158926221599 1.286136187210845 0 0 0 0 375.95712762355106 -261.37000342417809 0 -261.37000342417809 204.53709258289621 0 0 0 0 -23.808551756877932 6.7399072054796534 0 6.7399072054796534 8.8372996814796352 0 0 0 0 5.298765545594506 -170.9773986345308 0 -170.9773986345308 107.5135302306112 0 0 0 0 524.16086584600271 1.2217252577925137 0 1.2217252577925137 4.8639427864864047 0 0 0 0 -280.94951137941098 549.74859381249723 0 549.74859381249723 140.48229497364991 0 0 0 0 694.42149874466122 205.44618272072853 0 205.44618272072853 -4.8336905663104517 0 0 0 0 -68.325832427566638 -344.03267189293132 0 -344.03267189293132 -326.68805669847347 0 0 0 0 19.615487216473809 -16.016642128603934 0 -16.016642128603934 9.0884923380757812 0 0 0 0 -201.859323836572 80.519806156313734 0 80.519806156313734 306.83573396685006 0 0 0 0 1256.9064988989267 -283.72368330444056 0 -283.72368330444056 -47.405660566256756 0 0 0 0 695.74775950732874 163.22631584414262 0 163.22631584414262 -250.88949791892389 0 0 0 0 2947.5961217641016 104.29249882381009 0 104.29249882381009 -254.08026610972223 0 0 0 0 11.403587059701067 -7.7203011963365498 0 -7.7203011963365498 4.8539004446346201 0 0 0 0 848.09040632061078 1383.4094604718962 0 1383.4094604718962 325.69924219016593 0 0 0 0 4151.8645493374279 136.41829515860064 0 136.41829515860064 351.08310868757371 0 0 0 0 1564.682936354613 -1232.7659405945933 0 -1232.7659405945933 253.25383928100018 0 0 0 0 290.83804355585016 -6.4870288149733142 0 -6.4870288149733142 -405.62226410849235 0 0 0 0 26.494734126928961 189.16041513642782 0 189.16041513642782 21.849605331617568 0 0 0 0 438.33185166002295 263.59749502415332 0 263.59749502415332 -35.614699363175987 0 0 0 0 320.59897743331385 -235.14131871243592 0 -235.14131871243592 26.132656016617716 0 0 0 0 -104.09870337817119 219.32267297650486 0 219.32267297650486 43.719362174968708 0 0 0 0 0.065834128137794323 69.622969020195001 0 69.622969020195001 -117.76105313332806 0 0 0 0 126.5507226135087 40.377651675304314 0 40.377651675304314 -122.96452414673041 0 0 0 0 19.253486396661856 -13.812764559840787 0 -13.812764559840787 6.7718909541303516 0 0 0 0 180.51080932453624 22.229578607527969 0 22.229578607527969 29.828720853443428 0 0 0 0 30.932990266868728 13.424944665828534 0 13.424944665828534 -128.6521278456386 0 0 0 0 -29.069672717130743 79.863430588133554 0 79.863430588133554 55.512919064408607 0 0 0 0 7.8893333373385985 2.6513504362821152 0 2.6513504362821152 6.3384796970792205 0 0 0 0 28.517238574982912 -2.0950442319991751 0 -2.0950442319991751 37.885625611292284 0 0 0 0 -82.717765120250988 -82.964037007146317 0 -82.964037007146317 17.107051822761917 0 0 0 0 13.439137183227956 -10.371479110709799 0 -10.371479110709799 7.6803578356235267 0 0 0 0 221.60077993477171 68.009119391921047 0 68.009119391921047 38.111691556702226 0 0 0 0 8.3895801374712846 -2.6857058178074453 0 -2.6857058178074453 0.52124901880482533 0 0 0 0 296.77451133224531 48.822109345749141 0 48.822109345749141 -3.1554388435641272 0 0 0 0 306.72637523606681 70.383335202529906 0 70.383335202529906 1.3918044108761478 0 0 0 0 477.60602798243053 99.356037358460867 0 99.356037358460867 -11.259100746439231 0 0 0 0 438.85963723875466 203.54357287642358 0 203.54357287642358 -3.1508445417889561 0 0 0 0 206.77309103754305 130.98566661589663 0 130.98566661589663 49.302061692573716 0 0 0 0 606.31719284757855 -117.24566624948682 0 -117.24566624948682 -62.71776412328245 0 0 0 0 760.34430486909696 6.131704593671202 0 6.131704593671202 -58.544796366643027 0 0 0 0 574.71714338251331 -10.489911112476506 0 -10.489911112476506 -46.024157313313594 0 0 0 0 458.71683290638612 45.431723374471972 0 45.431723374471972 -45.923498665909051 0 0 0 0 437.53757141309325 21.079864447826807 0 21.079864447826807 -30.577254551551839 0 0 0 0 430.29982585320977 7.3283429678126701 0 7.3283429678126701 -54.42431361554732 0 0 0 0 414.49721051540109 46.433921955775645 0 46.433921955775645 -60.820702595217213 0 0 0 0 431.36351679643121 15.468292778277522 0 15.468292778277522 -39.421151366594415 0 0 0 0 453.96432040433865 46.739471289625044 0 46.739471289625044 -77.68504462636713 0 0 0 0 324.62027367580595 -23.030800707377239 0 -23.030800707377239 -65.857927431572648 0 0 0 0 324.87705960718449 73.947640830627705 0 73.947640830627705 -2.2917220910544458 0 0 0 0 319.42781295688474 55.834203006842898 0 55.834203006842898 -2.8310868562428766 0 0 0 0 192.55758970053284 -1.472377772773708 0 -1.472377772773708 -4.7684106729882529 0 0 0 0 170.66408437936479 31.710079332863568 0 31.710079332863568 -5.912352942775442 0 0 0 0 36.1307856044441 23.656650988846764 0 23.656650988846764 11.912729043699983 0 0 0 0 187.47489457200572 -18.826461071980759 0 -18.826461071980759 -15.508899292454203 0 0 0 0 223.78419195630704 33.760763704846966 0 33.760763704846966 -17.82953849031469 0 0 0 0 182.37010867145364 -117.24465760686887 0 -117.24465760686887 -92.550772905766735 0 0 0 0 165.99450685502961 -34.769843501165496 0 -34.769843501165496 -80.025158305423929 0 0 0 0 41.825222700732411 -35.788843121754553 0 -35.788843121754553 -9.5670989190635964 0 0 0 0 -84.008548280486139 -127.26075090526251 0 -127.26075090526251 -109.62197355142644 0 0 0 0 -3.0288830331555801 103.99658640485825 0 103.99658640485825 -171.6483132915256 0 0 0 0 284.15258221636759 -235.2912383461487 0 -235.2912383461487 -466.19567545504651 0 0 0 0 638.36754800613562 219.32218844222734 0 219.32218844222734 -40.388733466268718 0 0 0 0 568.1063345339353 -27.627215902633907 0 -27.627215902633907 -315.94354559891121 0 0 0 0 494.7099335666644 100.35614120254476 0 100.35614120254476 -45.635866271933992 0 0 0 0 457.66101554868146 4.0384035163426972 0 4.0384035163426972 -149.57443093388838 0 0 0 0 402.35346402399591 15.876614629662981 0 15.876614629662981 -80.808030137782509 0 0 0 0 107.65674126660451 2.002973744610939 0 2.002973744610939 -5.7486942609150447 0 0 0 0 266.77054286982457 -80.37355916828983 0 -80.37355916828983 1.8836324715030059 0 0 0 0 131.25179693321115 -99.540379018498697 0 -99.540379018498697 127.23304799100833 0 0 0 0 5.0844467441161783 3.3178144786472643 0 3.3178144786472643 2.2726079605581258 0 0 0 0 145.85902655798782 -139.87651339440077 0 -139.87651339440077 103.26382560376283 0 0 0 0 -86.573337393710972 80.887443106908279 0 80.887443106908279 -20.378566363562186 0 0 0 0 110.57879336323822 -112.20324346844791 0 -112.20324346844791 19.506108535360909 0 0 0 0 99.005883975070901 -72.185839671798021 0 -72.185839671798021 84.445926063627326 0 0 0 0 9.6503826193088571 4.4561827446527928 0 4.4561827446527928 2.4787623950649587 0 0 0 0 213.74865700499504 -86.969021474543752 0 -86.969021474543752 36.281167387716778 0 0 0 0 105.22944934788757 -81.906381447651057 0 -81.906381447651057 36.197485921004727 0 0 0 0 26.43606738105882 81.249889249285189 0 81.249889249285189 -136.84908841344952 0 0 0 0 -49.746637357966392 193.01457741487889 0 193.01457741487889 163.11866998699367 0 0 0 0 246.33865183216403 40.639817751574412 0 40.639817751574412 -130.26315043144587 0 0 0 0 176.53020977595588 -147.91287230901821 0 -147.91287230901821 -73.14165192725477 0 0 0 0 4.3075682238413719 -118.21711560691278 0 -118.21711560691278 -77.646470826997273 0 0 0 0 10.952506872063623 -6.7002108340585096 0 -6.7002108340585096 2.6289112107949126 0 0 0 0 11.282380694814492 -23.080000854296856 0 -23.080000854296856 9.4336089802848164 0 0 0 0 2.5423364947826599 -0.72784033727268138 0 -0.72784033727268138 -0.25674784140394991 0 0 0 0 -19.424592512383242 -102.11934916532869 0 -102.11934916532869 -51.01305597714213 0 0 0 0 45.372446286251034 1.3794357475981442 0 1.3794357475981442 3.1610370743808289 0 0 0 0 76.139294038275693 -93.860482735767221 0 -93.860482735767221 -570.9195331792364 0 0 0 0 -26.525031251832843 -22.809899723421836 0 -22.809899723421836 -195.62657489255176 0 0 0 0 81.07182484929217 111.31259000388764 0 111.31259000388764 -320.1404118323519 0 0 0 0 150.31805913090648 98.3209282393546 0 98.3209282393546 -16.416359203085904 0 0 0 0 11.716157259397733 -8.2757601146977322 0 -8.2757601146977322 129.15172060152008 0 0 0 0 198.39027330969111 -76.868668299185629 0 -76.868668299185629 -192.49539411976795 0 0 0 0 2.6439388870311973 0.38950364648488289 0 0.38950364648488289 0.89515736105245391 0 0 0 0 67.569036827044329 -86.470799538860547 0 -86.470799538860547 118.08076628837262 0 0 0 0 16.243393946577271 35.843980119641145 0 35.843980119641145 -29.600009660941623 0 0 0 0 70.577520086864297 -1.9917738560919851 0 -1.9917738560919851 -62.505327478649633 0 0 0 0 -38.042947090143571 23.182806853224406 0 23.182806853224406 -214.08584379676176 0 0 0 0 92.526370325635071 -48.15849254787031 0 -48.15849254787031 -250.23357649926515 0 0 0 0 36.378451189157204 130.22417577231735 0 130.22417577231735 -290.49207426663293 0 0 0 0 78.493473397218622 86.149291235458605 0 86.149291235458605 -165.64805074198284 0 0 0 0 105.12307849124772 35.847150128948783 0 35.847150128948783 -215.33606699399945 0 0 0 0 68.61106607466354 50.541238701543307 0 50.541238701543307 -8.1062724560729293 0 0 0 0 58.72733793235966 61.641008522428365 0 61.641008522428365 32.73854346213102 0 0 0 0 43.819377941457788 45.064248779953232 0 45.064248779953232 61.303906620027192 0 0 0 0 49.647807231971171 7.3603550841333707 0 7.3603550841333707 -1.4127008908172434 0 0 0 0 40.616614830608853 6.2788428625519224 0 6.2788428625519224 -1.3545437721326945 0 0 0 0 109.41246611133101 -40.710046853548135 0 -40.710046853548135 -595.81889415609771 0 0 0 0 65.904151689524952 43.839123204479648 0 43.839123204479648 3.307687266710218 0 0 0 0 32.672122965086601 64.186232775349367 0 64.186232775349367 125.96317900151563 0 0 0 0 64.044530792038131 33.321985575010103 0 33.321985575010103 74.363787339321334 0 0 0 0 27.792104142820676 4.2836178807395129 0 4.2836178807395129 -0.85332764453148646 0 0 0 0 112.42779029696248 137.59195704146805 0 137.59195704146805 253.69526370863491 0 0 0 0 102.17891052219784 110.35615209670073 0 110.35615209670073 227.17227570430896 0 0 0 0 207.04002137274074 92.510685649331151 0 92.510685649331151 -164.93681823900943 0 0 0 0 100.25727529305004 166.07929793702567 0 166.07929793702567 56.652368996928999 0 0 0 0 209.23502592227305 150.72820590193805 0 150.72820590193805 -363.86324733035258 0 0 0 0 162.78369041645783 183.8387508186363 0 183.8387508186363 -111.36629687875921 0 0 0 0 107.58132269623547 -1.6626230431698943 0 -1.6626230431698943 -3.1475979791377813 0 0 0 0 44.465185341337929 48.680323778789671 0 48.680323778789671 -86.753877913677115 0 0 0 0 55.515038008597912 51.194545645389894 0 51.194545645389894 5.8963277073162033 0 0 0 0 97.770497074140678 15.74507728820949 0 15.74507728820949 1.3898952270133795 0 0 0 0 73.445412804952866 117.95417679843422 0 117.95417679843422 -154.38512599874389 0 0 0 0 87.478061132394942 11.70687024288209 0 11.70687024288209 -37.015024456400077 0 0 0 0 97.290246874375214 11.100958610372871 0 11.100958610372871 0.22367487078521875 0 0 0 0 107.5457850627281 19.288138651947122 0 19.288138651947122 -34.879291932900841 0 0 0 0 64.795616300138136 74.970637744895285 0 74.970637744895285 -72.756667835807775 0 0 0 0 387.8862185778853 -19.856548992170588 0 -19.856548992170588 -382.44298372954017 0 0 0 0 609.04153146399767 500.04834252639034 0 500.04834252639034 89.855274867232765 0 0 0 0 2.7083767377219488 -0.75085145149049026 0 -0.75085145149049026 -0.4058822534330826 0 0 0 0 430.98504960044374 342.66790142955847 0 342.66790142955847 186.69526029310441 0 0 0 0 402.0987206931386 166.21122245894412 0 166.21122245894412 369.64956997957324 0 0 0 0 118.7211541497345 -514.13930715129504 0 -514.13930715129504 43.610169499343101 0 0 0 0 190.54114551941166 566.54221116474059 0 566.54221116474059 902.20611577330953 0 0 0 0 10.235632675607462 1.5438615756948799 0 1.5438615756948799 0.092829608475059944 0 0 0 0 136.31326938243001 87.786118976466355 0 87.786118976466355 151.31067293356773 0 0 0 0 154.92718518569745 121.50253668064568 0 121.50253668064568 189.05373581117965 0 0 0 0 169.49727058432472 169.70813170388078 0 169.70813170388078 339.47567154850867 0 0 0 0 262.35415053191537 276.19983247921039 0 276.19983247921039 166.41336603065679 0 0 0 0 267.83609743547277 253.25623590816332 0 253.25623590816332 66.504088696767667 0 0 0 0 297.22193242545472 219.43627992590905 0 219.43627992590905 70.567154614687979 0 0 0 0 244.50955531641375 195.03693402394151 0 195.03693402394151 70.624018915398665 0 0 0 0 438.87722470685549 378.59265422190697 0 378.59265422190697 61.768493249516375 0 0 0 0 3.4254612051275899 0.044185866444337307 0 0.044185866444337307 -2.6130623970592826 0 0 0 0 525.50908083259128 218.61012950477436 0 218.61012950477436 -251.19607429442976 0 0 0 0 272.64284527674317 -162.8664972552171 0 -162.8664972552171 -568.15411049385671 0 0 0 0 18.88617795927712 -122.61083838873006 0 -122.61083838873006 -212.49383855044834 0 0 0 0 44.764326410877402 -228.23732265724539 0 -228.23732265724539 -849.36554178279493 0 0 0 0 196.21608718286734 27.864763085297454 0 27.864763085297454 -684.14217004209058 0 0 0 0 177.03026175206446 -7.8142536461291421 0 -7.8142536461291421 -1.4119106621611801 0 0 0 0 5.9400335251525576 -0.74257614457982868 0 -0.74257614457982868 -2.8297672939996783 0 0 0 0 194.39920011954382 201.74970638102832 0 201.74970638102832 -212.36626622398853 0 0 0 0 274.68475088502601 -21.057842318788062 0 -21.057842318788062 -286.5947114521241 0 0 0 0 177.3970502165229 -7.8885446534886547 0 -7.8885446534886547 -0.91988745477958234 0 0 0 0 336.91060546792141 -19.88692669273405 0 -19.88692669273405 -769.34026775993243 0 0 0 0 119.75070567871444 -33.992281825237114 0 -33.992281825237114 -273.72940545186452 0 0 0 0 278.67389992334211 -150.69426385642623 0 -150.69426385642623 -609.77495142222824 0 0 0 0 146.51731557394669 -10.912215379268218 0 -10.912215379268218 36.335791364481679 0 0 0 0 173.3015196938386 -4.456424633096983 0 -4.456424633096983 -1.2372121874816138 0 0 0 0 126.67124671042984 -67.903535577563275 0 -67.903535577563275 -214.99489121366832 0 0 0 0 242.95153030630718 -151.2606385266933 0 -151.2606385266933 151.60906233627338 0 0 0 0 552.56028081216209 -99.567051023586146 0 -99.567051023586146 -242.41034420624112 0 0 0 0 253.66282418866831 -180.93856175596898 0 -180.93856175596898 -107.38979187790437 0 0 0 0 348.08065151877236 86.346334238948202 0 86.346334238948202 142.01419269141041 0 0 0 0 200.47911516074964 -73.097300295583182 0 -73.097300295583182 -138.46496440545161 0 0 0 0 187.28044250483072 -102.00539310701583 0 -102.00539310701583 -39.758393122970574 0 0 0 0 241.01969190516684 -2.3501225581076142 0 -2.3501225581076142 44.076676744420524 0 0 0 0 202.79895941607538 -99.887205216520215 0 -99.887205216520215 -191.81825649699249 0 0 0 0 149.76352846978989 -148.80751685546215 0 -148.80751685546215 -136.24036014112971 0 0 0 0 198.87153697143367 -191.18366924731663 0 -191.18366924731663 -264.26197336118048 0 0 0 0 198.51666355681664 -158.55522959115297 0 -158.55522959115297 -279.72987396903432 0 0 0 0 121.4394488849648 -189.29433847317569 0 -189.29433847317569 -232.26209291125724 0 0 0 0 209.32968075566168 -211.94150036921474 0 -211.94150036921474 -406.67583359046648 0 0 0 0 152.39458825383917 -56.988649519711544 0 -56.988649519711544 -37.649819468890882 0 0 0 0 168.4980619641338 -28.132260750866372 0 -28.132260750866372 0.97737793841035803 0 0 0 0 161.10498518337423 -31.302852651111973 0 -31.302852651111973 2.5346257886551027 0 0 0 0 848.62293361854245 176.64700091773466 0 176.64700091773466 -483.54578131725702 0 0 0 0 154.51618658504242 -21.953690938797408 0 -21.953690938797408 1.6822307346370113 0 0 0 0 300.63323851628229 44.400697541099362 0 44.400697541099362 -513.78804401457273 0 0 0 0 154.28445352484414 -20.254717821819213 0 -20.254717821819213 -18.259396710457622 0 0 0 0 166.22887048516282 -18.652190834487079 0 -18.652190834487079 -1.4572982654929254 0 0 0 0 21.946082150207076 314.73699106907407 0 314.73699106907407 118.31356470633909 0 0 0 0 29.912480033799653 5.888193521527965 0 5.888193521527965 -0.06604148823045719 0 0 0 0 84.514477517117484 48.866803942655679 0 48.866803942655679 -146.38076892687639 0 0 0 0 153.95291729070595 116.73144453247369 0 116.73144453247369 266.79602811224322 0 0 0 0 144.9304267962234 -10.719693523975366 0 -10.719693523975366 -114.83006059039235 0 0 0 0 80.71071736419249 -14.831750956332758 0 -14.831750956332758 6.54488834893092 0 0 0 0 35.640931021930854 20.40740304899143 0 20.40740304899143 -12.150815048919817 0 0 0 0 113.11950601514172 -34.5010715216116 0 -34.5010715216116 1.372080168657086 0 0 0 0 140.11760387481991 -22.258384576560388 0 -22.258384576560388 20.101062451833059 0 0 0 0 199.67629664454034 -159.01788047928051 0 -159.01788047928051 -323.51679829377554 0 0 0 0 126.61008837350164 33.027409692771016 0 33.027409692771016 -27.094069304811683 0 0 0 0 70.283913273364305 9.0030715876721388 0 9.0030715876721388 45.542980450463801 0 0 0 0 103.93904357676989 3.2318069930406512 0 3.2318069930406512 -1.1381093338263386 0 0 0 0 104.94523459681659 -43.616744148906037 0 -43.616744148906037 -18.780206099300813 0 0 0 0 86.967290199725085 -12.21247683220605 0 -12.21247683220605 1.8654595910648908 0 0 0 0 26.135792312288714 8.6268006791598779 0 8.6268006791598779 0.58468567398528926 0 0 0 0 236.35854212839331 115.27326054535035 0 115.27326054535035 -143.4326066122226 0 0 0 0 208.50357028693543 72.620208408718099 0 72.620208408718099 -25.906645874930291 0 0 0 0 51.153360291049466 52.327214120636654 0 52.327214120636654 44.21592999170133 0 0 0 0 335.64017591073934 -34.444047986678925 0 -34.444047986678925 -98.207358281314555 0 0 0 0 3.6287500018466687 -1.5390575612278354 0 -1.5390575612278354 -0.47683230539958554 0 0 0 0 114.24855893244967 428.79148842108634 0 428.79148842108634 346.2692725657239 0 0 0 0 -160.86952270207985 70.410777939865966 0 70.410777939865966 157.09015378784625 0 0 0 0 -269.42230074078543 189.34260279644354 0 189.34260279644354 378.54596839321619 0 0 0 0 107.96343749822699 -222.0288580510578 0 -222.0288580510578 -491.53638420213724 0 0 0 0 5.5217929477803409 -70.689396780909192 0 -70.689396780909192 112.75337525944269 0 0 0 0 65.281178149255766 -29.582600378135325 0 -29.582600378135325 3.135325078279994 0 0 0 0 196.43142481894756 93.714128654444153 0 93.714128654444153 -34.520328444738425 0 0 0 0 105.06401352863759 -52.268671784547223 0 -52.268671784547223 56.594040769851517 0 0 0 0 100.93903616002274 -21.086550518852931 0 -21.086550518852931 -5.5766838308681708 0 0 0 0 3.9198579726325988 -92.742401575417944 0 -92.742401575417944 -193.35283220297924 0 0 0 0 93.523011124649202 -134.07457364805452 0 -134.07457364805452 -175.9041069621544 0 0 0 0 -95.245294345259026 -133.70081704072987 0 -133.70081704072987 -178.2049669101084 0 0 0 0 66.557224870390201 -164.34728104346846 0 -164.34728104346846 -208.73097889697738 0 0 0 0 140.64084818850097 -105.58190303193396 0 -105.58190303193396 -279.18908633080628 0 0 0 0 103.08693955351191 -197.89306533390845 0 -197.89306533390845 -401.77980095787257 0 0 0 0 68.363019231488579 -63.318038315334775 0 -63.318038315334775 -34.951488828547781 0 0 0 0 133.23775855814165 -75.960238486186199 0 -75.960238486186199 -54.029310601194084 0 0 0 0 141.55921703172498 -89.810491125754879 0 -89.810491125754879 -205.95735449386405 0 0 0 0 123.49274522216729 -74.582031666046021 0 -74.582031666046021 43.178632893367194 0 0 0 0 136.26461323245894 -109.88878006028597 0 -109.88878006028597 -7.6453038414830417 0 0 0 0 59.027697523575625 -103.05003276017817 0 -103.05003276017817 100.27821135382248 0 0 0 0 343.5677439608844 -76.205844579282484 0 -76.205844579282484 -213.90021054883493 0 0 0 0 37.730986940907314 -71.312794830154417 0 -71.312794830154417 245.64164960733206 0 0 0 0 59.119886607892113 -13.256378228647009 0 -13.256378228647009 14.112115519638564 0 0 0 0 76.215531250883942 -149.76082829331301 0 -149.76082829331301 150.33750034775824 0 0 0 0 115.59019654880103 -156.1560769870685 0 -156.1560769870685 102.78509268684596 0 0 0 0 354.36230222709128 -106.43035830594346 0 -106.43035830594346 9.6904117796122478 0 0 0 0 161.63403983619355 -248.76911757828165 0 -248.76911757828165 191.2151838511991 0 0 0 0 51.485798775760486 -22.081242636192478 0 -22.081242636192478 17.586841079066573 0 0 0 0 108.00100876619399 -147.56873606815577 0 -147.56873606815577 95.52662523362855 0 0 0 0 90.475408656853688 -120.27581986390793 0 -120.27581986390793 118.08350464347544 0 0 0 0 31.165780440729577 -28.435204443781686 0 -28.435204443781686 68.860995153773615 0 0 0 0 120.13295992916392 -63.406966729010463 0 -63.406966729010463 27.886405698285316 0 0 0 0 178.69129771225198 -90.628154279532751 0 -90.628154279532751 83.303374942784217 0 0 0 0 116.02522351544758 -128.87949735918687 0 -128.87949735918687 105.29202364904442 0 0 0 0 146.61805721691053 -157.29902891514556 0 -157.29902891514556 127.0480451360732 0 0 0 0 118.87692835028429 -111.65002390379762 0 -111.65002390379762 131.65088143391264 0 0 0 0 109.57243844255572 -125.8533649922984 0 -125.8533649922984 111.51491374936313 0 0 0 0 160.97063833798893 -166.1794004375935 0 -166.1794004375935 166.79801037189804 0 0 0 0 332.27716351533309 -137.15637096627938 0 -137.15637096627938 86.338696576448285 0 0 0 0 307.41986359711154 -77.279999868023879 0 -77.279999868023879 130.24032825425411 0 0 0 0 399.4878317445764 -30.050114649362087 0 -30.050114649362087 37.888115000065454 0 0 0 0 399.3358563422662 -34.345931987770655 0 -34.345931987770655 57.402210819234085 0 0 0 0 487.18172297210549 12.249228103638799 0 12.249228103638799 -55.443900699428013 0 0 0 0 474.47460335338837 -33.143776285185311 0 -33.143776285185311 36.505773345482851 0 0 0 0 455.49841140191711 35.443820824425302 0 35.443820824425302 0.13667872633391198 0 0 0 0 432.00760313725914 14.858665279742752 0 14.858665279742752 -16.442708592674421 0 0 0 0 355.70542717340868 60.399388821798198 0 60.399388821798198 39.318979267697614 0 0 0 0 425.65857748257986 111.54712742776303 0 111.54712742776303 55.32040539840591 0 0 0 0 384.34249756134523 49.425570626499052 0 49.425570626499052 -2.4485956533868602 0 0 0 0 377.52429342245159 64.107568419055724 0 64.107568419055724 52.550817847693452 0 0 0 0 272.66877697681048 -18.531209367896963 0 -18.531209367896963 15.891595134957697 0 0 0 0 174.90598053843132 -36.779475982519671 0 -36.779475982519671 33.529418070577208 0 0 0 0 193.54972166731022 -78.90272106929865 0 -78.90272106929865 -55.152738864958565 0 0 0 0 278.07070136911352 -19.291216742713232 0 -19.291216742713232 14.624762487821954 0 0 0 0 207.86138518329244 -113.85184101428354 0 -113.85184101428354 58.602317263804366 0 0 0 0 288.45056614087662 -35.332499994166938 0 -35.332499994166938 39.011296477277824 0 0 0 0 4502.4619268877577 1061.8816173854013 0 1061.8816173854013 -5.6762537084899041 0 0 0 0 4117.2775604188046 1277.7114516233689 0 1277.7114516233689 -77.735304019171849 0 0 0 0 3906.743920517416 740.38233908185555 0 740.38233908185555 207.32392097315903 0 0 0 0 -796.44322317092337 337.28610620855187 0 337.28610620855187 31.268413014288285 0 0 0 0 264.84012791205896 369.39467021711266 0 369.39467021711266 -114.35419791347312 0 0 0 0 3889.99932942343 1394.7744000930388 0 1394.7744000930388 128.29046099250721 0 0 0 0 3.6973942289404653 7.4285467636366604 0 7.4285467636366604 2.0143494500594277 0 0 0 0 5686.4783092455764 1088.9164706569618 0 1088.9164706569618 24.678828746203557 0 0 0 0 3780.8461803089667 772.12250486851451 0 772.12250486851451 -354.13066663437161 0 0 0 0 2731.1385698177382 724.84313732873204 0 724.84313732873204 -126.25468130489037 0 0 0 0 2701.2169321322235 822.8873059990176 0 822.8873059990176 -152.43222899978457 0 0 0 0 4243.5574674628224 724.23152167156672 0 724.23152167156672 -431.65905706319012 0 0 0 0 3793.2943402066594 734.64860557382679 0 734.64860557382679 -398.28055139386879 0 0 0 0 3442.2320178000227 62.625361969602544 0 62.625361969602544 0.17685699746938738 0 0 0 0 4494.4274618741456 524.95848396313522 0 524.95848396313522 -512.2641509884985 0 0 0 0 3774.9833380321143 246.39457810678692 0 246.39457810678692 62.123713539815334 0 0 0 0 2990.7752953614763 179.69268785341526 0 179.69268785341526 -252.89891602513592 0 0 0 0 3465.1964702724872 565.52552957983323 0 565.52552957983323 -258.15179823252868 0 0 0 0 2551.3445582879867 414.97190808194011 0 414.97190808194011 174.73943521925889 0 0 0 0 2365.9936859229638 24.477531386329076 0 24.477531386329076 -17.037384124615301 0 0 0 0 4.6158508285911353 -2.6742165547229177 0 -2.6742165547229177 1.054826808913085 0 0 0 0 423.56838036421686 188.96529822527845 0 188.96529822527845 194.24901572363882 0 0 0 0 13.385110924441619 3.2693019470995637 0 3.2693019470995637 0.9862753669080131 0 0 0 0 3140.0815829623789 -931.71338637258668 0 -931.71338637258668 -62.128452395946908 0 0 0 0 4.3058938766480424 382.77282398869625 0 382.77282398869625 251.2578774345161 0 0 0 0 -13.114854994782945 -110.54077157016604 0 -110.54077157016604 -46.935926367391154 0 0 0 0 269.65344208758688 30.654242836103016 0 30.654242836103016 -266.98978566151902 0 0 0 0 90.451088686815638 -111.07011283944226 0 -111.07011283944226 -111.13594970443165 0 0 0 0 28.495437532139249 7.7432431291385342 0 7.7432431291385342 1.9368256415122334 0 0 0 0 7.7131831986685029 5.5064903082685106 0 5.5064903082685106 -1.0869841287678816 0 0 0 0 40.087951816310181 10.208619488535206 0 10.208619488535206 0.75589448924549818 0 0 0 0 14.436437839824919 -0.72990735996171452 0 -0.72990735996171452 1.5970712206192643 0 0 0 0 356.23233748732673 -28.139230153735255 0 -28.139230153735255 10.521104110225906 0 0 0 0 68.326688232744345 -41.077875497342745 0 -41.077875497342745 -139.89335566312195 0 0 0 0 66.494036587062737 53.619546864734708 0 53.619546864734708 -69.065752306152717 0 0 0 0 59.651162194459175 49.493292235473461 0 49.493292235473461 172.27095015532876 0 0 0 0 76.405884974319633 64.882827421260401 0 64.882827421260401 -20.730937598891614 0 0 0 0 129.01496281633445 -113.14369563957924 0 -113.14369563957924 170.53537017950308 0 0 0 0 382.4764040750415 -63.156628211811743 0 -63.156628211811743 4.3526491930719402 0 0 0 0 180.29787107402808 98.746713427931411 0 98.746713427931411 -57.554381004154209 0 0 0 0 64.827876886118247 -335.84197344446227 0 -335.84197344446227 213.42359828867359 0 0 0 0 1574.9324857969332 489.5192980741208 0 489.5192980741208 172.47715434090836 0 0 0 0 1565.6364302647853 -270.65941116766942 0 -270.65941116766942 18.487046911385619 0 0 0 0 407.89768843865022 -136.79446944184119 0 -136.79446944184119 167.69864373521361 0 0 0 0 886.31028637225972 -237.91719940407927 0 -237.91719940407927 -120.8897058361328 0 0 0 0 758.69251128149335 819.40095622845161 0 819.40095622845161 -55.906880350963377 0 0 0 0 533.33917112380732 -15.279602126633336 0 -15.279602126633336 -257.70587458773491 0 0 0 0 443.94561696844175 74.39333158849729 0 74.39333158849729 -214.71683169717676 0 0 0 0 463.70357811683789 -23.805493925146493 0 -23.805493925146493 -155.40863312576647 0 0 0 0 551.96833785647686 -99.987736532740939 0 -99.987736532740939 -132.76872244846948 0 0 0 0 214.92947294113401 -63.267979466007773 0 -63.267979466007773 -31.618015316555386 0 0 0 0 215.20346197659092 -66.119251823169748 0 -66.119251823169748 -1.9462421895719331 0 0 0 0 5.0403041954390062 -4.3621482052752469 0 -4.3621482052752469 1.3124744860767801 0 0 0 0 227.07846239284845 -5.883361733171121 0 -5.883361733171121 -11.59257016270848 0 0 0 0 227.05026452336551 -7.801446116076912 0 -7.801446116076912 -72.591980190462209 0 0 0 0 335.28731564227201 -111.22216796532422 0 -111.22216796532422 26.572507709904876 0 0 0 0 1.191176727085363 3.4372497206947514 0 3.4372497206947514 -14.625617213372454 0 0 0 0 67.244365044563892 31.136432912320288 0 31.136432912320288 -4.4201154065397077 0 0 0 0 -55.647170036885655 -33.23492735227731 0 -33.23492735227731 65.687830881874476 0 0 0 0 5.6500538588958307 -5.0358481454316291 0 -5.0358481454316291 -0.021430806403136993 0 0 0 0 60.835646430496126 -42.437263911111792 0 -42.437263911111792 -65.387549510777504 0 0 0 0 66.449284573129262 68.142458271027067 0 68.142458271027067 0.87661803983121445 0 0 0 0 77.152574565494433 21.012574896997194 0 21.012574896997194 -0.032780977501943198 0 0 0 0 61.037847444124054 26.892996029918777 0 26.892996029918777 2.6231865495356033 0 0 0 0 44.58422411151696 29.802142297808587 0 29.802142297808587 4.9225436112510579 0 0 0 0 55.258761344666709 34.387470480403636 0 34.387470480403636 2.8161124778043813 0 0 0 0 69.39111911386135 40.170748894599001 0 40.170748894599001 1.2915169518828407 0 0 0 0 34.525399104662938 27.592432929689267 0 27.592432929689267 6.8236706512621481 0 0 0 0 44.017163337644888 32.935542337610968 0 32.935542337610968 5.3383326728089742 0 0 0 0 30.640675694798119 30.038598677068876 0 30.038598677068876 7.8425678060284554 0 0 0 0 27.615758861880749 22.496558801912215 0 22.496558801912215 7.4990370267096296 0 0 0 0 2.3250700837234035 20.132790846284024 0 20.132790846284024 16.739878265942934 0 0 0 0 4.5504017517378088 30.703935922920664 0 30.703935922920664 13.744413860014447 0 0 0 0 16.559673423413187 29.232053671323229 0 29.232053671323229 13.912801398017677 0 0 0 0 11.81150768862426 19.122127694685844 0 19.122127694685844 16.839681631936401 0 0 0 0 5.8728758355136961 14.725429258208578 0 14.725429258208578 13.626519614962717 0 0 0 0 23.033952897683093 15.717642447699685 0 15.717642447699685 8.9959467221715386 0 0 0 0 22.869967737274237 22.655569676901116 0 22.655569676901116 7.9910358535198611 0 0 0 0 19.492436609740253 11.095913915519759 0 11.095913915519759 5.0576467997079817 0 0 0 0 47.578853667830117 26.605296815719157 0 26.605296815719157 1.8947004285373623 0 0 0 0 38.633404421518208 20.112479791368514 0 20.112479791368514 0.45116920414284323 0 0 0 0 41.700178502069321 27.863225561038234 0 27.863225561038234 2.4945959930465733 0 0 0 0 47.153547582889587 19.900013628534737 0 19.900013628534737 -6.2177482499864709 0 0 0 0 47.730364353512414 18.016889384717615 0 18.016889384717615 -5.747267944280793 0 0 0 0 29.994519707433938 18.119188774499435 0 18.119188774499435 -2.6108327907168132 0 0 0 0 32.774479175795932 14.678289129255688 0 14.678289129255688 -7.2453517832591388 0 0 0 0 32.304514085291885 19.370136033648578 0 19.370136033648578 0.59730003032791501 0 0 0 0 32.359089485449658 15.992843121730175 0 15.992843121730175 -5.283959904681069 0 0 0 0 38.191603661685349 14.596327036296259 0 14.596327036296259 3.9005033367835202 0 0 0 0 52.29522790494957 21.572706305758402 0 21.572706305758402 -7.8736887234128972 0 0 0 0 47.885336925959564 14.556457709727965 0 14.556457709727965 -7.0760357392882725 0 0 0 0 -26.545057367562549 34.74047649055646 0 34.74047649055646 6.1333097846938927 0 0 0 0 42.109872470646224 13.553802369745881 0 13.553802369745881 0.26839704344547499 0 0 0 0 15.834981631256511 -2.0951797700815007 0 -2.0951797700815007 -11.675309143632607 0 0 0 0 6.2040556665048143 7.3466425343455057 0 7.3466425343455057 -3.0242979841863971 0 0 0 0 59.735112190741347 22.202306459530746 0 22.202306459530746 -6.4334440682932836 0 0 0 0 91.487135695471807 -11.975794207873673 0 -11.975794207873673 15.99442281189755 0 0 0 0 0.46035127292270772 69.443081944395942 0 69.443081944395942 48.623853483085483 0 0 0 0 22.152191095243325 43.29489138175262 0 43.29489138175262 -28.035835203044684 0 0 0 0 -4.6140802997397259 -34.130098335011347 0 -34.130098335011347 0.1468419480772658 0 0 0 0 21.287504441366764 55.023524069821292 0 55.023524069821292 -27.778288558859515 0 0 0 0 38.150195402817133 11.606983744794661 0 11.606983744794661 0.30957190914139721 0 0 0 0 27.913042983622745 8.3662972530845821 0 8.3662972530845821 -2.8415656064805681 0 0 0 0 9.2005084354053395 2.2695173001784497 0 2.2695173001784497 -1.3460729371954381 0 0 0 0 41.169896047053044 -7.7496494352198262 0 -7.7496494352198262 -37.119511640010771 0 0 0 0 54.829311129476991 9.5161848155405249 0 9.5161848155405249 -25.522747121498959 0 0 0 0 51.928084182014572 47.604385085775576 0 47.604385085775576 -8.5355962656841555 0 0 0 0 40.968090792463045 16.736182653995538 0 16.736182653995538 -20.596981763684674 0 0 0 0 35.731524779635947 89.798309249413521 0 89.798309249413521 72.118297420115766 0 0 0 0 -0.90815820504866451 -0.23242129675659839 0 -0.23242129675659839 0.5307527761035129 0 0 0 0 52.559765579946543 26.792994872887004 0 26.792994872887004 20.290368112121605 0 0 0 0 -73.735240995098138 117.95268667472979 0 117.95268667472979 -45.49550483591824 0 0 0 0 204.37404263219651 -16.899097811462696 0 -16.899097811462696 -42.299885791370585 0 0 0 0 146.48037441971246 -142.16321567910964 0 -142.16321567910964 68.806189739410911 0 0 0 0 73.523843336675782 -30.313152689390797 0 -30.313152689390797 -39.023458887963855 0 0 0 0 -18.316808344883611 -83.609518690133029 0 -83.609518690133029 48.880202705986108 0 0 0 0 144.41939142512274 -39.768374038320431 0 -39.768374038320431 17.38563330682182 0 0 0 0 178.33175066868716 -154.09433230229018 0 -154.09433230229018 319.61421838651398 0 0 0 0 513.10699754604138 106.66707900007597 0 106.66707900007597 77.675119429329627 0 0 0 0 635.13979899592232 -160.94434258963634 0 -160.94434258963634 -10.851463307765584 0 0 0 0 395.27611632518528 142.71610003535991 0 142.71610003535991 54.052786959266712 0 0 0 0 1.4187020286746019 -0.83209079321167678 0 -0.83209079321167678 -0.36213444646743009 0 0 0 0 135.19022447409225 -260.80906047273709 0 -260.80906047273709 325.38074985485099 0 0 0 0 2.0299689969446035 -1.1616401414248472 0 -1.1616401414248472 0.13341644497770749 0 0 0 0 542.71446257684875 -220.71619220022865 0 -220.71619220022865 14.920176743276841 0 0 0 0 238.6756662670814 -183.20560296358082 0 -183.20560296358082 21.676289141358268 0 0 0 0 152.7651485579554 8.2909482536344399 0 8.2909482536344399 53.477601843751216 0 0 0 0 168.63526093296241 -67.352741921392635 0 -67.352741921392635 -34.692004403984811 0 0 0 0 393.79997017688584 -7.2135415402501053 0 -7.2135415402501053 -44.975881228866228 0 0 0 0 -103.51937458020257 99.815172306928233 0 99.815172306928233 5.0040323964734625 0 0 0 0 56.714838241226971 146.72980453518764 0 146.72980453518764 -82.269705639982732 0 0 0 0 166.73840152962657 7.2773690791362924 0 7.2773690791362924 -7.7548253790755552 0 0 0 0 172.16748429927975 99.601707321648178 0 99.601707321648178 -61.166137092268343 0 0 0 0 -20.969899309762695 36.242568724847047 0 36.242568724847047 -62.672509762292293 0 0 0 0 -53.3526918937132 71.257581011293041 0 71.257581011293041 -51.893721731826872 0 0 0 0 11.905574602421353 4.0150273690836684 0 4.0150273690836684 -0.036720755791798787 0 0 0 0 43.628609003033489 1.7199847641056749 0 1.7199847641056749 -22.274848986814732 0 0 0 0 -11.910049601836363 85.865257889346708 0 85.865257889346708 -69.050162497593647 0 0 0 0 127.75631907221396 57.655661403774957 0 57.655661403774957 -99.068273155368729 0 0 0 0 6.4098622765741311 99.4770350635672 0 99.4770350635672 -64.984170257718006 0 0 0 0 197.14596659192466 -92.850354546078051 0 -92.850354546078051 -2.969662180415753 0 0 0 0 81.44850632827729 -5.0752021293044436 0 -5.0752021293044436 -52.113910131629609 0 0 0 0 -101.69170281363768 12.08394486287898 0 12.08394486287898 29.109572086914568 0 0 0 0 320.65663199013215 -185.83022609872978 0 -185.83022609872978 -32.743900545394354 0 0 0 0 174.40488551191083 -137.44116789891876 0 -137.44116789891876 -25.96367722924424 0 0 0 0 45.822634544681932 -112.75997701633717 0 -112.75997701633717 89.474614861755299 0 0 0 0 277.29916158886044 25.028598964640537 0 25.028598964640537 8.3695853217167695 0 0 0 0 2.1392998589695935 -1.8755834056629936 0 -1.8755834056629936 1.3471193332311548 0 0 0 0 38.060676050678012 23.504719065995317 0 23.504719065995317 8.6279064391515021 0 0 0 0 14.643722869368503 0.44416113023521575 0 0.44416113023521575 5.1164104945025315 0 0 0 0 5.5413783072095271 2.7330465448748669 0 2.7330465448748669 1.19727346524236 0 0 0 0 208.1590208899579 -143.54239577532476 0 -143.54239577532476 17.61365378453354 0 0 0 0 77.170248240261571 -39.218639258591679 0 -39.218639258591679 48.682432148369372 0 0 0 0 215.50921530820779 -148.39865321529052 0 -148.39865321529052 -12.351456247157941 0 0 0 0 220.83309719071258 -130.46354131095313 0 -130.46354131095313 -25.769049596331229 0 0 0 0 214.60972778272117 -129.15482289446612 0 -129.15482289446612 2.2848087692123045 0 0 0 0 5.3341660614241846 12.747769659636282 0 12.747769659636282 3.3635454984239486 0 0 0 0 161.92661969285837 -19.273678350786081 0 -19.273678350786081 -0.12853370818597884 0 0 0 0 5.2012068410258507 -0.90009439735126762 0 -0.90009439735126762 2.8110369643193138 0 0 0 0 1.8506648371111396 -0.0079466246559434239 0 -0.0079466246559434239 0.63631823817735933 0 0 0 0 5.104262595709713 -0.78360291806404803 0 -0.78360291806404803 0.036786677874992013 0 0 0 0 1.2099105855304515 -1.4544162330703472 0 -1.4544162330703472 7.7224112640136582 0 0 0 0 7.825627018668456 -4.7415192105609947 0 -4.7415192105609947 -2.1514380941293751 0 0 0 0 -3.5120425782515667 -5.4471140652425953 0 -5.4471140652425953 0.046661047986130993 0 0 0 0 4.0596059527665602 -0.53036442289948127 0 -0.53036442289948127 0.0080726324315046893 0 0 0 0 21.813675012526801 -12.101138417654255 0 -12.101138417654255 -16.972314178477411 0 0 0 0 11.787473716452951 1.8126869510738572 0 1.8126869510738572 -5.8576426247345381 0 0 0 0 10.755396678650868 18.197006954135219 0 18.197006954135219 19.545340819005162 0 0 0 0 9.5183218606398441 -2.29082569987753 0 -2.29082569987753 6.8281624966996901 0 0 0 0 -22.78715566926985 -19.400322419123313 0 -19.400322419123313 -6.5673398847511635 0 0 0 0 11.873282124390528 1.4338826663953483 0 1.4338826663953483 -5.6711269580918788 0 0 0 0 8.9088135814963607 10.268288271921676 0 10.268288271921676 16.018145967327968 0 0 0 0 4.9628535650585945 -1.276774862836362 0 -1.276774862836362 -4.483246652654616 0 0 0 0 -11.743443825020222 2.88235136728008 0 2.88235136728008 -2.390510194878658 0 0 0 0 7.0817320975546068 4.0235881930040591 0 4.0235881930040591 0.65151343399711692 0 0 0 0 5.0633153391681844 35.187378463633195 0 35.187378463633195 -4.2420443388132298 0 0 0 0 -11.640883191663306 4.8461352727427993 0 4.8461352727427993 -8.1004130741289373 0 0 0 0 410.24379311546727 -548.70850644933012 0 -548.70850644933012 221.24716035891697 0 0 0 0 7.7032594886695733 146.16726161798124 0 146.16726161798124 -54.034548229736856 0 0 0 0 11.970953289390309 66.543619443274451 0 66.543619443274451 -95.506699665868382 0 0 0 0 260.0608845263414 -158.52237442828795 0 -158.52237442828795 -33.454394344791808 0 0 0 0 66.851619735709392 -142.28370926515618 0 -142.28370926515618 70.876962306527275 0 0 0 0 360.93391037563561 63.036524263075989 0 63.036524263075989 -78.555292171522524 0 0 0 0 29.394869973648952 10.082882116800491 0 10.082882116800491 3.1055169584428262 0 0 0 0 52.098731011719792 -199.60223111827622 0 -199.60223111827622 138.41560318456459 0 0 0 0 28.277173842812772 13.073160555899904 0 13.073160555899904 -17.423966926696266 0 0 0 0 16.061854003812186 2.2356923165434637 0 2.2356923165434637 -5.7384603107489056 0 0 0 0 90.272933227111935 -247.7486164865802 0 -247.7486164865802 219.86578296156767 0 0 0 0 25.87718420510646 -5.266834193444538 0 -5.266834193444538 -82.434345441439064 0 0 0 0 18.159430903547843 5.0467575101197468 0 5.0467575101197468 1.1306464592357868 0 0 0 0 16.364073892764281 1.4770293516810398 0 1.4770293516810398 -3.9502697488451304 0 0 0 0 7.2165543037117459 -11.508328053015248 0 -11.508328053015248 -10.460789589639717 0 0 0 0 -12.520532124312012 -23.798965734018338 0 -23.798965734018338 30.990531265121263 0 0 0 0 19.108168539154576 6.4464592635063127 0 6.4464592635063127 -1.3742204076443159 0 0 0 0 9.9530866895729559 -2.8999321956333688 0 -2.8999321956333688 13.920918385644654 0 0 0 0 -7.302666295930976 19.592719537310131 0 19.592719537310131 38.43525675649289 0 0 0 0 -10.207923101450433 9.4170453655872279 0 9.4170453655872279 27.365482845255201 0 0 0 0 4.7106617501704022 7.3613668181737921 0 7.3613668181737921 24.170915016436311 0 0 0 0 4.8636813551565865 4.5812067317899619 0 4.5812067317899619 64.156988837156405 0 0 0 0 -9.9628785038221395 12.900509420016306 0 12.900509420016306 65.918445634944192 0 0 0 0 33.878348650672706 20.556602087822512 0 20.556602087822512 56.526842273282 0 0 0 0 26.799643886915874 40.175564940333061 0 40.175564940333061 155.83534409366007 0 0 0 0 163.86413684898071 27.405239197549975 0 27.405239197549975 61.546075708624812 0 0 0 0 179.99231327417874 20.810620169754827 0 20.810620169754827 83.337596576993747 0 0 0 0 471.10087511648453 -27.25478168220792 0 -27.25478168220792 50.371354946240899 0 0 0 0 225.88574943770072 130.87229633137781 0 130.87229633137781 161.99996876934085 0 0 0 0 165.30104534234852 10.514406597129437 0 10.514406597129437 228.5055932688108 0 0 0 0 5.8091771376163592 1.4814812992632085 0 1.4814812992632085 0.57534793233103443 0 0 0 0 202.25320438016206 142.97348913301403 0 142.97348913301403 -127.74996270776637 0 0 0 0 540.64776154598076 -31.295352940161251 0 -31.295352940161251 -43.09555602310229 0 0 0 0 -31.840729843403096 32.401926191724215 0 32.401926191724215 71.57202449961278 0 0 0 0 -20.245143522202852 -61.273508041790365 0 -61.273508041790365 3.1898031594539589 0 0 0 0 -7.5763928816995758 0.87562076415792944 0 0.87562076415792944 88.534566557841572 0 0 0 0 48.81517537884065 34.476187173067729 0 34.476187173067729 -10.315464788814751 0 0 0 0 37.461076463310746 91.964468199446287 0 91.964468199446287 -19.30186718604304 0 0 0 0 109.76989954905002 -46.847380805614648 0 -46.847380805614648 -100.2897055807191 0 0 0 0 112.76110443257494 64.149402440138772 0 64.149402440138772 -131.51007332181712 0 0 0 0 169.78241341785179 29.514816456651488 0 29.514816456651488 -10.147996649833914 0 0 0 0 143.19690372511104 -10.377281643562128 0 -10.377281643562128 78.387343224937013 0 0 0 0 54.540121333688148 41.09378636476697 0 41.09378636476697 -4.4460369265057125 0 0 0 0 65.694910964957671 74.546172572148294 0 74.546172572148294 89.408580873132905 0 0 0 0 9.9126498972909758 65.338720282069062 0 65.338720282069062 62.658281609925119 0 0 0 0 7.2593426393577829 42.457389055169813 0 42.457389055169813 -21.298662943698901 0 0 0 0 -4.0526473315840121 42.144104460839799 0 42.144104460839799 25.244993879058143 0 0 0 0 -4.2991753758869891 26.079677079502289 0 26.079677079502289 11.922565164717071 0 0 0 0 3.1515560753032332 38.387123297676453 0 38.387123297676453 -23.737146765039597 0 0 0 0 17.883047629176872 49.60149533672319 0 49.60149533672319 -98.473566732052404 0 0 0 0 8.9982192742900224 37.605340117785772 0 37.605340117785772 -23.648734483034332 0 0 0 0 38.645892099775665 44.642361137475234 0 44.642361137475234 -119.46639725958516 0 0 0 0 7.0626931085425895 60.138163099131987 0 60.138163099131987 -15.954998343550642 0 0 0 0 12.366117273762939 65.884230639336408 0 65.884230639336408 -125.73021347704798 0 0 0 0 45.917259326564363 31.784198056926869 0 31.784198056926869 -249.13521355267858 0 0 0 0 45.193418507551542 48.558521812908765 0 48.558521812908765 -180.38132065014935 0 0 0 0 35.758810377614282 16.563647630590523 0 16.563647630590523 -174.81177806153548 0 0 0 0 26.471315255359514 24.542874732950395 0 24.542874732950395 -109.27982793260946 0 0 0 0 45.142753415015619 12.386544848268811 0 12.386544848268811 -173.2012473118539 0 0 0 0 45.177844077826848 -5.0660957914095111 0 -5.0660957914095111 -241.03260744734126 0 0 0 0 52.876241642370587 9.0914766798646625 0 9.0914766798646625 -270.02624567407486 0 0 0 0 34.830795975620276 8.6068946139610603 0 8.6068946139610603 -235.44996613776709 0 0 0 0 -19.755704712180886 -2.838890588485981 0 -2.838890588485981 -305.72304496724121 0 0 0 0 53.239818167348858 6.4805281179292251 0 6.4805281179292251 -328.76454568678366 0 0 0 0 -59.868274216831196 -52.970256430449339 0 -52.970256430449339 -305.07701354863042 0 0 0 0 3.6895995014347136 -44.123466012654262 0 -44.123466012654262 -330.70119807387368 0 0 0 0 56.472020437562605 60.114340187295056 0 60.114340187295056 -284.68724324606285 0 0 0 0 18.572177886664576 15.51871048311969 0 15.51871048311969 -154.53786787724243 0 0 0 0 109.72516853707202 58.014817127047309 0 58.014817127047309 -219.40973723156026 0 0 0 0 114.83462452446111 53.894653734558915 0 53.894653734558915 -431.16836778438164 0 0 0 0 70.964290309086209 -136.31041282393096 0 -136.31041282393096 -605.66978324456613 0 0 0 0 0.99318366508884992 -0.6810053562039684 0 -0.6810053562039684 -0.37907625236415232 0 0 0 0 358.18110689980676 108.57875303625903 0 108.57875303625903 -452.11696061164128 0 0 0 0 -364.99623776321823 197.75079317736891 0 197.75079317736891 308.4518007894103 0 0 0 0 53.579403470584339 11.609182478971803 0 11.609182478971803 -1.7445762204216697 0 0 0 0 67.166761692482396 16.598499393121983 0 16.598499393121983 -14.915189167592871 0 0 0 0 270.03203347261297 67.45363611530027 0 67.45363611530027 -123.40539311309904 0 0 0 0 59.064433492865646 14.461333639801524 0 14.461333639801524 -6.2399940727691501 0 0 0 0 74.391881031042431 28.779433938611874 0 28.779433938611874 -3.1029274121683557 0 0 0 0 68.350497934865416 18.804135228649443 0 18.804135228649443 -13.458394638362734 0 0 0 0 65.392384948849212 43.536659824068465 0 43.536659824068465 17.902617592578054 0 0 0 0 58.445774391875602 18.994661423842899 0 18.994661423842899 28.626429076396107 0 0 0 0 66.98270689448691 34.365603923246681 0 34.365603923246681 -5.1636587353250434 0 0 0 0 70.362486423386144 40.028029723617919 0 40.028029723617919 -6.3493681866254974 0 0 0 0 70.755789418326458 37.23610014341989 0 37.23610014341989 -10.086427399497239 0 0 0 0 81.933326900965767 40.339840882664816 0 40.339840882664816 -26.375839392328999 0 0 0 0 92.031482454063166 15.550777441699474 0 15.550777441699474 -1.7766837983406056 0 0 0 0 108.76750001388427 19.652683388620289 0 19.652683388620289 -15.07368887412531 0 0 0 0 113.18384844526008 14.674024253147763 0 14.674024253147763 -28.701588224653619 0 0 0 0 102.09108804917196 -6.8914980312131604 0 -6.8914980312131604 -4.9886960357641215 0 0 0 0 36.575114855125548 9.8496425427357082 0 9.8496425427357082 -6.3007973383298248 0 0 0 0 83.610354821026704 13.516269616384363 0 13.516269616384363 15.466735681137379 0 0 0 0 9.9343410216366124 1.0925925112948107 0 1.0925925112948107 -0.82257226066136857 0 0 0 0 274.92620948411059 -313.90547094296835 0 -313.90547094296835 268.27375572052262 0 0 0 0 598.39379533140163 -170.32454419553051 0 -170.32454419553051 -190.74851786691238 0 0 0 0 402.39986363204662 374.57379774081596 0 374.57379774081596 -150.49073457206805 0 0 0 0 -350.31296662977547 285.55689413258392 0 285.55689413258392 38.756260312002723 0 0 0 0 108.38304725381022 -84.41642807958192 0 -84.41642807958192 -63.282095584621857 0 0 0 0 75.54998355799205 5.4111660343516519 0 5.4111660343516519 -5.5210602887741187 0 0 0 0 88.13065430073766 7.9690418259465332 0 7.9690418259465332 -12.476198302699004 0 0 0 0 34.737500507383899 8.6878865724283116 0 8.6878865724283116 -7.8062355532387215 0 0 0 0 84.031572545529343 1.5682506737294943 0 1.5682506737294943 -20.986891325044965 0 0 0 0 283.91906208185537 36.460954472927824 0 36.460954472927824 -172.72901809864425 0 0 0 0 -32.192096795057296 97.780050935741997 0 97.780050935741997 194.88382574628679 0 0 0 0 83.357746168803715 1.3907346396811988 0 1.3907346396811988 -24.706324970347794 0 0 0 0 55.660976780258352 14.86926052591059 0 14.86926052591059 -15.630550225420166 0 0 0 0 46.301281248662463 2.6809719250346546 0 2.6809719250346546 -3.9001628446755574 0 0 0 0 62.155353433365235 19.102198220672562 0 19.102198220672562 -10.215228879606912 0 0 0 0 119.99911085321219 -5.710766141681006 0 -5.710766141681006 -20.123926029602671 0 0 0 0 24.980397933515562 10.156556443764543 0 10.156556443764543 -12.723477740636238 0 0 0 0 110.96361666874145 -11.837213955232642 0 -11.837213955232642 -20.583656577736463 0 0 0 0 97.306601562886499 -13.244023751425061 0 -13.244023751425061 -12.921317790390276 0 0 0 0 -38.452109275152907 10.372066813024048 0 10.372066813024048 -20.461980597584784 0 0 0 0 12.759474312636257 9.5066928507876582 0 9.5066928507876582 -1.7601246887533173 0 0 0 0 48.745559607486939 -34.704683481254392 0 -34.704683481254392 -339.54060532806085 0 0 0 0 43.008179683354683 -47.97188991451327 0 -47.97188991451327 -276.03019827226228 0 0 0 0 100.34750427148538 16.963433477107287 0 16.963433477107287 10.926246747557343 0 0 0 0 79.758385335963055 -16.929569772336087 0 -16.929569772336087 -25.013309792885817 0 0 0 0 44.784705859075927 -4.2776763815733183 0 -4.2776763815733183 -2.1513854368843179 0 0 0 0 96.194432174932444 41.504887646723091 0 41.504887646723091 -95.783060532487184 0 0 0 0 57.160072866383416 -30.713646128297114 0 -30.713646128297114 -255.39974535300979 0 0 0 0 35.680391089350451 -39.006804524001168 0 -39.006804524001168 -229.33979341809595 0 0 0 0 59.86844112581457 -45.356900273799788 0 -45.356900273799788 -273.0225017048013 0 0 0 0 43.244593014360134 0.15020337688732788 0 0.15020337688732788 -0.098616941022786786 0 0 0 0 42.321114153628855 -1.7209274882202905 0 -1.7209274882202905 -4.1686138995185269 0 0 0 0 124.10698295664042 20.127897122654645 0 20.127897122654645 -93.478800159686216 0 0 0 0 -40.460075301729375 -9.885836440864523 0 -9.885836440864523 67.82050380900273 0 0 0 0 39.683475022058701 -11.361443571342818 0 -11.361443571342818 -32.062946983364867 0 0 0 0 23.870352321666701 9.4645939712229605 0 9.4645939712229605 2.246074331569905 0 0 0 0 80.468679418190732 -168.24886668298251 0 -168.24886668298251 54.256588706356787 0 0 0 0 49.335617857374018 37.649136725875451 0 37.649136725875451 -43.602956111974663 0 0 0 0 51.743735955668114 -11.082797963150181 0 -11.082797963150181 -3.8433639427773079 0 0 0 0 114.99318915247568 30.517465762922257 0 30.517465762922257 38.486166885555122 0 0 0 0 25.740637576724112 12.099999762682074 0 12.099999762682074 -9.5708051587280352 0 0 0 0 37.236710050125112 36.669126779312336 0 36.669126779312336 -26.114725885900043 0 0 0 0 74.832516153866891 19.026521371988792 0 19.026521371988792 -39.903002919431628 0 0 0 0 91.602791524783242 -5.146199536944664 0 -5.146199536944664 -16.749298164502989 0 0 0 0 62.19267492295694 -10.964137884353775 0 -10.964137884353775 -6.682245821095421 0 0 0 0 39.912775106233312 29.788031155895965 0 29.788031155895965 -15.53314542940916 0 0 0 0 18.89276370574953 7.4232931268484208 0 7.4232931268484208 -33.994559227209322 0 0 0 0 121.68828879612556 -17.323861991431784 0 -17.323861991431784 -6.8760985676301516 0 0 0 0 94.299086705490481 -29.071962827646757 0 -29.071962827646757 -6.9309405702398408 0 0 0 0 105.08516289253021 -13.895931680964559 0 -13.895931680964559 -17.815453516081568 0 0 0 0 66.514638561398897 -24.800772180942207 0 -24.800772180942207 -0.31274031853816098 0 0 0 0 104.92564844503067 -17.894667556925242 0 -17.894667556925242 -5.0967112607894194 0 0 0 0 116.74883970373048 5.3331545008780568 0 5.3331545008780568 23.184740325715779 0 0 0 0 122.06607513548806 0.76950160701494497 0 0.76950160701494497 -2.158851365137167 0 0 0 0 108.14606498269976 -36.413329802646359 0 -36.413329802646359 -3.0897641111871077 0 0 0 0 108.44505714556362 -22.386368364185294 0 -22.386368364185294 2.9572197860167933 0 0 0 0 -32.650770731794182 -62.188757620503566 0 -62.188757620503566 -122.7370825723533 0 0 0 0 -32.997173880285118 -42.109589566634895 0 -42.109589566634895 -132.22054806550909 0 0 0 0 38.131289897638567 -1.75336242469651 0 -1.75336242469651 -1.449615883541453 0 0 0 0 97.155478242071695 -18.922788251119528 0 -18.922788251119528 -67.174165189650466 0 0 0 0 16.703471156032094 -107.15303450795301 0 -107.15303450795301 -15.117170073599084 0 0 0 0 175.21643967411364 -42.54455569985771 0 -42.54455569985771 -65.104497191424343 0 0 0 0 -70.363033968780655 -105.59939782826041 0 -105.59939782826041 116.12622243373698 0 0 0 0 -18.470167414781088 -19.223670627333433 0 -19.223670627333433 0.7314379235140569 0 0 0 0 10.171335783538836 -21.705655152236368 0 -21.705655152236368 -4.0030658625425426 0 0 0 0 -35.402768663625466 -57.863247650572021 0 -57.863247650572021 42.280653810591161 0 0 0 0 49.541154907376466 8.6275653612027412 0 8.6275653612027412 6.6204562313347441 0 0 0 0 60.796314108685692 -93.632083066349878 0 -93.632083066349878 72.470870275349625 0 0 0 0 62.69050112723977 -0.085847469107896757 0 -0.085847469107896757 -5.9903094773347174 0 0 0 0 25.412827868698514 8.8905745718504221 0 8.8905745718504221 -234.57927319997748 0 0 0 0 103.28594549300033 -16.680668984524232 0 -16.680668984524232 -314.44855428932283 0 0 0 0 100.13136544887675 -42.326193743890485 0 -42.326193743890485 -256.42658538941373 0 0 0 0 45.929913232404942 -47.982819106586355 0 -47.982819106586355 -34.267045661334976 0 0 0 0 126.42530847257876 71.143552467375955 0 71.143552467375955 -16.388687269286436 0 0 0 0 45.861332258296898 31.987004880219445 0 31.987004880219445 -47.888321128149869 0 0 0 0 63.4263263566354 -60.792814334045971 0 -60.792814334045971 -164.25247823364825 0 0 0 0 28.188517823247821 -9.7290142197075227 0 -9.7290142197075227 -163.29801845578763 0 0 0 0 25.789043181757734 7.752463748898009 0 7.752463748898009 -88.545896769846649 0 0 0 0 22.729235557089851 -18.626003110862143 0 -18.626003110862143 -70.232395746166389 0 0 0 0 42.33878291779547 7.1583049049430088 0 7.1583049049430088 -165.71160541062443 0 0 0 0 44.824554999708198 24.694119183093562 0 24.694119183093562 -31.244789097108423 0 0 0 0 18.408668708609184 39.923440069443664 0 39.923440069443664 -39.922281747055422 0 0 0 0 19.692554962646682 35.990966465173642 0 35.990966465173642 -92.128623556274164 0 0 0 0 12.722240365455946 16.180410121436751 0 16.180410121436751 -27.144653846199617 0 0 0 0 0.83028038701741025 28.357880619167418 0 28.357880619167418 12.314499879374125 0 0 0 0 9.1615298113320023 38.600400563831272 0 38.600400563831272 -24.507834139376797 0 0 0 0 25.476067109455471 33.729828914377208 0 33.729828914377208 4.9703165160078697 0 0 0 0 7.8039185010275105 28.734850284856293 0 28.734850284856293 6.6718383875850122 0 0 0 0 68.880373847678129 54.987649464491653 0 54.987649464491653 19.629978235275757 0 0 0 0 71.497092722769594 35.141002965645384 0 35.141002965645384 -7.1644816448531401 0 0 0 0 41.254791923878656 41.740180974135683 0 41.740180974135683 4.9281744761528898 0 0 0 0 -0.27196488585241241 2.310067333565712 0 2.310067333565712 -14.315720719616877 0 0 0 0 116.01066280830128 50.696057119318709 0 50.696057119318709 -8.4848426279104388 0 0 0 0 0.14540534264830285 1.9344615804889713 0 1.9344615804889713 -10.818508152728496 0 0 0 0 41.239262791408692 20.542899020121922 0 20.542899020121922 11.542522821472517 0 0 0 0 51.896520573878661 37.73049212510648 0 37.73049212510648 23.810805868889787 0 0 0 0 78.03223435930704 1.0403017643325825 0 1.0403017643325825 -35.361849604477584 0 0 0 0 2.7052583683829141 -1.8995478836255302 0 -1.8995478836255302 0.28418161284204313 0 0 0 0 -110.67666992028262 -179.38019411106379 0 -179.38019411106379 -21.877582271588835 0 0 0 0 734.33404194178001 225.50276140372944 0 225.50276140372944 -55.8572917082397 0 0 0 0 262.69571890567022 38.359718113163922 0 38.359718113163922 -104.61630634994799 0 0 0 0 -88.661862050867057 69.791216230460122 0 69.791216230460122 54.169920083113766 0 0 0 0 46.725812443166433 -106.40075394780004 0 -106.40075394780004 -64.570019863108428 0 0 0 0 330.55005447349686 56.07724952858058 0 56.07724952858058 -26.480585573647204 0 0 0 0 472.4512841325195 144.98602001971062 0 144.98602001971062 23.791460418384531 0 0 0 0 370.53979631357652 19.374572183455712 0 19.374572183455712 -17.763005376234332 0 0 0 0 481.47479337292316 5.3112199652281333 0 5.3112199652281333 -110.4912617246539 0 0 0 0 510.68660923328207 14.749799291853179 0 14.749799291853179 -117.06205820335094 0 0 0 0 361.77805691520916 96.024303195059133 0 96.024303195059133 -114.27918348576065 0 0 0 0 381.4474447242319 77.81973539497335 0 77.81973539497335 -101.65146308152475 0 0 0 0 142.58119100428303 158.99624971844628 0 158.99624971844628 18.208745757410043 0 0 0 0 158.34030780027024 196.64872662364843 0 196.64872662364843 25.553283787992768 0 0 0 0 676.19188249889703 -38.712745195383945 0 -38.712745195383945 -88.78394394278007 0 0 0 0 442.02874820474244 88.824723128814185 0 88.824723128814185 -160.81221458318942 0 0 0 0 205.91876670464444 -129.93279721191556 0 -129.93279721191556 20.86569090737521 0 0 0 0 217.66336031317087 138.48429638034565 0 138.48429638034565 16.259285443216868 0 0 0 0 93.027599397777522 225.09232754699542 0 225.09232754699542 53.974355365038718 0 0 0 0 58.027723614999559 92.057876636245965 0 92.057876636245965 11.086988069167546 0 0 0 0 -16.072037547884975 140.90665214457931 0 140.90665214457931 -5.3404816281951071 0 0 0 0 54.55428005909198 135.39861481085882 0 135.39861481085882 24.430099493855323 0 0 0 0 -32.855525445367675 -2.8867518152578668 0 -2.8867518152578668 -45.714818468606609 0 0 0 0 33.229340049030725 63.667682060698098 0 63.667682060698098 -76.519333529508231 0 0 0 0 19.978193675415241 169.27689634276609 0 169.27689634276609 -8.5222129705643965 0 0 0 0 25.159176298708189 26.200950007850679 0 26.200950007850679 -234.6958816003762 0 0 0 0 38.631076529485654 63.192173856321688 0 63.192173856321688 -168.5841702415446 0 0 0 0 -48.317384335299721 -27.16225159564874 0 -27.16225159564874 -169.82328705641521 0 0 0 0 60.472781433083583 74.234173906954766 0 74.234173906954766 -373.38528705940325 0 0 0 0 84.055230865022168 -106.97729532931294 0 -106.97729532931294 -568.14650169838569 0 0 0 0 -72.349067428003764 -129.89315120895981 0 -129.89315120895981 -219.61078577741409 0 0 0 0 -32.742517122416757 -104.04544097792132 0 -104.04544097792132 -281.25412628592397 0 0 0 0 -99.548660749307601 -32.734577850676942 0 -32.734577850676942 -129.56930118084165 0 0 0 0 2.8533699503894923 -0.051859012840026253 0 -0.051859012840026253 -0.78389617534209854 0 0 0 0 232.92276660078642 -144.15151781681556 0 -144.15151781681556 -391.31357634582696 0 0 0 0 596.71024647870217 516.54798476231167 0 516.54798476231167 281.51795117984631 0 0 0 0 -84.93261888273264 -286.5985356060196 0 -286.5985356060196 -422.21339592315394 0 0 0 0 790.06609380202281 148.58686581778448 0 148.58686581778448 -99.925408523373335 0 0 0 0 424.47831615293217 42.017858565403941 0 42.017858565403941 -49.515359483912562 0 0 0 0 69.08114712619863 -117.02794372208757 0 -117.02794372208757 -113.1587305112746 0 0 0 0 230.55722437129589 15.675325340424251 0 15.675325340424251 9.0092828788476709 0 0 0 0 0.25025977810335576 0.38917121892325213 0 0.38917121892325213 -4.2527768886254247 0 0 0 0 76.766208210785408 105.5353535013553 0 105.5353535013553 24.376080240772353 0 0 0 0 -31.255829171743244 28.917322930306455 0 28.917322930306455 -281.43102837723859 0 0 0 0 357.02089100438934 199.95970677039742 0 199.95970677039742 -400.15409766904941 0 0 0 0 -90.490063880512025 -177.91075276337278 0 -177.91075276337278 -320.03133662194159 0 0 0 0 413.57266625907505 -29.978469091106945 0 -29.978469091106945 -593.65965246649739 0 0 0 0 403.3767861922388 -39.865996354629715 0 -39.865996354629715 -324.87967365229088 0 0 0 0 -92.315663376532029 -36.920167740371227 0 -36.920167740371227 -311.60252178637165 0 0 0 0 626.09380855396739 91.599967363246151 0 91.599967363246151 -201.04842525172535 0 0 0 0 588.63518494203163 270.15610159404366 0 270.15610159404366 143.21104533004382 0 0 0 0 355.56011063329606 187.94582712493633 0 187.94582712493633 -235.27830446784446 0 0 0 0 454.8438139554637 55.006064232819881 0 55.006064232819881 -58.053700721709561 0 0 0 0 409.19138472299528 -43.616959761330321 0 -43.616959761330321 -216.29599805637463 0 0 0 0 498.96720016447944 -60.239281223200578 0 -60.239281223200578 -294.9035067256591 0 0 0 0 513.8667063016328 -324.83823575483439 0 -324.83823575483439 -127.14767643325558 0 0 0 0 442.78002253759769 -53.657136392833308 0 -53.657136392833308 -47.147440722656938 0 0 0 0 419.94627489436243 66.731649226291665 0 66.731649226291665 3.245035458453458 0 0 0 0 496.4872739470884 -48.258077405489246 0 -48.258077405489246 -75.458957517636918 0 0 0 0 310.71401061268261 43.52198069303239 0 43.52198069303239 -6.6279448248214976 0 0 0 0 302.11132613162044 -68.751099647917272 0 -68.751099647917272 -7.5146895919165217 0 0 0 0 323.97473915021692 -27.930096742221451 0 -27.930096742221451 39.559307870460543 0 0 0 0 230.42258242412936 -51.552707822500906 0 -51.552707822500906 90.89932560110492 0 0 0 0 351.93001648748759 -178.54147535027107 0 -178.54147535027107 155.96406922664482 0 0 0 0 252.28987989714369 35.505171955088372 0 35.505171955088372 -4.3028390088984452 0 0 0 0 295.19159398280317 30.772434450640958 0 30.772434450640958 -46.329279878370016 0 0 0 0 386.0199020687287 -151.09064126901103 0 -151.09064126901103 20.071760206580166 0 0 0 0 77.595184749050532 -262.77859864579432 0 -262.77859864579432 -50.223368059853669 0 0 0 0 60.323711212025955 -159.99441609963833 0 -159.99441609963833 -44.00886035372605 0 0 0 0 4.2607367572963994 -3.7939422980446835 0 -3.7939422980446835 -1.8702705967629605 0 0 0 0 -10.329960918810684 -91.597301693826012 0 -91.597301693826012 -204.33783868378396 0 0 0 0 1.1901914114784518 -4.1425694951661374 0 -4.1425694951661374 0.44249280380329103 0 0 0 0 49.216837486135773 -180.3917149332533 0 -180.3917149332533 328.1601055502976 0 0 0 0 -64.245493555470603 -76.323517100984191 0 -76.323517100984191 13.216934556605054 0 0 0 0 273.67871127049148 0.89652696128268872 0 0.89652696128268872 -154.2026278048138 0 0 0 0 144.7881276193657 -111.30408126323164 0 -111.30408126323164 -173.03579659689404 0 0 0 0 173.1300272114313 10.448679219746055 0 10.448679219746055 -46.851024034254351 0 0 0 0 110.11194615898421 -20.516032707011391 0 -20.516032707011391 -5.2027559922202045 0 0 0 0 125.86508605914332 -12.155207125462887 0 -12.155207125462887 -2.2430087197593593 0 0 0 0 103.92632569673461 -31.393437563250842 0 -31.393437563250842 -8.499441929418051 0 0 0 0 122.48226877607522 -25.394434422861877 0 -25.394434422861877 13.380452000161227 0 0 0 0 146.47706972681772 25.132560588927049 0 25.132560588927049 1.0114458570169518 0 0 0 0 145.45445537951309 21.833305021871865 0 21.833305021871865 20.577761458135456 0 0 0 0 144.54359020707489 27.43375120970353 0 27.43375120970353 -5.5354980012270971 0 0 0 0 172.31084304569231 3.9801385016230597 0 3.9801385016230597 -30.604345747393722 0 0 0 0 28.137090612005991 37.449915685702678 0 37.449915685702678 6.8813247049062536 0 0 0 0 15.043863210047833 7.4347058771648733 0 7.4347058771648733 1.5304863273131479 0 0 0 0 149.99254033147008 44.682549835187729 0 44.682549835187729 -14.286546489220882 0 0 0 0 124.83224812600201 17.880870167371 0 17.880870167371 -42.508735889888158 0 0 0 0 234.81931047252147 76.682182829839348 0 76.682182829839348 -55.650620152096053 0 0 0 0 187.36865645332728 43.689152674553497 0 43.689152674553497 -74.861793002957711 0 0 0 0 168.47409371990943 85.202870326161246 0 85.202870326161246 -29.972811203526817 0 0 0 0 183.57656384244547 77.671408237826 0 77.671408237826 -27.021290828667588 0 0 0 0 125.50180608138908 70.277835012107516 0 70.277835012107516 1.2399300314982611 0 0 0 0 156.48021603672532 63.710928017521383 0 63.710928017521383 -15.534284921884137 0 0 0 0 12.962403230172018 7.036127213254872 0 7.036127213254872 6.3863521365637812 0 0 0 0 187.00813966231362 2.0343914032848716 0 2.0343914032848716 -3.5799928754661323 0 0 0 0 -0.99633597045856703 35.851626361281888 0 35.851626361281888 4.0627114941163338 0 0 0 0 161.81644395686453 61.918976012165331 0 61.918976012165331 -36.982366588716104 0 0 0 0 11.893615461935909 40.195687618199088 0 40.195687618199088 12.069551722864386 0 0 0 0 17.988605932856444 124.94122487033303 0 124.94122487033303 -66.293764225201812 0 0 0 0 14.493707026354969 7.6652571453341807 0 7.6652571453341807 -47.662960797148344 0 0 0 0 39.065983594366116 84.205879375919721 0 84.205879375919721 10.749642567530827 0 0 0 0 150.01661802908347 108.42496098399101 0 108.42496098399101 -15.82346714002415 0 0 0 0 164.61360532679828 94.443254958996476 0 94.443254958996476 -22.316306329314557 0 0 0 0 116.8552114990307 94.271552758292273 0 94.271552758292273 16.236222974652264 0 0 0 0 116.24938511225628 83.249760376771974 0 83.249760376771974 -39.001618379295905 0 0 0 0 153.43887195712887 117.58887907450844 0 117.58887907450844 30.943998575246951 0 0 0 0 135.32917391502997 90.826597149376539 0 90.826597149376539 44.4007700329621 0 0 0 0 55.373185041011311 79.436779939857388 0 79.436779939857388 84.882368692546152 0 0 0 0 69.913423449441325 108.50467649813982 0 108.50467649813982 120.61705193040507 0 0 0 0 -42.343971449910896 83.403691295408407 0 83.403691295408407 186.04883330541179 0 0 0 0 33.239575757053416 29.743354826402594 0 29.743354826402594 18.480165367857044 0 0 0 0 -55.7882197019062 66.014574839823581 0 66.014574839823581 163.59711176976089 0 0 0 0 -68.991067605282296 41.272194198113539 0 41.272194198113539 122.78594638651066 0 0 0 0 -12.306244352366775 7.0112381336512044 0 7.0112381336512044 4.6226006478609634 0 0 0 0 -16.890448212157935 15.165110150373948 0 15.165110150373948 37.91089942122926 0 0 0 0 53.945155660621822 51.771959533380141 0 51.771959533380141 -2.296944017862188 0 0 0 0 47.183844910352491 73.717647495806887 0 73.717647495806887 46.847558564331848 0 0 0 0 25.37626452697441 49.832102644737461 0 49.832102644737461 58.186251453447767 0 0 0 0 24.2394037868944 46.787013105228198 0 46.787013105228198 59.361807891025819 0 0 0 0 245.43575905510806 102.82810682353647 0 102.82810682353647 -10.393921356481314 0 0 0 0 248.83815910917474 28.97250607091064 0 28.97250607091064 -7.8409097178364391 0 0 0 0 203.5558367188205 104.07356509103329 0 104.07356509103329 -25.754974143149411 0 0 0 0 200.33899477522937 73.226152918076423 0 73.226152918076423 -29.627554895446337 0 0 0 0 167.67667492624605 103.43890947778982 0 103.43890947778982 3.4122851539768817 0 0 0 0 242.95596357490285 81.057390646596104 0 81.057390646596104 13.914773778350536 0 0 0 0 159.55029705350171 124.16655102907725 0 124.16655102907725 90.286508374641926 0 0 0 0 224.8183807953028 134.44770275791802 0 134.44770275791802 36.333117492352812 0 0 0 0 178.27714392534108 94.723180835907442 0 94.723180835907442 3.018938210118904 0 0 0 0 300.26305916372803 121.88977594495702 0 121.88977594495702 42.57339958596458 0 0 0 0 352.10599571774947 33.843197863180649 0 33.843197863180649 -7.5763576357871898 0 0 0 0 83.491545603726991 15.141618533602241 0 15.141618533602241 9.7307675365755131 0 0 0 0 343.63035086676246 274.79334324722458 0 274.79334324722458 235.18190188298797 0 0 0 0 410.50814402021933 89.738023211164546 0 89.738023211164546 -26.744296547309204 0 0 0 0 416.74992304184707 138.92822192202516 0 138.92822192202516 21.181480707482706 0 0 0 0 151.85952874517534 121.36237795318084 0 121.36237795318084 91.263088959592096 0 0 0 0 286.67295399936847 203.64006144559175 0 203.64006144559175 134.07368578755541 0 0 0 0 8.2073287141975015 26.057237441119469 0 26.057237441119469 38.581364618893986 0 0 0 0 -20.952397233049851 -294.85671519099742 0 -294.85671519099742 -542.27127849966723 0 0 0 0 9.756642582879806 4.7229057283182243 0 4.7229057283182243 0.81673535970449285 0 0 0 0 127.57270648953272 183.63633831688639 0 183.63633831688639 217.46668114752902 0 0 0 0 4.3334469032532752 7.0369192549038786 0 7.0369192549038786 3.9053803081164662 0 0 0 0 -0.40052857267437503 114.86889805167948 0 114.86889805167948 209.06783389693055 0 0 0 0 25.016402911792547 10.855237803338071 0 10.855237803338071 14.931106190390437 0 0 0 0 132.82203139353078 145.43572031110307 0 145.43572031110307 122.99073776437234 0 0 0 0 -249.6265091105015 -258.85225901577996 0 -258.85225901577996 -294.0626371946226 0 0 0 0 205.50069416780025 -139.26337310370809 0 -139.26337310370809 -432.43231285279626 0 0 0 0 -175.44591954402858 62.947248084215062 0 62.947248084215062 -261.73684353972203 0 0 0 0 49.101714798144485 9.449791754077566 0 9.449791754077566 -4.3194184662016903 0 0 0 0 51.620275164430495 80.355223453751933 0 80.355223453751933 -362.78733537971766 0 0 0 0 -301.42303002151311 -82.326922366413328 0 -82.326922366413328 -197.39863771913224 0 0 0 0 35.505359366666426 5.3042108833490502 0 5.3042108833490502 -10.130917698917809 0 0 0 0 59.656985404493753 -24.539230119211879 0 -24.539230119211879 26.992610482975806 0 0 0 0 29.739995715370242 20.451694038853955 0 20.451694038853955 19.544227214270578 0 0 0 0 245.72227252589073 23.207537144481648 0 23.207537144481648 -346.44020859581269 0 0 0 0 298.74839621660067 167.513993837204 0 167.513993837204 -28.866938658584331 0 0 0 0 -69.684862617519684 45.027162365222011 0 45.027162365222011 209.80822506305822 0 0 0 0 43.97503648410202 -167.67142080936628 0 -167.67142080936628 -187.62403410114143 0 0 0 0 35.061426121195836 21.704269862430806 0 21.704269862430806 14.676047524145133 0 0 0 0 38.980002574639002 61.433350174232487 0 61.433350174232487 14.940606436209691 0 0 0 0 74.110639261081815 26.551348029708834 0 26.551348029708834 2.9369184355127231 0 0 0 0 77.733343157455238 20.022677299045426 0 20.022677299045426 13.406733949119143 0 0 0 0 82.35211227410764 40.660043910915647 0 40.660043910915647 8.9676126068602571 0 0 0 0 23.638575938909582 -4.5841806454614158 0 -4.5841806454614158 -2.7870399545902025 0 0 0 0 92.541319751719129 18.746588571425178 0 18.746588571425178 16.275044488501408 0 0 0 0 100.09145422718484 27.233683805327729 0 27.233683805327729 -3.9793430641682335 0 0 0 0 24.293315644639989 2.2473630652554561 0 2.2473630652554561 -8.9981846927862428 0 0 0 0 70.40039711818099 39.57319927569597 0 39.57319927569597 3.8753013151633695 0 0 0 0 66.698264435242891 18.164736918860342 0 18.164736918860342 4.8179219776502578 0 0 0 0 43.52043747744986 28.341948158448588 0 28.341948158448588 10.33059466639131 0 0 0 0 -146.3854001984073 -185.73791700837339 0 -185.73791700837339 251.5539632767962 0 0 0 0 -97.639361688125064 352.66315431593767 0 352.66315431593767 150.90273078845561 0 0 0 0 30.443036840533097 17.526237431230001 0 17.526237431230001 6.5698535577942607 0 0 0 0 59.31156909391575 9.6295657665586987 0 9.6295657665586987 8.0607862537979145 0 0 0 0 61.960124242919846 22.22832449704083 0 22.22832449704083 1.7408983752690119 0 0 0 0 327.058162047324 -395.29832744635246 0 -395.29832744635246 48.994018424509591 0 0 0 0 4466.2202159763474 135.74802738803237 0 135.74802738803237 -164.52375719112212 0 0 0 0 549.23613569187 -3.6173768790349641 0 -3.6173768790349641 -230.56623734693244 0 0 0 0 62.815880419992027 203.72113793229789 0 203.72113793229789 -291.0027395168342 0 0 0 0 41.048988685535733 15.658665658897732 0 15.658665658897732 -0.44541690841613368 0 0 0 0 17.842697854795247 -0.78655540979659122 0 -0.78655540979659122 2.8496646048963514 0 0 0 0 40.711232187575661 -218.85495443578208 0 -218.85495443578208 -36.522560823667789 0 0 0 0 4476.0867785198261 34.807468389875453 0 34.807468389875453 9.9904120731898836 0 0 0 0 13.882062535341618 7.4459180144941328 0 7.4459180144941328 -1.691250635755565 0 0 0 0 -2.7586988648997988 6.4747949306637764 0 6.4747949306637764 4.579078263790942 0 0 0 0 4479.1378514959506 41.209152880417513 0 41.209152880417513 18.095121260627614 0 0 0 0 247.18983820012363 -388.37425003525465 0 -388.37425003525465 720.14225334351511 0 0 0 0 10.821496452903375 8.2226312231687189 0 8.2226312231687189 3.9662304384310119 0 0 0 0 17.119369231799169 -0.38053749360776123 0 -0.38053749360776123 -4.6911827576337579 0 0 0 0 9.1036291702321819 10.475116418589678 0 10.475116418589678 12.083074823798283 0 0 0 0 39.368289088259189 22.118056239444087 0 22.118056239444087 -14.696835553315623 0 0 0 0 52.751254010363482 18.046482961730362 0 18.046482961730362 30.246106823215996 0 0 0 0 64.374756358646835 6.3695473925155426 0 6.3695473925155426 -6.107491534157921 0 0 0 0 34.113393535528076 12.225956426922416 0 12.225956426922416 -8.4563755368566973 0 0 0 0 39.500178242917173 12.998747426046975 0 12.998747426046975 -25.804054880847616 0 0 0 0 80.532890365798778 38.940289874552178 0 38.940289874552178 5.5526411495131711 0 0 0 0 30.84259723258333 32.498877619867201 0 32.498877619867201 -2.33194664659535 0 0 0 0 -26.228699910214289 31.687478241076818 0 31.687478241076818 2.6272489433477961 0 0 0 0 638.86435197626997 332.53943426283593 0 332.53943426283593 493.53948319616893 0 0 0 0 254.70333836296049 142.81409551725301 0 142.81409551725301 -118.51771648188742 0 0 0 0 540.48135863478819 1893.626831606377 0 1893.626831606377 3288.4307315695246 0 0 0 0 3238.1997438942708 3096.0753428221369 0 3096.0753428221369 873.12357128191661 0 0 0 0 4494.4135331600155 2023.0000950959168 0 2023.0000950959168 -354.65422745422796 0 0 0 0 2177.07033311954 1291.4726659824153 0 1291.4726659824153 156.9739611706494 0 0 0 0 2832.3325657452078 1485.9368604967694 0 1485.9368604967694 66.049247931812431 0 0 0 0 1583.7608354954573 1955.5102546134447 0 1955.5102546134447 1189.0114750831751 0 0 0 0 314.00837651311303 379.96198488871346 0 379.96198488871346 106.27842975864775 0 0 0 0 -30.007486948442931 24.969517254525613 0 24.969517254525613 4.0832427707912897 0 0 0 0 315.48738258541562 315.2419732143735 0 315.2419732143735 255.15356657432676 0 0 0 0 1019.4207217501971 545.93604086812854 0 545.93604086812854 335.38911235475393 0 0 0 0 428.32735563724418 147.33755272153894 0 147.33755272153894 -103.46388288738672 0 0 0 0 -5.5765037702229874 -0.73744394986209727 0 -0.73744394986209727 0.46463513296278869 0 0 0 0 -0.45899458396161208 41.050366569731338 0 41.050366569731338 -46.48526911807312 0 0 0 0 -3.5678835676517338 -62.446543865728017 0 -62.446543865728017 -131.71668478912761 0 0 0 0 -25.326743194193114 -65.59132212564964 0 -65.59132212564964 -243.92032984415528 0 0 0 0 -51.457446937740315 15.658189881530461 0 15.658189881530461 -150.27264266294696 0 0 0 0 46.75034988776315 -20.894986729081211 0 -20.894986729081211 -259.33052389207296 0 0 0 0 215.61195081076585 41.746252604491019 0 41.746252604491019 -205.30573399028071 0 0 0 0 64.850675067435077 63.921956375698869 0 63.921956375698869 -207.64570132764857 0 0 0 0 91.761408292062697 73.109263606120749 0 73.109263606120749 -83.879920081519231 0 0 0 0 80.007912269851658 -4.1966414979897309 0 -4.1966414979897309 -150.80355715763426 0 0 0 0 186.16911167930812 11.807368006187971 0 11.807368006187971 -44.332622176019868 0 0 0 0 305.85331797722029 51.815667211789787 0 51.815667211789787 -14.739820810627862 0 0 0 0 294.95096855738666 83.735891203332358 0 83.735891203332358 -99.966063483283506 0 0 0 0 211.27408561017364 22.745669370811811 0 22.745669370811811 -110.3915742379163 0 0 0 0 292.25761056315969 134.94918104502585 0 134.94918104502585 -128.81018400361427 0 0 0 0 215.92338833966642 15.341975659621312 0 15.341975659621312 -192.96051100268232 0 0 0 0 417.04030014167074 100.89503837378925 0 100.89503837378925 -131.41425146916481 0 0 0 0 405.56710549152922 88.873357423133257 0 88.873357423133257 60.384027453452291 0 0 0 0 400.16547718230868 166.67192945145507 0 166.67192945145507 331.53023779514842 0 0 0 0 412.57124059012858 47.236466798912829 0 47.236466798912829 48.502763391414192 0 0 0 0 595.39259923656937 514.17922513458961 0 514.17922513458961 644.54805066971039 0 0 0 0 1137.2123362817802 573.33514712241595 0 573.33514712241595 245.50084027422236 0 0 0 0 412.45737655920675 215.6470190306527 0 215.6470190306527 306.31319807912951 0 0 0 0 412.31469596290844 229.53210647739297 0 229.53210647739297 233.44953893538695 0 0 0 0 244.87576935079414 77.187533228786833 0 77.187533228786833 198.63931913204215 0 0 0 0 243.56863572227303 80.4663086563869 0 80.4663086563869 -18.258327242187079 0 0 0 0 313.23181664315052 17.284000932542767 0 17.284000932542767 140.48296454773754 0 0 0 0 337.20692228036933 104.65612766284903 0 104.65612766284903 4.7654191922893006 0 0 0 0 242.96032747835852 64.420313144431475 0 64.420313144431475 109.39235518967689 0 0 0 0 110.97183937282534 51.840256094700635 0 51.840256094700635 -63.005509418057045 0 0 0 0 107.5898139179335 40.085311705275672 0 40.085311705275672 95.629839155049922 0 0 0 0 185.82561527256621 165.16078683198521 0 165.16078683198521 95.975059009732263 0 0 0 0 108.0418644703168 72.240962562740606 0 72.240962562740606 50.417942402341396 0 0 0 0 13.186170602159109 73.261778358703395 0 73.261778358703395 77.864441810501376 0 0 0 0 199.51297734484251 220.06270110037411 0 220.06270110037411 16.073659330365444 0 0 0 0 146.99278328358196 12.969446114038874 0 12.969446114038874 4.8109093948582995 0 0 0 0 103.97840066102799 245.38436902266812 0 245.38436902266812 155.64460666447735 0 0 0 0 253.65884692038526 155.00044201654532 0 155.00044201654532 94.53681481069043 0 0 0 0 578.06190755747957 322.09933419731124 0 322.09933419731124 165.55131879341707 0 0 0 0 699.91837310348637 501.70978905785842 0 501.70978905785842 303.46049317205075 0 0 0 0 725.402065267117 382.81863612606764 0 382.81863612606764 189.13838913446671 0 0 0 0 10.621501971464284 1.1804430893558049 0 1.1804430893558049 -3.5195581588091898 0 0 0 0 169.82022873940878 234.8414200696227 0 234.8414200696227 71.876095007922345 0 0 0 0 154.32101489577326 208.59061574024872 0 208.59061574024872 27.915049601612282 0 0 0 0 2414.6852937391523 987.8275137924843 0 987.8275137924843 162.73930852682554 0 0 0 0 1839.3198166889633 784.93651770070915 0 784.93651770070915 389.95441819005595 0 0 0 0 -2.0765995795320906 27.750594283833209 0 27.750594283833209 7.5322866701214073 0 0 0 0 2871.8914063214106 448.79051921489071 0 448.79051921489071 -94.220430806694097 0 0 0 0 185.55619982007192 191.0788332628299 0 191.0788332628299 -32.570854464399531 0 0 0 0 -248.30611243966268 188.20297785039668 0 188.20297785039668 26.299757427090753 0 0 0 0 4.4337383207578558 21.212686291674146 0 21.212686291674146 5.9314671883837464 0 0 0 0 3957.9231612215194 823.65633402069295 0 823.65633402069295 20.420606011225459 0 0 0 0 3721.1687048878412 1233.9059155201228 0 1233.9059155201228 -60.850922083474956 0 0 0 0 3534.8010626248288 1438.2194843442853 0 1438.2194843442853 -33.946953866756786 0 0 0 0 -35.705295835665311 41.079364042387624 0 41.079364042387624 416.62608246792979 0 0 0 0 1216.952567809014 -1371.828372220356 0 -1371.828372220356 1494.720050058301 0 0 0 0 610.228829513253 -331.91502057591833 0 -331.91502057591833 303.97628167936023 0 0 0 0 836.44774341817538 -1819.6427394123311 0 -1819.6427394123311 2107.5628324720155 0 0 0 0 4492.0037077633715 -2249.1847780463736 0 -2249.1847780463736 125.37563016345007 0 0 0 0 2678.8085059011537 -701.73776749260821 0 -701.73776749260821 -329.70409794764993 0 0 0 0 698.84387725496345 -498.12944867710644 0 -498.12944867710644 446.77036115242106 0 0 0 0 0.70149567116327205 0.3624625773131811 0 0.3624625773131811 2.4050248111333166 0 0 0 0 847.63262951392244 -412.17172320082204 0 -412.17172320082204 137.94328373683049 0 0 0 0 18.842243968232651 33.41555796549892 0 33.41555796549892 105.02261720649608 0 0 0 0 9.8529488238305447 3.6528060394145001 0 3.6528060394145001 -1.3510565452776397 0 0 0 0 26.100448650517137 6.2743285489070146 0 6.2743285489070146 -3.5853139724696348 0 0 0 0 19.953358525344811 7.2211551291827618 0 7.2211551291827618 0.2282863225661913 0 0 0 0 5.7717519655637712 4.3072770537995098 0 4.3072770537995098 -2.414931487271009 0 0 0 0 2.0383121041347678 5.1917550402090242 0 5.1917550402090242 -1.2988105943311572 0 0 0 0 20.948663055269208 35.218091948541939 0 35.218091948541939 54.15913510943119 0 0 0 0 25.248228739917977 6.8660753161364028 0 6.8660753161364028 -1.4006300304595243 0 0 0 0 3.2081153578944184 5.3959365214984203 0 5.3959365214984203 -0.2675289580434228 0 0 0 0 17.511318073269649 21.556802926124021 0 21.556802926124021 129.28455983585263 0 0 0 0 3.4914865858664683 -0.64545314250671382 0 -0.64545314250671382 -0.93607301018683553 0 0 0 0 -12.867777968771406 37.517128557033629 0 37.517128557033629 280.22160999083644 0 0 0 0 704.92799907990593 -224.11879435562977 0 -224.11879435562977 136.95510741088447 0 0 0 0 179.13880771942422 274.33300257853307 0 274.33300257853307 151.92531465361844 0 0 0 0 38.951772079512011 68.260318266918148 0 68.260318266918148 -148.24430702536847 0 0 0 0 51.689698262118327 187.33855791441238 0 187.33855791441238 -70.116755539336737 0 0 0 0 18.542244288881193 147.05176743017091 0 147.05176743017091 146.22796941803028 0 0 0 0 39.630892962406506 118.11140138013934 0 118.11140138013934 -46.524691829940821 0 0 0 0 79.704136649197608 72.659800390514647 0 72.659800390514647 -157.35882769788259 0 0 0 0 -86.706105153789395 185.22319811862053 0 185.22319811862053 -228.93397513921013 0 0 0 0 64.534348507002505 106.91246307290533 0 106.91246307290533 -73.694529522166704 0 0 0 0 124.82172923596227 -184.15982347212048 0 -184.15982347212048 -287.63014773797227 0 0 0 0 12.61898779689006 -2.2996825143911366 0 -2.2996825143911366 -1.3137927354580441 0 0 0 0 -105.4943770643149 164.16875544133745 0 164.16875544133745 -428.09733675744064 0 0 0 0 -56.19978571930551 -4.0085263351456888 0 -4.0085263351456888 -124.17736580867131 0 0 0 0 53.418772478660685 97.298226282122414 0 97.298226282122414 -15.30740897267151 0 0 0 0 60.484460183884948 87.158767415701732 0 87.158767415701732 -51.092914573542316 0 0 0 0 66.803848343013669 69.879592366974975 0 69.879592366974975 -12.498801475238224 0 0 0 0 99.716660380814574 50.828091423427395 0 50.828091423427395 -43.792428933947122 0 0 0 0 14.569401653442725 11.93560978871767 0 11.93560978871767 -2.1915998623185953 0 0 0 0 33.032335075582523 0.63814126126027304 0 0.63814126126027304 -5.041548942495865 0 0 0 0 18.029082729831245 9.9823197765679197 0 9.9823197765679197 -6.9999183593888574 0 0 0 0 27.343427431977361 -2.4489165491651121 0 -2.4489165491651121 -5.3859026904628831 0 0 0 0 45.950522114006162 -0.79346847516740127 0 -0.79346847516740127 -5.6839426548799565 0 0 0 0 20.448491451718628 -2.4115672397052066 0 -2.4115672397052066 -2.1756791766093566 0 0 0 0 97.675148691618233 -13.691610414869956 0 -13.691610414869956 -27.621295824332719 0 0 0 0 30.977565591876299 13.425032450280042 0 13.425032450280042 -10.288284083754903 0 0 0 0 96.194274317756935 -2.0772980434708188 0 -2.0772980434708188 -117.14371856778394 0 0 0 0 41.953083419565615 -3.1990652810693732 0 -3.1990652810693732 -5.6955968707649198 0 0 0 0 17.058788659630977 0.45885368756844969 0 0.45885368756844969 2.8555121126034204 0 0 0 0 70.330882622285571 -8.834212955735893 0 -8.834212955735893 -55.404918233523858 0 0 0 0 53.898232826580482 -18.734447763787944 0 -18.734447763787944 6.3321602349396127 0 0 0 0 58.891900436763535 -14.752479645524659 0 -14.752479645524659 2.4736195689259262 0 0 0 0 59.20373544053291 -15.84122084560903 0 -15.84122084560903 6.2741190528711286 0 0 0 0 811.75967520100676 -490.16258929177934 0 -490.16258929177934 -80.939587652507583 0 0 0 0 -323.21294475949981 -47.479237549887785 0 -47.479237549887785 506.2024193624614 0 0 0 0 196.92771527100558 -243.16969160610688 0 -243.16969160610688 -491.78105494048077 0 0 0 0 41.142724349886123 -17.406405675116144 0 -17.406405675116144 7.967511274733984 0 0 0 0 616.80916476984567 -48.617148075067689 0 -48.617148075067689 -475.62117047502443 0 0 0 0 17.895047002423055 -7.9343293145346045 0 -7.9343293145346045 5.7156783888319049 0 0 0 0 4492.1736364398093 1384.2432504808498 0 1384.2432504808498 -183.9302747524622 0 0 0 0 1255.7531763965453 329.49685214439279 0 329.49685214439279 -391.61451676034494 0 0 0 0 4492.8410259039229 -616.51024641878985 0 -616.51024641878985 -680.19340118023081 0 0 0 0 759.81052856814131 -959.22061046282374 0 -959.22061046282374 715.13722276420822 0 0 0 0 12.968069209663383 -4.5838018998672752 0 -4.5838018998672752 4.9184954345773342 0 0 0 0 11.964475731936005 4.8205798494444423 0 4.8205798494444423 2.599595028576748 0 0 0 0 179.99688094614976 373.4192851287936 0 373.4192851287936 -62.544978932132835 0 0 0 0 52.768352925253566 -10.083314655600248 0 -10.083314655600248 7.410602007154921 0 0 0 0 30.489219568396948 4.1915637318746803 0 4.1915637318746803 1.8319741621489811 0 0 0 0 38.759757739957422 8.0870525999853271 0 8.0870525999853271 2.639393804491192 0 0 0 0 23.982022562832881 2.1555645562654462 0 2.1555645562654462 8.9618342837696066 0 0 0 0 4.7705022242819979 0.49636624408385899 0 0.49636624408385899 -1.2513125837542916 0 0 0 0 33.019987193394627 -1.3806247128123914 0 -1.3806247128123914 1.6684120689942574 0 0 0 0 28.021054969952246 -5.3861705537542903 0 -5.3861705537542903 6.3552431312915463 0 0 0 0 3159.0657157960522 702.79933302125062 0 702.79933302125062 433.90805428645848 0 0 0 0 4483.2038235872606 -404.14040019971895 0 -404.14040019971895 -605.51612314086901 0 0 0 0 -748.04042194539215 913.24220357561671 0 913.24220357561671 478.16925950975974 0 0 0 0 2315.8876788115595 -1246.5023272676658 0 -1246.5023272676658 -66.938008331762603 0 0 0 0 8.4956669954753465 3.2474522454306758 0 3.2474522454306758 5.2798281171720856 0 0 0 0 2349.5970796316687 1074.8756285683371 0 1074.8756285683371 500.6145637748553 0 0 0 0 4490.2389689019037 -1057.4245857913086 0 -1057.4245857913086 -479.60123920831518 0 0 0 0 12.71708068450971 85.147167832890773 0 85.147167832890773 -139.86250253120261 0 0 0 0 16.813517710878344 8.1665132380414462 0 8.1665132380414462 8.2411887232337087 0 0 0 0 51.768764234235277 18.209953886998392 0 18.209953886998392 -46.858009373528262 0 0 0 0 31.789409311663292 6.8165937033969595 0 6.8165937033969595 8.8060014699259082 0 0 0 0 7.6811743542571378 -6.1281380144997399 0 -6.1281380144997399 9.6952799690829465 0 0 0 0 -24.586512994766963 -116.55233732081054 0 -116.55233732081054 -110.33276523317045 0 0 0 0 53.692244141580886 10.979666410825757 0 10.979666410825757 22.521576591663688 0 0 0 0 25.611799713908113 -4.9076217734000238 0 -4.9076217734000238 3.4007296844702068 0 0 0 0 26.062947438730362 -1.3183451593044024 0 -1.3183451593044024 -0.37512729853239735 0 0 0 0 155.90589593365621 -130.46935141917945 0 -130.46935141917945 -150.277503370933 0 0 0 0 504.02375931703864 79.075382248012801 0 79.075382248012801 -86.987487654130859 0 0 0 0 -196.14544316179672 148.78292052295194 0 148.78292052295194 294.1937077451953 0 0 0 0 200.03685873697032 502.74283364035807 0 502.74283364035807 452.7251576113942 0 0 0 0 7.5044781078738083 3.6607156894254302 0 3.6607156894254302 3.4751512670178224 0 0 0 0 258.45626949150756 116.93067256138124 0 116.93067256138124 -136.54657795916913 0 0 0 0 49.121051657783937 23.035122186567826 0 23.035122186567826 5.0404960994983412 0 0 0 0 58.247144078020938 44.789836057704406 0 44.789836057704406 29.790738610068729 0 0 0 0 93.538925112283323 13.547367632720693 0 13.547367632720693 9.9558666696181746 0 0 0 0 29.701110710110413 3.0230514154066128 0 3.0230514154066128 -8.0924585575706249 0 0 0 0 8.9924132795665628 5.4065623157540301 0 5.4065623157540301 -2.3933889387517642 0 0 0 0 49.28794796638249 24.659316680197435 0 24.659316680197435 15.050029359297696 0 0 0 0 11.973518363674572 5.9356533279284349 0 5.9356533279284349 -1.2623186618819173 0 0 0 0 52.41528205742452 24.504115998216633 0 24.504115998216633 14.178874683544564 0 0 0 0 31.282556805679519 0.98971105929410896 0 0.98971105929410896 -3.553218997508413 0 0 0 0 38.275387304309618 4.8799395150144598 0 4.8799395150144598 -2.3560722036532091 0 0 0 0 44.446146854985273 16.459024996841435 0 16.459024996841435 6.1868314003704654 0 0 0 0 91.864915126468986 33.232535127505798 0 33.232535127505798 8.5352047933653807 0 0 0 0 42.563856324515655 -12.199494515914694 0 -12.199494515914694 15.95118431424271 0 0 0 0 53.320063786930405 4.10177973861596 0 4.10177973861596 -9.4029429480372073 0 0 0 0 62.318204652205168 0.01893027837468253 0 0.01893027837468253 -8.9420401619438508 0 0 0 0 65.869540129235247 6.3752541947083046 0 6.3752541947083046 -3.8945312578358653 0 0 0 0 60.065702525345841 -7.8478871771570766 0 -7.8478871771570766 8.0939398835237171 0 0 0 0 40.190191268673516 5.4348821626676909 0 5.4348821626676909 -2.576224686969681 0 0 0 0 19.781050495738171 8.334422921324844 0 8.334422921324844 -5.649353705339724 0 0 0 0 56.64802068327117 -11.492611284188115 0 -11.492611284188115 5.1403623384044295 0 0 0 0 56.878162787113979 -12.400710230706636 0 -12.400710230706636 8.6904020352500311 0 0 0 0 73.536355406598886 -2.2854459054943845 0 -2.2854459054943845 -1.2942688388739043 0 0 0 0 75.204628560763922 1.3335481482145966 0 1.3335481482145966 -4.3920327620166972 0 0 0 0 9.1370734450767763 1.3909892524468859 0 1.3909892524468859 -5.1622954084450114 0 0 0 0 22.893837741605353 6.4607377610848431 0 6.4607377610848431 -3.3019748250793715 0 0 0 0 54.289063424606866 -8.6223596745710438 0 -8.6223596745710438 -2.7590113973508323 0 0 0 0 73.134905229948345 1.3227800401489276 0 1.3227800401489276 -0.50592355348749152 0 0 0 0 24.096525308276142 -7.4176024149391111 0 -7.4176024149391111 -0.44256932716563169 0 0 0 0 56.450511684677167 -8.822744110210202 0 -8.822744110210202 -18.812830647837814 0 0 0 0 56.014959580897994 -49.394691803112096 0 -49.394691803112096 -85.229021887979542 0 0 0 0 28.432354642753111 -9.2401495011791823 0 -9.2401495011791823 -1.3075256553023844 0 0 0 0 6.4169534826159236 2.6632011270986311 0 2.6632011270986311 0.88198501295454801 0 0 0 0 53.935658065196549 -19.529336905156995 0 -19.529336905156995 -14.199241670636866 0 0 0 0 16.094984945222677 -41.273861840957579 0 -41.273861840957579 -15.808685095911414 0 0 0 0 65.522861035136884 -14.165193315861927 0 -14.165193315861927 -12.474665006518308 0 0 0 0 57.948057983419858 -8.5506106870782332 0 -8.5506106870782332 -12.825948648765291 0 0 0 0 27.902195644928725 -2.6743596453952705 0 -2.6743596453952705 2.3182597545514909 0 0 0 0 82.310695942396706 -2.8570983593488108 0 -2.8570983593488108 -14.542945069263851 0 0 0 0 15.985361668305716 1.9640580937039971 0 1.9640580937039971 -3.9077120070301063 0 0 0 0 94.371176931541413 -16.491463941495795 0 -16.491463941495795 -26.123023612169618 0 0 0 0 50.468370619368216 -9.0476634921865298 0 -9.0476634921865298 3.8788272290639725 0 0 0 0 60.270262580715013 -8.9154366420851758 0 -8.9154366420851758 -4.7959380325149326 0 0 0 0 34.048875412397791 2.4741783499640491 0 2.4741783499640491 -6.7690483455260102 0 0 0 0 77.281561213560053 -12.440825814232198 0 -12.440825814232198 -26.715201818998139 0 0 0 0 55.148560347050079 -1.4046036922632084 0 -1.4046036922632084 -6.3830975825976566 0 0 0 0 21.691315752861033 -1.3617130080796471 0 -1.3617130080796471 -0.023800707855530234 0 0 0 0 75.726580195463612 -19.927273876663094 0 -19.927273876663094 -26.738143262669382 0 0 0 0 106.97657339033321 0.47054731583193643 0 0.47054731583193643 -23.904998774799424 0 0 0 0 55.761463571083993 -8.6434555475739359 0 -8.6434555475739359 -14.332972083004394 0 0 0 0 112.96138022768719 -21.696860522511145 0 -21.696860522511145 -21.872611753048204 0 0 0 0 118.78301366151209 -19.295210285602366 0 -19.295210285602366 -22.047236116379281 0 0 0 0 100.95147366500527 -23.274431002465789 0 -23.274431002465789 -14.087420213054731 0 0 0 0 75.540620819490869 -14.022088269029609 0 -14.022088269029609 -21.342378916643611 0 0 0 0 93.340456036676187 41.165804235390169 0 41.165804235390169 0.79590165047011396 0 0 0 0 21.272985463693544 15.607609524862582 0 15.607609524862582 5.3228959581008954 0 0 0 0 16.63605177708979 6.7924086233519034 0 6.7924086233519034 -8.6826894428209407 0 0 0 0 74.657013836855185 -5.7693376150368749 0 -5.7693376150368749 19.049392001055821 0 0 0 0 82.593335365905659 1.0262924900598591 0 1.0262924900598591 -2.648378011935165 0 0 0 0 57.901136364904232 11.328985987363922 0 11.328985987363922 -17.549047323467676 0 0 0 0 67.746394571663416 27.695836999622934 0 27.695836999622934 -2.6296289993852735 0 0 0 0 77.668442107256851 15.119737162855472 0 15.119737162855472 -2.9569706238708022 0 0 0 0 24.811689082759479 9.5293509320589891 0 9.5293509320589891 7.7854151900081554 0 0 0 0 25.027533457468962 6.5556528986062403 0 6.5556528986062403 -0.50526593013182719 0 0 0 0 48.752218514847556 9.6953653066154573 0 9.6953653066154573 2.3588112895968347 0 0 0 0 52.838682195697118 15.328927445747667 0 15.328927445747667 -13.117265995920125 0 0 0 0 75.916343018284252 -12.552773883276615 0 -12.552773883276615 -22.054280802121909 0 0 0 0 118.62955948829222 -19.221540200069711 0 -19.221540200069711 -3.9279445667668824 0 0 0 0 116.28997245596111 -12.221063849555321 0 -12.221063849555321 -11.807574717832608 0 0 0 0 116.36213195248945 -11.026134274236856 0 -11.026134274236856 -1.5240132816576586 0 0 0 0 115.16620029195838 -10.660510463458081 0 -10.660510463458081 -9.886287892299606 0 0 0 0 177.14689565973822 -159.87122600562373 0 -159.87122600562373 -92.540189239709846 0 0 0 0 55.785432868296994 6.0022718565873703 0 6.0022718565873703 27.369443714665863 0 0 0 0 2.2315303816702396 -17.947361931922124 0 -17.947361931922124 -6.6381946744270186 0 0 0 0 46.357855376700172 -87.106930885576276 0 -87.106930885576276 91.433295726058077 0 0 0 0 1.7529000990139707 1.2798313003935391 0 1.2798313003935391 -1.1891759551626122 0 0 0 0 9.9093184997918797 45.023715981391817 0 45.023715981391817 -188.30387128192544 0 0 0 0 7.8680108522895011 3.1524445582638663 0 3.1524445582638663 0.024948377674449462 0 0 0 0 218.40081536493744 -210.95612097422878 0 -210.95612097422878 67.072686067095503 0 0 0 0 197.89573688142264 -175.12543636010312 0 -175.12543636010312 166.48944021647162 0 0 0 0 85.343207419682585 -28.461136776667132 0 -28.461136776667132 -115.07558760158724 0 0 0 0 182.63999807797154 -39.934760381683873 0 -39.934760381683873 -179.38198606374507 0 0 0 0 242.64104453006803 93.467235970049501 0 93.467235970049501 -60.780662895615592 0 0 0 0 390.37151276065561 -164.82243823397965 0 -164.82243823397965 -117.88683002780579 0 0 0 0 92.241634636753588 -61.789045339412127 0 -61.789045339412127 -143.76341875495703 0 0 0 0 111.71618048494383 -145.19963614366358 0 -145.19963614366358 -82.057558773896289 0 0 0 0 -5.6336801842044224 -89.679038239946991 0 -89.679038239946991 -106.57679142680077 0 0 0 0 -28.150731200737937 -103.33754881134516 0 -103.33754881134516 -35.952852769532228 0 0 0 0 47.31820899018112 2.7932524872332456 0 2.7932524872332456 0.56581919944946435 0 0 0 0 29.180411833338439 0.39085063753287841 0 0.39085063753287841 6.0432652587227693 0 0 0 0 18.505154842985391 -6.4719674390908395 0 -6.4719674390908395 1.4596082433058428 0 0 0 0 -107.75669566850411 -84.548311643189919 0 -84.548311643189919 -30.349690733534558 0 0 0 0 14.421067365648483 -4.3386624664671984 0 -4.3386624664671984 -4.1224775025316776 0 0 0 0 10.453437997881508 7.6781247620706239 0 7.6781247620706239 -3.4459964887823284 0 0 0 0 -320.45092884820042 3.4121801639139449 0 3.4121801639139449 26.254403200080922 0 0 0 0 -111.66977221576599 -75.429741148748548 0 -75.429741148748548 10.965491848024868 0 0 0 0 27.626214104417159 2.7849523815941666 0 2.7849523815941666 -2.001244389853241 0 0 0 0 46.688989186721301 3.2905291626041979 0 3.2905291626041979 0.28699155822489786 0 0 0 0 -29.228984369103273 -123.7584721064092 0 -123.7584721064092 6.4732546522193957 0 0 0 0 -48.462217261825572 -178.55914456825028 0 -178.55914456825028 20.462847277573729 0 0 0 0 -168.19365768679927 -197.77308247154343 0 -197.77308247154343 114.93209155044104 0 0 0 0 28.753985837840446 4.1675497583124574 0 4.1675497583124574 -0.32617128583490285 0 0 0 0 22.418107272067573 5.0957756173625057 0 5.0957756173625057 -0.22163323514532607 0 0 0 0 20.022111889931693 5.5220965473888697 0 5.5220965473888697 -1.184019433735557 0 0 0 0 18.388383394660195 11.848551801391636 0 11.848551801391636 -5.0298139435370075 0 0 0 0 10.00083513652001 10.845991840456094 0 10.845991840456094 -0.98592694281734738 0 0 0 0 20.302673463330905 6.2724445867103888 0 6.2724445867103888 -2.7420727932470594 0 0 0 0 23.760621878951497 7.9446956952468355 0 7.9446956952468355 -4.2952528402188364 0 0 0 0 19.755398955174314 6.9018965911905781 0 6.9018965911905781 -1.0537192519260543 0 0 0 0 14.491335387720028 7.7519383200963148 0 7.7519383200963148 2.4026031991215859 0 0 0 0 -158.57401018465316 -16.056252971881008 0 -16.056252971881008 -191.28228852890243 0 0 0 0 -634.49824976881064 328.08856770133207 0 328.08856770133207 189.08283887580981 0 0 0 0 1110.8116510734999 136.28530322530969 0 136.28530322530969 -178.7421141130277 0 0 0 0 -90.219186395443103 286.48346240059436 0 286.48346240059436 1049.2131801352609 0 0 0 0 12.554243904562895 2.0241262371670743 0 2.0241262371670743 0.85225437347337651 0 0 0 0 588.50453433555958 -777.16967187398461 0 -777.16967187398461 863.02054178685171 0 0 0 0 831.13633588688026 15.306216183955343 0 15.306216183955343 -78.343673743847376 0 0 0 0 366.2283270319549 365.74425018000738 0 365.74425018000738 158.51637136523317 0 0 0 0 22.364019718716008 -262.92596586449281 0 -262.92596586449281 140.02666526069993 0 0 0 0 595.0449959156249 -511.88006232564345 0 -511.88006232564345 222.47565455275478 0 0 0 0 255.26648186146485 91.284955808999086 0 91.284955808999086 27.993742442817837 0 0 0 0 36.681871593499011 8.1285401663162418 0 8.1285401663162418 1.7447684064864051 0 0 0 0 -34.796911170597014 176.10730610653741 0 176.10730610653741 353.0227221259014 0 0 0 0 142.28543530788193 89.338084665023871 0 89.338084665023871 -82.620120890811222 0 0 0 0 61.941123534703365 20.191986063796548 0 20.191986063796548 3.2017681125270769 0 0 0 0 96.357547908355627 -3.8691073794677209 0 -3.8691073794677209 -72.821002277464686 0 0 0 0 68.302627345394285 -30.244803454843918 0 -30.244803454843918 -39.295069986962233 0 0 0 0 37.943284917520941 -12.114572601024975 0 -12.114572601024975 -47.63347108228345 0 0 0 0 -7.5342731722430472 -72.159721862202531 0 -72.159721862202531 -29.870501788411502 0 0 0 0 -1.1372131959556953 1.4074141291514195 0 1.4074141291514195 -4.696495149495008 0 0 0 0 127.92885310235943 -39.356842279877881 0 -39.356842279877881 57.776886720050918 0 0 0 0 48.231700588468811 20.928863137344678 0 20.928863137344678 12.300347912572079 0 0 0 0 52.859874282167311 51.463240574776833 0 51.463240574776833 181.57065191859056 0 0 0 0 61.435461790222689 37.841487085037755 0 37.841487085037755 9.3768682748248011 0 0 0 0 11.103616749292087 85.022604485578498 0 85.022604485578498 235.65175981179399 0 0 0 0 208.73822054722405 136.99905726686845 0 136.99905726686845 153.94770114019033 0 0 0 0 16.102476112195291 96.380432310985896 0 96.380432310985896 175.71609286186577 0 0 0 0 360.60814447475059 95.909449095374839 0 95.909449095374839 67.08038587149764 0 0 0 0 169.28313521020391 197.07616655268131 0 197.07616655268131 16.881652186590422 0 0 0 0 -7.8313986159519118 338.69343182486017 0 338.69343182486017 -57.391072068440195 0 0 0 0 393.62404880854228 -253.70728401441778 0 -253.70728401441778 200.44074238220293 0 0 0 0 2.4755031972718484 1.2940176060481079 0 1.2940176060481079 0.53032614794743205 0 0 0 0 118.03947425074875 -49.376052542462844 0 -49.376052542462844 79.380574415632424 0 0 0 0 242.33468299904052 -83.209565699221088 0 -83.209565699221088 -70.611093237766852 0 0 0 0 189.39835022745319 -114.71628180905486 0 -114.71628180905486 -270.70524832576564 0 0 0 0 111.59949556220712 -11.096693943958449 0 -11.096693943958449 1.1405796364269791 0 0 0 0 166.49584296330431 -68.818001971761589 0 -68.818001971761589 -330.69739361208883 0 0 0 0 51.058473185734329 9.8953670111720839 0 9.8953670111720839 -88.464493824405281 0 0 0 0 104.68649770916892 -8.8284856516587933 0 -8.8284856516587933 0.3972769293287306 0 0 0 0 111.83708044617197 -17.109757116705374 0 -17.109757116705374 -0.07958691175099375 0 0 0 0 89.327772599441232 -15.508986353609998 0 -15.508986353609998 32.157112648040766 0 0 0 0 111.43639748182613 -22.141959894303682 0 -22.141959894303682 -3.5446569593190134 0 0 0 0 37.196068458055379 51.528716936091541 0 51.528716936091541 -27.439534439275803 0 0 0 0 112.32628592677065 22.587430247666589 0 22.587430247666589 -34.570604055908461 0 0 0 0 95.838935348469107 -7.3358513719022458 0 -7.3358513719022458 -0.084640665427690998 0 0 0 0 91.858420504067908 -31.057344436702124 0 -31.057344436702124 8.3374709864453962 0 0 0 0 34.458020629612292 -7.3888852764521289 0 -7.3888852764521289 -73.803810402286786 0 0 0 0 150.044321400841 -46.120570202755346 0 -46.120570202755346 -338.41331607432312 0 0 0 0 112.57785477986909 -17.215738886478505 0 -17.215738886478505 -72.889755527698483 0 0 0 0 49.766005973648134 9.9326851979507609 0 9.9326851979507609 100.03401605875348 0 0 0 0 224.9450158940781 27.078836853617375 0 27.078836853617375 101.46458079148124 0 0 0 0 46.439493121131818 -27.784494164777346 0 -27.784494164777346 177.44670953098864 0 0 0 0 175.52240160216024 -201.62277195864539 0 -201.62277195864539 401.46203870914718 0 0 0 0 114.45806339452974 -18.989333355864233 0 -18.989333355864233 -45.268419439447484 0 0 0 0 466.56666054232483 2.6163423718177512 0 2.6163423718177512 -43.942838315406107 0 0 0 0 87.664688786555416 -5.5427599450643754 0 -5.5427599450643754 -18.68294870353543 0 0 0 0 92.152640879627143 -94.889326338493902 0 -94.889326338493902 -51.512057920755467 0 0 0 0 191.00145956497727 49.625789467103573 0 49.625789467103573 -287.42321280964029 0 0 0 0 139.32993981596519 47.454226550308022 0 47.454226550308022 -268.86710894258999 0 0 0 0 84.323037854175993 -3.24440729504113 0 -3.24440729504113 1.1514127301651602 0 0 0 0 476.84032430941443 -74.438629248313305 0 -74.438629248313305 -202.7897153798267 0 0 0 0 -4.3208911440560769 57.187042078227705 0 57.187042078227705 -6.9026790818538757 0 0 0 0 -24.367487351402815 43.629595514419179 0 43.629595514419179 35.11633574981488 0 0 0 0 105.15631434313724 6.7667589343807482 0 6.7667589343807482 -2.4323544032320346 0 0 0 0 100.61130073943787 16.822471661052916 0 16.822471661052916 15.163186829912405 0 0 0 0 143.83801974452217 4.0216700635196503 0 4.0216700635196503 -2.2260621402217851 0 0 0 0 -478.58322808075172 -6.6046958254703441 0 -6.6046958254703441 355.81626401341032 0 0 0 0 35.491277525179626 13.245902497128682 0 13.245902497128682 5.41682281461385 0 0 0 0 28.13608360461285 -1.5411704327761271 0 -1.5411704327761271 -3.7477807866870219 0 0 0 0 8.040548628061515 -164.52082419452529 0 -164.52082419452529 -174.82953798409517 0 0 0 0 7.3394258990738308 175.06017572028679 0 175.06017572028679 -358.99024208545643 0 0 0 0 151.58506179238611 -56.1772917927359 0 -56.1772917927359 -360.13906783262848 0 0 0 0 95.223416535009164 340.65582681039598 0 340.65582681039598 -16.770712426860769 0 0 0 0 319.44898416739306 -61.530236304488426 0 -61.530236304488426 -213.84744543861234 0 0 0 0 346.02851894008199 226.02775644604827 0 226.02775644604827 -13.102691500807452 0 0 0 0 121.18404050418758 238.01191295361261 0 238.01191295361261 55.561265928407465 0 0 0 0 -169.84218738326672 151.14861041706996 0 151.14861041706996 88.861008510685792 0 0 0 0 140.54516586638783 167.15579777906791 0 167.15579777906791 81.712029283694392 0 0 0 0 15.760342041983677 56.019690219498216 0 56.019690219498216 535.51260021918347 0 0 0 0 197.65281257877359 299.5266720792182 0 299.5266720792182 285.23410397253309 0 0 0 0 14.29897206278838 11.224693088398453 0 11.224693088398453 172.70242908814498 0 0 0 0 73.656408937007654 73.433139881579109 0 73.433139881579109 221.5281645336272 0 0 0 0 83.190980651083009 -96.20352878481134 0 -96.20352878481134 -4.5141254103822632 0 0 0 0 66.179931143080466 -18.652138492705603 0 -18.652138492705603 125.62431322179236 0 0 0 0 75.608329273130039 -62.251392606426343 0 -62.251392606426343 -7.3798936811655977 0 0 0 0 107.5602561622145 -73.453433467728814 0 -73.453433467728814 -62.031068159650786 0 0 0 0 68.107394814290274 -21.510239773510349 0 -21.510239773510349 -80.994860645752311 0 0 0 0 396.65955264897639 -45.325806467867054 0 -45.325806467867054 -157.36471465656922 0 0 0 0 41.162069967525895 -101.20406531196261 0 -101.20406531196261 -108.60554618927753 0 0 0 0 139.47233297472121 20.399018913232851 0 20.399018913232851 -57.632725075818257 0 0 0 0 -19.254513897481957 -19.67332743792339 0 -19.67332743792339 113.73779001692759 0 0 0 0 4.65552174951182 4.4559985275847325 0 4.4559985275847325 3.6462847407805086 0 0 0 0 300.30614416229946 -233.30136280870622 0 -233.30136280870622 209.2200026738721 0 0 0 0 520.07362787595957 63.679322062293039 0 63.679322062293039 -82.476146518131245 0 0 0 0 44.385180763452809 137.39783195535034 0 137.39783195535034 74.949423301082831 0 0 0 0 43.182841829962854 194.24194118018124 0 194.24194118018124 450.78214789150593 0 0 0 0 227.81975099258852 82.027357772842691 0 82.027357772842691 -30.675910420295722 0 0 0 0 0.25232465975953744 0.34005396721415337 0 0.34005396721415337 -1.5448749284659757 0 0 0 0 -40.907050498724857 -44.371642200222141 0 -44.371642200222141 16.623241430553875 0 0 0 0 242.26687022468832 92.612943548733398 0 92.612943548733398 -111.02110610501498 0 0 0 0 250.31138965556602 113.46406921371111 0 113.46406921371111 -91.270076419103205 0 0 0 0 245.04911615954552 114.07945463253603 0 114.07945463253603 2.6179667015814232 0 0 0 0 172.98704693297259 82.326928222949462 0 82.326928222949462 -10.95592541126598 0 0 0 0 -5.1132856204418715 -7.8154115072427999 0 -7.8154115072427999 -1.9313145731705665 0 0 0 0 273.61778027468972 43.352303751196189 0 43.352303751196189 -28.460996764401965 0 0 0 0 141.89236162848829 106.66052307157184 0 106.66052307157184 46.681797287491378 0 0 0 0 116.84602702031407 -13.995555038015127 0 -13.995555038015127 80.492023001540133 0 0 0 0 287.01764523671591 50.278225868002778 0 50.278225868002778 -85.389350893973983 0 0 0 0 -11.609043738539185 -104.98115045072797 0 -104.98115045072797 46.6031024637239 0 0 0 0 55.456803650148636 -30.00539515768611 0 -30.00539515768611 -29.845652239592901 0 0 0 0 107.62759874219046 -27.657243428162474 0 -27.657243428162474 -16.946710178735202 0 0 0 0 137.49761072731599 27.168766571443484 0 27.168766571443484 3.1734764429857023 0 0 0 0 190.30673427661077 86.069434130113109 0 86.069434130113109 26.501876588130472 0 0 0 0 166.8209877952404 20.454016168941052 0 20.454016168941052 -0.89654736004195001 0 0 0 0 113.07514460720927 43.643911733023572 0 43.643911733023572 4.3164550260553369 0 0 0 0 11.451408747706267 4.8183475688614195 0 4.8183475688614195 -0.093777197578907012 0 0 0 0 79.541363025704754 -14.53181563446978 0 -14.53181563446978 -22.296034289654393 0 0 0 0 120.31073279951249 -15.587421291235728 0 -15.587421291235728 -28.524285184528708 0 0 0 0 391.191293342481 97.818673906880576 0 97.818673906880576 0.75732495371721598 0 0 0 0 201.33198674911182 97.733363911007473 0 97.733363911007473 61.475247892934931 0 0 0 0 238.92650172584126 45.168391401219196 0 45.168391401219196 3.828356093412367 0 0 0 0 -41.099553138182273 -80.260035489062602 0 -80.260035489062602 -61.816476884368058 0 0 0 0 1.4795707517120071 -1.1493180389868876 0 -1.1493180389868876 0.81439381488058871 0 0 0 0 162.40548633244362 57.423727355331721 0 57.423727355331721 59.872589912502008 0 0 0 0 157.59407108721462 -3.3440277604274229 0 -3.3440277604274229 7.0059363798518461 0 0 0 0 47.285867290677686 -36.144046207040688 0 -36.144046207040688 -27.521344657363734 0 0 0 0 130.11803049636728 31.717239200761469 0 31.717239200761469 -37.730593942860651 0 0 0 0 77.7692195489808 -52.91472991507726 0 -52.91472991507726 18.129810686910787 0 0 0 0 100.2510378237348 -10.415630650329263 0 -10.415630650329263 -64.23312449256963 0 0 0 0 44.11140494792744 3.0891257886391941 0 3.0891257886391941 -4.7533564638724783 0 0 0 0 129.58281645058923 55.06350404515706 0 55.06350404515706 69.841674363878155 0 0 0 0 137.47207609960969 19.489700961486051 0 19.489700961486051 55.782447461916263 0 0 0 0 146.21212737010683 -9.6462495554033012 0 -9.6462495554033012 48.104492827889771 0 0 0 0 17.367774714095013 -20.144389433812439 0 -20.144389433812439 -14.062569476181976 0 0 0 0 179.10087913408279 -16.512108623823224 0 -16.512108623823224 -54.362447452782362 0 0 0 0 168.73187118971964 39.634878948319056 0 39.634878948319056 -17.56096154217812 0 0 0 0 122.07233113843722 20.122435658041468 0 20.122435658041468 -25.697489320970817 0 0 0 0 133.76762457515179 57.625447446359431 0 57.625447446359431 -21.446767772005842 0 0 0 0 126.45101318126945 39.61936058649826 0 39.61936058649826 -2.9198688330652658 0 0 0 0 28.791374142412465 -11.201969546358097 0 -11.201969546358097 -13.370791273230331 0 0 0 0 137.13343235257435 -18.294200085030752 0 -18.294200085030752 -107.91769885572103 0 0 0 0 212.8372098645541 6.5859068473246225 0 6.5859068473246225 -312.97422654770526 0 0 0 0 133.22943919263707 81.922271009335418 0 81.922271009335418 -131.68407659539844 0 0 0 0 223.73690502007594 50.719230290977066 0 50.719230290977066 -201.46698632329753 0 0 0 0 -41.91563176546515 -29.808327092250693 0 -29.808327092250693 -171.21519864672223 0 0 0 0 178.50552423994441 -76.888516859381639 0 -76.888516859381639 -209.4779226378887 0 0 0 0 147.02038578473434 15.452706262839456 0 15.452706262839456 -178.1960781516882 0 0 0 0 195.87588334058455 -44.718351277262173 0 -44.718351277262173 21.090827320031167 0 0 0 0 123.14833139738948 61.630890443474527 0 61.630890443474527 -27.309416109736048 0 0 0 0 30.247026971936066 -106.27549798694372 0 -106.27549798694372 -62.070137417136721 0 0 0 0 34.336040189793493 -39.205234241543621 0 -39.205234241543621 -216.94318632854879 0 0 0 0 53.870635560731898 -92.083373264850252 0 -92.083373264850252 -249.12415971474547 0 0 0 0 615.04332593095205 400.84162181329884 0 400.84162181329884 -624.6325380852395 0 0 0 0 106.729973275269 -81.083752054088109 0 -81.083752054088109 -414.0755043603076 0 0 0 0 41.999357940595992 -7.1421371593863725 0 -7.1421371593863725 -0.060173092844543419 0 0 0 0 548.93547737049016 -573.78711485027088 0 -573.78711485027088 -325.61115067196351 0 0 0 0 5.1354062739726842 -5.4640364705467093 0 -5.4640364705467093 -1.025458528641769 0 0 0 0 -330.09750226451433 -174.76373120043263 0 -174.76373120043263 890.0164782000852 0 0 0 0 -35.326953498783041 -146.42825125255877 0 -146.42825125255877 -367.04968106818797 0 0 0 0 63.257986864860527 -213.59142179779155 0 -213.59142179779155 -330.1867260134386 0 0 0 0 -174.95200345448029 -55.274763349196292 0 -55.274763349196292 -71.121432541491231 0 0 0 0 84.875879463930232 -490.80683240214057 0 -490.80683240214057 409.48177493244839 0 0 0 0 645.34723883292736 596.69441507221973 0 596.69441507221973 -295.32232096104053 0 0 0 0 206.52262938765125 -528.58569042187628 0 -528.58569042187628 361.85098750545876 0 0 0 0 10.058108171112892 -7.2337390467691129 0 -7.2337390467691129 6.2663294694046776 0 0 0 0 602.00456121567424 -859.42012929815451 0 -859.42012929815451 129.16184266789787 0 0 0 0 670.79866952070233 792.79710174592481 0 792.79710174592481 62.645800476568184 0 0 0 0 14.378885997635852 -5.0433770218876504 0 -5.0433770218876504 1.2412147015351938 0 0 0 0 134.96642320056344 661.22863604057784 0 661.22863604057784 56.844579796267794 0 0 0 0 24.720038304443989 -94.425479180195907 0 -94.425479180195907 172.46226239669704 0 0 0 0 7.3575248514518989 -22.671574431527006 0 -22.671574431527006 -111.84569507555352 0 0 0 0 2529.4151219067571 -3686.1711964628994 0 -3686.1711964628994 6516.3952953281114 0 0 0 0 392.61009704764024 -729.73576938117139 0 -729.73576938117139 -65.593337560228974 0 0 0 0 7.2439399075370048 -4.1884405555492403 0 -4.1884405555492403 2.1733745499249437 0 0 0 0 514.28417113219257 267.68252752461376 0 267.68252752461376 147.46670087943494 0 0 0 0 -158.44488881576035 1916.8676502254875 0 1916.8676502254875 -3677.7734180718471 0 0 0 0 476.63190600435337 -730.06031299956885 0 -730.06031299956885 -67.772615061834586 0 0 0 0 1008.7744804599606 -241.98295166926528 0 -241.98295166926528 106.88845586178286 0 0 0 0 -345.6060686239889 516.7596445765621 0 516.7596445765621 628.27382550110997 0 0 0 0 41.075386245211121 -346.45072403822451 0 -346.45072403822451 872.24328240102477 0 0 0 0 -7.106565706816582 -82.347673908167963 0 -82.347673908167963 -47.210499545457424 0 0 0 0 -5.4882321795121243 -81.900290967463661 0 -81.900290967463661 -68.527391484105465 0 0 0 0 5.4837332028801029 -73.961977411388943 0 -73.961977411388943 -80.454093900012595 0 0 0 0 17.103471253048546 -13.798971726674797 0 -13.798971726674797 11.988545637586157 0 0 0 0 10.883549660651195 -10.202822452020502 0 -10.202822452020502 10.994998188588688 0 0 0 0 206.86961825603612 -122.28138244759975 0 -122.28138244759975 -135.80118035640953 0 0 0 0 -5.9454777351115808 -99.861888672945497 0 -99.861888672945497 -80.303604692631779 0 0 0 0 476.88763294845376 34.338157905336175 0 34.338157905336175 119.38087768590049 0 0 0 0 28.350860160525759 -20.846996896113399 0 -20.846996896113399 16.350631361359866 0 0 0 0 -87.410145245528128 402.6232834528671 0 402.6232834528671 103.6885651556222 0 0 0 0 -12.284226193533577 -2.1100539056063283 0 -2.1100539056063283 7.9360846896748463 0 0 0 0 -99.536220192014753 -76.098786646796725 0 -76.098786646796725 -89.826073663038642 0 0 0 0 -19.00618541798849 -45.70325806357323 0 -45.70325806357323 -84.197886938180091 0 0 0 0 -17.82476855589357 -57.719748031860945 0 -57.719748031860945 -152.38478104864589 0 0 0 0 -11.504592133190272 -93.737293792813944 0 -93.737293792813944 -160.01068821629451 0 0 0 0 9.5591613128431163 -67.833843677498578 0 -67.833843677498578 -76.115358773746266 0 0 0 0 9.4780742344382816 -65.799778735746258 0 -65.799778735746258 -125.89992247910595 0 0 0 0 7.7733061107242278 -6.5948568643765988 0 -6.5948568643765988 -1.834245449066759 0 0 0 0 9.9607462923968342 -18.49051404181273 0 -18.49051404181273 -97.288112054658995 0 0 0 0 18.716182782955912 -9.8674809957019534 0 -9.8674809957019534 -90.617030471252292 0 0 0 0 13.747662277401105 -8.5046980659153633 0 -8.5046980659153633 -355.02061131234314 0 0 0 0 -105.0996988453137 -175.80332922138587 0 -175.80332922138587 -249.78531048032892 0 0 0 0 14.80835789144021 12.466769344018758 0 12.466769344018758 -158.17764262695997 0 0 0 0 3.9504716422055255 -3.7397608054665827 0 -3.7397608054665827 -2.4319509547261617 0 0 0 0 64.45260258557937 -363.47448380838887 0 -363.47448380838887 887.46495911647344 0 0 0 0 336.64411648902933 157.33948479185983 0 157.33948479185983 -340.90296301246508 0 0 0 0 15.385754415811512 -4.0995514027881246 0 -4.0995514027881246 0.45953654964038093 0 0 0 0 34.393676510787373 135.78445376120226 0 135.78445376120226 -209.42316628846675 0 0 0 0 13.540675350468518 -14.887138997502916 0 -14.887138997502916 0.99686097992434952 0 0 0 0 -261.26069878762337 -154.25305641555815 0 -154.25305641555815 -2.2287212821065623 0 0 0 0 2536.7337140674936 236.01659723051125 0 236.01659723051125 703.80249868970714 0 0 0 0 7.2433598852035459 -3.6030686904060722 0 -3.6030686904060722 -2.3750894315332136 0 0 0 0 756.7314828897288 -9.1459265595531178 0 -9.1459265595531178 -344.62670757909791 0 0 0 0 1453.5988468968917 -2606.2865051652216 0 -2606.2865051652216 -902.23650617789826 0 0 0 0 3.8490006800959904 -8.1969029448871211 0 -8.1969029448871211 -5.257962000233956 0 0 0 0 13.966072740997333 -7.3088725217517094 0 -7.3088725217517094 -2.8438473312380665 0 0 0 0 6.5328324608049613 -2.3743347878401977 0 -2.3743347878401977 1.5190086310110154 0 0 0 0 4.3616691207043914 -8.3340268361755534 0 -8.3340268361755534 10.32515740281724 0 0 0 0 139.64896822144874 105.84909456145306 0 105.84909456145306 108.19524303611615 0 0 0 0 6.3397866825811491 -2.9978946878367658 0 -2.9978946878367658 -0.40899189667189662 0 0 0 0 -51.773612983648491 -40.154025747130618 0 -40.154025747130618 32.363577516372288 0 0 0 0 155.32896655351942 -144.5060483810521 0 -144.5060483810521 140.33941560417588 0 0 0 0 0.83734452668591075 0.30734216369307532 0 0.30734216369307532 5.2666783533273716 0 0 0 0 -3.8362966541753849 -32.817988233933193 0 -32.817988233933193 -53.038040205698053 0 0 0 0 -1.2958974545217643 -27.335815127677961 0 -27.335815127677961 -41.600467287178162 0 0 0 0 8.4803749531855104 -7.6133391358247771 0 -7.6133391358247771 -1.5434154640916224 0 0 0 0 11.061723801591143 -57.193847202675897 0 -57.193847202675897 -96.200156675508879 0 0 0 0 20.123012683408888 -74.554255248753179 0 -74.554255248753179 -65.655953061291711 0 0 0 0 8.637858205574048 -52.746473935164886 0 -52.746473935164886 -58.780041735750274 0 0 0 0 -3.7445107448002091 -45.078694866277147 0 -45.078694866277147 -50.399809311625177 0 0 0 0 -90.472677618923626 -92.427208910394256 0 -92.427208910394256 -11.84140090886649 0 0 0 0 -2.0611165326429948 1.2137191047474403 0 1.2137191047474403 3.8183631333722161 0 0 0 0 15.172175750802921 -139.21344626346178 0 -139.21344626346178 5.7426965161175758 0 0 0 0 52.422472834190557 -73.189633154281182 0 -73.189633154281182 -110.50433830595466 0 0 0 0 258.25244089970511 -136.64354692148936 0 -136.64354692148936 -92.826989788320134 0 0 0 0 30.216143152900258 -106.21720323471709 0 -106.21720323471709 -67.39803549109979 0 0 0 0 5.9005730967855925 -68.690203727157495 0 -68.690203727157495 -63.627033079272223 0 0 0 0 56.893210648313513 16.319852079411497 0 16.319852079411497 -42.326338528103427 0 0 0 0 19.120541046697326 109.89093756736474 0 109.89093756736474 -72.663973620778052 0 0 0 0 140.71465102808054 10.809336193187846 0 10.809336193187846 -37.090311129602924 0 0 0 0 93.697596027785039 -12.018842329409381 0 -12.018842329409381 -136.42773047364244 0 0 0 0 249.19720012643302 80.967784534152997 0 80.967784534152997 -80.968131400788479 0 0 0 0 457.26751212232193 -33.206039733349826 0 -33.206039733349826 -64.418005374576751 0 0 0 0 509.94456914159491 -2.2384507007791399 0 -2.2384507007791399 -91.202162959645648 0 0 0 0 89.249506390235183 22.612125333513177 0 22.612125333513177 19.341923609178593 0 0 0 0 -135.64230163795946 15.481385775357921 0 15.481385775357921 10.739530654864211 0 0 0 0 124.93926473725605 62.971858652028459 0 62.971858652028459 -100.02341829226134 0 0 0 0 20.710730761635205 148.67144587485291 0 148.67144587485291 -26.749555423473794 0 0 0 0 477.7933222774991 188.28614109072623 0 188.28614109072623 -99.911774798385522 0 0 0 0 505.5518460200401 -87.537574197577669 0 -87.537574197577669 -102.7931117795622 0 0 0 0 558.71719597464471 111.06222628232626 0 111.06222628232626 -39.741887228412452 0 0 0 0 -118.39200812369563 -201.41709442957017 0 -201.41709442957017 199.07075670443282 0 0 0 0 -4.58654993078693 7.4453457115782484 0 7.4453457115782484 -15.651080952372098 0 0 0 0 118.35229444385004 108.31430969115024 0 108.31430969115024 -8.4332994735577813 0 0 0 0 247.58719001893041 104.3975517700336 0 104.3975517700336 18.082316631564026 0 0 0 0 181.15943568934927 8.1786602112697437 0 8.1786602112697437 -24.851127963167528 0 0 0 0 179.87627100943791 -387.66093491462289 0 -387.66093491462289 404.54256476642195 0 0 0 0 0.056932482808377927 1.22276379796957 0 1.22276379796957 -3.9515263053695726 0 0 0 0 323.26108533251681 401.82434957215833 0 401.82434957215833 -123.41955476925341 0 0 0 0 389.35185524046756 290.45232932672252 0 290.45232932672252 53.858939034285868 0 0 0 0 715.9091309185369 -364.09565030989734 0 -364.09565030989734 89.107696061570095 0 0 0 0 80.825683856535761 144.00336878971575 0 144.00336878971575 122.84813959305939 0 0 0 0 508.82497581430653 248.99184561590437 0 248.99184561590437 -293.48063445327534 0 0 0 0 4.9276316549851629 2.2037829551743862 0 2.2037829551743862 1.2643701964217868 0 0 0 0 1027.2860117526507 -6.745050897350211 0 -6.745050897350211 -581.34885974382905 0 0 0 0 42.003269757413364 -1.6873511620492536 0 -1.6873511620492536 -50.155183532894625 0 0 0 0 17.430874301476976 3.6820525300242917 0 3.6820525300242917 -0.78601253282196382 0 0 0 0 90.660142018266924 89.010268388111399 0 89.010268388111399 -2.2337655143355732 0 0 0 0 97.339234986764495 -46.386760178960685 0 -46.386760178960685 -63.632702195890488 0 0 0 0 23.856441866897512 -28.631797695691603 0 -28.631797695691603 -32.421752791608014 0 0 0 0 42.176587091311376 3.0979274082437769 0 3.0979274082437769 -17.545080540608978 0 0 0 0 17.899843958427862 -14.162205145346341 0 -14.162205145346341 -13.46946360132139 0 0 0 0 101.33118754639781 -45.329833366447019 0 -45.329833366447019 -26.251139542985584 0 0 0 0 42.199352160972921 -1.3702996530466862 0 -1.3702996530466862 -14.961888675936279 0 0 0 0 26.336848729282792 -14.960367341948768 0 -14.960367341948768 9.1636645719927401 0 0 0 0 9.5036024868313689 4.438075683749048 0 4.438075683749048 10.765224449096877 0 0 0 0 -16.102342063002652 -15.648747872045078 0 -15.648747872045078 45.660249242026111 0 0 0 0 107.85863807417627 40.174292387271635 0 40.174292387271635 27.779543138799909 0 0 0 0 27.878279011245468 -15.451190600378595 0 -15.451190600378595 5.1830763769412442 0 0 0 0 872.52519745437166 16.268301505787349 0 16.268301505787349 -207.74629084986373 0 0 0 0 179.34871497812492 26.956800623632716 0 26.956800623632716 -198.33887877218513 0 0 0 0 23.032340346375349 -507.79565262033634 0 -507.79565262033634 -382.04234214155076 0 0 0 0 1531.2813742426515 -490.5345002929771 0 -490.5345002929771 -623.07684964062628 0 0 0 0 -180.96453517189366 -9.5219824626051377 0 -9.5219824626051377 14.515810344011697 0 0 0 0 22.722339920685044 52.855663335033569 0 52.855663335033569 4.3282500488094229 0 0 0 0 18.589316354778482 11.02116086444569 0 11.02116086444569 -1.6259111120447542 0 0 0 0 74.510858128080145 54.349166871339548 0 54.349166871339548 0.95990122430998781 0 0 0 0 -844.74094720538051 -54.462490981538849 0 -54.462490981538849 897.62907016520148 0 0 0 0 47.178145900419622 -0.86860816501257432 0 -0.86860816501257432 -3.0626629159630738 0 0 0 0 14.875410036089306 0.40581411032417236 0 0.40581411032417236 -3.2141348602526705 0 0 0 0 66.760275743370585 13.991664124313502 0 13.991664124313502 0.28742829524730951 0 0 0 0 63.53568035425269 40.146127291619393 0 40.146127291619393 -9.7579059268706487 0 0 0 0 131.61986015880029 40.954456831949926 0 40.954456831949926 -19.42640078833756 0 0 0 0 12.173470017056275 8.4812180938529238 0 8.4812180938529238 -7.2329189377508252 0 0 0 0 63.499295475546617 15.441839091724574 0 15.441839091724574 -0.11200016057878592 0 0 0 0 631.11405693700726 229.73690608196978 0 229.73690608196978 -257.64362874747059 0 0 0 0 55.892425062348238 18.844873087420766 0 18.844873087420766 1.954124327513596 0 0 0 0 67.182868168649293 14.777854489200422 0 14.777854489200422 -82.940882741369478 0 0 0 0 245.61296121951818 -294.31191689854586 0 -294.31191689854586 -73.058621119601412 0 0 0 0 147.8021940760591 -292.8415265511162 0 -292.8415265511162 69.797727683716857 0 0 0 0 258.17080704342516 -463.74421038429637 0 -463.74421038429637 172.55346707136323 0 0 0 0 72.150971389120969 -401.01528619179999 0 -401.01528619179999 -11.606630115913958 0 0 0 0 83.327019441529046 79.577437615520154 0 79.577437615520154 200.30024103719279 0 0 0 0 18.340972330235303 -3.268180979571488 0 -3.268180979571488 0.63821423500953278 0 0 0 0 103.47837173379958 259.75900597420878 0 259.75900597420878 221.19195457963724 0 0 0 0 206.1306333898101 -374.3012686203374 0 -374.3012686203374 -127.70583929801114 0 0 0 0 1245.2225063335209 681.66908758027967 0 681.66908758027967 -219.67338619261773 0 0 0 0 548.66703801257972 429.83555448204697 0 429.83555448204697 -290.64303573284997 0 0 0 0 -102.33252734838607 103.99337526698537 0 103.99337526698537 -452.20393085031264 0 0 0 0 30.611302280527624 8.6663402374334026 0 8.6663402374334026 -5.8170086671101284 0 0 0 0 12.669804899249357 399.07972738088927 0 399.07972738088927 -533.54032859336894 0 0 0 0 26.073858033601148 3.8114277669764007 0 3.8114277669764007 -4.995216241865684 0 0 0 0 19.663486687422846 11.227360867142352 0 11.227360867142352 -9.983996649702533 0 0 0 0 28.661803205484276 12.540275899566096 0 12.540275899566096 -1.6806688829920988 0 0 0 0 75.600310082420037 -17.816265337800814 0 -17.816265337800814 -52.384264629991776 0 0 0 0 324.79815776983742 -43.072480948650991 0 -43.072480948650991 -712.58164526957535 0 0 0 0 47.128946299894523 -6.1210302499869265 0 -6.1210302499869265 -2.5179343639940539 0 0 0 0 -68.068716884957212 96.634784123071711 0 96.634784123071711 -333.7933772279066 0 0 0 0 247.05919262757664 -89.337383472290384 0 -89.337383472290384 152.45703511241936 0 0 0 0 500.26270596751237 176.60364512753802 0 176.60364512753802 -448.9760483828004 0 0 0 0 306.43113200900552 -332.32915326445209 0 -332.32915326445209 -2.1247456889732348 0 0 0 0 22.520886547652481 205.40158700005759 0 205.40158700005759 -56.54699956449349 0 0 0 0 27.281829218267376 120.30083366207305 0 120.30083366207305 -442.69392466456884 0 0 0 0 16.630888795250939 10.752346766465678 0 10.752346766465678 -6.9449640015793648 0 0 0 0 57.100922803865615 83.601721865276659 0 83.601721865276659 -5.9258072137108684 0 0 0 0 -503.73026511918579 697.72651284281881 0 697.72651284281881 121.89463885540397 0 0 0 0 19.167264870344084 10.212960072946146 0 10.212960072946146 -3.5072627111612973 0 0 0 0 18.008434205128196 9.5211592471085602 0 9.5211592471085602 -1.3146065642833262 0 0 0 0 21.1123142109318 -6.470522786801439 0 -6.470522786801439 -15.8784496942136 0 0 0 0 20.460135812362296 -34.475994165567542 0 -34.475994165567542 22.064750670252351 0 0 0 0 364.02768025271507 -50.221965366033828 0 -50.221965366033828 17.553069929015692 0 0 0 0 328.62779210355802 95.062749084413554 0 95.062749084413554 54.541840092575057 0 0 0 0 -17.037702843751504 81.559325018871732 0 81.559325018871732 85.291937511925425 0 0 0 0 -59.483567529219727 36.881639184087362 0 36.881639184087362 99.30405434757381 0 0 0 0 -19.737261779708206 -23.841276928026673 0 -23.841276928026673 -27.731756364777084 0 0 0 0 2238.3931596714683 452.636521100756 0 452.636521100756 -704.73827786063839 0 0 0 0 14.157255888056014 -0.39839596244254949 0 -0.39839596244254949 -1.3786887603035303 0 0 0 0 -23.260749407447292 6.7971061030216333 0 6.7971061030216333 19.352282852000826 0 0 0 0 -5.2228993497265037 -3.6056453605201568 0 -3.6056453605201568 -15.863171441877967 0 0 0 0 -32.078296569699887 15.72833398371813 0 15.72833398371813 10.964057234480038 0 0 0 0 -8.9229388066487445 39.431147834332364 0 39.431147834332364 34.855082387396578 0 0 0 0 -61.300476538694056 -28.264134149897473 0 -28.264134149897473 0.6874987699166013 0 0 0 0 -85.862116176482232 -8.5114024823228647 0 -8.5114024823228647 60.575744857884501 0 0 0 0 890.05761850206761 203.34829558025871 0 203.34829558025871 -165.92206621215882 0 0 0 0 151.89480900997296 -342.82226444235494 0 -342.82226444235494 -10.554036264858951 0 0 0 0 662.00761347035586 -334.92150912507077 0 -334.92150912507077 -70.004500161917349 0 0 0 0 -167.68553950765272 -261.17202846553164 0 -261.17202846553164 122.47021457546998 0 0 0 0 910.48246404539077 -212.23085079780878 0 -212.23085079780878 -249.29000149582134 0 0 0 0 575.85606706159888 -39.649093778661154 0 -39.649093778661154 -106.31486436082378 0 0 0 0 75.246728252408502 -71.67207865684577 0 -71.67207865684577 -20.772304514246571 0 0 0 0 -1029.2970975990938 -484.81734162986777 0 -484.81734162986777 -290.67584179328833 0 0 0 0 6.6791465314227736 -3.0575775692510803 0 -3.0575775692510803 0.3490594451783835 0 0 0 0 239.12101375570637 -999.76171375027434 0 -999.76171375027434 -350.17778845205385 0 0 0 0 552.29408038830661 393.52861120532179 0 393.52861120532179 208.00865493237598 0 0 0 0 11.22003847452509 -6.2550841802274277 0 -6.2550841802274277 3.0345524618877437 0 0 0 0 230.44706713147752 172.96895733652968 0 172.96895733652968 154.00518193369089 0 0 0 0 449.664712650414 112.93113100143228 0 112.93113100143228 54.694746279881201 0 0 0 0 394.90803700625293 34.521919816930904 0 34.521919816930904 -42.998205208408308 0 0 0 0 189.26103262072138 -35.670375539101315 0 -35.670375539101315 -32.721254949340619 0 0 0 0 176.99150560268026 -104.85964786782779 0 -104.85964786782779 -57.704912554322618 0 0 0 0 484.10818848141207 -51.625663808180889 0 -51.625663808180889 -103.0711510469996 0 0 0 0 170.50370221676712 -74.765067269062001 0 -74.765067269062001 -113.13037398550466 0 0 0 0 136.95011746856198 54.874970819436214 0 54.874970819436214 -159.54563570014079 0 0 0 0 -93.738031210659756 43.227915225745051 0 43.227915225745051 31.891269640696464 0 0 0 0 58.008751787492656 -14.618083262302662 0 -14.618083262302662 -9.7394340374294188 0 0 0 0 35.841349102563981 -20.670600217994888 0 -20.670600217994888 -9.7872724991374298 0 0 0 0 4.2079021432298163 -1.3966790983282209 0 -1.3966790983282209 -2.4864469456262288 0 0 0 0 -427.85922593384112 187.11025739971024 0 187.11025739971024 31.790602047863558 0 0 0 0 65.162598907048505 -37.17234744984097 0 -37.17234744984097 16.886129129602523 0 0 0 0 73.323204044612794 -4.8384541200189233 0 -4.8384541200189233 -66.658826542089628 0 0 0 0 103.34237297891377 47.257658402218112 0 47.257658402218112 16.296758035134168 0 0 0 0 82.099917887524498 81.071334671554723 0 81.071334671554723 40.347820642551824 0 0 0 0 64.584301344188134 133.53507593135873 0 133.53507593135873 -82.685015219610165 0 0 0 0 57.218729307965987 45.35519404857871 0 45.35519404857871 35.894299369650071 0 0 0 0 198.9054478165599 115.67821931838989 0 115.67821931838989 27.230196742657881 0 0 0 0 67.868175347528449 39.727924438999935 0 39.727924438999935 31.922509388205498 0 0 0 0 -20.486904552533815 108.66866422870771 0 108.66866422870771 42.720171217285497 0 0 0 0 -1.30173065041987 0.067571481033677827 0 0.067571481033677827 2.6536551682595424 0 0 0 0 11.179368369583244 7.8639940901066439 0 7.8639940901066439 19.6496309978358 0 0 0 0 55.655689366263687 39.531735246644359 0 39.531735246644359 -42.285624722530883 0 0 0 0 4.1539159750783945 15.451584925844543 0 15.451584925844543 -37.3441285969405 0 0 0 0 8.6108230426497272 3.4733524700124327 0 3.4733524700124327 -5.697511551938172 0 0 0 0 190.37283340824797 -12.155098846072178 0 -12.155098846072178 -20.988280375903287 0 0 0 0 173.39750531333266 11.152145095083938 0 11.152145095083938 -14.851937597002461 0 0 0 0 68.440349398137187 -37.305913427441197 0 -37.305913427441197 -9.0099232132606275 0 0 0 0 158.44895166699825 25.182256318060524 0 25.182256318060524 -1.9346822179338687 0 0 0 0 30.267183228461555 -30.919132438267006 0 -30.919132438267006 -12.42731008456526 0 0 0 0 102.37406288855924 -26.545743581052079 0 -26.545743581052079 -10.628698402405917 0 0 0 0 293.23113114730586 -23.940335699589809 0 -23.940335699589809 8.3082396039898612 0 0 0 0 310.23301508828445 4.7719861965651944 0 4.7719861965651944 -43.690929932236486 0 0 0 0 208.39495741330211 4.3463097628759897 0 4.3463097628759897 2.4002225555151426 0 0 0 0 246.89708902851362 24.003092900622988 0 24.003092900622988 -14.376359440381975 0 0 0 0 282.82212892060124 20.802181765314458 0 20.802181765314458 -12.184258384814939 0 0 0 0 419.02751629630257 -39.78895282578145 0 -39.78895282578145 -18.067419341184404 0 0 0 0 282.99946249900131 25.409276182377084 0 25.409276182377084 65.244315109753643 0 0 0 0 284.50400062848166 -69.291769373309592 0 -69.291769373309592 0.45733178517730266 0 0 0 0 339.58503887477855 -38.78330557123877 0 -38.78330557123877 -49.104695918854873 0 0 0 0 237.43556835362688 13.84568191245512 0 13.84568191245512 19.700450428484601 0 0 0 0 325.24689866681365 18.495843740465602 0 18.495843740465602 -14.238644940962786 0 0 0 0 129.33031600504546 14.292926767566769 0 14.292926767566769 13.929625632185662 0 0 0 0 227.79579748886999 52.435008532679234 0 52.435008532679234 8.9958752535371787 0 0 0 0 115.17425040934359 28.874725074483649 0 28.874725074483649 74.79441045440808 0 0 0 0 59.816467522550738 27.721233225117999 0 27.721233225117999 52.01223894855616 0 0 0 0 147.91639757580015 6.4127544902668205 0 6.4127544902668205 -2.599259991162171 0 0 0 0 147.25016380206944 28.51011028897949 0 28.51011028897949 28.96093046600754 0 0 0 0 174.2027911563564 40.926978502473958 0 40.926978502473958 5.9272192885734967 0 0 0 0 169.03535268437918 27.481795339104337 0 27.481795339104337 2.8787598747925074 0 0 0 0 99.22638048535191 -1.7702374835726573 0 -1.7702374835726573 8.85237361080749 0 0 0 0 88.486588569991 22.942385035288339 0 22.942385035288339 15.570269607331511 0 0 0 0 174.2410229381112 12.824076451231747 0 12.824076451231747 21.677810732482016 0 0 0 0 172.22776553374206 1.7371344721195285 0 1.7371344721195285 -15.225456825501794 0 0 0 0 4499.3393143988369 -864.35548111640651 0 -864.35548111640651 -775.10743338752422 0 0 0 0 3676.3411561357752 -545.74939708612544 0 -545.74939708612544 -467.84363918748045 0 0 0 0 64.819077029707842 -2.8453743939629703 0 -2.8453743939629703 -7.3990622606125385 0 0 0 0 14.569927705775626 18.606265950147133 0 18.606265950147133 20.970016987439976 0 0 0 0 4497.6770489562732 -1578.2145035113781 0 -1578.2145035113781 813.47506611904737 0 0 0 0 15.754592591487992 18.552333529606859 0 18.552333529606859 -7.001549480977225 0 0 0 0 1261.0492128714118 -1116.8356764251967 0 -1116.8356764251967 1029.045300661908 0 0 0 0 4905.1665609359852 -873.1654377379615 0 -873.1654377379615 -274.01709196224942 0 0 0 0 12.343897125015511 -3.180878081603236 0 -3.180878081603236 3.2457557735785709 0 0 0 0 580.64435062496341 -884.60083420981778 0 -884.60083420981778 1405.6397500922149 0 0 0 0 13.008110750275497 6.620112655641778 0 6.620112655641778 -2.9011596819476302 0 0 0 0 26.35325016190982 -0.13532841833054832 0 -0.13532841833054832 -5.798505410204978 0 0 0 0 15.545087644721207 -10.555763207390498 0 -10.555763207390498 8.0633466470962958 0 0 0 0 4865.0036812791186 1666.9837359038468 0 1666.9837359038468 563.69664836060542 0 0 0 0 2.1376688199466116 2.613677694058957 0 2.613677694058957 1.0750219283743441 0 0 0 0 46.282352446110963 7.774496452690812 0 7.774496452690812 -7.9703687445671676 0 0 0 0 -27.274263900755614 86.158652898221874 0 86.158652898221874 -125.75567790048373 0 0 0 0 11.799432547701361 3.303318061146836 0 3.303318061146836 -1.6090026914907956 0 0 0 0 22.809985391770638 16.904188828630886 0 16.904188828630886 -17.264529719843104 0 0 0 0 46.916172753870342 18.547311913219346 0 18.547311913219346 34.767886561319756 0 0 0 0 55.132710111611004 -18.741926742411067 0 -18.741926742411067 8.3675969645901205 0 0 0 0 45.060481994831207 8.6904506965545352 0 8.6904506965545352 -8.8836026789851985 0 0 0 0 146.18609749758616 -44.366729071174177 0 -44.366729071174177 -127.24658691646937 0 0 0 0 50.1778920473771 -11.931859601216047 0 -11.931859601216047 -0.02571834762625258 0 0 0 0 43.334091963853979 -19.200590462424746 0 -19.200590462424746 6.6794368061305249 0 0 0 0 4248.7558980904087 1262.5673560713294 0 1262.5673560713294 -103.14307136977324 0 0 0 0 3021.2439719519452 1174.8836165900013 0 1174.8836165900013 507.14596455732277 0 0 0 0 -0.78460573454686866 25.976416473630437 0 25.976416473630437 -25.131511471324341 0 0 0 0 4497.4963041579376 2169.0000117021154 0 2169.0000117021154 764.59133555770222 0 0 0 0 3522.4112315922939 2316.2452251797399 0 2316.2452251797399 1115.7410335986217 0 0 0 0 4044.6805346217716 796.26709296215245 0 796.26709296215245 -14.335220168291187 0 0 0 0 3872.954247709833 991.02398983141791 0 991.02398983141791 -55.719642172353602 0 0 0 0 4242.3177141181768 1013.158395727688 0 1013.158395727688 -54.711945301435563 0 0 0 0 4499.4841290354634 866.63664372954702 0 866.63664372954702 -185.94041212975222 0 0 0 0 4348.9395595239221 729.23558316865387 0 729.23558316865387 -103.09186737774372 0 0 0 0 127.72869597249519 43.14961786549361 0 43.14961786549361 -119.02880597487911 0 0 0 0 64.436122048326069 105.91522084138342 0 105.91522084138342 -25.506277036502524 0 0 0 0 -2.524898339751168 17.199949512975415 0 17.199949512975415 -16.536732849933394 0 0 0 0 208.61991370481701 119.96130825371438 0 119.96130825371438 -103.23798978522427 0 0 0 0 -11.59571917370522 26.164260381393888 0 26.164260381393888 -43.374930823548311 0 0 0 0 29.381401996894645 -15.178554299586331 0 -15.178554299586331 6.7383912102894525 0 0 0 0 109.63588937239183 -136.12653840086614 0 -136.12653840086614 -523.91375510903481 0 0 0 0 -71.501024004577175 395.89149202203868 0 395.89149202203868 -124.51365876001728 0 0 0 0 69.19534979017044 194.05568443183233 0 194.05568443183233 -31.517465675317567 0 0 0 0 98.417941978557792 -60.388075741781449 0 -60.388075741781449 257.05662993885039 0 0 0 0 424.41987518407586 108.24021073812287 0 108.24021073812287 -360.04119086203309 0 0 0 0 649.15986120868183 18.754895697940469 0 18.754895697940469 -80.694089300910264 0 0 0 0 577.72512538417504 -285.96633561497572 0 -285.96633561497572 -73.934356757657611 0 0 0 0 710.09743763814913 -322.17069384470255 0 -322.17069384470255 -70.833037737284599 0 0 0 0 4.4763781215989127 1.3785613354429316 0 1.3785613354429316 -0.029506985885337844 0 0 0 0 431.96762925496296 -443.98584610692353 0 -443.98584610692353 378.3071937947193 0 0 0 0 331.55912126111502 -272.6785696193316 0 -272.6785696193316 95.379393950137228 0 0 0 0 1002.1161931849329 -152.4179209549194 0 -152.4179209549194 -271.44962230808073 0 0 0 0 1687.5090514575932 -678.98604247953995 0 -678.98604247953995 97.16904128687429 0 0 0 0 1763.1370492981114 -322.56643489504438 0 -322.56643489504438 -486.47305784293133 0 0 0 0 4500.0298930019144 268.83218087615472 0 268.83218087615472 -968.66135006088609 0 0 0 0 3578.4634278635413 118.03737377371596 0 118.03737377371596 -503.93708176637153 0 0 0 0 0.6070581093502696 5.980280733422731 0 5.980280733422731 -6.3199794995752194 0 0 0 0 -139.31610324787107 255.74722475730744 0 255.74722475730744 -33.966034195313682 0 0 0 0 0.24402250836828898 -84.761667943501834 0 -84.761667943501834 402.53143196816552 0 0 0 0 250.94404571219093 299.13420019812156 0 299.13420019812156 194.59273491685053 0 0 0 0 729.37043346257087 567.662761853951 0 567.662761853951 296.35626903231667 0 0 0 0 314.13052118188716 -181.52757748163458 0 -181.52757748163458 215.69346438246703 0 0 0 0 970.91503214909244 32.037550783002644 0 32.037550783002644 49.027100001599138 0 0 0 0 -16.895115188877753 -27.331695145949652 0 -27.331695145949652 262.7341976722264 0 0 0 0 37.445374224800617 123.55315847580232 0 123.55315847580232 112.35897228104841 0 0 0 0 699.88820980662058 531.92850670119151 0 531.92850670119151 71.763993953425597 0 0 0 0 11.742973009494278 -0.93285146241124295 0 -0.93285146241124295 0.70682996791067465 0 0 0 0 287.38285658638233 438.94710854202822 0 438.94710854202822 510.12703952361227 0 0 0 0 474.56095585034745 290.70826312708687 0 290.70826312708687 -130.18715137487743 0 0 0 0 447.98505075210414 310.48140659811361 0 310.48140659811361 30.374545006265862 0 0 0 0 188.08988397078883 91.074217529904672 0 91.074217529904672 -30.418774463214504 0 0 0 0 468.08134526836602 257.03551712251374 0 257.03551712251374 -94.005410707982264 0 0 0 0 261.58398632994863 -217.18883381715307 0 -217.18883381715307 -349.55019454915237 0 0 0 0 11.593235653819674 -7.225551459621343 0 -7.225551459621343 2.75561705830156 0 0 0 0 863.04934124443253 87.346309678488751 0 87.346309678488751 -292.54747466662047 0 0 0 0 -119.92548771240536 -227.25724966038069 0 -227.25724966038069 -307.73706888615015 0 0 0 0 -82.238734799874692 -204.75265920225502 0 -204.75265920225502 -295.77980440952388 0 0 0 0 -111.46291904485997 -204.80440421453068 0 -204.80440421453068 -248.74457897869161 0 0 0 0 -210.66724115139596 -228.67018503157868 0 -228.67018503157868 -267.41279341214431 0 0 0 0 0.68421384482917347 -226.97272572033853 0 -226.97272572033853 -317.26077798868755 0 0 0 0 11.30831748282311 -8.2573258087726309 0 -8.2573258087726309 4.3846092685158027 0 0 0 0 -22.866605573659399 -114.50634420521465 0 -114.50634420521465 -236.39044397978267 0 0 0 0 28.950829525612789 -23.847555194797224 0 -23.847555194797224 -8.6897339661800288 0 0 0 0 -244.1912503118038 -424.14451002640874 0 -424.14451002640874 -414.18823923874788 0 0 0 0 -405.03884385744186 -375.12037629156112 0 -375.12037629156112 -306.61051651992602 0 0 0 0 -70.485337878658811 -202.25059474697628 0 -202.25059474697628 -464.10511823882234 0 0 0 0 20.909567706530304 -14.958302423286684 0 -14.958302423286684 5.5685569013036513 0 0 0 0 31.250578017952662 -13.981208195064829 0 -13.981208195064829 -4.1030754858981382 0 0 0 0 28.987938651291188 -23.005653310319531 0 -23.005653310319531 -3.3264807337063758 0 0 0 0 0.95937924024498655 -4.7082078515182371 0 -4.7082078515182371 -0.81553971583824625 0 0 0 0 0.8599730860381225 3.5945562102331721 0 3.5945562102331721 -4.6903367147616741 0 0 0 0 -410.96234405450241 -712.18283805844567 0 -712.18283805844567 -646.31580371153177 0 0 0 0 -361.1746433314047 -416.5121398931542 0 -416.5121398931542 -780.3929476879091 0 0 0 0 85.53866974233938 -162.15880922357883 0 -162.15880922357883 -442.98513778399456 0 0 0 0 -381.57204404159529 -245.65344754282137 0 -245.65344754282137 -330.8030933855498 0 0 0 0 116.35767419266995 -105.05960053189983 0 -105.05960053189983 -836.22382822425436 0 0 0 0 -230.29154099198558 -161.7086955439031 0 -161.7086955439031 38.60703189656715 0 0 0 0 -110.95679343862002 147.98204133451759 0 147.98204133451759 163.1923572047989 0 0 0 0 -45.782366010008445 -328.64226466724108 0 -328.64226466724108 -242.43387231625775 0 0 0 0 6.8787683068801613 -461.10890521324876 0 -461.10890521324876 -366.3349980709354 0 0 0 0 6.4709026708468835 -6.1191914970051755 0 -6.1191914970051755 4.94681821656701 0 0 0 0 -155.96348464865423 -218.45332438810829 0 -218.45332438810829 -158.40363510717361 0 0 0 0 36.278047408053055 105.78310699946348 0 105.78310699946348 -145.17824837617263 0 0 0 0 231.34915151096357 -38.868794076362519 0 -38.868794076362519 191.47879464272 0 0 0 0 599.56532205373151 -21.599456327997359 0 -21.599456327997359 184.22243974452385 0 0 0 0 37.160552805114172 2.536525508928416 0 2.536525508928416 0.21153100021389082 0 0 0 0 -29.454946711287448 -153.60230670691101 0 -153.60230670691101 729.05013449991498 0 0 0 0 5.9600167782712106 27.718999272247856 0 27.718999272247856 526.88998537740827 0 0 0 0 492.37251195564932 -365.22259834026909 0 -365.22259834026909 834.17369929815709 0 0 0 0 0.062485772866256672 -2.552890800107579 0 -2.552890800107579 4.2074763590517161 0 0 0 0 -142.13048994966766 -369.18135431202927 0 -369.18135431202927 403.99964439574251 0 0 0 0 237.75505331688623 129.18831239734004 0 129.18831239734004 -21.98234704352825 0 0 0 0 -354.22423135294594 8.2642766906733414 0 8.2642766906733414 436.07972412286335 0 0 0 0 66.373148248365396 -7.7744939213994257 0 -7.7744939213994257 435.95945323000092 0 0 0 0 145.66031269718064 -174.08572188912342 0 -174.08572188912342 712.24410993085053 0 0 0 0 88.087836426282593 40.25337995664006 0 40.25337995664006 -209.93916392316908 0 0 0 0 61.001026492434903 -382.8521902080887 0 -382.8521902080887 404.73978206593432 0 0 0 0 62.620066628810946 4.5336662552415126 0 4.5336662552415126 -0.12381688056504436 0 0 0 0 57.614119135865622 6.0128008740859968 0 6.0128008740859968 -157.39274965411846 0 0 0 0 95.444806537270779 27.784482267925569 0 27.784482267925569 -146.31945883275239 0 0 0 0 89.806723885285464 34.631370747568326 0 34.631370747568326 -139.54234285665052 0 0 0 0 23.335945992442248 55.62308087688973 0 55.62308087688973 -142.42269859953672 0 0 0 0 51.625676257268424 58.1689709725282 0 58.1689709725282 -113.91732740380394 0 0 0 0 115.06739917215236 21.684032526443616 0 21.684032526443616 -116.04089167864458 0 0 0 0 82.714302346776094 36.478732275869561 0 36.478732275869561 -62.520586082754562 0 0 0 0 108.63026191015888 -16.288701339804902 0 -16.288701339804902 -90.647036352849227 0 0 0 0 68.245424325012209 11.126920513984601 0 11.126920513984601 -98.328713828523178 0 0 0 0 91.047442439146835 -4.2790968420902118 0 -4.2790968420902118 -47.069768096712778 0 0 0 0 98.921623759739305 31.095562198651351 0 31.095562198651351 -87.164943004751649 0 0 0 0 12.775266352830407 0.39713205847276312 0 0.39713205847276312 0.46368071987034298 0 0 0 0 -6.9259424990486878 79.349899386412289 0 79.349899386412289 0.89583926053410323 0 0 0 0 104.14052616323715 210.00315512724086 0 210.00315512724086 150.89684806858224 0 0 0 0 49.460409508800694 69.825357744746483 0 69.825357744746483 -182.93117996599455 0 0 0 0 24.567819295109075 46.048966911036132 0 46.048966911036132 -153.45776663644801 0 0 0 0 -7.9257637073023943 67.438133491003214 0 67.438133491003214 -129.23248025214343 0 0 0 0 35.233936043182439 91.154601872083617 0 91.154601872083617 -120.10961734116199 0 0 0 0 60.354485402396676 54.348989364558065 0 54.348989364558065 -151.63762623368757 0 0 0 0 62.981809318276646 47.865271721217141 0 47.865271721217141 -105.60397876301914 0 0 0 0 85.302332175389893 67.254309873243074 0 67.254309873243074 -161.86332336258965 0 0 0 0 21.148088791618648 92.175447273973987 0 92.175447273973987 -157.17915821057795 0 0 0 0 17.273666780536587 111.55506790855725 0 111.55506790855725 -130.71883141010971 0 0 0 0 98.081922613461302 -349.43770710805006 0 -349.43770710805006 -590.39769333003392 0 0 0 0 -153.48323462968619 41.125462891857524 0 41.125462891857524 -163.2431632768089 0 0 0 0 39.845224422579122 68.940888124931121 0 68.940888124931121 -232.55562450349407 0 0 0 0 109.33842741481931 205.90386080517737 0 205.90386080517737 -182.08750606282501 0 0 0 0 424.98726093112873 -147.42994669656639 0 -147.42994669656639 -676.70302920152062 0 0 0 0 95.594532421981057 716.149126794214 0 716.149126794214 510.51259363918609 0 0 0 0 4.8955396191194893 -1.6892774549714016 0 -1.6892774549714016 -1.1907503050236397 0 0 0 0 1128.6510273041927 -589.17471615788224 0 -589.17471615788224 -926.7392923034289 0 0 0 0 -85.246931316278278 165.88363056171477 0 165.88363056171477 0.99071684339935473 0 0 0 0 1122.4169929311993 -374.88330440141101 0 -374.88330440141101 228.85677569860593 0 0 0 0 380.1743203815131 398.70510767192286 0 398.70510767192286 593.13458348841175 0 0 0 0 1374.2557669783891 348.65705819363455 0 348.65705819363455 -453.04160272749505 0 0 0 0 446.76367804385154 210.30673755181078 0 210.30673755181078 189.49405663816304 0 0 0 0 1188.8800983758838 59.943639917403061 0 59.943639917403061 174.87920365927494 0 0 0 0 121.00017087894958 -114.83752388715504 0 -114.83752388715504 58.250676989270687 0 0 0 0 618.08904168601589 204.79800865905381 0 204.79800865905381 97.315165793841516 0 0 0 0 604.49183588046901 283.45428170743997 0 283.45428170743997 179.24709414313566 0 0 0 0 325.73712920718208 -55.088289137824404 0 -55.088289137824404 104.16222302088272 0 0 0 0 -6.9344724111761025 -13.434396345107189 0 -13.434396345107189 155.91898150187626 0 0 0 0 294.24976341638285 54.520507041326255 0 54.520507041326255 79.485907722272259 0 0 0 0 139.30047389249012 114.21064637513473 0 114.21064637513473 247.31136863105553 0 0 0 0 133.0005495295982 -101.57749789762332 0 -101.57749789762332 8.3057123375383526 0 0 0 0 -171.82705513964538 -106.70057677408408 0 -106.70057677408408 33.146258202121032 0 0 0 0 120.85901202805871 -11.265805443377701 0 -11.265805443377701 -137.53523597578169 0 0 0 0 134.64256927600218 -42.444659588488094 0 -42.444659588488094 14.908483395906387 0 0 0 0 -224.34926406728061 -721.30615432568175 0 -721.30615432568175 -335.56416160843821 0 0 0 0 142.20783838774577 -46.412262508980518 0 -46.412262508980518 5.0410160940288957 0 0 0 0 125.92035707334981 28.018242718949338 0 28.018242718949338 56.203652426535427 0 0 0 0 -15.34492593108007 110.7820489001524 0 110.7820489001524 20.30484818473883 0 0 0 0 -20.697630774091522 -192.26116058259663 0 -192.26116058259663 -3.7750351912927158 0 0 0 0 -72.815888829839423 -324.19762924838642 0 -324.19762924838642 -231.22751408600357 0 0 0 0 132.40062643214881 -37.283774984713972 0 -37.283774984713972 1.6585953375948859 0 0 0 0 -153.8254123051629 14.753452791339214 0 14.753452791339214 156.11270184416753 0 0 0 0 553.6991183192149 157.8047467465417 0 157.8047467465417 -117.43927805445401 0 0 0 0 569.99691944012011 -247.75281925837771 0 -247.75281925837771 241.55977090360557 0 0 0 0 -44.212041533439333 53.699364296742829 0 53.699364296742829 420.48783614953118 0 0 0 0 1086.3058064394281 20.769941311490584 0 20.769941311490584 -492.74239643484509 0 0 0 0 -634.71556396257074 -255.84680390587255 0 -255.84680390587255 645.14167916931001 0 0 0 0 4.8868376968972029 5.2191769691598644 0 5.2191769691598644 2.5986061059097514 0 0 0 0 270.98879222133837 215.37123026361496 0 215.37123026361496 301.67254384377657 0 0 0 0 56.03305645063665 -43.934042088305432 0 -43.934042088305432 60.081236430019999 0 0 0 0 31.549759508780937 -15.840759887392544 0 -15.840759887392544 -4.8206759242489055 0 0 0 0 168.11758312103962 2.0371058813390128 0 2.0371058813390128 -1.7581149268170821 0 0 0 0 377.26329891728528 -206.19061617533703 0 -206.19061617533703 -319.26296041833393 0 0 0 0 128.71163985671592 -147.83035426601919 0 -147.83035426601919 101.02472112149871 0 0 0 0 323.01270172046497 -19.436826904798181 0 -19.436826904798181 -809.92313327760894 0 0 0 0 105.91801188403042 -90.192403077375275 0 -90.192403077375275 43.150266609073242 0 0 0 0 240.43251293115463 -73.571622856453132 0 -73.571622856453132 -222.73658245919796 0 0 0 0 4.7762019785120344 3.1699502515431526 0 3.1699502515431526 0.10080884670101203 0 0 0 0 65.824431726621697 -171.53019470739321 0 -171.53019470739321 -65.781066409867435 0 0 0 0 696.84518508180372 298.95883344225535 0 298.95883344225535 -18.554452023609883 0 0 0 0 440.67578836440225 175.73779004624657 0 175.73779004624657 -69.439230950721026 0 0 0 0 435.31049126741709 116.18677858665751 0 116.18677858665751 -62.289913886918157 0 0 0 0 123.36123806252726 382.28584887129807 0 382.28584887129807 125.14191150256056 0 0 0 0 456.22290332251578 -330.8614982440107 0 -330.8614982440107 -90.086584879846882 0 0 0 0 81.914987443182326 313.68810565010949 0 313.68810565010949 206.66135449775516 0 0 0 0 135.26594324840698 312.8223751256902 0 312.8223751256902 94.338546108415784 0 0 0 0 94.406931823801415 -9.1795535912348427 0 -9.1795535912348427 -5.8185988631301555 0 0 0 0 67.912399976162305 -62.446165594180911 0 -62.446165594180911 -15.014899349481311 0 0 0 0 62.807173281871655 -63.313082244773341 0 -63.313082244773341 -14.530535462287844 0 0 0 0 159.17880942049669 232.5957364705896 0 232.5957364705896 133.73711786112017 0 0 0 0 71.848801103740698 -56.545103256239599 0 -56.545103256239599 -13.633199121374901 0 0 0 0 56.667054210848619 -45.101971316707477 0 -45.101971316707477 -65.726151929875414 0 0 0 0 49.262875088126748 -55.444566391133776 0 -55.444566391133776 -6.1790529301979404 0 0 0 0 79.924118568866106 -42.99699092600531 0 -42.99699092600531 -6.0600751750671407 0 0 0 0 62.638070331068775 -49.713957948816983 0 -49.713957948816983 -3.7251826489246014 0 0 0 0 -26.866737448399363 -61.095561330610963 0 -61.095561330610963 59.197841250825149 0 0 0 0 14.152039237844292 -79.166108826035725 0 -79.166108826035725 17.833048709365812 0 0 0 0 17.711168352623417 -50.993517988846946 0 -50.993517988846946 6.4831613909163934 0 0 0 0 -4.8076399553159206 -156.06415167116049 0 -156.06415167116049 32.265513198759436 0 0 0 0 -23.058815256539674 -29.335452700023325 0 -29.335452700023325 179.70764460956843 0 0 0 0 9.9170627919702383 -89.037561966993508 0 -89.037561966993508 -77.943682955801251 0 0 0 0 -17.806909135551905 -127.29531389909107 0 -127.29531389909107 -6.9317818587842339 0 0 0 0 35.10863343276651 -143.3465044903528 0 -143.3465044903528 -117.94268594906816 0 0 0 0 112.32142091051352 -29.100764885158373 0 -29.100764885158373 -3.0833189903379914 0 0 0 0 97.927009565932167 183.3563479085058 0 183.3563479085058 64.051447980943863 0 0 0 0 4.3300648248776383 2.710734868579519 0 2.710734868579519 -0.018321562533433422 0 0 0 0 92.796716499600734 25.562487706256015 0 25.562487706256015 -19.165419285575027 0 0 0 0 12.483403478810942 131.6480253632551 0 131.6480253632551 42.712298602808914 0 0 0 0 96.172679539727937 4.4696080541418048 0 4.4696080541418048 -2.0819156683992888 0 0 0 0 126.60414044602294 -68.044299863703202 0 -68.044299863703202 -14.823663425684572 0 0 0 0 9.2275466478030523 3.8541069573615716 0 3.8541069573615716 -0.27255378081459691 0 0 0 0 64.359312514832709 107.09247072597168 0 107.09247072597168 -207.90626483912513 0 0 0 0 104.19732214509713 13.258116769281408 0 13.258116769281408 -81.543834511136424 0 0 0 0 89.913790548922464 14.179021572129875 0 14.179021572129875 -1.1829400309661795 0 0 0 0 -52.744872019196919 63.100732285766298 0 63.100732285766298 215.34596591006766 0 0 0 0 175.10731337362085 26.700443753591117 0 26.700443753591117 62.714774552528532 0 0 0 0 -117.42496827215655 -15.599028777831904 0 -15.599028777831904 62.579054496446162 0 0 0 0 -23.251651863567531 235.56792077654575 0 235.56792077654575 150.25793262073987 0 0 0 0 19.348286611619642 -115.88810028292937 0 -115.88810028292937 -41.927723714389117 0 0 0 0 233.72665570306708 121.37840250709587 0 121.37840250709587 56.760460208028235 0 0 0 0 211.9014984508176 229.34445187923632 0 229.34445187923632 129.48730913040595 0 0 0 0 262.56090479833074 311.15391335502545 0 311.15391335502545 199.10841223648094 0 0 0 0 206.04353132355027 33.187503426369403 0 33.187503426369403 650.01249691011526 0 0 0 0 182.8847278503963 64.867910651783859 0 64.867910651783859 247.45205479651645 0 0 0 0 35.16618783734819 -18.613868174719869 0 -18.613868174719869 -29.491313568060558 0 0 0 0 339.84029094601283 361.00989357216258 0 361.00989357216258 171.27935374247227 0 0 0 0 263.00569245095926 -7.0021178399441713 0 -7.0021178399441713 237.28652753904566 0 0 0 0 111.77338730823249 146.71026875515906 0 146.71026875515906 397.93802509297143 0 0 0 0 250.32829313458933 70.633072709624884 0 70.633072709624884 159.94113781777358 0 0 0 0 108.49157052022201 131.43219382560301 0 131.43219382560301 344.94965252088332 0 0 0 0 125.73842416307889 16.538124337061163 0 16.538124337061163 384.75566733752908 0 0 0 0 -2.8391494872048497 5.6956984204301762 0 5.6956984204301762 307.63057710119756 0 0 0 0 187.86678918497637 194.30755887581972 0 194.30755887581972 303.36634608697409 0 0 0 0 -4.4365843417617725 123.36462079924718 0 123.36462079924718 -67.28728027526256 0 0 0 0 198.5241485319857 8.4546908635560385 0 8.4546908635560385 -360.40045495357288 0 0 0 0 62.518042895062536 -59.374241827055471 0 -59.374241827055471 111.8087888755241 0 0 0 0 -121.00749016164809 -107.90390297289856 0 -107.90390297289856 34.680838515667915 0 0 0 0 39.745875475535286 -3.6450280542005089 0 -3.6450280542005089 91.321995410205716 0 0 0 0 30.448670708046848 -54.361610127904314 0 -54.361610127904314 134.44196121105313 0 0 0 0 48.126143871253589 30.849757921338778 0 30.849757921338778 185.26983062508839 0 0 0 0 100.84516699051164 16.579706213956797 0 16.579706213956797 109.05305178414312 0 0 0 0 55.097395132659585 -24.696761989186825 0 -24.696761989186825 123.7598296795494 0 0 0 0 21.594920654955786 -5.3507962896713934 0 -5.3507962896713934 142.15614895760837 0 0 0 0 293.21007199826454 54.8807978553194 0 54.8807978553194 -70.739368435102165 0 0 0 0 156.55488649991457 -90.567761668082824 0 -90.567761668082824 -212.00553370987657 0 0 0 0 38.541858721218887 -76.189391833648529 0 -76.189391833648529 5.68667512477316 0 0 0 0 86.65113894468395 3.6727333560522908 0 3.6727333560522908 -13.258814371310477 0 0 0 0 114.45273625300433 29.771703941153646 0 29.771703941153646 20.689536193935055 0 0 0 0 123.60381197733659 22.625611203223343 0 22.625611203223343 -5.9644615747656644 0 0 0 0 24.869796529405946 3.2656121648016878 0 3.2656121648016878 -1.428777788163357 0 0 0 0 66.431145435853978 -8.2679507038280917 0 -8.2679507038280917 120.21506516498835 0 0 0 0 87.104800212237024 18.409426340718369 0 18.409426340718369 143.06625293278148 0 0 0 0 59.35162441716966 51.033335899990107 0 51.033335899990107 145.40225802581017 0 0 0 0 69.588954293878487 38.923142862996428 0 38.923142862996428 141.45900864924852 0 0 0 0 59.876206678616114 -4.1491875113458292 0 -4.1491875113458292 -11.176947757845106 0 0 0 0 59.869620806001279 -6.0549085635297146 0 -6.0549085635297146 -11.17902521755266 0 0 0 0 1014.0743454031217 -709.95362272608236 0 -709.95362272608236 14.955246424410689 0 0 0 0 62.775302662645117 1.7386288145842173 0 1.7386288145842173 -13.866819486042687 0 0 0 0 65.937205752655828 5.196664624823331 0 5.196664624823331 -6.0413067361739516 0 0 0 0 1937.2122630618214 -51.129020520727863 0 -51.129020520727863 -867.82162448857889 0 0 0 0 108.34587229053432 117.5034761882398 0 117.5034761882398 93.458179501120867 0 0 0 0 2.6120703778178722 -144.63857158889914 0 -144.63857158889914 46.283441824054535 0 0 0 0 112.95861188790877 131.29237349127743 0 131.29237349127743 71.868630220697014 0 0 0 0 254.09724469355569 -30.751114284973482 0 -30.751114284973482 -134.01122107653828 0 0 0 0 7.9693519354005176 0.76475939268238946 0 0.76475939268238946 -0.1351394693372221 0 0 0 0 5.7874630356317596 -5.2774149239331072 0 -5.2774149239331072 -0.46720534522196466 0 0 0 0 69.282258609164273 128.06445105301282 0 128.06445105301282 78.174580509377847 0 0 0 0 177.31458895828109 136.89792080923962 0 136.89792080923962 46.595911616530429 0 0 0 0 28.887689177977393 9.5906575902442484 0 9.5906575902442484 2.3242300299924255 0 0 0 0 139.1903194046572 85.207028076774805 0 85.207028076774805 33.504656123637687 0 0 0 0 105.47361920488038 89.830569911404382 0 89.830569911404382 50.626688422027655 0 0 0 0 89.618123963911785 96.276642193488442 0 96.276642193488442 50.949237424654712 0 0 0 0 5.7675277622329304 87.695132754376573 0 87.695132754376573 79.379628667888937 0 0 0 0 110.63585718711484 -11.331558335094748 0 -11.331558335094748 -26.545729998709728 0 0 0 0 60.971188015719235 47.1224247452501 0 47.1224247452501 37.549666413173782 0 0 0 0 175.81846964550459 28.637450744129637 0 28.637450744129637 40.488994240360626 0 0 0 0 -9.23380929769678 -18.206195005844961 0 -18.206195005844961 -4.1195750150654931 0 0 0 0 41.588808469026844 -61.646680950838345 0 -61.646680950838345 -6.2352457261713425 0 0 0 0 -36.194895432399335 24.088788562103787 0 24.088788562103787 -48.721303917509431 0 0 0 0 56.416177904045981 -55.578879541970309 0 -55.578879541970309 -26.970218551556172 0 0 0 0 72.304747775053329 -24.830592139372129 0 -24.830592139372129 -15.795245194721247 0 0 0 0 73.841865115431574 -43.572889948349257 0 -43.572889948349257 -39.329021277050742 0 0 0 0 98.227417275167682 -58.039568751263687 0 -58.039568751263687 -30.957622104478105 0 0 0 0 100.1780785409544 -46.317760263645368 0 -46.317760263645368 -56.087425956227889 0 0 0 0 131.00218992296323 -37.756667860924154 0 -37.756667860924154 -57.919825827625573 0 0 0 0 130.01832522375662 6.639287117380718 0 6.639287117380718 -46.284285998508494 0 0 0 0 93.353647287969579 -98.243815816876577 0 -98.243815816876577 -37.498567942191585 0 0 0 0 182.26949233427877 -57.379622123504305 0 -57.379622123504305 -57.395279244810808 0 0 0 0 264.43084786105101 -109.63579671497519 0 -109.63579671497519 -43.8958603493993 0 0 0 0 311.62895313119088 49.03500833635735 0 49.03500833635735 -36.497241852204752 0 0 0 0 49.21321367383689 -2.9032050115938546 0 -2.9032050115938546 24.162892048052527 0 0 0 0 8.4234624176735622 -4.4863593903499108 0 -4.4863593903499108 6.5941724430501125 0 0 0 0 135.68188238404855 17.624513218452876 0 17.624513218452876 -25.307825832524941 0 0 0 0 70.542695314086814 -0.77049770452322264 0 -0.77049770452322264 -27.81039157530563 0 0 0 0 3.0577020998264715 -3.8414232122487597 0 -3.8414232122487597 2.8867449517163664 0 0 0 0 119.88578376872101 28.2918410718421 0 28.2918410718421 27.271603268086807 0 0 0 0 125.03736362119344 40.082316957411422 0 40.082316957411422 6.4616800585918099 0 0 0 0 -5.5357480292832406 -16.168083037590804 0 -16.168083037590804 -74.822232215798977 0 0 0 0 32.010054683241897 -1.4918567095708184 0 -1.4918567095708184 -0.4843655325689602 0 0 0 0 133.77705644575781 -57.774321209182062 0 -57.774321209182062 -29.199911218898706 0 0 0 0 4.6377217425168737 -4.1205483162100958 0 -4.1205483162100958 -1.1004569202940253 0 0 0 0 3.4496023055362457 10.244177959129956 0 10.244177959129956 98.742833241421806 0 0 0 0 -13.022721495766291 10.18443703831295 0 10.18443703831295 112.26750705141239 0 0 0 0 37.921654139071734 -5.3165749484270748 0 -5.3165749484270748 94.733697206089346 0 0 0 0 39.151091408424691 -22.462435349641055 0 -22.462435349641055 52.292741423027564 0 0 0 0 14.65767589746347 1.6201844728816788 0 1.6201844728816788 2.5371764907636134 0 0 0 0 31.612709425705589 -61.796822920680341 0 -61.796822920680341 86.273903899236757 0 0 0 0 94.359963441849686 -60.884245842717064 0 -60.884245842717064 76.727416604080645 0 0 0 0 37.459529169576868 9.0392930430900851 0 9.0392930430900851 2.1676579525620241 0 0 0 0 -0.14765021382845589 50.064416445459756 0 50.064416445459756 21.05977362897147 0 0 0 0 55.781330478494056 -60.403136116932728 0 -60.403136116932728 77.59296631656116 0 0 0 0 34.035935495678132 3.6933830714269789 0 3.6933830714269789 -150.72526051574874 0 0 0 0 99.708577568337205 -8.1542373605316243 0 -8.1542373605316243 -114.49316051289043 0 0 0 0 21.584486005012181 0.62081884017148781 0 0.62081884017148781 -0.28813377499952741 0 0 0 0 4.9718901766136696 -13.354243272960048 0 -13.354243272960048 -73.78153528414623 0 0 0 0 31.942006031722002 0.75850395709613494 0 0.75850395709613494 -0.44323305931326873 0 0 0 0 57.201387021734263 -66.848694553658788 0 -66.848694553658788 -28.249503851562622 0 0 0 0 50.945118231895322 -4.0176140355961252 0 -4.0176140355961252 -148.66649927609092 0 0 0 0 8.5667904687106784 12.658194549100699 0 12.658194549100699 -89.635203351574091 0 0 0 0 33.174909881274289 0.35185429582907091 0 0.35185429582907091 -88.165002558491324 0 0 0 0 20.976523432342219 -17.254264988129762 0 -17.254264988129762 -36.757384107891994 0 0 0 0 44.056792505103658 11.249739358673651 0 11.249739358673651 -29.563025498749539 0 0 0 0 13.20614411873521 -23.610169897630385 0 -23.610169897630385 -16.514324306463095 0 0 0 0 29.463307122614424 -3.749480008570572 0 -3.749480008570572 -45.019646683100291 0 0 0 0 25.715175067147356 -25.772722328974851 0 -25.772722328974851 -70.505048434255514 0 0 0 0 44.058681776741651 -34.939664817616176 0 -34.939664817616176 -14.180814425684275 0 0 0 0 20.688686012654216 -16.111723950442865 0 -16.111723950442865 -14.90192324954478 0 0 0 0 48.042835189774678 -0.93705863613547535 0 -0.93705863613547535 -9.1248552100332745 0 0 0 0 44.996947800196722 -4.4159453400661732 0 -4.4159453400661732 -2.4347948235554213 0 0 0 0 64.602435071596119 25.869898212478802 0 25.869898212478802 2.2170460057452033 0 0 0 0 37.378829756784398 0.0459366668437724 0 0.0459366668437724 1.2111957216820883 0 0 0 0 133.85873444995923 58.038534792995051 0 58.038534792995051 4.0689224113748423 0 0 0 0 73.277596083747994 22.573751350390012 0 22.573751350390012 13.498593296122635 0 0 0 0 93.599058160148161 19.301853671457593 0 19.301853671457593 -40.128179727540555 0 0 0 0 40.610612835167558 31.273232810261675 0 31.273232810261675 -42.367099950639385 0 0 0 0 233.35472987031426 75.990967427690521 0 75.990967427690521 -94.02805373619799 0 0 0 0 73.696870562254844 110.40473036665207 0 110.40473036665207 -101.05632108126883 0 0 0 0 341.17844103708194 143.29021680591904 0 143.29021680591904 -30.23664297218566 0 0 0 0 198.54155703720789 -21.187995804647244 0 -21.187995804647244 92.915854124661564 0 0 0 0 300.8072500875478 -65.791051304560369 0 -65.791051304560369 150.75931443512218 0 0 0 0 178.42472064198591 90.297892705349568 0 90.297892705349568 53.937696336317458 0 0 0 0 90.676105564873069 93.407089890801217 0 93.407089890801217 36.395612527636786 0 0 0 0 78.522091969942267 57.729591733220332 0 57.729591733220332 52.944506309961071 0 0 0 0 86.683658302620643 1.0804502584285274 0 1.0804502584285274 30.020696445220892 0 0 0 0 127.82981879981253 43.323981089752124 0 43.323981089752124 29.479627960003199 0 0 0 0 69.834681737262144 33.354060059196854 0 33.354060059196854 -14.627077681857372 0 0 0 0 69.399596082648713 18.580729518917906 0 18.580729518917906 8.2931856170143874 0 0 0 0 74.338853756682283 -7.2225423915771216 0 -7.2225423915771216 -32.610873785535659 0 0 0 0 105.42239956791809 51.852369692711591 0 51.852369692711591 -70.799619703630015 0 0 0 0 101.79906327452136 84.989120925804855 0 84.989120925804855 -64.977724883479823 0 0 0 0 98.203088040934745 62.968292439036304 0 62.968292439036304 -7.4127993232316385 0 0 0 0 97.565380741422359 56.731720794970897 0 56.731720794970897 -71.362411213505766 0 0 0 0 147.96530157577035 63.671723645837119 0 63.671723645837119 -67.571741206602837 0 0 0 0 115.64179570683518 83.484285189372258 0 83.484285189372258 -77.850316905955879 0 0 0 0 118.41226539219497 28.235505768689109 0 28.235505768689109 -115.11683882006037 0 0 0 0 160.80523669866125 51.815127418216434 0 51.815127418216434 -191.58017022568697 0 0 0 0 87.042554034900604 -7.1079329906824569 0 -7.1079329906824569 -176.08105932398917 0 0 0 0 176.00185322320795 54.56885069465261 0 54.56885069465261 -267.57034617009685 0 0 0 0 84.729989818431932 12.857354059051886 0 12.857354059051886 -149.00651431498227 0 0 0 0 227.82223973834516 90.473390287927941 0 90.473390287927941 -129.62612197538601 0 0 0 0 -17.371161642580773 -46.038696965427789 0 -46.038696965427789 -49.501400080988788 0 0 0 0 20.621790170096574 -31.093904658511974 0 -31.093904658511974 -37.029172503556765 0 0 0 0 58.388872283219825 -24.766429913920547 0 -24.766429913920547 -44.417208012996525 0 0 0 0 63.843634882315882 -42.408131037769522 0 -42.408131037769522 -61.989560006199099 0 0 0 0 127.15168163666385 -37.901987615705366 0 -37.901987615705366 -86.761394059457871 0 0 0 0 108.81359029827581 -42.801365427182645 0 -42.801365427182645 -87.560040344744493 0 0 0 0 112.23150300605357 -22.410409657669902 0 -22.410409657669902 -67.059106198348672 0 0 0 0 100.09513836664519 -30.618723851962386 0 -30.618723851962386 -59.229563254778441 0 0 0 0 95.339085352457914 -6.4975803720735712 0 -6.4975803720735712 -51.462065496737068 0 0 0 0 110.00995996524216 -20.28650014023242 0 -20.28650014023242 -64.841066133619279 0 0 0 0 105.91250641428451 -38.630044319218541 0 -38.630044319218541 -52.40444616129389 0 0 0 0 120.46102397990762 8.1556178199634815 0 8.1556178199634815 -49.997523152763961 0 0 0 0 120.60738711114118 27.561016771604045 0 27.561016771604045 -74.618340523369625 0 0 0 0 122.75203597935615 -12.365949303775778 0 -12.365949303775778 -93.979370309343722 0 0 0 0 165.69066386456325 -4.056159110344197 0 -4.056159110344197 -92.380894146256651 0 0 0 0 216.77108167258484 48.792070470422004 0 48.792070470422004 -116.00327300620847 0 0 0 0 148.86210512611615 16.366257795262754 0 16.366257795262754 -83.882221248588849 0 0 0 0 152.89712328532755 38.712951407583375 0 38.712951407583375 -105.97473672888373 0 0 0 0 127.35714233524232 110.2655139109138 0 110.2655139109138 17.510385444928033 0 0 0 0 328.03592536492943 63.06666650270472 0 63.06666650270472 -126.22982025311649 0 0 0 0 250.84841466620037 -12.38853230087534 0 -12.38853230087534 -134.04871011851355 0 0 0 0 242.90331748507379 -14.954762880173803 0 -14.954762880173803 -124.35504411465627 0 0 0 0 242.6665580733515 -95.455763650625755 0 -95.455763650625755 -146.5261805430091 0 0 0 0 167.64630013774513 -31.277484684994306 0 -31.277484684994306 -118.5121472543342 0 0 0 0 222.45374704061692 -36.174864663911023 0 -36.174864663911023 -137.94281339933332 0 0 0 0 141.4981433400153 -39.235316886140481 0 -39.235316886140481 -120.6876121214118 0 0 0 0 68.548021286749645 -76.474763904447173 0 -76.474763904447173 -100.24055885743473 0 0 0 0 66.373865765599021 -58.140178435779262 0 -58.140178435779262 -85.424450587635874 0 0 0 0 98.413604731442319 -81.623346901749755 0 -81.623346901749755 -112.34837443089054 0 0 0 0 160.23227415270617 -69.323212410872088 0 -69.323212410872088 -114.35004966473934 0 0 0 0 101.15669706679182 -123.1507144265106 0 -123.1507144265106 -93.390590294311551 0 0 0 0 34.473574591362194 -41.562680258542969 0 -41.562680258542969 -121.99881611807359 0 0 0 0 0.2535084275459667 -105.50265278909865 0 -105.50265278909865 -233.54582856342313 0 0 0 0 81.086637393646924 -110.44408897187122 0 -110.44408897187122 -138.52360042176952 0 0 0 0 -7.7903367569706461 -78.570810078056638 0 -78.570810078056638 -124.99924050306436 0 0 0 0 -5.6272920420415176 -45.826526334943082 0 -45.826526334943082 -159.83502255534501 0 0 0 0 -61.536451087173191 -19.401555459349765 0 -19.401555459349765 -152.35722282356801 0 0 0 0 18.748974566042307 -72.37356453315806 0 -72.37356453315806 -159.03320635654012 0 0 0 0 4.6681461322114046 -28.703828774581325 0 -28.703828774581325 -287.03565682887347 0 0 0 0 -3.9047994379834563 -59.659819788750156 0 -59.659819788750156 -84.70134272309042 0 0 0 0 -506.22396167742863 173.11786122314606 0 173.11786122314606 231.73847943923829 0 0 0 0 21.348865450090834 19.088387684934705 0 19.088387684934705 2.1040895924254386 0 0 0 0 -138.13304875847098 -251.6775235707064 0 -251.6775235707064 1082.6042706637691 0 0 0 0 -351.93695743066655 245.0817356057978 0 245.0817356057978 15.893445171324856 0 0 0 0 81.146804835065268 653.49110025834671 0 653.49110025834671 619.09883819882725 0 0 0 0 -261.09232553719266 147.68606331640694 0 147.68606331640694 179.99076298474938 0 0 0 0 32.525882826686939 -87.235451728987755 0 -87.235451728987755 -244.71395801216386 0 0 0 0 317.44375196993497 99.17097358796309 0 99.17097358796309 -804.18773304302977 0 0 0 0 57.55907250310316 -2.6541360190549135 0 -2.6541360190549135 -2.9730584698375133 0 0 0 0 -10.543642694945447 111.18881843319582 0 111.18881843319582 -189.59254121579579 0 0 0 0 12.143933227331535 1.026778133247177 0 1.026778133247177 -1.075517908788953 0 0 0 0 -0.65096556734715705 -118.01390141089723 0 -118.01390141089723 -270.76435947939467 0 0 0 0 -348.98165600156881 -31.019310203953864 0 -31.019310203953864 -177.01089065940323 0 0 0 0 13.291522184410269 6.1217891238605198 0 6.1217891238605198 -0.2767435205394766 0 0 0 0 145.37131118308571 82.679901655190406 0 82.679901655190406 82.798462707640283 0 0 0 0 94.23324360857805 137.77689814088626 0 137.77689814088626 158.3414804643744 0 0 0 0 3.2081088245904539 56.443609991894846 0 56.443609991894846 -112.56872982936875 0 0 0 0 65.909321914708926 9.1800447067453206 0 9.1800447067453206 -167.79940475781768 0 0 0 0 53.162221425525786 55.259576663218468 0 55.259576663218468 -270.16126854007143 0 0 0 0 20.029323636765184 -9.4636410951188736 0 -9.4636410951188736 -106.33100503926312 0 0 0 0 151.27826386961897 176.19242117497015 0 176.19242117497015 87.054922210581935 0 0 0 0 159.80550601159575 196.89891763778724 0 196.89891763778724 -271.06759044844148 0 0 0 0 114.30344637463713 25.002200637652095 0 25.002200637652095 -23.402623535630482 0 0 0 0 134.51386720247319 -47.160916578764045 0 -47.160916578764045 -131.07241525477639 0 0 0 0 146.56917076288846 50.443110434560367 0 50.443110434560367 -159.75761646976753 0 0 0 0 124.79058589711167 2.3362487308913842 0 2.3362487308913842 14.064438886887729 0 0 0 0 142.57242430156657 -23.687025050230659 0 -23.687025050230659 -66.380888909581699 0 0 0 0 157.71650656084603 65.028807348062401 0 65.028807348062401 -243.60786862322175 0 0 0 0 38.387973645913632 2.1306080250836992 0 2.1306080250836992 -3.8498873586297293 0 0 0 0 142.94432990857678 -15.456048412501751 0 -15.456048412501751 -8.2522085900117101 0 0 0 0 648.97415082861062 174.74281122860748 0 174.74281122860748 -230.19119397174927 0 0 0 0 635.87315657604995 60.707404197459255 0 60.707404197459255 -133.52542570920752 0 0 0 0 3.976325109259264 -0.009225910307979035 0 -0.009225910307979035 0.25826994771282452 0 0 0 0 -307.07386726752884 31.405234839256991 0 31.405234839256991 610.11531082261718 0 0 0 0 213.43912714639555 -162.24277787010305 0 -162.24277787010305 -37.911579102175892 0 0 0 0 255.22609131613171 193.27242806418963 0 193.27242806418963 70.49512498331751 0 0 0 0 53.443598293032665 -128.61655330584745 0 -128.61655330584745 154.17385446687513 0 0 0 0 191.68638655875839 353.58640786831893 0 353.58640786831893 214.0941116194644 0 0 0 0 136.06506307951713 33.017659931983644 0 33.017659931983644 137.76156716599871 0 0 0 0 241.37271497835172 232.5410810046742 0 232.5410810046742 101.84633283871153 0 0 0 0 20.852866590988924 218.6228026495387 0 218.6228026495387 107.89788900852363 0 0 0 0 9.990886249556695 1.7843350002268146 0 1.7843350002268146 0.058602375956696817 0 0 0 0 -71.711776545704197 41.932064221377459 0 41.932064221377459 -3.6941908424150824 0 0 0 0 361.9937919289041 -180.53891339793927 0 -180.53891339793927 28.683859417599706 0 0 0 0 -0.31195095266947703 0.64066434003699158 0 0.64066434003699158 -0.097610691154971896 0 0 0 0 766.52507516142941 -257.52830282450032 0 -257.52830282450032 -295.59183985590357 0 0 0 0 897.09120889393853 87.765370636675698 0 87.765370636675698 -616.44829663380369 0 0 0 0 481.9325160109729 361.88098348584845 0 361.88098348584845 -32.468691148482321 0 0 0 0 342.6181975490108 221.02716968694085 0 221.02716968694085 -121.369571836256 0 0 0 0 161.75898384435459 -350.4498065061 0 -350.4498065061 748.88000725801976 0 0 0 0 37.751629517277927 -28.978499464892529 0 -28.978499464892529 -7.2029261523868584 0 0 0 0 15.437106383937193 -0.72310066170953391 0 -0.72310066170953391 -1.0492426983778742 0 0 0 0 105.36305498350339 -5.3458476801752113 0 -5.3458476801752113 -4.8507769472321343 0 0 0 0 81.035087232399007 -11.855182015505296 0 -11.855182015505296 -3.4545093790098402 0 0 0 0 96.285834880385664 -15.222313184812265 0 -15.222313184812265 2.2585468982942984 0 0 0 0 219.15577821737679 266.85848215757869 0 266.85848215757869 -365.73354920529528 0 0 0 0 -91.097093925651279 -112.08143239783931 0 -112.08143239783931 92.718979469165788 0 0 0 0 -121.64738540297549 84.424764281880925 0 84.424764281880925 142.89979588305687 0 0 0 0 -104.16830088798088 124.78474778841155 0 124.78474778841155 40.618618438439626 0 0 0 0 -55.42446186561574 -29.610436944629328 0 -29.610436944629328 -64.209287662257339 0 0 0 0 -23.205411887563969 5.2106370541714568 0 5.2106370541714568 66.939577502977045 0 0 0 0 -61.529941644002974 -24.513142353100193 0 -24.513142353100193 180.42898144674473 0 0 0 0 -51.494256887519441 -11.489569429830226 0 -11.489569429830226 252.21497112413954 0 0 0 0 34.436437857981218 -209.50440009226077 0 -209.50440009226077 269.09512214660731 0 0 0 0 -35.224229365741849 25.762165583016213 0 25.762165583016213 161.37077090324601 0 0 0 0 -70.421411827599513 33.869546512412853 0 33.869546512412853 172.6825147582631 0 0 0 0 -90.493838906545534 96.736836724484647 0 96.736836724484647 -60.441100318890676 0 0 0 0 444.74779985741952 -486.16452124070929 0 -486.16452124070929 -523.43396866640614 0 0 0 0 55.093569099661181 458.58188497702395 0 458.58188497702395 -242.08146189679246 0 0 0 0 34.457107799765538 -5.7329164547697076 0 -5.7329164547697076 3.1998088253906882 0 0 0 0 62.986552629176003 72.795353878518654 0 72.795353878518654 -406.70302413559875 0 0 0 0 72.074513606836263 199.28219047862967 0 199.28219047862967 496.42108961957774 0 0 0 0 140.34323173525263 -70.785974042304588 0 -70.785974042304588 101.34352240369844 0 0 0 0 135.88238327453087 -84.617834173682354 0 -84.617834173682354 -416.72904691784606 0 0 0 0 106.95554276050636 -8.975801575414728 0 -8.975801575414728 -3.6134152998710558 0 0 0 0 34.220834787036438 102.73317656123527 0 102.73317656123527 485.00959103178138 0 0 0 0 117.06340131813158 -9.2186459101572531 0 -9.2186459101572531 -4.1723826713779051 0 0 0 0 106.25231536759384 -54.731021587253508 0 -54.731021587253508 -267.90295066982162 0 0 0 0 72.813565560205461 -3.1648244407624588 0 -3.1648244407624588 -69.102688342372858 0 0 0 0 130.82972200430402 -9.4780979937409402 0 -9.4780979937409402 -4.5316071058467635 0 0 0 0 136.08184187532379 -122.4671182247821 0 -122.4671182247821 -279.35356124105056 0 0 0 0 72.833200735683931 276.40209435559336 0 276.40209435559336 467.58757762255254 0 0 0 0 129.32994475581108 -87.547146390182206 0 -87.547146390182206 107.39712985788719 0 0 0 0 301.0324637261001 125.18275704847383 0 125.18275704847383 1.9015257587689121 0 0 0 0 -103.06642365913376 -51.066494893011168 0 -51.066494893011168 102.63862302357484 0 0 0 0 -5.1506954951692023 181.29343740890545 0 181.29343740890545 -7.8997363672192478 0 0 0 0 200.90527358851614 33.145822924967433 0 33.145822924967433 -371.9986911086753 0 0 0 0 -82.547989622176829 19.566966475345225 0 19.566966475345225 144.11733641610226 0 0 0 0 25.99885116939106 1.2713858712781132 0 1.2713858712781132 -0.40567505941237714 0 0 0 0 -13.635293622908648 47.131530079717777 0 47.131530079717777 -59.591026661258184 0 0 0 0 100.15877633656055 66.959285782181723 0 66.959285782181723 -170.26601941360059 0 0 0 0 -78.956873698814888 -24.076495455567965 0 -24.076495455567965 52.02654421610697 0 0 0 0 36.465151283313176 -0.85695210535746114 0 -0.85695210535746114 -0.37961277651019665 0 0 0 0 174.86161057014215 -20.404699157413688 0 -20.404699157413688 -411.56777341457655 0 0 0 0 -30.164087508277589 53.582624713031691 0 53.582624713031691 36.960517998400064 0 0 0 0 96.023520493845353 68.244495615191909 0 68.244495615191909 -185.60093528137713 0 0 0 0 -25.437441320020298 -115.76038107241857 0 -115.76038107241857 -19.16260184560997 0 0 0 0 77.033653400234471 -61.875211690154174 0 -61.875211690154174 -150.74180037670521 0 0 0 0 -12.784556979495392 -45.796300922906994 0 -45.796300922906994 50.378522858242832 0 0 0 0 44.779122201132836 -2.2045558259269562 0 -2.2045558259269562 0.0024998066214714232 0 0 0 0 91.900883913891448 6.3049045531834054 0 6.3049045531834054 -68.677405452724997 0 0 0 0 92.330991802446079 11.335940070879587 0 11.335940070879587 -25.974989731386813 0 0 0 0 -28.05824017194027 -61.520857151338987 0 -61.520857151338987 -72.448280808137497 0 0 0 0 146.95179536558135 -19.914376718277708 0 -19.914376718277708 -329.96516427878402 0 0 0 0 73.887267009448806 -144.68435136766448 0 -144.68435136766448 -135.81643641423761 0 0 0 0 -3.153085495254345 -50.593120561424257 0 -50.593120561424257 -34.441293192987359 0 0 0 0 10.477480785534404 -0.025662134877663334 0 -0.025662134877663334 -4.7393936652132211 0 0 0 0 70.541186515809386 17.789658422569119 0 17.789658422569119 -2.9390188892284641 0 0 0 0 155.99689007398774 -34.889865295079289 0 -34.889865295079289 -75.969901112955995 0 0 0 0 0.14273774664792427 -8.393164336033502 0 -8.393164336033502 1.357785789266331 0 0 0 0 58.786826068622759 -1.4046794400182989 0 -1.4046794400182989 -25.020981443218091 0 0 0 0 54.771932446870778 -9.4214683186837647 0 -9.4214683186837647 -10.727209711223622 0 0 0 0 51.708735151598432 -5.913330830704945 0 -5.913330830704945 -1.559483014164013 0 0 0 0 -8.8507854085619329 -71.124003349077611 0 -71.124003349077611 -54.160783027988145 0 0 0 0 81.527428812096332 -78.914319728310147 0 -78.914319728310147 -132.20031613383088 0 0 0 0 17.558445162850219 -26.141447286016465 0 -26.141447286016465 3.0398779621539873 0 0 0 0 60.176484541576428 -29.456116131881572 0 -29.456116131881572 5.559628127648466 0 0 0 0 125.92324541600829 -62.245728079476976 0 -62.245728079476976 15.671832588632071 0 0 0 0 24.633402797131566 -36.387743965751724 0 -36.387743965751724 13.884756298622506 0 0 0 0 37.160257839146652 -116.17102262880508 0 -116.17102262880508 -21.418650508174323 0 0 0 0 37.493543536620564 -80.632828553937543 0 -80.632828553937543 147.87311686204339 0 0 0 0 211.69648371632866 7.5614964747383056 0 7.5614964747383056 135.02434736467353 0 0 0 0 50.617980784660176 -88.781776916163835 0 -88.781776916163835 275.91005700218011 0 0 0 0 7.0560525959808729 11.029963284096084 0 11.029963284096084 69.765513943591941 0 0 0 0 13.798765616539708 -26.874233607948092 0 -26.874233607948092 5.4474545091478248 0 0 0 0 -119.00463319236042 -102.09481305152576 0 -102.09481305152576 64.50480487645109 0 0 0 0 -106.14929789528469 -68.297377909912029 0 -68.297377909912029 120.70600158516027 0 0 0 0 -154.62162177613209 118.91515036369492 0 118.91515036369492 -21.867307263545626 0 0 0 0 165.20506363232926 -15.42141559497577 0 -15.42141559497577 114.72301912190937 0 0 0 0 -2.1639162905776175 -4.1815938651352553 0 -4.1815938651352553 114.93112134707917 0 0 0 0 41.898989262449845 -49.51087650883386 0 -49.51087650883386 42.467345498171198 0 0 0 0 120.07204829200055 -84.198716810989936 0 -84.198716810989936 -71.902349372890228 0 0 0 0 143.27346960857176 -36.271380136742664 0 -36.271380136742664 41.490990126454903 0 0 0 0 60.659224876993903 -41.263759592081442 0 -41.263759592081442 281.69128260183788 0 0 0 0 96.521589575433609 120.88038683895593 0 120.88038683895593 395.58202976556731 0 0 0 0 88.883390574893838 -166.85974699534995 0 -166.85974699534995 -346.74844809066599 0 0 0 0 532.73816479408288 -87.021455165800035 0 -87.021455165800035 -233.35468579481085 0 0 0 0 31.357526354831862 -61.319141511668931 0 -61.319141511668931 -215.40115750777977 0 0 0 0 42.484923250256543 -369.48521378891201 0 -369.48521378891201 -73.813075941292027 0 0 0 0 136.1593281948808 -225.45070023127664 0 -225.45070023127664 -160.75175834651054 0 0 0 0 -72.119580398389189 -340.07746831060649 0 -340.07746831060649 -57.555729905154294 0 0 0 0 -208.7628237328845 87.607622087418349 0 87.607622087418349 -310.88165044060042 0 0 0 0 98.03235328071419 -9.5152415943215978 0 -9.5152415943215978 -2.8315031393679018 0 0 0 0 122.6627250571355 -89.556743253082004 0 -89.556743253082004 -634.0428627251149 0 0 0 0 -84.836510408480535 88.45426061080434 0 88.45426061080434 361.07114396220641 0 0 0 0 667.7623206475655 -511.94963535182706 0 -511.94963535182706 -341.30592984959367 0 0 0 0 85.541357918958965 -10.105519737540034 0 -10.105519737540034 -1.4466653703863717 0 0 0 0 -387.40249908691499 -303.98031012198726 0 -303.98031012198726 223.24651005147462 0 0 0 0 116.19049463627289 -35.716095878613032 0 -35.716095878613032 141.47503812176728 0 0 0 0 12.876765107212897 -4.8994867252726095 0 -4.8994867252726095 -0.82373595686519963 0 0 0 0 247.3815081196517 -1.8570071908725367 0 -1.8570071908725367 143.265477498113 0 0 0 0 -35.165355282748351 207.27250706702762 0 207.27250706702762 161.63057645596018 0 0 0 0 -115.03580583309667 1.1319245141239662 0 1.1319245141239662 289.33180879548308 0 0 0 0 73.625650107367619 205.59262954902715 0 205.59262954902715 -224.68774706491865 0 0 0 0 -0.19267181010236634 -3.9066071036724423 0 -3.9066071036724423 2.1009856874003177 0 0 0 0 146.92331603037201 47.152984234529868 0 47.152984234529868 17.526518910937739 0 0 0 0 1.5386428290067187 -3.7273150096243999 0 -3.7273150096243999 -2.0428365596828755 0 0 0 0 158.8937755845709 -544.0990251378571 0 -544.0990251378571 45.00318705236441 0 0 0 0 463.86564959390671 -319.12587515650603 0 -319.12587515650603 -180.11920593384639 0 0 0 0 61.862646472396591 -203.08077193914869 0 -203.08077193914869 -213.04958590128035 0 0 0 0 -48.796261167475677 -220.67836672481462 0 -220.67836672481462 -167.99679286398896 0 0 0 0 -91.334655449732452 -141.58035752490827 0 -141.58035752490827 -198.95887123366992 0 0 0 0 -92.320809742158417 -147.7927556394925 0 -147.7927556394925 -193.97598209067155 0 0 0 0 -78.399636172172904 -170.92528390912503 0 -170.92528390912503 -311.57486384566909 0 0 0 0 -135.54571664219526 -148.51498362916163 0 -148.51498362916163 -209.9089730096639 0 0 0 0 -124.90467648347087 -408.35936313149165 0 -408.35936313149165 -184.6281647194628 0 0 0 0 705.23278414660763 359.89126412253745 0 359.89126412253745 -49.599062833411153 0 0 0 0 4.8339894569054991 -2.7716161588206454 0 -2.7716161588206454 1.1839583632174744 0 0 0 0 643.96257984241947 -16.75244500592089 0 -16.75244500592089 -40.95250796115306 0 0 0 0 212.36025156029291 154.7062857384326 0 154.7062857384326 102.58469612416593 0 0 0 0 194.98722306863237 -382.97223922296371 0 -382.97223922296371 -194.31601389263142 0 0 0 0 25.319480678830587 -11.00487180750315 0 -11.00487180750315 -7.723491123056192 0 0 0 0 23.39283739417715 -10.859337256205436 0 -10.859337256205436 10.431771680581733 0 0 0 0 27.357180581568628 -14.208921479557603 0 -14.208921479557603 -0.83522827976958069 0 0 0 0 27.310480743422886 -21.588690750588739 0 -21.588690750588739 3.3884771331295269 0 0 0 0 13.777242638492226 -19.388600819681415 0 -19.388600819681415 -0.90036041351049789 0 0 0 0 24.11125311671185 -15.373254070393159 0 -15.373254070393159 -8.3332285459384821 0 0 0 0 18.424389710213074 -10.877231134261631 0 -10.877231134261631 2.5208913610839474 0 0 0 0 15.240113237005062 -29.621192155041172 0 -29.621192155041172 -23.462338621136951 0 0 0 0 -158.22736344840405 -238.04297748227327 0 -238.04297748227327 -284.29670211817415 0 0 0 0 -118.67498458431464 -177.22452360523585 0 -177.22452360523585 -191.9318696690716 0 0 0 0 13.974725394279545 -8.5354795994893955 0 -8.5354795994893955 -3.7109142521495251 0 0 0 0 18.903470756676143 -8.7854757691457053 0 -8.7854757691457053 -7.0562073430128294 0 0 0 0 21.297924391294597 -8.147832508834755 0 -8.147832508834755 2.5413573446878779 0 0 0 0 16.43780439670536 -9.4925494346866799 0 -9.4925494346866799 9.4598155743315147 0 0 0 0 -8.3659670995329982 -17.157829847428559 0 -17.157829847428559 -4.9420423446292183 0 0 0 0 3.1874292132774826 -32.965504645732381 0 -32.965504645732381 -6.9418732663716582 0 0 0 0 -118.84115189811922 -149.46247497604008 0 -149.46247497604008 1.4763845753068381 0 0 0 0 84.585473953018663 -53.10163914214354 0 -53.10163914214354 162.99134168807723 0 0 0 0 70.180640719967428 -6.3636145898246639 0 -6.3636145898246639 -2.066740893728527 0 0 0 0 137.66108200231065 -103.4468929392001 0 -103.4468929392001 125.75630019844539 0 0 0 0 178.51748139444862 -81.40457587920082 0 -81.40457587920082 118.47438511572545 0 0 0 0 58.26492207184674 -14.544435489708121 0 -14.544435489708121 109.32977902913262 0 0 0 0 66.595483034525387 -23.979387597141795 0 -23.979387597141795 30.698126568046973 0 0 0 0 18.982262050341888 -19.79429135404871 0 -19.79429135404871 53.643885117478931 0 0 0 0 20.556087451837811 -13.213375073364659 0 -13.213375073364659 9.0677491375663521 0 0 0 0 30.452817661188121 -0.038794741534051269 0 -0.038794741534051269 -0.83051674829039435 0 0 0 0 19.274125989588356 -6.1957004903406414 0 -6.1957004903406414 20.91632358075185 0 0 0 0 22.984747674274029 -10.432116373165849 0 -10.432116373165849 4.1681491472924073 0 0 0 0 30.049290070928691 -6.2924559366028916 0 -6.2924559366028916 1.4279307374736163 0 0 0 0 36.365464742844779 -0.20863020917568065 0 -0.20863020917568065 11.246431875328199 0 0 0 0 14.807555963301063 0.10895185292454812 0 0.10895185292454812 2.9852251165856689 0 0 0 0 66.21430052955111 -12.360367067027255 0 -12.360367067027255 -4.1284704944064288 0 0 0 0 64.337113293193397 -41.277009877810087 0 -41.277009877810087 59.87652091212658 0 0 0 0 65.381155766364827 -47.093634670614847 0 -47.093634670614847 40.779886801825342 0 0 0 0 58.381053353443349 -45.655269346098976 0 -45.655269346098976 59.316538688970468 0 0 0 0 73.28872115683771 -52.026089649087226 0 -52.026089649087226 57.57285295921065 0 0 0 0 57.821549079257238 -46.209958747869678 0 -46.209958747869678 63.538932542045586 0 0 0 0 53.930459578834416 -52.336002518096393 0 -52.336002518096393 59.950240813081109 0 0 0 0 118.51656477800861 -64.752134880080121 0 -64.752134880080121 56.855659297894363 0 0 0 0 32.915197983984896 17.847902802750227 0 17.847902802750227 -6.3568159112837606 0 0 0 0 114.80657094156777 -56.959261146252175 0 -56.959261146252175 60.049079516818892 0 0 0 0 108.8100785694669 -66.732041084550247 0 -66.732041084550247 66.36218132119393 0 0 0 0 74.031701179228548 -59.073349840649826 0 -59.073349840649826 65.048974438304867 0 0 0 0 118.84332976289079 -55.190814927679639 0 -55.190814927679639 50.137613210135896 0 0 0 0 81.088944795192219 -44.085468757393755 0 -44.085468757393755 51.033572033322343 0 0 0 0 92.30712654654053 -16.500564726031371 0 -16.500564726031371 -4.2889980442200795 0 0 0 0 80.705221765344504 -3.5415014420375428 0 -3.5415014420375428 -5.5324565747760062 0 0 0 0 64.451595840713708 -5.2807157382358128 0 -5.2807157382358128 -0.40092244091283646 0 0 0 0 95.718128335030997 12.9506370659808 0 12.9506370659808 2.9953078719263431 0 0 0 0 30.283737810170052 17.407733309865485 0 17.407733309865485 -6.8773572743224918 0 0 0 0 56.226337846003844 34.405501454536989 0 34.405501454536989 -35.273487602098612 0 0 0 0 73.237072712377994 -42.362903313354764 0 -42.362903313354764 52.011713769521975 0 0 0 0 20.616161153135181 63.904786567683004 0 63.904786567683004 -58.757295096752387 0 0 0 0 104.37528158526038 -9.1756711500247548 0 -9.1756711500247548 -33.621727629815837 0 0 0 0 98.85574286154224 -22.942861944115066 0 -22.942861944115066 -61.518310389241378 0 0 0 0 111.8866538356815 -57.341538075890639 0 -57.341538075890639 20.495912192993728 0 0 0 0 74.399792336513201 33.102616123975167 0 33.102616123975167 116.19364240559821 0 0 0 0 51.456610873037789 -64.01093064961151 0 -64.01093064961151 127.51635854735832 0 0 0 0 72.309072344442484 -40.336097699928132 0 -40.336097699928132 60.801326597351363 0 0 0 0 70.117124506825348 -4.7377029801273238 0 -4.7377029801273238 30.869209287116064 0 0 0 0 29.339772725882113 16.301921835539289 0 16.301921835539289 -8.0283623549001177 0 0 0 0 98.179136970920808 -1.875830055586448 0 -1.875830055586448 -1.5537570882606815 0 0 0 0 70.839268737585371 -8.4618460531046367 0 -8.4618460531046367 34.436888903524959 0 0 0 0 74.211984953552019 -32.481722656464626 0 -32.481722656464626 -1.630926821319008 0 0 0 0 27.891243494087547 14.724749135271068 0 14.724749135271068 -9.6068228575027987 0 0 0 0 -23.024860617117156 76.286618139005441 0 76.286618139005441 -28.488234313892463 0 0 0 0 -1.6001664976138272 24.815895317826289 0 24.815895317826289 36.297087261529668 0 0 0 0 276.79417498732801 23.038549555117697 0 23.038549555117697 -184.14970430451831 0 0 0 0 126.61619379961849 -48.879131671291361 0 -48.879131671291361 -102.69774752091234 0 0 0 0 107.2216169154417 48.142840626289399 0 48.142840626289399 -60.169066682408868 0 0 0 0 102.35227043302075 55.433635577956466 0 55.433635577956466 9.4730877618658269 0 0 0 0 132.35914822628365 101.94246686484212 0 101.94246686484212 34.129263696955604 0 0 0 0 150.71559697431076 -15.497196721945329 0 -15.497196721945329 94.16712732270571 0 0 0 0 161.25725037609664 66.4139943013015 0 66.4139943013015 3.9542389102589368 0 0 0 0 305.33701137069875 110.21766811399539 0 110.21766811399539 8.9366799355357216 0 0 0 0 45.273196815727715 8.0555105912899307 0 8.0555105912899307 41.383971977650617 0 0 0 0 65.558424723032658 36.743356431878055 0 36.743356431878055 11.474387029273203 0 0 0 0 117.89648447570653 7.8215994161841991 0 7.8215994161841991 1.4141930492469328 0 0 0 0 130.79310232878015 80.753267063812132 0 80.753267063812132 5.4990992671137064 0 0 0 0 -24.424202095016881 15.843567490832811 0 15.843567490832811 20.732075964382602 0 0 0 0 -38.427009311708389 35.503117509684671 0 35.503117509684671 11.678160711195233 0 0 0 0 16.346748790485435 15.113578777058137 0 15.113578777058137 1.096851758131379 0 0 0 0 22.442896670840128 32.826730939951631 0 32.826730939951631 22.547241554468201 0 0 0 0 7.7865097804533434 18.716176411041488 0 18.716176411041488 -3.3662037249505374 0 0 0 0 23.560890325366927 -1.2581014524657803 0 -1.2581014524657803 21.411148565369217 0 0 0 0 -8.5210252976199996 10.216590300506653 0 10.216590300506653 -5.7677819981004532 0 0 0 0 -23.123533664114802 13.056378185596714 0 13.056378185596714 -5.1451846525033034 0 0 0 0 -18.311786351510818 11.520366574581203 0 11.520366574581203 19.086722815149187 0 0 0 0 -18.018637324519659 6.8722827722285729 0 6.8722827722285729 0.9562107925530654 0 0 0 0 233.95155989346949 321.8338901893012 0 321.8338901893012 306.21337345141364 0 0 0 0 300.04725884587606 355.43412603711749 0 355.43412603711749 18.40412081802242 0 0 0 0 6.3085029080406088 0.22360010309880529 0 0.22360010309880529 -0.88461395425511391 0 0 0 0 154.66702518815146 -76.014060594451621 0 -76.014060594451621 -570.27907642657919 0 0 0 0 440.3496391591616 205.53095785348523 0 205.53095785348523 177.72347184489263 0 0 0 0 144.35216895317717 350.71579143254439 0 350.71579143254439 -426.31940953361482 0 0 0 0 -231.85526677012967 246.87204320384626 0 246.87204320384626 380.39650503388111 0 0 0 0 19.017930441797944 -12.482729576229758 0 -12.482729576229758 -11.860803216976365 0 0 0 0 -4.2576447586270376 6.4271164435491368 0 6.4271164435491368 -6.0624705616855046 0 0 0 0 140.23855393657141 281.03910296607228 0 281.03910296607228 347.59019389081732 0 0 0 0 226.33490517601058 285.14779778207469 0 285.14779778207469 148.39349819160634 0 0 0 0 2.5365761028733687 17.891928956044467 0 17.891928956044467 20.689556541277852 0 0 0 0 55.6005692921226 57.007891290520092 0 57.007891290520092 33.907795573268231 0 0 0 0 141.78390279078303 78.63975161532926 0 78.63975161532926 -0.84600982877327624 0 0 0 0 70.179945694449998 40.797334172420733 0 40.797334172420733 -1.1055687768657663 0 0 0 0 156.72643130253346 117.73261357577667 0 117.73261357577667 14.194620246806153 0 0 0 0 144.27284888398572 144.70644951035683 0 144.70644951035683 -26.3316022755007 0 0 0 0 2.3176218547130816 3.6605293408267396 0 3.6605293408267396 -5.1984640569932985 0 0 0 0 188.79359940657741 247.53152620229775 0 247.53152620229775 -200.86551717108887 0 0 0 0 242.78290813225613 23.069298745376727 0 23.069298745376727 -143.90079179621898 0 0 0 0 158.57398203843695 17.432727592701667 0 17.432727592701667 -114.30579978628884 0 0 0 0 164.76295943362857 36.485192189648842 0 36.485192189648842 -91.233621890793074 0 0 0 0 41.958892553044279 2.2015651011424779 0 2.2015651011424779 -84.528061692502888 0 0 0 0 100.35622525852523 66.159254320819855 0 66.159254320819855 -53.816266745604025 0 0 0 0 126.95451814958597 62.403401976517216 0 62.403401976517216 -118.51737086150206 0 0 0 0 104.08058538817568 118.39997371872141 0 118.39997371872141 -30.381385727790075 0 0 0 0 110.91282904062246 52.005105526067837 0 52.005105526067837 -32.985067443995831 0 0 0 0 123.88526895671475 70.408500098400282 0 70.408500098400282 -46.928340557706179 0 0 0 0 130.56387377831561 47.080276623353257 0 47.080276623353257 -38.669080281562174 0 0 0 0 113.49767368948233 -18.316201399299189 0 -18.316201399299189 20.164088912605735 0 0 0 0 178.65263388599124 -32.369897451948418 0 -32.369897451948418 6.0124881565134274 0 0 0 0 125.7311323695576 -69.437589403640231 0 -69.437589403640231 -86.006879994567498 0 0 0 0 22.303228563091864 -11.970772904816847 0 -11.970772904816847 -12.844785782110872 0 0 0 0 -22.237862358136226 248.11331486219865 0 248.11331486219865 -562.51495751687253 0 0 0 0 9.0807600791104051 117.31797245178859 0 117.31797245178859 -112.9000641432358 0 0 0 0 290.11966286941424 -20.491536341271058 0 -20.491536341271058 -228.63113601139048 0 0 0 0 631.82020609869505 41.291984391946244 0 41.291984391946244 -849.02815854995424 0 0 0 0 330.75729085009516 -174.76511999753984 0 -174.76511999753984 -11.3739912657677 0 0 0 0 -3.7114486327054834 -2.5505334427659818 0 -2.5505334427659818 -3.1165824083948692 0 0 0 0 233.15912772215961 98.351699340970299 0 98.351699340970299 -405.13442214372276 0 0 0 0 197.42102522923233 76.334268241606878 0 76.334268241606878 56.557686007538905 0 0 0 0 -143.78319357689907 128.03274354601217 0 128.03274354601217 145.7360391947559 0 0 0 0 0.54298468754222995 0.388837148984436 0 0.388837148984436 0.28877546710510416 0 0 0 0 21.477183697632427 -126.55879157070331 0 -126.55879157070331 111.98322865540104 0 0 0 0 0.053339324172426927 -0.36642230451642632 0 -0.36642230451642632 1.1945907149913921 0 0 0 0 30.371243890385813 47.239247850422089 0 47.239247850422089 111.1810336074268 0 0 0 0 -19.322481870181946 53.892951966263354 0 53.892951966263354 -5.4780233077926823 0 0 0 0 1.9625538769250852 87.373117796654697 0 87.373117796654697 46.675591849272678 0 0 0 0 179.74609296164635 -167.16900901352346 0 -167.16900901352346 268.89803182849937 0 0 0 0 189.86953627027106 108.11065223675541 0 108.11065223675541 -78.263565032867518 0 0 0 0 408.15251899997384 281.63502285974914 0 281.63502285974914 232.13079481343993 0 0 0 0 618.58676092749374 65.910606483326774 0 65.910606483326774 -14.24780389357511 0 0 0 0 359.07056312248096 70.914594877920536 0 70.914594877920536 -137.17211231798865 0 0 0 0 390.8627231852297 -783.63682083901404 0 -783.63682083901404 312.84641266171002 0 0 0 0 4.2185705003872442 -1.1785438576767895 0 -1.1785438576767895 -0.056447073977313522 0 0 0 0 -624.0495785731764 303.39544028800265 0 303.39544028800265 439.42317384492299 0 0 0 0 -342.85761270394141 -66.310802673939179 0 -66.310802673939179 494.74687648049235 0 0 0 0 -149.63839882726461 327.31868656923689 0 327.31868656923689 -213.71923380221324 0 0 0 0 6.2502507126244211 4.8061025225632079 0 4.8061025225632079 3.0168324551405341 0 0 0 0 129.51720410310372 -41.925486674182139 0 -41.925486674182139 62.23608826529653 0 0 0 0 115.84066573069867 79.141382422975767 0 79.141382422975767 70.991539731936427 0 0 0 0 7.1595726059062486 -0.16496893454143091 0 -0.16496893454143091 -2.7521523603607285 0 0 0 0 83.354972820010516 -37.596236424099061 0 -37.596236424099061 -417.10156526695391 0 0 0 0 125.84946654688974 183.19352144592267 0 183.19352144592267 205.9974190553562 0 0 0 0 377.52191542166838 165.38675378262087 0 165.38675378262087 48.807332458476594 0 0 0 0 165.38173568360435 91.411431835655549 0 91.411431835655549 11.698846697157933 0 0 0 0 177.33075388082943 110.13245461720726 0 110.13245461720726 34.999325423275877 0 0 0 0 115.36459216612275 112.58998360409623 0 112.58998360409623 75.58323568753633 0 0 0 0 136.53718053773991 87.059405293839518 0 87.059405293839518 6.1019786871593169 0 0 0 0 163.81042612843885 97.289741824118209 0 97.289741824118209 8.0246641350768186 0 0 0 0 159.00217754140567 50.103613567905199 0 50.103613567905199 -22.760851829463718 0 0 0 0 169.8893225702559 39.856303565831695 0 39.856303565831695 -13.60470190455635 0 0 0 0 57.387962384607818 -24.369897773033699 0 -24.369897773033699 18.079588462096581 0 0 0 0 280.45890551238699 86.466232886525177 0 86.466232886525177 -13.814264717789229 0 0 0 0 400.38913626956673 -30.146189706612176 0 -30.146189706612176 -4.7299321181053529 0 0 0 0 203.66004626536778 -56.512899924324984 0 -56.512899924324984 -8.19634827770642 0 0 0 0 162.33510039101748 -104.08469272804723 0 -104.08469272804723 -74.467188776927287 0 0 0 0 -11.719442359986715 63.793960720094219 0 63.793960720094219 -87.070579709416506 0 0 0 0 39.539287828672968 16.684756299089031 0 16.684756299089031 5.8819759316866111 0 0 0 0 0.87680507149150344 0.32892730648616464 0 0.32892730648616464 -0.91630553803372194 0 0 0 0 1.9432526815035089 -11.689432716034389 0 -11.689432716034389 9.4822574891186377 0 0 0 0 0.58304508805815658 0.3733951636491355 0 0.3733951636491355 0.11917726878131996 0 0 0 0 -14.491435405769153 -33.737263652365073 0 -33.737263652365073 72.865338856290691 0 0 0 0 94.387352154582913 17.270070403634236 0 17.270070403634236 -7.0395447624400731 0 0 0 0 80.863437927520863 32.838420263650278 0 32.838420263650278 -14.55653229521522 0 0 0 0 79.837216216505112 62.648647032095141 0 62.648647032095141 -22.250129541662318 0 0 0 0 16.918580747915257 -56.99245942905327 0 -56.99245942905327 25.779925728047601 0 0 0 0 17.718275513878325 15.951625574015452 0 15.951625574015452 -5.6604433573229471 0 0 0 0 10.258611013329443 -0.68864961120302048 0 -0.68864961120302048 -0.15223718310372725 0 0 0 0 35.060975014192081 -50.792867676438163 0 -50.792867676438163 -66.581696328290491 0 0 0 0 107.14684209817642 89.602790402184837 0 89.602790402184837 9.8505926890093178 0 0 0 0 172.01207736688229 119.5517682330501 0 119.5517682330501 23.215289668131845 0 0 0 0 126.07276710235965 57.459992742237773 0 57.459992742237773 43.937426124564809 0 0 0 0 47.773266947508091 61.47176826167015 0 61.47176826167015 45.811651322415855 0 0 0 0 80.15775482646859 28.904867245991227 0 28.904867245991227 -61.535664689807163 0 0 0 0 42.642762921183021 24.192703772831919 0 24.192703772831919 -4.6725445297906845 0 0 0 0 43.838196768738271 98.738026579000689 0 98.738026579000689 90.230531166895162 0 0 0 0 153.01940658427702 189.80984210897668 0 189.80984210897668 165.75399705657765 0 0 0 0 93.919730280933436 -90.143441047118358 0 -90.143441047118358 -115.13089807010192 0 0 0 0 13.369109043985191 24.418422691256183 0 24.418422691256183 -277.92175103633053 0 0 0 0 2.5008507184495556 0.23858256058799299 0 0.23858256058799299 -0.13395280853823621 0 0 0 0 -44.924390384520848 -123.24852083839187 0 -123.24852083839187 -207.69027415790515 0 0 0 0 6.9912987712247627 -0.16196364198894742 0 -0.16196364198894742 -0.35614621902416488 0 0 0 0 -0.1521797451020106 0.80631232071644376 0 0.80631232071644376 -1.0319708460981118 0 0 0 0 51.69435429684745 61.005815892192004 0 61.005815892192004 -64.862907024595188 0 0 0 0 98.49451366050198 18.373032364669598 0 18.373032364669598 -243.09292945730886 0 0 0 0 39.443548523530353 2.4053851168299616 0 2.4053851168299616 1.8510320495952328 0 0 0 0 97.345349785951839 -32.486685354898327 0 -32.486685354898327 -75.71651837741905 0 0 0 0 -125.29850322250422 -165.07159640810164 0 -165.07159640810164 -116.54880476897779 0 0 0 0 94.915150867738703 -45.319584678582942 0 -45.319584678582942 -75.673798685286783 0 0 0 0 9.7303920156700769 20.299160921245857 0 20.299160921245857 -133.18491861953407 0 0 0 0 31.886040083969419 11.439647695049644 0 11.439647695049644 -138.87910145855039 0 0 0 0 48.481141450122323 43.193422976568968 0 43.193422976568968 -122.35847825616293 0 0 0 0 44.081273711839458 4.7137673545948928 0 4.7137673545948928 -157.82338015929054 0 0 0 0 38.984258621494519 -57.253347834308443 0 -57.253347834308443 -159.16994354432609 0 0 0 0 2.8339730719526415 -3.7710238593517715 0 -3.7710238593517715 -144.82460152559543 0 0 0 0 126.46257416324079 45.546599237939517 0 45.546599237939517 -141.78722169958201 0 0 0 0 82.216551128476567 -25.325262572103384 0 -25.325262572103384 -77.541895789690898 0 0 0 0 37.086216116449123 33.45317687065841 0 33.45317687065841 -33.514049161425646 0 0 0 0 27.824782699830394 54.638959261001673 0 54.638959261001673 -68.338757362160322 0 0 0 0 4.2614143192913616 27.299980684930233 0 27.299980684930233 -98.841823288961677 0 0 0 0 0.80473846268637317 -0.18597272817430266 0 -0.18597272817430266 -0.1989382666114301 0 0 0 0 1.2945784969542018 0.22283588364311413 0 0.22283588364311413 -0.30440129283046602 0 0 0 0 4.5812964329888928 55.60158616348599 0 55.60158616348599 -205.81188885620759 0 0 0 0 -23.994488860676938 21.02279595685286 0 21.02279595685286 -133.87634638941836 0 0 0 0 28.262728971996694 22.140945463042954 0 22.140945463042954 -280.96847805513426 0 0 0 0 -0.088098136647587921 -0.0017176861024168488 0 -0.0017176861024168488 -0.13690731995374117 0 0 0 0 -7.6564076600407134 16.313782745608478 0 16.313782745608478 40.672927764342603 0 0 0 0 13.09572997225041 42.777268066564829 0 42.777268066564829 -12.818262125167166 0 0 0 0 -0.56298505303368529 1.4353281267877165 0 1.4353281267877165 -0.95609689094720851 0 0 0 0 2.7358991165619955 11.18622207314047 0 11.18622207314047 -3.6997357984637347 0 0 0 0 1.9122787484084256 9.5489881195617272 0 9.5489881195617272 -5.2308422790065379 0 0 0 0 5.621262252505403 8.7235739915013255 0 8.7235739915013255 -7.4163103641594716 0 0 0 0 6.4319611772298231 -8.9366015770528975 0 -8.9366015770528975 -190.22984406992873 0 0 0 0 46.727741402955871 48.582067045560962 0 48.582067045560962 -241.00144103312959 0 0 0 0 0.21237455108111192 0.62726187323987403 0 0.62726187323987403 -0.26089131376505259 0 0 0 0 -14.197015909347101 60.510787212306241 0 60.510787212306241 -193.44285681682777 0 0 0 0 -76.44499458676728 13.924304669882986 0 13.924304669882986 -147.62934389179532 0 0 0 0 -143.8333854914672 -159.88458267428359 0 -159.88458267428359 -318.23433871172892 0 0 0 0 0.83957575140826179 -0.88256693205580916 0 -0.88256693205580916 -1.4761217622026805 0 0 0 0 -38.478617736429442 118.71883569728016 0 118.71883569728016 -294.56819440941854 0 0 0 0 -80.62351610303449 -103.07604727083071 0 -103.07604727083071 -118.89676221573973 0 0 0 0 40.729265764995944 135.99307366120956 0 135.99307366120956 -249.33062698956019 0 0 0 0 9.0492612099696998 -65.589148272882085 0 -65.589148272882085 -268.49419799843645 0 0 0 0 8.5862523731444327 0.62980089931328465 0 0.62980089931328465 -1.5813814893706559 0 0 0 0 43.31903760744899 27.328392798623099 0 27.328392798623099 -78.393927975435872 0 0 0 0 32.960384133264597 57.400469375721514 0 57.400469375721514 -8.6380303646910761 0 0 0 0 -15.545576667516343 17.242253661126824 0 17.242253661126824 2.8594851125235436 0 0 0 0 7.4461972782799961 1.5191645172830945 0 1.5191645172830945 -4.4984897500085808 0 0 0 0 -16.246683346515056 8.0187014097973588 0 8.0187014097973588 0.18303308732356527 0 0 0 0 -8.1238875121998717 -5.8493979785662304 0 -5.8493979785662304 -15.953153128237318 0 0 0 0 -20.251642255567276 0.47368479327906243 0 0.47368479327906243 11.664344740693195 0 0 0 0 -25.99305014505444 10.483879609387486 0 10.483879609387486 44.182039045854253 0 0 0 0 -28.837639243662124 -9.0007325532387767 0 -9.0007325532387767 32.995743331767699 0 0 0 0 -29.331880948186154 -22.96122417483457 0 -22.96122417483457 5.1181342030877204 0 0 0 0 89.089382741211011 36.349544179808618 0 36.349544179808618 -14.336411649470392 0 0 0 0 93.089389236280113 11.013989048200528 0 11.013989048200528 1.0974926182279887 0 0 0 0 17.105472824150638 37.121757910878841 0 37.121757910878841 24.083747873002721 0 0 0 0 28.839404879843642 -4.816639146027228 0 -4.816639146027228 32.026976383980582 0 0 0 0 301.23797991099127 -59.169370230846653 0 -59.169370230846653 3.6156942116206778 0 0 0 0 1.8447807046866842 -0.34250405191533417 0 -0.34250405191533417 0.21163803937498171 0 0 0 0 196.63238444144372 -175.43277206299717 0 -175.43277206299717 34.09954169075445 0 0 0 0 110.69044234194007 -140.98117237920542 0 -140.98117237920542 111.9086112152736 0 0 0 0 196.63695841640583 -121.51906127525763 0 -121.51906127525763 24.878382386758858 0 0 0 0 44.410287285296363 -86.533034155016139 0 -86.533034155016139 71.990369665491016 0 0 0 0 -27.29941456560482 -11.056423679367981 0 -11.056423679367981 50.353414998025983 0 0 0 0 -6.2801706597529119 45.943914266433239 0 45.943914266433239 -4.5139494119011943 0 0 0 0 4.2146019318560377 -0.69948967169922582 0 -0.69948967169922582 -1.3957815915192702 0 0 0 0 -12.589882833235606 -2.6421451382939267 0 -2.6421451382939267 -14.492876932410582 0 0 0 0 22.550805023696739 20.048878232758398 0 20.048878232758398 -64.053163733689871 0 0 0 0 2.4020138627638516 -17.321884803135163 0 -17.321884803135163 -29.550211254038004 0 0 0 0 -18.177816174538748 25.664272564546991 0 25.664272564546991 -23.717965474750599 0 0 0 0 0.74831488831841853 -6.7491580292389699 0 -6.7491580292389699 -9.0324043470581898 0 0 0 0 1.7681657914337734 -0.11995208867847751 0 -0.11995208867847751 -1.276845615737531 0 0 0 0 0.63695860987959918 -1.539408174083178 0 -1.539408174083178 -3.0262147098121517 0 0 0 0 22.748716946785862 8.4227895304156846 0 8.4227895304156846 -53.03161186640591 0 0 0 0 12.347012136660751 -0.89421613070385675 0 -0.89421613070385675 -1.7645009930439004 0 0 0 0 11.8147301165518 -11.65360101715487 0 -11.65360101715487 -22.650836429482297 0 0 0 0 -14.539323256787611 -17.248557177308612 0 -17.248557177308612 11.054747528945484 0 0 0 0 1.7349397584766848 1.2803708697010734 0 1.2803708697010734 -11.592781218188975 0 0 0 0 0.96672126972407568 5.7434172841776672 0 5.7434172841776672 -8.5337163745757607 0 0 0 0 0.49833588902970405 1.1411607316337244 0 1.1411607316337244 -1.7508416387520827 0 0 0 0 1.6297588163641024 -4.4942554481290742 0 -4.4942554481290742 -4.8321622534785362 0 0 0 0 222.2480622371877 -63.362384825417394 0 -63.362384825417394 -26.067960883602609 0 0 0 0 155.22857936048604 -71.404445186104567 0 -71.404445186104567 -25.046869053063347 0 0 0 0 151.42168922617748 -83.618171118687314 0 -83.618171118687314 -46.7467236096345 0 0 0 0 240.14227461336213 -127.28809473921427 0 -127.28809473921427 -164.08621662589576 0 0 0 0 240.91906349770579 -109.84906995147139 0 -109.84906995147139 -55.065599605186435 0 0 0 0 133.70552621379466 -103.26133703305459 0 -103.26133703305459 -40.254741476225718 0 0 0 0 167.04097813986664 -154.6712115020764 0 -154.6712115020764 38.731428974377195 0 0 0 0 354.74715361966082 -150.66770096026448 0 -150.66770096026448 30.491009927043706 0 0 0 0 29.715182921965607 -116.64458311578164 0 -116.64458311578164 72.528189368227686 0 0 0 0 -55.112146572864731 -64.281996325507862 0 -64.281996325507862 88.782741526909376 0 0 0 0 -3.262001960836642 -107.79920456762738 0 -107.79920456762738 98.026245409073908 0 0 0 0 134.09792917043887 -100.65035150154881 0 -100.65035150154881 -23.121895796335593 0 0 0 0 48.729596121622308 -62.633638124465506 0 -62.633638124465506 -20.841232875973219 0 0 0 0 59.310203207416635 -49.398262144826731 0 -49.398262144826731 -74.86195867551578 0 0 0 0 133.12522835578056 -2.9081204306712607 0 -2.9081204306712607 5.6145765404719441 0 0 0 0 2.2982067748239778 -33.778043621251229 0 -33.778043621251229 0.22429919484525129 0 0 0 0 10.019097302352474 -1.760652366680354 0 -1.760652366680354 3.5277896352114126 0 0 0 0 -48.366182697568547 6.903052418873358 0 6.903052418873358 -3.2038669242065225 0 0 0 0 -134.20828954152785 -38.950704436169417 0 -38.950704436169417 99.439812607706699 0 0 0 0 120.19792095723096 -46.503690146657391 0 -46.503690146657391 16.052104736063484 0 0 0 0 9.2632548004294222 22.955841114387567 0 22.955841114387567 -23.254930838207656 0 0 0 0 81.069731617331854 198.74066420831514 0 198.74066420831514 -221.95356187726793 0 0 0 0 218.77424284141307 -9.9746977668619365 0 -9.9746977668619365 -53.873837946754065 0 0 0 0 310.93438101664651 -2.3461930335161014 0 -2.3461930335161014 -54.287485286091396 0 0 0 0 196.02634506548202 -105.45290113834653 0 -105.45290113834653 19.334096550011964 0 0 0 0 25.751766140253665 -33.440015147285138 0 -33.440015147285138 7.0235019611332064 0 0 0 0 87.095125723357341 -21.838382022286169 0 -21.838382022286169 -2.7123242925663362 0 0 0 0 -29.99726130948693 -81.549668557370751 0 -81.549668557370751 -22.940371979191696 0 0 0 0 211.4494920964753 44.353691581101884 0 44.353691581101884 -14.034909696880277 0 0 0 0 295.84479181782808 -32.580737941003463 0 -32.580737941003463 15.193060114885157 0 0 0 0 316.64474151715694 14.654371594482654 0 14.654371594482654 18.504404963772686 0 0 0 0 517.22376743217683 -24.305866700052775 0 -24.305866700052775 -28.760625984799844 0 0 0 0 489.84888584261353 -99.493984713004465 0 -99.493984713004465 -77.94183598516247 0 0 0 0 518.29416190517077 88.134508700300557 0 88.134508700300557 26.117666331541841 0 0 0 0 313.72385027294877 15.224710998755313 0 15.224710998755313 -141.28283510834444 0 0 0 0 545.89639841593453 -89.084830026319196 0 -89.084830026319196 -115.42666421345712 0 0 0 0 359.30386111093685 189.69546405739129 0 189.69546405739129 -326.07268005995866 0 0 0 0 608.14019071846269 -96.419476013581516 0 -96.419476013581516 -310.76153657567329 0 0 0 0 435.49799007047841 -181.54768644756223 0 -181.54768644756223 170.36540583177703 0 0 0 0 307.91429097269429 122.91242008714653 0 122.91242008714653 -184.773126613101 0 0 0 0 737.91570151930136 -18.685334805235016 0 -18.685334805235016 -249.27375985177787 0 0 0 0 121.20097643617191 40.602598373943692 0 40.602598373943692 -158.98896826122973 0 0 0 0 349.62877323343855 16.115160932777144 0 16.115160932777144 -241.71245815087605 0 0 0 0 390.20532987748447 66.894659491134007 0 66.894659491134007 -205.55756345109512 0 0 0 0 34.628516998694977 37.433226944672697 0 37.433226944672697 -159.85295507738556 0 0 0 0 339.97453187463543 -253.06540920371754 0 -253.06540920371754 94.851560969387265 0 0 0 0 3.4720103099521822 -0.14688476690182384 0 -0.14688476690182384 -0.030665720798243479 0 0 0 0 642.02432399185454 -82.268791819268245 0 -82.268791819268245 -80.808137067058851 0 0 0 0 27.706195212171906 -50.570323260172302 0 -50.570323260172302 44.586012835359725 0 0 0 0 295.55419857638481 -145.00259292541523 0 -145.00259292541523 44.119997798250857 0 0 0 0 456.37845571193611 -128.05849456990109 0 -128.05849456990109 -49.531431119547051 0 0 0 0 409.48340149861542 -83.311404877904351 0 -83.311404877904351 -20.354289668786805 0 0 0 0 307.59752463639597 -85.77189153612926 0 -85.77189153612926 15.688243664490074 0 0 0 0 1.3782545934619748 0.76916085552328184 0 0.76916085552328184 0.35782226202203304 0 0 0 0 492.02213881617899 -119.26981672050215 0 -119.26981672050215 -7.2987762349093828 0 0 0 0 226.06419546579855 30.168854300258317 0 30.168854300258317 130.19448742750592 0 0 0 0 338.1259904511644 31.81436075462716 0 31.81436075462716 57.493437081957381 0 0 0 0 276.19012423222739 -37.166949626570386 0 -37.166949626570386 13.157173145780689 0 0 0 0 255.5406843485398 -5.4821558860221558 0 -5.4821558860221558 37.816339419856376 0 0 0 0 314.86904763932398 -77.362750307280294 0 -77.362750307280294 112.16348217500217 0 0 0 0 451.42032496398315 -121.17678738180439 0 -121.17678738180439 30.14972874668274 0 0 0 0 351.92820082134858 -45.102231951274007 0 -45.102231951274007 -25.897008929379808 0 0 0 0 333.38183286013009 -66.138155803752852 0 -66.138155803752852 36.296109560782497 0 0 0 0 233.78640927440756 -46.324698573404703 0 -46.324698573404703 -11.995879712085298 0 0 0 0 160.07203545116317 -74.725287306976725 0 -74.725287306976725 38.6652260132214 0 0 0 0 136.81412586601073 -46.833719905286671 0 -46.833719905286671 9.3110005398166322 0 0 0 0 13.413032128962165 -34.892947608153534 0 -34.892947608153534 9.2843701876442211 0 0 0 0 80.216453036304301 -25.997020622496166 0 -25.997020622496166 78.801203650508796 0 0 0 0 225.48853879448143 13.371895753722129 0 13.371895753722129 27.901323219218739 0 0 0 0 187.44654198826174 41.170841993564864 0 41.170841993564864 2.1875629353817203 0 0 0 0 85.994361298322474 -9.5130124536049152 0 -9.5130124536049152 47.606190931589481 0 0 0 0 157.01467862918435 -5.1584607200702521 0 -5.1584607200702521 3.9969056769650706 0 0 0 0 24.846242592468855 -34.721955098544043 0 -34.721955098544043 11.40844765764583 0 0 0 0 174.23612554922329 -11.592234621539774 0 -11.592234621539774 3.3522707016381901 0 0 0 0 185.0884751417052 -13.578914510022514 0 -13.578914510022514 0.66017087936779717 0 0 0 0 140.68450027084145 -34.266835967450334 0 -34.266835967450334 19.48315358387481 0 0 0 0 13.603695847630533 19.536101450454638 0 19.536101450454638 -20.765295687509582 0 0 0 0 52.922766042785952 47.26972414969714 0 47.26972414969714 73.95010157717843 0 0 0 0 151.7242330869085 22.180646721636094 0 22.180646721636094 -11.54000118964268 0 0 0 0 134.51623713848676 39.918185675001951 0 39.918185675001951 -24.186931379594171 0 0 0 0 86.380328041386576 39.482334661344808 0 39.482334661344808 -15.43359029663662 0 0 0 0 324.77376283339981 -51.326931257839533 0 -51.326931257839533 11.278589613951794 0 0 0 0 180.42595070793323 -25.858991796738337 0 -25.858991796738337 9.8029675202124054 0 0 0 0 37.630730924891395 29.922230265481176 0 29.922230265481176 121.31551481677525 0 0 0 0 431.42875851372082 42.363598520011237 0 42.363598520011237 -59.066885394997371 0 0 0 0 387.30867885702173 -75.11030344068422 0 -75.11030344068422 -23.833436838127454 0 0 0 0 8.9686104705220373 2.1456921524605832 0 2.1456921524605832 4.7476250823084705 0 0 0 0 222.66508281116694 57.067843368475224 0 57.067843368475224 -24.346890523574984 0 0 0 0 25.832208062900463 117.62352198472763 0 117.62352198472763 145.19659144340494 0 0 0 0 -622.45452264821506 299.0121244025122 0 299.0121244025122 770.57031365281364 0 0 0 0 1.6091308966089741 -0.52799007727676184 0 -0.52799007727676184 -1.0983658738742079 0 0 0 0 -429.30745198498335 -411.37344273924191 0 -411.37344273924191 103.68037459416337 0 0 0 0 444.7355612088395 214.9276240012623 0 214.9276240012623 107.72519607145659 0 0 0 0 543.74055657183271 35.144423918676694 0 35.144423918676694 21.885799580031744 0 0 0 0 43.307240225782152 -149.30790928261013 0 -149.30790928261013 -121.78971882849146 0 0 0 0 324.53447941755439 -16.230599079399781 0 -16.230599079399781 -62.080899848303488 0 0 0 0 197.55958225498762 4.1957862984327221 0 4.1957862984327221 20.767702781166008 0 0 0 0 267.1676102348174 -70.488027323509414 0 -70.488027323509414 34.467546385849346 0 0 0 0 239.3613673115251 -91.775683833699986 0 -91.775683833699986 93.70225398337243 0 0 0 0 392.44413791665283 -108.26281710603143 0 -108.26281710603143 77.379616988903763 0 0 0 0 264.63488752487319 -39.396044785922641 0 -39.396044785922641 80.087365058327123 0 0 0 0 236.56430956127588 -91.005909665944273 0 -91.005909665944273 76.590372220612153 0 0 0 0 176.98738636919734 -92.454391074912564 0 -92.454391074912564 59.170796783659171 0 0 0 0 233.45518447003269 -81.130868335012565 0 -81.130868335012565 55.672209082218615 0 0 0 0 338.01720892850062 -14.918719670304199 0 -14.918719670304199 34.714797338790959 0 0 0 0 176.33319984640912 -0.063712612873132457 0 -0.063712612873132457 39.192157967452658 0 0 0 0 165.32710790504643 -35.643542912826888 0 -35.643542912826888 14.829807754267677 0 0 0 0 235.47477652292582 -71.139086901424889 0 -71.139086901424889 32.609732944798452 0 0 0 0 150.27964040195366 1.4827083711907107 0 1.4827083711907107 -76.800189191339086 0 0 0 0 156.80643884679012 -55.889492601950224 0 -55.889492601950224 -3.9694401496917635 0 0 0 0 120.00175519214099 58.779261540087191 0 58.779261540087191 -20.783777629068936 0 0 0 0 147.22468025161652 -9.5250750692748625 0 -9.5250750692748625 -116.60175911608076 0 0 0 0 243.5295884757943 11.645957169410394 0 11.645957169410394 -2.9334228243160396 0 0 0 0 147.11360977616232 64.674630065786289 0 64.674630065786289 49.130076985082269 0 0 0 0 310.90790440203273 65.898749933141517 0 65.898749933141517 29.613204424165815 0 0 0 0 274.22916174314742 24.302784460818657 0 24.302784460818657 68.734494163207273 0 0 0 0 177.54381392669893 145.99265575620848 0 145.99265575620848 135.60807734298214 0 0 0 0 -4.3290532464598073 -269.72973932691002 0 -269.72973932691002 -278.7984684661119 0 0 0 0 0.099441118771807169 1.6884489505738571 0 1.6884489505738571 -6.3310493983072682 0 0 0 0 152.46518200485298 98.931783247531712 0 98.931783247531712 48.227145705810472 0 0 0 0 861.37991362639877 132.55659010632917 0 132.55659010632917 -561.08335478320259 0 0 0 0 63.005137753643794 57.477908241964542 0 57.477908241964542 18.764543985128853 0 0 0 0 112.40394040181127 83.087696601621246 0 83.087696601621246 -94.540024082196396 0 0 0 0 150.33253097796387 122.967709023471 0 122.967709023471 26.827296622765061 0 0 0 0 122.07934503095748 -57.834339095533778 0 -57.834339095533778 -5.3999065153159336 0 0 0 0 11.345247949753968 12.567400418188136 0 12.567400418188136 -18.936669872900637 0 0 0 0 182.08792911747878 111.99300166778266 0 111.99300166778266 -84.594087144920195 0 0 0 0 43.9764962641284 134.39194662005963 0 134.39194662005963 -75.622334588683771 0 0 0 0 190.79477175555076 69.425012552252156 0 69.425012552252156 -95.007965864659127 0 0 0 0 -8.2579825418488326 18.623928012312206 0 18.623928012312206 -13.871160333671089 0 0 0 0 39.520789141290152 128.61385546139263 0 128.61385546139263 -6.7698618567956146 0 0 0 0 2.7055992411769694 -35.894525339107531 0 -35.894525339107531 31.938930539518879 0 0 0 0 12.641529924461793 -26.912083867238835 0 -26.912083867238835 16.598749126447728 0 0 0 0 10.837457559951872 -36.620980237832555 0 -36.620980237832555 30.683884976097033 0 0 0 0 2.9385222610508208 -48.074347635458253 0 -48.074347635458253 24.939342937203946 0 0 0 0 7.6591616150108166 -29.088957302393283 0 -29.088957302393283 2.2345357024169061 0 0 0 0 3.0803537870597211 -24.554611488580122 0 -24.554611488580122 10.754437571825292 0 0 0 0 4.6172560017148498 -2.9384610186434656 0 -2.9384610186434656 -33.800714943152343 0 0 0 0 -0.18456723239887651 -19.590953740293116 0 -19.590953740293116 25.621492658026909 0 0 0 0 8.4908783560122174 -7.8752207741631537 0 -7.8752207741631537 36.374584950546705 0 0 0 0 10.331540331622818 5.1116023433505688 0 5.1116023433505688 -12.643654659981621 0 0 0 0 38.30396587170253 -12.794502197331894 0 -12.794502197331894 6.6802271603623922 0 0 0 0 32.201410053206928 -25.938810837508299 0 -25.938810837508299 40.231007060490811 0 0 0 0 105.07554536283715 -66.856965832068454 0 -66.856965832068454 43.530899898854841 0 0 0 0 59.922499318039627 -23.206631043824018 0 -23.206631043824018 47.639601870805564 0 0 0 0 130.85854680818738 -21.03866338883563 0 -21.03866338883563 27.437747511093221 0 0 0 0 58.430303365472355 -16.887232088840392 0 -16.887232088840392 24.070176069979425 0 0 0 0 319.06764017097885 -71.121940753905619 0 -71.121940753905619 96.484980323752097 0 0 0 0 291.5582411508949 -152.4155465338099 0 -152.4155465338099 -18.286129055589981 0 0 0 0 189.28847004700219 -142.65856279932814 0 -142.65856279932814 -18.791272193117038 0 0 0 0 165.41468481512857 -74.492709474769072 0 -74.492709474769072 12.140291549224742 0 0 0 0 106.63545937321396 -66.940227714241701 0 -66.940227714241701 12.420269701142388 0 0 0 0 357.00282815805986 -50.980323598367249 0 -50.980323598367249 -21.405607725728032 0 0 0 0 214.72214308870025 -43.659355964427959 0 -43.659355964427959 -21.779024123021372 0 0 0 0 238.65096794091573 -48.008608673635209 0 -48.008608673635209 85.28293093377215 0 0 0 0 427.73105710196978 -383.59760431632196 0 -383.59760431632196 -57.040976136402605 0 0 0 0 2.1872592038683152 1.6007653866003722 0 1.6007653866003722 1.2248879528546084 0 0 0 0 338.50210947025334 27.265870218197961 0 27.265870218197961 517.38558401055343 0 0 0 0 192.70590448430448 46.745856816780361 0 46.745856816780361 29.767732275879098 0 0 0 0 244.5346531833311 -87.359909884539775 0 -87.359909884539775 34.932057268510107 0 0 0 0 193.18080347555224 -124.92345183242287 0 -124.92345183242287 44.809291824942193 0 0 0 0 41.300615731626749 -25.194259073561625 0 -25.194259073561625 36.604393112567777 0 0 0 0 12.651548018428912 -27.491897143923296 0 -27.491897143923296 47.91289500145831 0 0 0 0 142.64198463142384 -9.0635104904613399 0 -9.0635104904613399 40.608021297608502 0 0 0 0 37.853252009939752 -20.375252210127655 0 -20.375252210127655 51.559803464380821 0 0 0 0 128.03010577529494 29.566595197540664 0 29.566595197540664 42.12152065761984 0 0 0 0 2.5381877864111857 0.90215006630573669 0 0.90215006630573669 0.037192253495760497 0 0 0 0 43.807056308462052 9.5093298994197539 0 9.5093298994197539 37.405974445062384 0 0 0 0 17.558174625723041 -41.72494370415825 0 -41.72494370415825 33.381933291597534 0 0 0 0 223.56565976984166 -49.813923377001174 0 -49.813923377001174 111.70488478452717 0 0 0 0 313.63513304164371 -215.89462374973209 0 -215.89462374973209 158.94193130631902 0 0 0 0 1.602899681725205 0.97271832009224113 0 0.97271832009224113 0.481058738202087 0 0 0 0 160.31486422157923 -120.98135189429433 0 -120.98135189429433 81.94576840492482 0 0 0 0 159.82516164252593 -117.77383741828089 0 -117.77383741828089 66.116260678565595 0 0 0 0 185.56980350982485 -101.80632787565446 0 -101.80632787565446 60.311482932651415 0 0 0 0 152.72051935638956 -93.065855036739549 0 -93.065855036739549 62.663992683810648 0 0 0 0 199.87389291122963 -67.559648411426679 0 -67.559648411426679 -58.864508763088452 0 0 0 0 153.54647405043215 -80.043428489153484 0 -80.043428489153484 32.955544927377559 0 0 0 0 136.65339032837437 -88.930984262237871 0 -88.930984262237871 121.55640618022153 0 0 0 0 106.24750171647611 -42.39242948012361 0 -42.39242948012361 51.531432573844995 0 0 0 0 186.12659005423484 -165.78068716539747 0 -165.78068716539747 88.116559877548298 0 0 0 0 251.93882036925061 4.0551061759406366 0 4.0551061759406366 24.874386369166132 0 0 0 0 127.23378368388512 -64.973861965561809 0 -64.973861965561809 21.522657047711618 0 0 0 0 126.19636324668181 -76.419276942332431 0 -76.419276942332431 -14.040636686213475 0 0 0 0 12.451809208614577 -14.893798661049914 0 -14.893798661049914 21.233332461513783 0 0 0 0 4.6718122964236244 3.055852677287902 0 3.055852677287902 1.5172481483703351 0 0 0 0 12.628562300716112 -13.474546707414106 0 -13.474546707414106 21.876832511385146 0 0 0 0 15.312148501368938 -33.599225191164805 0 -33.599225191164805 17.271453074297824 0 0 0 0 -3.9422043015001691 -61.35524787956183 0 -61.35524787956183 146.88295283434309 0 0 0 0 -2.5293008339358494 -39.804756846066084 0 -39.804756846066084 52.147599229883781 0 0 0 0 13.250014197488781 3.9698873074739822 0 3.9698873074739822 54.186020885695939 0 0 0 0 15.165459465839376 6.4376584856863701 0 6.4376584856863701 17.105660491422896 0 0 0 0 7.5746344707856395 1.9316600592726658 0 1.9316600592726658 3.9966207895862169 0 0 0 0 26.48022995654901 6.5050636327587199 0 6.5050636327587199 16.675079050266504 0 0 0 0 26.536462910007685 6.1502161443831938 0 6.1502161443831938 12.141144644125689 0 0 0 0 10.490885368218528 3.206763837883237 0 3.206763837883237 2.1922659831109712 0 0 0 0 124.22564603240971 -36.872162975031642 0 -36.872162975031642 10.842562850084505 0 0 0 0 65.565967348633421 22.192581224230707 0 22.192581224230707 2.6644645395936095 0 0 0 0 53.175644008435299 -8.8265875442087349 0 -8.8265875442087349 2.4254357315273154 0 0 0 0 62.09737847606084 13.184040807742804 0 13.184040807742804 -1.8197640792786842 0 0 0 0 30.891421417745804 19.122344779518045 0 19.122344779518045 6.7449502906839278 0 0 0 0 30.317943694710834 31.743335001175545 0 31.743335001175545 0.65684537119961561 0 0 0 0 125.64032530576515 58.729720996659807 0 58.729720996659807 13.659628562746093 0 0 0 0 98.793768775244246 32.276136027187178 0 32.276136027187178 -11.228123601704528 0 0 0 0 54.946006266818728 5.8672238945880792 0 5.8672238945880792 3.3739863832035866 0 0 0 0 77.788877915794728 -2.269430433369962 0 -2.269430433369962 -31.185618195730058 0 0 0 0 65.153710480779409 -4.8343210838065716 0 -4.8343210838065716 -29.030356807190401 0 0 0 0 165.67112949265709 22.131916213587388 0 22.131916213587388 -33.5860452293593 0 0 0 0 63.318707903349605 8.260436557118588 0 8.260436557118588 -8.8822647424361811 0 0 0 0 85.420115808503397 25.012181752629544 0 25.012181752629544 -30.588689539134066 0 0 0 0 133.69329429795471 92.586887843417799 0 92.586887843417799 -22.949452478205785 0 0 0 0 146.6251370748214 145.15420023256684 0 145.15420023256684 -11.459595968237409 0 0 0 0 101.51208934590119 -9.2668691900181273 0 -9.2668691900181273 -2.735970357092584 0 0 0 0 46.753640152484877 -5.5586635831646163 0 -5.5586635831646163 -72.260771436143841 0 0 0 0 106.01673450362091 -2.2520132496826371 0 -2.2520132496826371 -13.55093587840512 0 0 0 0 154.40851836165348 -60.894927374465851 0 -60.894927374465851 -6.8218052454758435 0 0 0 0 140.95491845710785 -37.126297337599681 0 -37.126297337599681 -31.973177077533592 0 0 0 0 204.0242875825279 -68.355110230121682 0 -68.355110230121682 -134.14099512515349 0 0 0 0 71.187361844305997 -8.4328861830817914 0 -8.4328861830817914 -56.942021275345496 0 0 0 0 103.78037308496934 -2.5799251404421213 0 -2.5799251404421213 -4.9272116097067986 0 0 0 0 178.15689904542523 25.242905116749625 0 25.242905116749625 -240.71702430877667 0 0 0 0 112.85588015239773 -14.54714395143003 0 -14.54714395143003 -82.100145300484201 0 0 0 0 -121.49459544298588 -195.43446519303097 0 -195.43446519303097 22.968127441616161 0 0 0 0 97.717399864224717 14.443095523712145 0 14.443095523712145 -130.09392722193525 0 0 0 0 230.7353673466132 26.733887681813485 0 26.733887681813485 -153.10652081609987 0 0 0 0 166.42040734301554 30.465083797854732 0 30.465083797854732 -63.47576486210346 0 0 0 0 106.55841955973764 6.4860008032209704 0 6.4860008032209704 -4.0702156789328825 0 0 0 0 114.01953357871389 172.2826964168562 0 172.2826964168562 -266.66863147699507 0 0 0 0 107.71072638543856 -18.652234926188786 0 -18.652234926188786 -2.9280171023853403 0 0 0 0 237.46482234625728 68.349312644204019 0 68.349312644204019 -83.104513184567622 0 0 0 0 169.07097464817343 40.540308066585112 0 40.540308066585112 35.490375585533911 0 0 0 0 225.44366948958486 11.782364532441079 0 11.782364532441079 17.075512953164434 0 0 0 0 179.14442605985096 69.20739765527378 0 69.20739765527378 105.33993197070959 0 0 0 0 181.55104963362101 103.91787603860757 0 103.91787603860757 16.184325964564778 0 0 0 0 567.03056320092583 -98.068422911524749 0 -98.068422911524749 -88.225498187740413 0 0 0 0 318.79164709735778 -197.43155524161875 0 -197.43155524161875 16.477118411305582 0 0 0 0 -25.068363840138773 95.887936622526013 0 95.887936622526013 -5.3459564268514441 0 0 0 0 274.73490849946393 16.071403242343422 0 16.071403242343422 -1.5683160170119663 0 0 0 0 271.97741379149375 -0.16647480966730654 0 -0.16647480966730654 -46.636665336035549 0 0 0 0 379.17128487993614 5.9929456054042021 0 5.9929456054042021 -69.829955185130984 0 0 0 0 251.81188677926548 46.64904517141531 0 46.64904517141531 -37.734081567154135 0 0 0 0 319.62997358574648 93.205421927639236 0 93.205421927639236 -22.692412767585324 0 0 0 0 329.14247595338384 87.991071380194626 0 87.991071380194626 -162.32552313174619 0 0 0 0 -10.271021613891207 6.4783508392409885 0 6.4783508392409885 8.1628078339328418 0 0 0 0 301.52937389552244 188.71053402080679 0 188.71053402080679 -19.037854172406242 0 0 0 0 222.93931326219536 141.17699587695103 0 141.17699587695103 107.85452465775415 0 0 0 0 232.96642057196004 101.33948381496702 0 101.33948381496702 11.944649278047109 0 0 0 0 255.89576553486404 71.081980294962705 0 71.081980294962705 45.692402198093987 0 0 0 0 285.12535249377834 126.60660610447371 0 126.60660610447371 20.849626962758066 0 0 0 0 -229.43582587418496 -202.11201197878904 0 -202.11201197878904 104.49666344782236 0 0 0 0 148.42199426720617 99.823801849557185 0 99.823801849557185 -4.785372692222154 0 0 0 0 15.064799968132291 -5.6762934653917512 0 -5.6762934653917512 -17.978447563490331 0 0 0 0 363.81614763554535 255.09196368855373 0 255.09196368855373 241.02883641147491 0 0 0 0 -365.31752260131179 -10.820836700311702 0 -10.820836700311702 632.59022780280611 0 0 0 0 -290.71628040165524 265.55753013465528 0 265.55753013465528 1072.6128816880919 0 0 0 0 173.24514729651855 -8.5899714676743315 0 -8.5899714676743315 -80.680714222819006 0 0 0 0 182.37099090826814 68.591585689343447 0 68.591585689343447 -73.187223745387769 0 0 0 0 345.14589699458611 -44.048637017629574 0 -44.048637017629574 -50.226305211064755 0 0 0 0 141.97808078878734 -108.33414654868193 0 -108.33414654868193 84.142097896317864 0 0 0 0 6.2755662772751748 4.9843529567838871 0 4.9843529567838871 2.2656763893771896 0 0 0 0 575.60293733555591 80.792819250584216 0 80.792819250584216 -540.06918097242669 0 0 0 0 35.786393217339679 -4.7962580433968327 0 -4.7962580433968327 -11.885176316341138 0 0 0 0 106.17386301136867 -118.30437048459265 0 -118.30437048459265 -209.17631096553305 0 0 0 0 114.57166251096351 163.76897736348906 0 163.76897736348906 95.926707079433072 0 0 0 0 71.596059567935299 39.012236485259564 0 39.012236485259564 -42.815509364030731 0 0 0 0 9.2177850055794579 19.222613236720548 0 19.222613236720548 -13.84285281245748 0 0 0 0 126.77288390422473 50.201072310956079 0 50.201072310956079 61.013435394019325 0 0 0 0 242.64601260022027 71.043805421210891 0 71.043805421210891 -49.728255269674264 0 0 0 0 224.03356339913444 123.82141033160224 0 123.82141033160224 -45.846535173423945 0 0 0 0 232.89139964885544 44.515365397970527 0 44.515365397970527 8.3770610685251086 0 0 0 0 110.66078512421404 -12.479831272245359 0 -12.479831272245359 -5.3917355444346473 0 0 0 0 108.32469286797277 -20.210600279219307 0 -20.210600279219307 -27.412903630853179 0 0 0 0 119.06238671374012 -12.67258107086036 0 -12.67258107086036 -47.289325966697106 0 0 0 0 6.0581347756242323 16.315804162708744 0 16.315804162708744 -7.530987821453266 0 0 0 0 183.88188604720244 58.212427543114899 0 58.212427543114899 -36.967236421924099 0 0 0 0 108.44361634279267 -18.840452385683307 0 -18.840452385683307 -9.5727431412101396 0 0 0 0 128.50407727598213 -0.76025176537723382 0 -0.76025176537723382 -15.619157260098291 0 0 0 0 212.46215375835891 18.133350298504411 0 18.133350298504411 5.453250416308947 0 0 0 0 70.838110120679005 -34.59011084427258 0 -34.59011084427258 -12.14940689779203 0 0 0 0 4.133571245886202 -11.523964189944916 0 -11.523964189944916 -4.5990668512952091 0 0 0 0 103.24232027834282 -7.0906384189935352 0 -7.0906384189935352 -6.8891532257613139 0 0 0 0 101.21691814277438 -8.6386194939377674 0 -8.6386194939377674 -17.57155359043054 0 0 0 0 107.79904014665226 -12.70807877534628 0 -12.70807877534628 -41.428039592477944 0 0 0 0 109.86167506435595 -5.1894117619846662 0 -5.1894117619846662 0.74058600776555572 0 0 0 0 -58.603454437485198 -81.469244202596201 0 -81.469244202596201 9.5554811715629739 0 0 0 0 108.74449347649352 -11.126636375753606 0 -11.126636375753606 -39.354668908756594 0 0 0 0 104.16612578036813 -4.5160928010746062 0 -4.5160928010746062 -4.695884896201278 0 0 0 0 121.62495833168941 87.11284389820139 0 87.11284389820139 -210.33896276470932 0 0 0 0 86.117232015421905 -40.265568274944599 0 -40.265568274944599 -94.684515784384985 0 0 0 0 513.18940844808822 -199.21859015971631 0 -199.21859015971631 -296.90447976588803 0 0 0 0 107.93786352592053 -9.3781368765908901 0 -9.3781368765908901 0.57026803852042152 0 0 0 0 103.31148810885497 0.82202130597988798 0 0.82202130597988798 -64.671636759991088 0 0 0 0 -121.02292934975412 -218.69980893363231 0 -218.69980893363231 -239.09886547122608 0 0 0 0 564.50236875063536 132.73023848786335 0 132.73023848786335 -83.512199577120555 0 0 0 0 2.6516461429073388 -1.8769590415085133 0 -1.8769590415085133 0.58243894101863347 0 0 0 0 183.12208587466739 28.121856786764056 0 28.121856786764056 -85.686912664606098 0 0 0 0 374.93544271122119 101.6890650276497 0 101.6890650276497 -67.659915223440294 0 0 0 0 5.5275016341882974 -4.6662596235757974 0 -4.6662596235757974 2.0974458572239634 0 0 0 0 81.030942462675739 -174.73747078143197 0 -174.73747078143197 -150.94111083010284 0 0 0 0 -100.50801570303156 -178.11998297761374 0 -178.11998297761374 -138.2532186044333 0 0 0 0 -25.134989249214414 -27.530901267010449 0 -27.530901267010449 -109.54639787583619 0 0 0 0 -123.95788616136088 -34.799824230429607 0 -34.799824230429607 -16.841447313889148 0 0 0 0 56.888805041482556 -93.571491816014714 0 -93.571491816014714 -63.693760773538088 0 0 0 0 120.18416838366102 34.783693753645821 0 34.783693753645821 -31.642335672075205 0 0 0 0 -31.928684787475504 -22.080043524524399 0 -22.080043524524399 -49.726332472838294 0 0 0 0 122.42700471950229 -59.485750651300805 0 -59.485750651300805 -90.558183635848764 0 0 0 0 130.50415853850609 -13.955491598350648 0 -13.955491598350648 0.48820210240728557 0 0 0 0 124.19626748720475 7.4080039565901643 0 7.4080039565901643 30.594976550154115 0 0 0 0 287.00645285044448 25.058846095614172 0 25.058846095614172 -50.001037158936242 0 0 0 0 75.063038292835699 -5.4478090442239591 0 -5.4478090442239591 -47.726138777170036 0 0 0 0 238.70404027424229 -80.763539324068461 0 -80.763539324068461 -73.489901979443857 0 0 0 0 102.05709728321744 -31.297184516176969 0 -31.297184516176969 -72.210578787666236 0 0 0 0 -25.258826817283989 -122.87846196073781 0 -122.87846196073781 -81.914339808736713 0 0 0 0 112.54929106245072 -65.741217558109383 0 -65.741217558109383 -116.30862965950791 0 0 0 0 5.4190415461981161 -4.9501668473610323 0 -4.9501668473610323 2.7510255450080621 0 0 0 0 -87.759674829736468 -280.77085074410559 0 -280.77085074410559 -175.86618330395208 0 0 0 0 -49.075564284856227 -63.989044942217063 0 -63.989044942217063 36.236145737947936 0 0 0 0 268.48856698372401 -29.094211524506477 0 -29.094211524506477 -165.73582926140358 0 0 0 0 264.77024334883026 15.743140804202113 0 15.743140804202113 -55.414548605477194 0 0 0 0 445.20118029489822 -38.978896216301337 0 -38.978896216301337 -152.36854991791301 0 0 0 0 355.7844559842797 89.188378766666688 0 89.188378766666688 41.878750847909032 0 0 0 0 502.66152237419738 111.35402593270101 0 111.35402593270101 32.308984737511764 0 0 0 0 576.01298980989668 141.51589742186297 0 141.51589742186297 25.023969274465117 0 0 0 0 85.355756398887024 -144.7714013127588 0 -144.7714013127588 297.52856209570882 0 0 0 0 498.06823772260395 -103.62349920245333 0 -103.62349920245333 99.307141201132936 0 0 0 0 370.27537791543 45.991170813784265 0 45.991170813784265 -55.264731875124198 0 0 0 0 52.935762432651245 -55.373285872678821 0 -55.373285872678821 96.806119037409189 0 0 0 0 -217.36453288100893 -161.31507761679256 0 -161.31507761679256 200.30607613617758 0 0 0 0 33.882246987617691 1.3882304037607582 0 1.3882304037607582 -63.710600296495841 0 0 0 0 81.920188950112788 -160.8438909542599 0 -160.8438909542599 223.91761493930028 0 0 0 0 -63.242202972760424 -115.63323479788187 0 -115.63323479788187 211.22550655947293 0 0 0 0 131.91196301220043 -258.38103797854899 0 -258.38103797854899 117.08530035202284 0 0 0 0 2.3087022833855144 -2.12514772143507 0 -2.12514772143507 1.4526974745422701 0 0 0 0 499.35020845619147 44.041782277035736 0 44.041782277035736 -83.075135910908898 0 0 0 0 -172.31725695640853 -330.68940440160884 0 -330.68940440160884 103.97445163171324 0 0 0 0 43.529033731450909 152.62941848506966 0 152.62941848506966 -112.94218700532292 0 0 0 0 7.1290573722653789 168.84285998365181 0 168.84285998365181 80.151069800538608 0 0 0 0 13.532327997032553 58.7207852313404 0 58.7207852313404 60.567273381698051 0 0 0 0 87.348457235450041 30.885475965222994 0 30.885475965222994 -6.7611430174429188 0 0 0 0 44.692442227766151 56.233756520839137 0 56.233756520839137 5.9123432015587607 0 0 0 0 60.577110131591326 42.549166927001693 0 42.549166927001693 8.7729816508007161 0 0 0 0 81.712395292051951 50.307190088457673 0 50.307190088457673 -72.540886265026074 0 0 0 0 76.60945423215162 85.821158208001634 0 85.821158208001634 10.618149976422501 0 0 0 0 130.08166342225741 31.264868790197397 0 31.264868790197397 -68.600957645922335 0 0 0 0 111.99562502251138 4.6150423318599394 0 4.6150423318599394 -99.001363106701319 0 0 0 0 191.20127142837737 -81.75829050433822 0 -81.75829050433822 -54.624271964425589 0 0 0 0 56.998696062335512 57.901675900357986 0 57.901675900357986 -139.22989815997062 0 0 0 0 81.638348314678296 -26.111582393888511 0 -26.111582393888511 -158.44996876713594 0 0 0 0 144.25969576919306 62.929535758765383 0 62.929535758765383 -190.07920205577557 0 0 0 0 79.428204661588097 -11.180631669577451 0 -11.180631669577451 -258.33316064197606 0 0 0 0 54.757119151847292 72.292666215734698 0 72.292666215734698 -231.27430815619573 0 0 0 0 181.93457624550501 125.15017970286749 0 125.15017970286749 159.58124710159609 0 0 0 0 4.4932219943862037 3.1796251967645901 0 3.1796251967645901 -0.5862271125047176 0 0 0 0 180.62996164175252 274.2211393581332 0 274.2211393581332 -118.804823366856 0 0 0 0 94.016986976988846 -53.360259977734358 0 -53.360259977734358 -227.26919706197555 0 0 0 0 484.75789235689444 270.28491555282631 0 270.28491555282631 -433.75311248079515 0 0 0 0 5.8246640255092643 256.01521684391878 0 256.01521684391878 -321.44989234790239 0 0 0 0 -102.44141361319635 -86.52684919176636 0 -86.52684919176636 -385.72815602114315 0 0 0 0 485.43256375992496 74.07085897225852 0 74.07085897225852 -191.43322174362083 0 0 0 0 474.81802709936619 95.264134243096322 0 95.264134243096322 -222.86633539721424 0 0 0 0 507.90557562820322 265.67352990905169 0 265.67352990905169 244.41904169902006 0 0 0 0 492.91901194330421 -203.510301128538 0 -203.510301128538 154.45518019974406 0 0 0 0 596.41080854249594 436.66800307954719 0 436.66800307954719 209.92961682970645 0 0 0 0 829.14520512439776 -22.026465487734413 0 -22.026465487734413 -280.56856076727996 0 0 0 0 -101.09183289740758 333.0668528820886 0 333.0668528820886 272.11101973257928 0 0 0 0 1.7590044555545319 8.129735657320019 0 8.129735657320019 616.34063388747404 0 0 0 0 13.497867488811607 -36.037105445151653 0 -36.037105445151653 186.33754045686192 0 0 0 0 514.55929468559043 -136.04347522257672 0 -136.04347522257672 0.11339274427655255 0 0 0 0 2.9302955130926875 2.975228242418595 0 2.975228242418595 3.5278301446697578 0 0 0 0 61.283285213430645 -20.300142543141192 0 -20.300142543141192 53.583822894058358 0 0 0 0 37.689289457033738 57.480775649317593 0 57.480775649317593 29.237568498919245 0 0 0 0 656.36133978160797 174.72018903607056 0 174.72018903607056 -26.820302674340383 0 0 0 0 544.17823039770883 205.76695229762902 0 205.76695229762902 -45.698758706488206 0 0 0 0 348.1582494705217 70.865975069856859 0 70.865975069856859 -56.99230811559471 0 0 0 0 117.53872123316978 195.63317651089255 0 195.63317651089255 215.03745335660551 0 0 0 0 563.48197952428018 112.24087218513478 0 112.24087218513478 -48.844141506865981 0 0 0 0 -10.56926922214916 13.33834884085536 0 13.33834884085536 66.620578393599999 0 0 0 0 348.36210885921901 67.701468267369705 0 67.701468267369705 -11.111633027150674 0 0 0 0 10.716552404628601 77.298482266114434 0 77.298482266114434 81.456941817089501 0 0 0 0 -0.07989046844090808 -0.52740921693821008 0 -0.52740921693821008 0.39047123756356239 0 0 0 0 52.575206980021903 -25.190742060417733 0 -25.190742060417733 -18.511924512916721 0 0 0 0 1.4155150758987247 -1.3591867418633257 0 -1.3591867418633257 3.4010388667819393 0 0 0 0 7.6147036175190692 -2.2255764613645113 0 -2.2255764613645113 1.7809136692125049 0 0 0 0 11.339802358910674 -1.2745385852959998 0 -1.2745385852959998 4.3536639759556692 0 0 0 0 37.502542919915868 11.463013687630678 0 11.463013687630678 30.553964993492173 0 0 0 0 18.920570986161067 5.0478216872210027 0 5.0478216872210027 4.5739226082601707 0 0 0 0 43.238362556381617 16.721548499956953 0 16.721548499956953 10.445900424057982 0 0 0 0 3.19886042357885 1.8279846390346108 0 1.8279846390346108 0.75085572903018338 0 0 0 0 -23.888057431286143 -22.002769020502512 0 -22.002769020502512 6.4701205700835089 0 0 0 0 7.3432501968345605 0.98485609170438693 0 0.98485609170438693 -0.4755075330017462 0 0 0 0 3.8943879194305566 2.0059572027656714 0 2.0059572027656714 5.1894012240251879 0 0 0 0 9.720357092734389 8.2663314171294928 0 8.2663314171294928 7.7634304364108235 0 0 0 0 21.818116161244689 34.233875842666066 0 34.233875842666066 9.3135229461840936 0 0 0 0 18.441518315026769 -3.3346059452064836 0 -3.3346059452064836 92.590764652976105 0 0 0 0 28.797967642633012 17.493007433129591 0 17.493007433129591 44.998881258310178 0 0 0 0 19.404783310747007 1.4245603503128947 0 1.4245603503128947 39.169942479788588 0 0 0 0 33.071565114980331 12.96024616352895 0 12.96024616352895 30.170872488636633 0 0 0 0 30.993142355029704 22.230377023758791 0 22.230377023758791 50.892726128789278 0 0 0 0 17.954492054515867 51.632164835349073 0 51.632164835349073 43.820619968920312 0 0 0 0 -25.374975993399858 36.021799997856476 0 36.021799997856476 87.274423454148589 0 0 0 0 18.78115823025675 -4.2339976710136682 0 -4.2339976710136682 -6.1297941544365244 0 0 0 0 58.126081592992705 32.449601189873192 0 32.449601189873192 14.274991665467041 0 0 0 0 44.303094552691618 16.998284961767467 0 16.998284961767467 29.293855218797034 0 0 0 0 39.830237261805451 22.609646765702792 0 22.609646765702792 43.270942974009813 0 0 0 0 293.90499668818666 9.5639486797133486 0 9.5639486797133486 -251.28394120258963 0 0 0 0 398.81004627514631 286.95829785729939 0 286.95829785729939 370.28655041728871 0 0 0 0 -306.47637442179257 -354.20887385770266 0 -354.20887385770266 -313.6390524040844 0 0 0 0 -66.416635589353973 -266.73887104165738 0 -266.73887104165738 -59.555844433856237 0 0 0 0 2.6955510517494758 -4.6454548893470076 0 -4.6454548893470076 -4.6307101967404956 0 0 0 0 40.071647453354672 -18.682773261558395 0 -18.682773261558395 -130.67323277062587 0 0 0 0 31.114220054531472 0.36054036740647177 0 0.36054036740647177 -4.1103124778526379 0 0 0 0 40.408991474309005 9.2467469704248515 0 9.2467469704248515 22.13961764471469 0 0 0 0 6.5380985680870651 1.9767385587898332 0 1.9767385587898332 -1.0565072941474796 0 0 0 0 393.5837159382063 -109.33433438866723 0 -109.33433438866723 -228.63698499911015 0 0 0 0 171.05673360984656 -95.297364043975676 0 -95.297364043975676 -308.72478999047121 0 0 0 0 126.42723942256998 182.31234137464617 0 182.31234137464617 62.089346248927995 0 0 0 0 194.70505808872986 255.95916967944208 0 255.95916967944208 117.13178816418622 0 0 0 0 269.24082767177606 14.178699112798768 0 14.178699112798768 -251.888662527625 0 0 0 0 500.73718039484811 194.01370304374109 0 194.01370304374109 -122.15242989281433 0 0 0 0 69.50989120851591 110.2354183112368 0 110.2354183112368 -27.18939864179174 0 0 0 0 48.758634253274067 139.74547136353362 0 139.74547136353362 61.919525608277581 0 0 0 0 -40.919448487402406 56.904284469979302 0 56.904284469979302 -38.75391667638587 0 0 0 0 26.69197776180954 48.151485912234136 0 48.151485912234136 -52.035785482162282 0 0 0 0 37.344153102079872 66.779241334422295 0 66.779241334422295 -37.09723674409895 0 0 0 0 49.529647951960214 115.21760063127124 0 115.21760063127124 -31.529939626188025 0 0 0 0 -0.57364962331931224 -1.3655299737646089 0 -1.3655299737646089 -3.5204417461251793 0 0 0 0 393.46803274049307 596.99371429388657 0 596.99371429388657 1008.6430090992703 0 0 0 0 225.5755861716716 -22.696773178003951 0 -22.696773178003951 -9.3536010485354382 0 0 0 0 103.42022980007459 -30.305269676365469 0 -30.305269676365469 30.924820808764935 0 0 0 0 54.676522119028959 80.4761630709163 0 80.4761630709163 48.565306905461966 0 0 0 0 42.433321761171101 105.57809695363176 0 105.57809695363176 92.95804943215785 0 0 0 0 68.786231522273738 87.028797017901979 0 87.028797017901979 24.480974942764988 0 0 0 0 57.914015579561237 85.823762822111803 0 85.823762822111803 53.624170135821572 0 0 0 0 80.382961836177856 105.78468715009694 0 105.78468715009694 53.901682891834504 0 0 0 0 73.43656356856809 126.22457444432212 0 126.22457444432212 5.7005831324277096 0 0 0 0 60.385844490898307 92.787911820709269 0 92.787911820709269 7.0575326197944719 0 0 0 0 96.686759130447172 124.32784396349916 0 124.32784396349916 -14.90848773183734 0 0 0 0 82.725800293614157 60.763625800719183 0 60.763625800719183 -17.478720133449031 0 0 0 0 140.54406503704377 68.28914333218745 0 68.28914333218745 17.766283197150869 0 0 0 0 217.76772418196197 106.61065513031394 0 106.61065513031394 -36.351518551568915 0 0 0 0 -1.5064998844318325 3.1029360652614741 0 3.1029360652614741 -47.680738549953276 0 0 0 0 10.668529889531783 -8.7781228231865498 0 -8.7781228231865498 -8.4955857527756962 0 0 0 0 14.206551531227205 -6.5509705212635225 0 -6.5509705212635225 -3.0867842100412304 0 0 0 0 -107.29116463055834 27.075756580127063 0 27.075756580127063 2.6569961958612112 0 0 0 0 145.91153397792368 93.775306023959274 0 93.775306023959274 -1178.9506595366674 0 0 0 0 3858.5153535254067 -1187.6495095973933 0 -1187.6495095973933 -1626.7863607630807 0 0 0 0 118.22583740821574 130.71900969547733 0 130.71900969547733 31.469760327563563 0 0 0 0 80.901311875059037 81.777459217631986 0 81.777459217631986 -87.87098427831188 0 0 0 0 18.260338107975372 -4.8652351502705073 0 -4.8652351502705073 -8.8964694270312847 0 0 0 0 19.5053343106988 -3.0406202101569022 0 -3.0406202101569022 -5.5202410573654301 0 0 0 0 -6.9289870157372206 -101.24560927606217 0 -101.24560927606217 -283.96430794389198 0 0 0 0 38.551682122917555 11.47379066883309 0 11.47379066883309 -10.25767040783694 0 0 0 0 14.237799735477893 -3.6163866563470037 0 -3.6163866563470037 8.2264971699128182 0 0 0 0 58.304746034205891 8.8449442471628572 0 8.8449442471628572 -51.491725650148965 0 0 0 0 0.67207454502931796 121.33884677795686 0 121.33884677795686 -117.24610204487453 0 0 0 0 74.991288615041412 -47.914670811387623 0 -47.914670811387623 -323.4007382312102 0 0 0 0 4.2168519497565455 0.2420228397914741 0 0.2420228397914741 -2.1263518392991747 0 0 0 0 27.167995855663321 -3.6269775755645242 0 -3.6269775755645242 0.51747964651985967 0 0 0 0 66.93846541082894 8.1283293800584033 0 8.1283293800584033 -23.565264788445802 0 0 0 0 11.538564612230687 -4.7350078105751834 0 -4.7350078105751834 -10.604860618834577 0 0 0 0 23.102764422859764 -7.7003690441301842 0 -7.7003690441301842 -11.095059033452344 0 0 0 0 37.683719139396999 13.398709852466936 0 13.398709852466936 -11.801385244156336 0 0 0 0 13.275137417876039 -8.2249114687929534 0 -8.2249114687929534 -11.180737962331833 0 0 0 0 46.933361865798361 5.7724424056359567 0 5.7724424056359567 -9.4836638497349668 0 0 0 0 16.80711252770115 -0.2996994697834765 0 -0.2996994697834765 -14.884647940771043 0 0 0 0 108.6328711259157 -12.918550928704107 0 -12.918550928704107 -20.402390552787892 0 0 0 0 12.609764092194382 -9.4891145049086845 0 -9.4891145049086845 9.3481117601641017 0 0 0 0 139.61678111361107 102.51784707686966 0 102.51784707686966 75.86177124216556 0 0 0 0 230.77298967346724 167.90206654303802 0 167.90206654303802 33.769853108457028 0 0 0 0 312.90003928160877 114.16956628189291 0 114.16956628189291 -36.144518962502843 0 0 0 0 114.14448574531707 100.53828169839471 0 100.53828169839471 -4.6926587051420938 0 0 0 0 111.96990068082232 219.35598823975306 0 219.35598823975306 30.518373817759311 0 0 0 0 300.73003801659979 254.60827189095505 0 254.60827189095505 34.325990893925336 0 0 0 0 -4.8024493710545357 -61.644471351477478 0 -61.644471351477478 -11.578066684025544 0 0 0 0 20.132278326431706 2.4596048920484179 0 2.4596048920484179 -8.3326224462649421 0 0 0 0 35.049518654466254 -7.3250582604985226 0 -7.3250582604985226 -20.527563673715804 0 0 0 0 37.517983539380111 5.0560213838557502 0 5.0560213838557502 -14.217361247694498 0 0 0 0 47.344354548346018 8.4096682837607659 0 8.4096682837607659 -4.4422494626196567 0 0 0 0 250.68941162136616 -22.431808340090356 0 -22.431808340090356 -53.657986304511724 0 0 0 0 -20.111958478883025 32.050271445884846 0 32.050271445884846 23.11574404682051 0 0 0 0 5.0279533795285261 2.2946568871783484 0 2.2946568871783484 -5.6273979492382402 0 0 0 0 604.87653585284716 316.01567904974036 0 316.01567904974036 311.21860139994533 0 0 0 0 10.992703166773303 -10.741030431520045 0 -10.741030431520045 -11.766021467067034 0 0 0 0 165.81884712874307 -97.876200361572046 0 -97.876200361572046 -16.828782420780044 0 0 0 0 284.908342511917 39.333615651186847 0 39.333615651186847 333.98248618523542 0 0 0 0 455.69929412877536 280.59124803465284 0 280.59124803465284 630.6479307787431 0 0 0 0 518.46948765161505 247.40193413695033 0 247.40193413695033 33.348556899207324 0 0 0 0 265.77777553157648 201.95346783818241 0 201.95346783818241 339.68147589485068 0 0 0 0 200.74798042947077 218.25815536661867 0 218.25815536661867 109.09052759175938 0 0 0 0 262.51505078825539 239.20104547933249 0 239.20104547933249 114.1174907835848 0 0 0 0 274.6538571837882 78.432525123513187 0 78.432525123513187 221.03493492121561 0 0 0 0 -163.23561784325284 -175.95783466506964 0 -175.95783466506964 -350.66405839859203 0 0 0 0 -163.82984628423583 -332.4174722778688 0 -332.4174722778688 -490.56766034937937 0 0 0 0 -195.65989239800547 -198.65595383959544 0 -198.65595383959544 -184.38520598851801 0 0 0 0 -68.848996985063422 -161.81508954803394 0 -161.81508954803394 -182.05973876839127 0 0 0 0 -293.02930191006453 -192.62976015757545 0 -192.62976015757545 -54.033971408115576 0 0 0 0 745.03543170075864 1476.7611311305445 0 1476.7611311305445 -532.2994764983232 0 0 0 0 -111.91674947366118 -259.22194476053892 0 -259.22194476053892 -235.62643047263464 0 0 0 0 -80.02228171081515 -245.07315095673357 0 -245.07315095673357 -244.94744752162023 0 0 0 0 564.0864244926197 616.66200725334284 0 616.66200725334284 595.97959383002012 0 0 0 0 18.930890142178214 -8.0911801813226134 0 -8.0911801813226134 2.9543602908094067 0 0 0 0 671.69839463183598 606.65293304938768 0 606.65293304938768 430.70756977490782 0 0 0 0 4.3507772370130446 -3.4317335648071321 0 -3.4317335648071321 -7.7879307176041817 0 0 0 0 638.34499080677051 524.93309244020747 0 524.93309244020747 327.660633983769 0 0 0 0 489.29302248399472 483.1748357773904 0 483.1748357773904 668.88858104487554 0 0 0 0 -6.5414601013471838 -187.50477874196122 0 -187.50477874196122 -230.82144972949663 0 0 0 0 -96.818413653410971 -204.55641583874421 0 -204.55641583874421 -152.73816693354547 0 0 0 0 -52.406298870351748 -140.30528570006436 0 -140.30528570006436 -76.649515020763829 0 0 0 0 -0.36579104958218522 -160.52732953290752 0 -160.52732953290752 -193.75192455538581 0 0 0 0 -127.61327998693741 -181.858458830769 0 -181.858458830769 -130.78106419289452 0 0 0 0 -107.22333228461503 -73.89566395377318 0 -73.89566395377318 -89.647271698067925 0 0 0 0 -99.623338877812785 -129.26170921691684 0 -129.26170921691684 -49.564537831800408 0 0 0 0 16.355719891464105 -11.491406693632566 0 -11.491406693632566 -13.259223096056559 0 0 0 0 -0.041857243918826725 0.090160409008831266 0 0.090160409008831266 2.2109447175172927 0 0 0 0 -118.23221851649578 -71.880375081514785 0 -71.880375081514785 48.18621388394439 0 0 0 0 3.6152670529758666 -5.8762000106675032 0 -5.8762000106675032 8.9335110909676505 0 0 0 0 -98.215815226343693 52.303118206885046 0 52.303118206885046 278.97676546181617 0 0 0 0 271.31565823129495 -182.69127376662914 0 -182.69127376662914 56.488516565846453 0 0 0 0 275.77947680989746 -211.64418342663191 0 -211.64418342663191 116.46908022380671 0 0 0 0 179.13630891898356 -142.70372524679485 0 -142.70372524679485 84.733880749168293 0 0 0 0 202.70123475062428 -122.75680332123153 0 -122.75680332123153 106.50382469510726 0 0 0 0 175.48956553357129 -173.27349457465692 0 -173.27349457465692 12.783491728306103 0 0 0 0 236.54098549651098 -112.33489299763073 0 -112.33489299763073 13.423591957517147 0 0 0 0 260.29461766811437 -73.121096413247187 0 -73.121096413247187 207.27301094128978 0 0 0 0 249.69709866064659 -121.65370384079969 0 -121.65370384079969 3.5990823694461369 0 0 0 0 237.45064073003232 -106.11412187432174 0 -106.11412187432174 -6.2786111573775543 0 0 0 0 231.16393538378179 -97.695161472079462 0 -97.695161472079462 -104.14772833069105 0 0 0 0 168.2571937404864 -161.04045975100382 0 -161.04045975100382 -49.306451474686128 0 0 0 0 360.26235834907857 -107.11068532585819 0 -107.11068532585819 -96.703643135532502 0 0 0 0 328.99952273536474 -114.97978870887323 0 -114.97978870887323 -98.522742056764173 0 0 0 0 -292.07989902008558 -328.22872265945659 0 -328.22872265945659 -338.63328075942536 0 0 0 0 1.5460466967725495 -2.407490765720496 0 -2.407490765720496 2.8028336395102231 0 0 0 0 472.04825232599978 -49.044814649223554 0 -49.044814649223554 -147.02754155682601 0 0 0 0 -291.96452099728049 -323.32273415668965 0 -323.32273415668965 -259.64030895117617 0 0 0 0 375.87546511995606 -27.907572689049175 0 -27.907572689049175 -114.28814839452184 0 0 0 0 340.67232940654503 56.632294843844193 0 56.632294843844193 -127.87138662436428 0 0 0 0 349.00247513054637 23.238173166773208 0 23.238173166773208 -44.748536736909955 0 0 0 0 391.5043907634099 -61.823381762341455 0 -61.823381762341455 -54.587307938010099 0 0 0 0 72.201264742121566 -188.89373740451521 0 -188.89373740451521 89.632365204483676 0 0 0 0 106.79358694967232 -171.12738172299925 0 -171.12738172299925 17.28460134631267 0 0 0 0 128.81369899207493 -168.87090344752693 0 -168.87090344752693 12.670616852976224 0 0 0 0 144.42363207542803 -189.92364415392512 0 -189.92364415392512 73.221204576968262 0 0 0 0 123.83876999260974 -185.14159339768668 0 -185.14159339768668 81.535738553012123 0 0 0 0 156.19069871603278 -143.51157865421061 0 -143.51157865421061 30.33528896136778 0 0 0 0 126.97424113700981 -178.33665665067724 0 -178.33665665067724 -8.0534784751355346 0 0 0 0 117.89193895109929 -143.12875964019031 0 -143.12875964019031 -91.097336601020515 0 0 0 0 158.33888099697651 -112.03523468032539 0 -112.03523468032539 -67.838843060176259 0 0 0 0 120.22854198739515 -92.035005638241387 0 -92.035005638241387 -140.91432285169469 0 0 0 0 101.37234916863963 -140.99744242716019 0 -140.99744242716019 14.69702208070094 0 0 0 0 84.623577546572051 -131.62903609297254 0 -131.62903609297254 -103.97884295857807 0 0 0 0 88.693394286819967 -181.10273923120627 0 -181.10273923120627 -58.428892524754474 0 0 0 0 82.225626194674987 -180.75994871670127 0 -180.75994871670127 -165.93928025464436 0 0 0 0 52.299797271029092 -177.78639842196526 0 -177.78639842196526 16.47325794462509 0 0 0 0 38.891197476576963 34.583877168046776 0 34.583877168046776 -416.87163424469099 0 0 0 0 35.522255258372752 -37.405545594400792 0 -37.405545594400792 -323.66834437034868 0 0 0 0 52.727844769731746 -109.61396992984714 0 -109.61396992984714 -259.03001300104324 0 0 0 0 88.424581831524847 -142.65289982914351 0 -142.65289982914351 -206.97100719262517 0 0 0 0 97.755821338301757 -77.354053839832659 0 -77.354053839832659 -239.09990634107794 0 0 0 0 106.13067538669566 -57.480000191709905 0 -57.480000191709905 -344.23481016517826 0 0 0 0 80.741790380736347 -17.693964064348165 0 -17.693964064348165 -321.25907513539164 0 0 0 0 94.665082106192131 -31.573158126572935 0 -31.573158126572935 -234.81145264834913 0 0 0 0 143.80779108614661 -71.600017149325595 0 -71.600017149325595 -207.28555680576824 0 0 0 0 77.533821780700237 -19.373323915971014 0 -19.373323915971014 -277.19317208638131 0 0 0 0 116.7048442009982 -88.024445196678414 0 -88.024445196678414 -217.20813273482736 0 0 0 0 67.278741652407916 4.969720847868075 0 4.969720847868075 -309.23915989064471 0 0 0 0 47.845158138268118 -12.937697439422095 0 -12.937697439422095 4.667848874148441 0 0 0 0 -27.766234534062392 -160.67515853989221 0 -160.67515853989221 -311.01304419389589 0 0 0 0 -26.889691765536554 -50.211800621151951 0 -50.211800621151951 -285.44242396020081 0 0 0 0 56.76111920995379 -3.4944945658635973 0 -3.4944945658635973 -3.8739190762955693 0 0 0 0 53.52456851034367 118.73669782196907 0 118.73669782196907 -158.99990708811492 0 0 0 0 73.646686877066713 18.315808553726995 0 18.315808553726995 -429.67708600460082 0 0 0 0 74.247043884592131 2.5191690304407075 0 2.5191690304407075 -311.75687520664985 0 0 0 0 217.96095562187838 166.95647185032612 0 166.95647185032612 87.915603488745546 0 0 0 0 -343.8159069201065 -232.80660776646681 0 -232.80660776646681 -149.01887233743946 0 0 0 0 -336.78506774042035 -483.95420223179735 0 -483.95420223179735 -394.49420659458701 0 0 0 0 51.740335174296831 -26.422098674905257 0 -26.422098674905257 12.016104070986277 0 0 0 0 -615.35718702740269 -381.52559331294833 0 -381.52559331294833 3.6674372011775631 0 0 0 0 167.43454777851002 288.90059820622446 0 288.90059820622446 18.453611762945002 0 0 0 0 -563.35739752626978 -448.03463871417443 0 -448.03463871417443 -47.423559054273937 0 0 0 0 497.6754295687424 -151.23495384928162 0 -151.23495384928162 -187.02342261166996 0 0 0 0 306.97581334147253 -257.27833193686865 0 -257.27833193686865 -142.56474558956597 0 0 0 0 240.12408105639042 -108.58354127272469 0 -108.58354127272469 -127.08576442905172 0 0 0 0 130.60307771072257 -131.2142702271951 0 -131.2142702271951 -105.27271245821521 0 0 0 0 279.5160992880119 -175.26002952764895 0 -175.26002952764895 -117.14567811139796 0 0 0 0 228.36567040343652 -142.02991066358163 0 -142.02991066358163 -203.24464841173676 0 0 0 0 165.97369617049117 -77.325586311176266 0 -77.325586311176266 -202.66430741562056 0 0 0 0 135.89016638899193 -150.83900047184812 0 -150.83900047184812 -320.08497504225943 0 0 0 0 604.85998931454378 187.21680834308063 0 187.21680834308063 -309.39355548494632 0 0 0 0 423.34912501819781 -168.42716265604281 0 -168.42716265604281 -540.30438190414782 0 0 0 0 2063.0922885682667 -853.60188271518564 0 -853.60188271518564 560.23978403376532 0 0 0 0 75.610639132442543 -41.512707321056467 0 -41.512707321056467 17.649541955849422 0 0 0 0 197.5442430995754 -283.81434962076764 0 -283.81434962076764 -494.26838774860425 0 0 0 0 1677.6186765837774 1532.4033323770054 0 1532.4033323770054 -1010.9065121600142 0 0 0 0 633.37625683558872 -625.71329892480571 0 -625.71329892480571 572.32047002663421 0 0 0 0 80.465763459651498 313.83717039131261 0 313.83717039131261 56.105064672266963 0 0 0 0 15.937277071014364 5.2096991399206303 0 5.2096991399206303 2.7671318005640053 0 0 0 0 -381.95003972711856 79.948135686197929 0 79.948135686197929 745.3652771865236 0 0 0 0 38.47260799202013 -125.61828392334962 0 -125.61828392334962 170.33945395508272 0 0 0 0 126.89798799826531 -92.842438327950731 0 -92.842438327950731 39.427417348364543 0 0 0 0 267.37290354239667 -237.96974652148947 0 -237.96974652148947 144.32339056939236 0 0 0 0 556.79001924794284 -210.32653845473942 0 -210.32653845473942 -39.213992931935422 0 0 0 0 617.90069205185864 44.523844984436437 0 44.523844984436437 -161.95698325582271 0 0 0 0 2038.8987455034221 -275.50435528545677 0 -275.50435528545677 -606.61893832217174 0 0 0 0 896.11661550065764 530.27680271217105 0 530.27680271217105 -98.987376872173627 0 0 0 0 255.6745619223002 467.89160047662881 0 467.89160047662881 -103.72669767923435 0 0 0 0 569.76400166876556 88.753741551326129 0 88.753741551326129 -136.81779323491355 0 0 0 0 502.66206291632261 43.063116085046204 0 43.063116085046204 -158.42096804780158 0 0 0 0 585.71199573606646 -20.870765544442293 0 -20.870765544442293 -126.25467447537085 0 0 0 0 275.96764582461037 -8.1032557015523707 0 -8.1032557015523707 -75.90166201897955 0 0 0 0 441.84747902979143 -18.486127694131937 0 -18.486127694131937 -101.62999102621689 0 0 0 0 397.80441541204345 -9.7006209189603396 0 -9.7006209189603396 -90.43065332547485 0 0 0 0 426.60487621638458 132.92968953117452 0 132.92968953117452 -150.39216004856826 0 0 0 0 198.63887064522714 149.54378052249376 0 149.54378052249376 -88.224739772476823 0 0 0 0 193.66750247646996 148.59048904660858 0 148.59048904660858 -11.97395052840875 0 0 0 0 161.04279780681827 56.302138416060188 0 56.302138416060188 -49.92632631505694 0 0 0 0 150.60682100718259 126.21829176322899 0 126.21829176322899 -16.391805588158149 0 0 0 0 310.40509424798074 85.344640902581887 0 85.344640902581887 -58.470695934425748 0 0 0 0 296.37987216626061 -35.765171759991063 0 -35.765171759991063 -40.466657787091208 0 0 0 0 233.13555137133517 -107.47035267673527 0 -107.47035267673527 -27.415100166821503 0 0 0 0 161.13033109519165 -49.281575142464135 0 -49.281575142464135 27.773255810645423 0 0 0 0 123.27011307454086 -141.46890064386389 0 -141.46890064386389 109.55884398912167 0 0 0 0 167.06842962979863 -84.030603938380409 0 -84.030603938380409 181.33900240652292 0 0 0 0 227.27602394571295 -171.93912863580772 0 -171.93912863580772 -32.440758282595198 0 0 0 0 247.2311243215081 -231.40495163870219 0 -231.40495163870219 143.70890642265294 0 0 0 0 236.68777506932383 -132.43015265815484 0 -132.43015265815484 55.718346095654852 0 0 0 0 283.53014960405289 -140.4906666907101 0 -140.4906666907101 -51.43670040510915 0 0 0 0 243.19236934249057 -131.95756900472043 0 -131.95756900472043 35.144084094426944 0 0 0 0 339.93763025608496 -145.53539595844632 0 -145.53539595844632 -42.128729813345331 0 0 0 0 282.39006297401556 -118.86595103912464 0 -118.86595103912464 -34.471389447993715 0 0 0 0 47.565252781234449 -13.113532514534199 0 -13.113532514534199 -0.4519378927489015 0 0 0 0 42.676556935570261 -0.081362077718040382 0 -0.081362077718040382 6.8562005384264921 0 0 0 0 -172.43785616153036 266.10221841350631 0 266.10221841350631 57.536813345930568 0 0 0 0 46.431813813074569 -15.812693259702314 0 -15.812693259702314 3.6957419066370072 0 0 0 0 -116.34980700118467 -4.0869397816850324 0 -4.0869397816850324 55.536101252209846 0 0 0 0 -611.89246760471724 -35.872396262138864 0 -35.872396262138864 91.399750512602623 0 0 0 0 -881.91142007900635 994.51529167542139 0 994.51529167542139 -71.052029297716217 0 0 0 0 68.879286694122129 18.645252710160094 0 18.645252710160094 10.767635861942836 0 0 0 0 29.104376089744619 42.211853069337849 0 42.211853069337849 3.7999800601496645 0 0 0 0 65.139102604596701 54.869800676938212 0 54.869800676938212 -30.236681636153662 0 0 0 0 100.80283872090149 1.6644826430865578 0 1.6644826430865578 -11.413688480626661 0 0 0 0 64.866692366021084 11.661001668262372 0 11.661001668262372 -2.3980548094359548 0 0 0 0 138.796389231793 82.255360500942516 0 82.255360500942516 -97.078573240168225 0 0 0 0 45.957393922668416 44.268891232092756 0 44.268891232092756 -60.600153023529856 0 0 0 0 89.185929877130548 23.850529079970329 0 23.850529079970329 -39.677369067640029 0 0 0 0 92.822411616975614 8.3393552159005253 0 8.3393552159005253 -2.6971487735842778 0 0 0 0 58.958215943366667 11.413559825594348 0 11.413559825594348 14.515122677645195 0 0 0 0 96.255475812698521 -2.5318692166209811 0 -2.5318692166209811 -2.9131762608171554 0 0 0 0 172.2411699811455 -57.217018242727136 0 -57.217018242727136 -61.059125229809979 0 0 0 0 194.61614353054028 117.42680520865906 0 117.42680520865906 -95.875909840427539 0 0 0 0 221.81101341723115 24.384654560701165 0 24.384654560701165 -92.68171971872971 0 0 0 0 197.81005692819599 79.316839718938354 0 79.316839718938354 100.51928952078742 0 0 0 0 192.65486327710096 -37.107261305633983 0 -37.107261305633983 21.867143956063956 0 0 0 0 165.60767812156701 18.289989439970668 0 18.289989439970668 -27.058731007186907 0 0 0 0 114.98055975869647 56.908721473433616 0 56.908721473433616 -69.958353408718722 0 0 0 0 217.40107359077956 51.889291900632998 0 51.889291900632998 -82.239830189122586 0 0 0 0 125.384415227094 31.610232505081967 0 31.610232505081967 -68.43233731536111 0 0 0 0 74.837547383953108 14.262227375164542 0 14.262227375164542 2.0575370570300366 0 0 0 0 181.58727047042339 -202.55176659362405 0 -202.55176659362405 -87.875235084535234 0 0 0 0 88.130728193606046 53.412791893739723 0 53.412791893739723 33.668673891208527 0 0 0 0 217.1394803225412 20.044419215486414 0 20.044419215486414 -232.41385867706595 0 0 0 0 36.864151742234753 -2.0310481255007957 0 -2.0310481255007957 -0.60788992998166869 0 0 0 0 128.54935159938614 3.6806874132172993 0 3.6806874132172993 1.2019222445240079 0 0 0 0 -17.964461334348016 197.22243240256034 0 197.22243240256034 16.408684588770484 0 0 0 0 272.2955413020245 -511.32853899300426 0 -511.32853899300426 353.429176425896 0 0 0 0 4.737707371939905 -86.377926200641014 0 -86.377926200641014 -35.774988239496452 0 0 0 0 223.80720836723049 -142.4135297815892 0 -142.4135297815892 -182.86873966803614 0 0 0 0 337.4867977607646 -14.00711326142482 0 -14.00711326142482 -21.619586017708571 0 0 0 0 118.42750643772888 -155.00238623792939 0 -155.00238623792939 22.179221379319642 0 0 0 0 372.48041172229568 -118.4365876697957 0 -118.4365876697957 27.204497945848289 0 0 0 0 271.21901153036742 -52.433223205993272 0 -52.433223205993272 2.7127522864830098 0 0 0 0 450.69985809977516 119.80982274990674 0 119.80982274990674 165.62109226654502 0 0 0 0 118.45987075458106 -173.35240136682478 0 -173.35240136682478 151.49212497464032 0 0 0 0 167.68543033584137 -86.279828113234544 0 -86.279828113234544 -141.90391488623754 0 0 0 0 44.085688357642553 -20.371152629116224 0 -20.371152629116224 -3.1744046350162591 0 0 0 0 13.590587113110814 -28.818383314851417 0 -28.818383314851417 44.841444661954483 0 0 0 0 387.26245613631909 -152.77968671519739 0 -152.77968671519739 -387.6532951476097 0 0 0 0 24.429070757596335 0.60132397420701977 0 0.60132397420701977 -0.74695312802636948 0 0 0 0 135.70242999787882 -7.5365009279841608 0 -7.5365009279841608 -2.2829818840113578 0 0 0 0 -21.759398044559703 166.22949777651161 0 166.22949777651161 -634.71381475226372 0 0 0 0 87.108159105152936 -149.12796392328818 0 -149.12796392328818 -956.08674045359658 0 0 0 0 556.18786815617204 -277.39990674377168 0 -277.39990674377168 -267.00658726538677 0 0 0 0 96.587744997392292 -318.57601576926572 0 -318.57601576926572 -238.99230080484631 0 0 0 0 -213.80825267055479 138.73786480562194 0 138.73786480562194 -201.49735041433451 0 0 0 0 152.08490753096703 0.52670729381497949 0 0.52670729381497949 -149.83795045964507 0 0 0 0 254.15036449765466 10.522949967870773 0 10.522949967870773 -418.97040132784605 0 0 0 0 283.97450398681394 63.824669803138022 0 63.824669803138022 -360.77127548011049 0 0 0 0 91.284870449811507 -7.0108459694883116 0 -7.0108459694883116 0.32589033661216682 0 0 0 0 89.056185369918239 107.72407578238926 0 107.72407578238926 -71.24529052464095 0 0 0 0 345.94259636567404 275.68951713838442 0 275.68951713838442 -164.90292041880275 0 0 0 0 -17.159161345058237 19.494357048613892 0 19.494357048613892 -152.30171069178277 0 0 0 0 120.53509059470525 48.993549557151709 0 48.993549557151709 -336.33481735696478 0 0 0 0 163.80732026702026 26.931029290582956 0 26.931029290582956 -99.424192288990525 0 0 0 0 39.590839059630525 185.45611150356422 0 185.45611150356422 -32.890265890055161 0 0 0 0 8.3175944944278797 5.4379687636606775 0 5.4379687636606775 2.1827961880649625 0 0 0 0 38.420379462069832 22.940728920204492 0 22.940728920204492 8.7662437025364852 0 0 0 0 52.831578528246609 247.11675563139215 0 247.11675563139215 158.07511218758509 0 0 0 0 97.262395559140714 147.86767970903747 0 147.86767970903747 -15.222553943317507 0 0 0 0 88.927293066961283 9.5804668348200721 0 9.5804668348200721 -45.376837583518864 0 0 0 0 96.13059165433981 6.2272562485069605 0 6.2272562485069605 -1.0445095075730126 0 0 0 0 71.907124397606822 31.130631128891764 0 31.130631128891764 -19.88517719318088 0 0 0 0 58.081888416607399 23.856718958266356 0 23.856718958266356 -6.4227901950489468 0 0 0 0 84.374508201266849 11.049057574267174 0 11.049057574267174 -4.5800283043742418 0 0 0 0 76.286060987476958 -7.1816204075803398 0 -7.1816204075803398 12.160535223007628 0 0 0 0 94.528190587181598 -3.404008716930548 0 -3.404008716930548 -32.53576671218525 0 0 0 0 64.351927328463034 5.0491625085157992 0 5.0491625085157992 -1.4338451654047848 0 0 0 0 80.987922849672032 4.3112253528565816 0 4.3112253528565816 -8.4698750559218752 0 0 0 0 91.910719669078389 -25.138942949728744 0 -25.138942949728744 -14.806642524574272 0 0 0 0 49.172814167235629 6.3236337121327324 0 6.3236337121327324 -33.16663015983022 0 0 0 0 51.197482353207306 -5.8022730638149369 0 -5.8022730638149369 -10.125326956462914 0 0 0 0 75.549808004245278 15.973351305938195 0 15.973351305938195 -34.725034663088081 0 0 0 0 32.558220591032295 54.927359062487085 0 54.927359062487085 -40.471683921523891 0 0 0 0 46.761452571197879 35.026089345023138 0 35.026089345023138 -13.347198976915934 0 0 0 0 27.183504493965302 6.501165573983144 0 6.501165573983144 -35.025418719681056 0 0 0 0 33.272324507008307 3.2384345209020466 0 3.2384345209020466 -21.380607219060039 0 0 0 0 53.331490608034073 9.2035492475690717 0 9.2035492475690717 -52.061358708016996 0 0 0 0 21.477223227149921 6.2806321576632129 0 6.2806321576632129 -3.2412090632616675 0 0 0 0 21.525695500255097 1.1234216939847101 0 1.1234216939847101 -18.350103395503538 0 0 0 0 31.660404578957241 18.681302899292859 0 18.681302899292859 -30.113469000429177 0 0 0 0 30.473031006250494 2.4654505357136287 0 2.4654505357136287 -16.343497071014362 0 0 0 0 29.319058534222677 6.6168935491047023 0 6.6168935491047023 -9.8221232363612216 0 0 0 0 16.50373578176368 -3.0510493720939849 0 -3.0510493720939849 -11.171732799164602 0 0 0 0 24.832405009104434 5.3642863023877396 0 5.3642863023877396 -27.754187687765906 0 0 0 0 26.67499764936758 4.6253305575300487 0 4.6253305575300487 -15.909698650506481 0 0 0 0 27.634184813935207 -4.8936333369012601 0 -4.8936333369012601 -23.716819491629806 0 0 0 0 9.8467133511557847 -2.1038275648676432 0 -2.1038275648676432 -8.4490624928558589 0 0 0 0 46.765983296558261 41.33125828991615 0 41.33125828991615 -43.255444884802273 0 0 0 0 -4.2261273178155534 -61.658398412552515 0 -61.658398412552515 -59.401030058364995 0 0 0 0 153.0623259494314 37.913514679750733 0 37.913514679750733 -40.131310899671007 0 0 0 0 49.127685585109759 10.436961230676303 0 10.436961230676303 -1.8543028276583318 0 0 0 0 182.32641001025331 4.3933823316128837 0 4.3933823316128837 -13.631744936777977 0 0 0 0 8.946695752273456 5.3527276399306913 0 5.3527276399306913 -4.1026548020519868 0 0 0 0 73.750552949812118 36.573902716166231 0 36.573902716166231 48.967315580870491 0 0 0 0 162.6752255076135 -45.335974775360228 0 -45.335974775360228 28.127967613492729 0 0 0 0 232.06908168518567 -40.875770062652009 0 -40.875770062652009 -237.72961342533381 0 0 0 0 215.68683136926848 -58.05926203027866 0 -58.05926203027866 -144.23216839145607 0 0 0 0 197.19952458987245 -42.484249401808484 0 -42.484249401808484 -9.071407641757105 0 0 0 0 315.59346271734103 -286.22526620790813 0 -286.22526620790813 -312.27661336223537 0 0 0 0 206.71780141419731 -560.10592657609595 0 -560.10592657609595 269.4966348449816 0 0 0 0 514.68119869111979 190.07224711930667 0 190.07224711930667 -142.67585062526632 0 0 0 0 111.62174494607098 -81.094987994247276 0 -81.094987994247276 675.45283043422387 0 0 0 0 365.97440319607267 226.52110541702859 0 226.52110541702859 -118.55280255922844 0 0 0 0 67.07182744864258 57.069450352006243 0 57.069450352006243 83.148732538636068 0 0 0 0 13.033754615915337 -5.4665006132349276 0 -5.4665006132349276 -19.192465750136126 0 0 0 0 35.058708116817797 -2.3181230399570723 0 -2.3181230399570723 -30.720593162193836 0 0 0 0 27.08046309913334 -6.5399954864788015 0 -6.5399954864788015 16.991079232026095 0 0 0 0 7.9384645197079067 -3.4183525272104731 0 -3.4183525272104731 -1.0538735572468809 0 0 0 0 46.806317802838748 -9.6759175033403153 0 -9.6759175033403153 -14.399824694206472 0 0 0 0 31.465799450284976 11.980978108150794 0 11.980978108150794 -32.766730735762394 0 0 0 0 2281.9154588966521 986.98469966718926 0 986.98469966718926 156.81865294487216 0 0 0 0 4490.5175708090337 1539.7886759436046 0 1539.7886759436046 -725.89938726606761 0 0 0 0 22.606970511044736 6.6956700859707432 0 6.6956700859707432 3.024261474203386 0 0 0 0 1362.2499890690069 1870.3318849961579 0 1870.3318849961579 870.67657819843316 0 0 0 0 27.043119157726323 449.63322471363574 0 449.63322471363574 685.87271732951058 0 0 0 0 304.23060717956832 -113.9703111196954 0 -113.9703111196954 -320.89373304510764 0 0 0 0 303.1816472643568 -266.54769742559483 0 -266.54769742559483 4.3016763983605415 0 0 0 0 113.56175085302857 -176.43188210005911 0 -176.43188210005911 -34.659140200652018 0 0 0 0 101.60376006872684 -45.251630607387142 0 -45.251630607387142 14.554447723403655 0 0 0 0 82.486960411926702 -157.87118544719772 0 -157.87118544719772 109.33087149396943 0 0 0 0 189.80811573881874 -68.310496835596609 0 -68.310496835596609 7.1330486553679293 0 0 0 0 189.0948319604031 103.97695266507532 0 103.97695266507532 424.0144200842002 0 0 0 0 942.15794610071316 114.86297098697833 0 114.86297098697833 136.58747492280884 0 0 0 0 129.88800525538863 -198.05223865410755 0 -198.05223865410755 19.305866452742976 0 0 0 0 181.01213985457252 -92.278834556365325 0 -92.278834556365325 188.89813790926337 0 0 0 0 678.88902115090241 50.079958671630152 0 50.079958671630152 27.911151359991209 0 0 0 0 52.586018667236203 0.57297379551647509 0 0.57297379551647509 -14.353857305948168 0 0 0 0 33.355112467645085 122.33223069063047 0 122.33223069063047 259.30431348569493 0 0 0 0 18.515597024358151 15.051498033048173 0 15.051498033048173 5.1123199183380228 0 0 0 0 43.704467007096355 9.7918730023527587 0 9.7918730023527587 -20.937933340194704 0 0 0 0 52.276794750914632 3.0433940029611222 0 3.0433940029611222 6.2332372926348398 0 0 0 0 35.026662308575297 7.4318199289922902 0 7.4318199289922902 -5.7808219554608513 0 0 0 0 66.293415471256139 92.338927565753409 0 92.338927565753409 -317.25102669612988 0 0 0 0 46.413668020266691 16.411229966333693 0 16.411229966333693 3.3343466303018525 0 0 0 0 15.493246288735936 30.573846803356698 0 30.573846803356698 11.916464126344017 0 0 0 0 34.148605346086697 256.95334667853922 0 256.95334667853922 -115.93745067960936 0 0 0 0 1214.9594774300858 -134.12571115615606 0 -134.12571115615606 -262.78613143776261 0 0 0 0 233.72144988358195 165.10413888634332 0 165.10413888634332 -362.76552633122765 0 0 0 0 552.36370142434316 -301.47137620612233 0 -301.47137620612233 52.784001851730864 0 0 0 0 231.39783944109513 -248.07230653646582 0 -248.07230653646582 -65.98498782849947 0 0 0 0 13.984902217440322 30.927970201865719 0 30.927970201865719 -12.208136299330064 0 0 0 0 -44.722200284260907 187.95514937242933 0 187.95514937242933 -525.88587530923178 0 0 0 0 -1.1711765770622549 14.021599070310739 0 14.021599070310739 2.2160950382364311 0 0 0 0 -247.21263604945852 106.3449509534903 0 106.3449509534903 -4.1984137388135423 0 0 0 0 53.415440008508419 20.351429591520432 0 20.351429591520432 3.7901031106022658 0 0 0 0 -76.268305926234461 166.85360891131506 0 166.85360891131506 15.243238725417939 0 0 0 0 33.687859258349619 21.722989638508253 0 21.722989638508253 9.5632060600917175 0 0 0 0 822.71576356078731 -429.44208307250165 0 -429.44208307250165 108.65881509640636 0 0 0 0 -20.137426270359356 -10.221782881414441 0 -10.221782881414441 43.122690806365426 0 0 0 0 1560.8643454435005 -13.946797064225962 0 -13.946797064225962 -120.04663836244208 0 0 0 0 2556.835296023055 -686.35746179090643 0 -686.35746179090643 -75.758151622102844 0 0 0 0 1240.0801790156038 -329.1023370927951 0 -329.1023370927951 -45.919555283674072 0 0 0 0 927.70311076084818 196.89609671689669 0 196.89609671689669 -145.02073247146768 0 0 0 0 2518.8763137683454 -32.001919942402822 0 -32.001919942402822 -334.95060714008559 0 0 0 0 2532.8073500217206 287.67306291607207 0 287.67306291607207 -716.33469797840144 0 0 0 0 2767.8491956913704 430.03360119320064 0 430.03360119320064 -688.68616542618656 0 0 0 0 2539.6319559597578 -760.59007316591396 0 -760.59007316591396 -387.44933050520103 0 0 0 0 4500.9760531267893 -403.2525152289524 0 -403.2525152289524 -913.1390218327025 0 0 0 0 4494.5961613420995 -2041.6681008955495 0 -2041.6681008955495 305.05207443651142 0 0 0 0 3380.2240321039135 -957.05903122511847 0 -957.05903122511847 -353.34600944534668 0 0 0 0 2173.1300818559921 -1717.7235519468129 0 -1717.7235519468129 932.40460582745891 0 0 0 0 284.692296045273 52.592523276510292 0 52.592523276510292 -109.53793489782686 0 0 0 0 1052.3726743226543 -111.16575422086504 0 -111.16575422086504 150.48612207284015 0 0 0 0 55.764495544409677 31.565241238436727 0 31.565241238436727 6.5330624770789933 0 0 0 0 834.79195004538997 -642.4099965537024 0 -642.4099965537024 304.3607803724143 0 0 0 0 -63.464575291838131 5.345784942298792 0 5.345784942298792 29.771385851493505 0 0 0 0 -152.89520147024814 210.57069959431345 0 210.57069959431345 -128.84339172922591 0 0 0 0 -143.39775697101476 42.69693761223516 0 42.69693761223516 111.03070277704569 0 0 0 0 -20.939531997478653 14.539281081392989 0 14.539281081392989 6.0611365465543692 0 0 0 0 2749.3520371427967 -1590.9749950489563 0 -1590.9749950489563 958.0106353116322 0 0 0 0 -35.459085048764791 96.688060220736588 0 96.688060220736588 -56.513176770258724 0 0 0 0 40.574898907353059 12.462593098777784 0 12.462593098777784 -4.4817696089497705 0 0 0 0 -16.581821767726225 13.184886431330852 0 13.184886431330852 3.7829136137164148 0 0 0 0 1716.0936891792289 -3426.4238636648388 0 -3426.4238636648388 3469.6275251557477 0 0 0 0 6.1523704421148686 8.4349600738558266 0 8.4349600738558266 -5.7381391151840191 0 0 0 0 4493.6420921592799 1627.3413445162589 0 1627.3413445162589 -353.05276800623881 0 0 0 0 42.551048462850304 2414.1362315606275 0 2414.1362315606275 3201.4940277675892 0 0 0 0 2527.2079530070109 312.42882743241734 0 312.42882743241734 -383.58353850908952 0 0 0 0 1331.3687627568934 1371.8478845797852 0 1371.8478845797852 279.06904157917961 0 0 0 0 290.1569977489537 55.36885634514438 0 55.36885634514438 788.13707465571963 0 0 0 0 18.803857422650179 27.803097815049249 0 27.803097815049249 -0.9605974344802658 0 0 0 0 300.22663077301286 167.20984715119465 0 167.20984715119465 54.262977938557313 0 0 0 0 17.710013216362782 25.466279253411184 0 25.466279253411184 0.73803032934514934 0 0 0 0 28.778456351301429 29.930145453599618 0 29.930145453599618 16.301448213277858 0 0 0 0 2621.6274830713755 209.16391790767727 0 209.16391790767727 -439.40796097512356 0 0 0 0 84.161107211593844 0.819611858459524 0 0.819611858459524 21.486851317918507 0 0 0 0 87.411244462205104 2.4841571608362329 0 2.4841571608362329 -8.4667548782821882 0 0 0 0 29.781996412277294 30.682787264214994 0 30.682787264214994 18.959060335505598 0 0 0 0 203.59210405835984 -47.9466535828074 0 -47.9466535828074 3.284337663431188 0 0 0 0 40.34553789241636 -19.916240958910038 0 -19.916240958910038 37.596415580209452 0 0 0 0 64.063810340736381 81.781392173522363 0 81.781392173522363 106.86881352897746 0 0 0 0 25.712720896134638 12.133939789324131 0 12.133939789324131 0.27050516165534016 0 0 0 0 83.860891263292615 11.867906271487129 0 11.867906271487129 -19.721364638511716 0 0 0 0 1.9275144776517923 0.74724799068482284 0 0.74724799068482284 -0.41843998335176291 0 0 0 0 13.135685519180672 -3.155832244132629 0 -3.155832244132629 1.3092181569756476 0 0 0 0 8.9095734011571039 373.24968558576529 0 373.24968558576529 -1.2260255502224027 0 0 0 0 -297.00239760034128 25.597774809694783 0 25.597774809694783 -5.5918755009633969 0 0 0 0 -22.796372462787986 154.77193111660813 0 154.77193111660813 54.845648321248063 0 0 0 0 3.047460209860219 -38.753813692590754 0 -38.753813692590754 102.36867400253459 0 0 0 0 65.626567326571603 231.12933550605192 0 231.12933550605192 645.41280155812274 0 0 0 0 695.4055903067856 320.69682970350527 0 320.69682970350527 -28.711193282839304 0 0 0 0 562.43858308233393 -477.18233167386848 0 -477.18233167386848 -214.84987648250763 0 0 0 0 87.020598302475264 354.11535220380517 0 354.11535220380517 622.6675212095372 0 0 0 0 -282.00692272955166 -181.63794912536181 0 -181.63794912536181 61.013844613468564 0 0 0 0 9.0644424662779102 3.1062994215107969 0 3.1062994215107969 1.7858550342492392 0 0 0 0 624.59230365025269 -40.27786814435315 0 -40.27786814435315 -123.06046414644265 0 0 0 0 289.02028096590584 -220.17719587082431 0 -220.17719587082431 141.14342583476014 0 0 0 0 292.88284623135041 -9.8816704317441477 0 -9.8816704317441477 -80.573381135617907 0 0 0 0 258.2340329524568 0.75891552238655891 0 0.75891552238655891 -34.916712757521026 0 0 0 0 158.25460672101872 184.98188154634011 0 184.98188154634011 122.10047350059551 0 0 0 0 322.12959900133683 27.79797765040977 0 27.79797765040977 -55.48813521527552 0 0 0 0 294.35640872039903 21.21222819713963 0 21.21222819713963 -56.928963633358649 0 0 0 0 264.52419410614311 34.545844710118146 0 34.545844710118146 -2.1806782706342265 0 0 0 0 242.48660315820052 -2.9552840900945867 0 -2.9552840900945867 -35.792561767887527 0 0 0 0 71.031003709214772 -29.631573491838253 0 -29.631573491838253 -18.565767431493441 0 0 0 0 183.44959229988905 -18.775287821046732 0 -18.775287821046732 -37.481056916604757 0 0 0 0 92.708549790097265 -1.3177625271569013 0 -1.3177625271569013 8.7222155019589991 0 0 0 0 94.608229996523733 -4.7807865166250707 0 -4.7807865166250707 -12.245568471660725 0 0 0 0 17.999485184256599 -8.3851665818497061 0 -8.3851665818497061 2.2534996003659855 0 0 0 0 32.383517852031829 -29.975861178769328 0 -29.975861178769328 -14.562012684745426 0 0 0 0 265.35064755389567 -52.504494725795624 0 -52.504494725795624 22.041737320775283 0 0 0 0 209.23183949283703 -363.2528971435213 0 -363.2528971435213 337.41621369974746 0 0 0 0 -116.19704002049366 -75.616839878162068 0 -75.616839878162068 48.565164346580815 0 0 0 0 52.356042374437813 -73.216047884759647 0 -73.216047884759647 27.481899495231882 0 0 0 0 11.484817370494767 9.9540265534926213 0 9.9540265534926213 -13.31762378261773 0 0 0 0 144.15800588266575 115.59623945941848 0 115.59623945941848 -38.543868428532733 0 0 0 0 90.091034199191199 -165.45745200194142 0 -165.45745200194142 470.71568954804934 0 0 0 0 92.902861091456998 0.52689802697614141 0 0.52689802697614141 -37.894584569669405 0 0 0 0 92.247354125385201 2.0580806753755985 0 2.0580806753755985 -33.561082535558441 0 0 0 0 94.719433615034376 -24.873204757610551 0 -24.873204757610551 -36.925352857078906 0 0 0 0 56.64410073914992 -18.208197107607504 0 -18.208197107607504 -27.45876426707407 0 0 0 0 93.940904707385926 -181.57093890090255 0 -181.57093890090255 210.692090685121 0 0 0 0 87.435365512050339 -157.57580288208737 0 -157.57580288208737 159.22745236270202 0 0 0 0 54.618209109052259 -47.259751485406923 0 -47.259751485406923 150.58747574579684 0 0 0 0 109.71595124057785 -8.803123374180359 0 -8.803123374180359 -56.695931523823674 0 0 0 0 2.046791898231902 0.31320627183628602 0 0.31320627183628602 -7.6597318661093894 0 0 0 0 59.405745218286029 -73.758403216717397 0 -73.758403216717397 297.25396312972589 0 0 0 0 208.66270423196329 -178.20398618980835 0 -178.20398618980835 54.098291912454442 0 0 0 0 146.71952413586405 -162.06163007321265 0 -162.06163007321265 34.89841271230398 0 0 0 0 178.73569534529815 -224.59656565537807 0 -224.59656565537807 156.55790764110225 0 0 0 0 157.66686968399881 -151.67153027898075 0 -151.67153027898075 35.911139478306723 0 0 0 0 224.70038867004041 -140.49832658891637 0 -140.49832658891637 -135.23717701766145 0 0 0 0 254.27846047020284 -215.72866954240999 0 -215.72866954240999 16.863658385158487 0 0 0 0 201.37829321093159 -155.04745197330931 0 -155.04745197330931 -137.71792665488647 0 0 0 0 139.44987344804395 -91.19036096111904 0 -91.19036096111904 -147.78580139338555 0 0 0 0 72.202847239404946 -108.90452196692331 0 -108.90452196692331 31.036661315148194 0 0 0 0 68.249538668955211 16.834134646707525 0 16.834134646707525 -106.7418665999221 0 0 0 0 37.860091684004225 -64.003620305039945 0 -64.003620305039945 8.6331397468488262 0 0 0 0 432.86804604862118 63.329872687603711 0 63.329872687603711 -254.06652355873666 0 0 0 0 917.12047449839156 -208.94267348841186 0 -208.94267348841186 -325.06422996113906 0 0 0 0 377.87159984528262 -420.77523069952076 0 -420.77523069952076 332.13172977383601 0 0 0 0 2.3358995660837536 -80.221398994122637 0 -80.221398994122637 -32.788146265029354 0 0 0 0 94.037009233390563 -116.03466396819113 0 -116.03466396819113 -18.849209870253389 0 0 0 0 210.96165894195292 -152.34534705668375 0 -152.34534705668375 -249.41365891482292 0 0 0 0 132.02979687066545 -279.47568776918456 0 -279.47568776918456 -170.97661516623782 0 0 0 0 240.6380716439744 -108.11000070852754 0 -108.11000070852754 -95.701955069715495 0 0 0 0 134.29039211882628 -200.41332830323609 0 -200.41332830323609 21.265711958719066 0 0 0 0 53.221001688849356 -188.24379415574185 0 -188.24379415574185 20.464407244516678 0 0 0 0 99.79243168294488 -135.9110931002308 0 -135.9110931002308 -95.413586721931892 0 0 0 0 122.18025500804288 -319.03663998907632 0 -319.03663998907632 53.05460471983497 0 0 0 0 -18.487286361225415 -150.36476720705878 0 -150.36476720705878 254.31489280046662 0 0 0 0 53.056764264587514 -203.94932868510006 0 -203.94932868510006 165.63753797168101 0 0 0 0 0.47026169849846156 -18.419080244877112 0 -18.419080244877112 0.95074423586519186 0 0 0 0 32.548720497597969 -101.06342360565122 0 -101.06342360565122 146.903494546611 0 0 0 0 -170.33027779190161 -470.7404129059405 0 -470.7404129059405 196.66391163250614 0 0 0 0 -2.2613857173248562 -38.390794673882993 0 -38.390794673882993 -27.747868469666628 0 0 0 0 19.748361566058534 -6.5157425701903904 0 -6.5157425701903904 -0.34485678516100071 0 0 0 0 9.8770664607982326 -24.295312664482481 0 -24.295312664482481 -109.68361747840981 0 0 0 0 1.7902780654894173 -2.5391720951372747 0 -2.5391720951372747 4.9037672691585676 0 0 0 0 8.5961606517157634 -36.413767854432081 0 -36.413767854432081 13.134648029267055 0 0 0 0 24.876380722176691 -26.95596473471187 0 -26.95596473471187 -38.287039683157673 0 0 0 0 -3.698469781804306 -19.80369859777727 0 -19.80369859777727 -5.3453085166213441 0 0 0 0 26.615559920668602 -71.156085662338683 0 -71.156085662338683 13.200634499009993 0 0 0 0 -5.3611932911771873 -90.941114006792077 0 -90.941114006792077 20.775803621112573 0 0 0 0 1.8774371484906709 -29.272797570899996 0 -29.272797570899996 -3.3204776169159516 0 0 0 0 -180.39043352808585 -344.11102310827982 0 -344.11102310827982 -155.7670302906613 0 0 0 0 74.784877331190884 -8.0274261877045276 0 -8.0274261877045276 -10.151063844698799 0 0 0 0 294.68570451086271 -115.19649132467748 0 -115.19649132467748 -452.026548828675 0 0 0 0 49.774201042290635 -54.139914599665083 0 -54.139914599665083 -21.750680880790746 0 0 0 0 199.45972620784596 307.28125676872423 0 307.28125676872423 -53.930633267390476 0 0 0 0 73.119694071774575 -61.287106316630343 0 -61.287106316630343 -235.62638852451528 0 0 0 0 48.904402074993413 -13.898358716795656 0 -13.898358716795656 -9.8949163018023683 0 0 0 0 52.735375535250569 -4.5075114383510027 0 -4.5075114383510027 -20.851386947274015 0 0 0 0 29.296862795249535 2.2533545867681717 0 2.2533545867681717 -9.1467223316840105 0 0 0 0 19.121544482546479 -15.410235053189965 0 -15.410235053189965 -5.4716703899451549 0 0 0 0 50.236017934490519 -27.589729821449964 0 -27.589729821449964 -27.465865658939947 0 0 0 0 37.225217130431702 -45.310118514960777 0 -45.310118514960777 -12.199410883227756 0 0 0 0 1.6959452200244414 -24.2007858979714 0 -24.2007858979714 -10.403491845067038 0 0 0 0 0.2652920710224862 -2.9081117770106459 0 -2.9081117770106459 -35.280039978835703 0 0 0 0 23.109411582297376 -18.613844396286733 0 -18.613844396286733 -23.13664019516359 0 0 0 0 -1.8149351328774017 -3.5488975151312694 0 -3.5488975151312694 -6.238441037973721 0 0 0 0 30.064022385708085 14.49846922213348 0 14.49846922213348 4.3724667951383971 0 0 0 0 32.443651203117042 -18.362441874898877 0 -18.362441874898877 3.5506677933222655 0 0 0 0 9.235142681673608 -12.461884482009857 0 -12.461884482009857 6.2106101506261293 0 0 0 0 -17.804830927011608 -54.007849390348355 0 -54.007849390348355 13.419529670306019 0 0 0 0 12.465144500406666 9.2983921215808181 0 9.2983921215808181 -4.9448389860430861 0 0 0 0 -3.1416041013799259 -54.78172973316498 0 -54.78172973316498 -25.891083215327853 0 0 0 0 -33.103742479812354 -60.192650153933755 0 -60.192650153933755 -18.740537579429201 0 0 0 0 -27.012688759721641 -78.934636249110099 0 -78.934636249110099 -31.206304672227873 0 0 0 0 -24.525660215761775 -33.435497070542809 0 -33.435497070542809 -18.336459815833848 0 0 0 0 -8.990869935336832 -61.804789255179784 0 -61.804789255179784 -35.888736364194074 0 0 0 0 -0.24362977807868447 -58.748778752056921 0 -58.748778752056921 -36.962960007069796 0 0 0 0 -9.5382997346314369 -60.042523012519382 0 -60.042523012519382 29.790517702983152 0 0 0 0 5.4793151269404916 -66.04735024956517 0 -66.04735024956517 -32.8940489173076 0 0 0 0 194.0585784926152 122.04478472209939 0 122.04478472209939 87.998527883610222 0 0 0 0 130.14857792243129 104.25928878510422 0 104.25928878510422 6.2738526734042352 0 0 0 0 272.12322991303517 287.39298891381259 0 287.39298891381259 388.89088844518847 0 0 0 0 424.63764383358648 332.5295360206801 0 332.5295360206801 74.4928923001371 0 0 0 0 112.06574024108704 46.856852460618029 0 46.856852460618029 208.93021409787889 0 0 0 0 9.828323241442078 -1.8792920124560482 0 -1.8792920124560482 -7.8955139305502833 0 0 0 0 285.28395053190252 42.29392582734738 0 42.29392582734738 75.73366552531661 0 0 0 0 81.521001379122026 147.89984509449687 0 147.89984509449687 60.484241505524551 0 0 0 0 135.8632233414537 85.915256020160086 0 85.915256020160086 68.738586271673512 0 0 0 0 -212.01549482217524 21.267504582105175 0 21.267504582105175 169.05407660143692 0 0 0 0 -24.789266448264243 264.03116808378127 0 264.03116808378127 96.018569278347968 0 0 0 0 -32.866874753250158 166.50353022626223 0 166.50353022626223 131.61874319295384 0 0 0 0 168.98963931725302 279.35740757615986 0 279.35740757615986 59.706698529922505 0 0 0 0 202.92153664875786 436.35978229386598 0 436.35978229386598 226.40669662040546 0 0 0 0 231.67138837713537 262.70080192501325 0 262.70080192501325 17.175291118357563 0 0 0 0 -409.86663639985636 279.22426905841394 0 279.22426905841394 351.21859157422796 0 0 0 0 223.72732715435268 748.88894943631885 0 748.88894943631885 434.54004668620564 0 0 0 0 -129.29427937274158 -33.195111258785346 0 -33.195111258785346 34.35595575986099 0 0 0 0 -71.547140986644081 -101.12425199983409 0 -101.12425199983409 -36.080028537567159 0 0 0 0 -11.271067145251436 -65.316148856573818 0 -65.316148856573818 -41.198787998879197 0 0 0 0 -34.907242457979009 0.22629985817457055 0 0.22629985817457055 9.3590937367571314 0 0 0 0 27.169763145509933 -47.352291121702365 0 -47.352291121702365 -37.705694320022786 0 0 0 0 24.660485896308174 -18.209635693881104 0 -18.209635693881104 1.8255457459706275 0 0 0 0 -1.4433063202922511 -9.8637634881153673 0 -9.8637634881153673 5.9058391485157671 0 0 0 0 119.99928297816587 -527.0237653145482 0 -527.0237653145482 896.76469794629111 0 0 0 0 416.94289242754166 182.76417117538222 0 182.76417117538222 -36.117163521186058 0 0 0 0 15.868357898686185 -1.5932963401240965 0 -1.5932963401240965 -0.011589740142345373 0 0 0 0 -14.588473274023272 47.880953358418083 0 47.880953358418083 23.235289009400731 0 0 0 0 824.68830769826309 108.82445433291423 0 108.82445433291423 -117.06284962469317 0 0 0 0 1132.0739031695848 -708.58958106421755 0 -708.58958106421755 242.17645117575853 0 0 0 0 992.32497124232032 590.47179223598414 0 590.47179223598414 16.066121531132922 0 0 0 0 1156.4560495909654 -157.90787013743534 0 -157.90787013743534 -147.65354030863091 0 0 0 0 342.94606294621917 299.11750236139414 0 299.11750236139414 -56.631894961615217 0 0 0 0 368.96276645232138 -178.71000768989325 0 -178.71000768989325 -123.2291707655163 0 0 0 0 -89.981096097886621 105.97103499425202 0 105.97103499425202 20.805597758468139 0 0 0 0 -257.74749118804903 -498.59750442389031 0 -498.59750442389031 -53.335934152240952 0 0 0 0 11.361610226574868 -7.6795221022441211 0 -7.6795221022441211 4.916035539416356 0 0 0 0 -92.18079285226122 -553.15010375064139 0 -553.15010375064139 -151.78458137761601 0 0 0 0 1054.4816066483463 219.41926844886592 0 219.41926844886592 99.586047077339117 0 0 0 0 88.613263952211128 -185.32342009787226 0 -185.32342009787226 212.11739802364536 0 0 0 0 759.74486181792236 -1098.0446889232226 0 -1098.0446889232226 843.21142227389646 0 0 0 0 1856.7019201556395 -943.5319124437774 0 -943.5319124437774 -154.78848742727303 0 0 0 0 -1376.7752768524806 58.034198056355308 0 58.034198056355308 1559.5367932512863 0 0 0 0 284.90767472225707 -519.42266024182436 0 -519.42266024182436 -265.08584773497387 0 0 0 0 47.105482165385013 0.61530735343493781 0 0.61530735343493781 -0.42032223082966835 0 0 0 0 34.601983966338594 -29.919344754527629 0 -29.919344754527629 -91.455755957015526 0 0 0 0 13.804274038309813 -31.869217320202893 0 -31.869217320202893 -19.793578902483659 0 0 0 0 58.768758404250548 -0.2014652169400506 0 -0.2014652169400506 -57.203881012376314 0 0 0 0 1.7279837025562301 -57.498012317234497 0 -57.498012317234497 -70.77166386940894 0 0 0 0 -50.532533162688196 -64.472716296020735 0 -64.472716296020735 2.0674236381082665 0 0 0 0 -19.682788164780504 -25.400234757182773 0 -25.400234757182773 15.693276735479685 0 0 0 0 -192.57949462559191 -11.391322738725194 0 -11.391322738725194 65.886296495506258 0 0 0 0 39.99926362514816 -23.507194790577842 0 -23.507194790577842 -17.167425363385064 0 0 0 0 -12.489640357132885 -10.43075601026294 0 -10.43075601026294 9.7626868443344392 0 0 0 0 28.959621452628198 -8.0875766549011132 0 -8.0875766549011132 24.12561490506414 0 0 0 0 52.445091132583912 -8.8743468732131987 0 -8.8743468732131987 8.3683883096782665 0 0 0 0 197.97551788896089 73.022505786418151 0 73.022505786418151 41.110567115855702 0 0 0 0 -16.096369707534905 54.639358915801495 0 54.639358915801495 89.954975819620586 0 0 0 0 405.91008996892197 -46.152773930511103 0 -46.152773930511103 -66.982543949881801 0 0 0 0 700.26943395283888 1308.6275514398415 0 1308.6275514398415 712.86948412820016 0 0 0 0 -1.7650140306851085 -2.5416525298909178 0 -2.5416525298909178 -5.6949456731014285 0 0 0 0 1279.6805261470636 421.73393607352273 0 421.73393607352273 -442.79352100775759 0 0 0 0 1094.0280209201883 -251.89379202230066 0 -251.89379202230066 -802.49568485921554 0 0 0 0 -55.054553241126996 -329.99782559828918 0 -329.99782559828918 -247.98602043588062 0 0 0 0 576.49522229910281 3.704329965395857 0 3.704329965395857 -120.66018480248931 0 0 0 0 727.71807544512558 209.27005515305518 0 209.27005515305518 -486.62103823420421 0 0 0 0 574.32153610442788 65.876378810917913 0 65.876378810917913 -134.61037852671507 0 0 0 0 479.33845541317714 89.687515035669776 0 89.687515035669776 -129.92872271274518 0 0 0 0 533.18822707856452 27.731484010884287 0 27.731484010884287 -117.92450024729442 0 0 0 0 548.24518641925533 -440.03592580364443 0 -440.03592580364443 118.89023671641189 0 0 0 0 601.6641179191065 218.82767700315935 0 218.82767700315935 -111.81204924757819 0 0 0 0 617.23500512870669 186.56703154658408 0 186.56703154658408 -63.30745354802184 0 0 0 0 796.11111061713564 459.6831804693075 0 459.6831804693075 76.206626581690216 0 0 0 0 776.79219728027238 724.80434077243262 0 724.80434077243262 -282.3310186728595 0 0 0 0 555.00446621704032 -248.48797068122758 0 -248.48797068122758 -2011.7466137510892 0 0 0 0 5.6138984813582624 -8.6512868135980838 0 -8.6512868135980838 2.7924294478628093 0 0 0 0 -126.58511830351199 196.18151699766076 0 196.18151699766076 995.92506777537778 0 0 0 0 311.13565608562203 365.3158430395797 0 365.3158430395797 480.50540680977065 0 0 0 0 -0.23183336416011002 -6.0262675478922771 0 -6.0262675478922771 -0.42659120576164716 0 0 0 0 1069.7176048898546 603.91297485496466 0 603.91297485496466 -346.24935721288875 0 0 0 0 -37.850136769120581 -197.49500984592942 0 -197.49500984592942 175.56246539921221 0 0 0 0 117.84204407501602 -456.46407656602025 0 -456.46407656602025 -526.2922042279954 0 0 0 0 -659.50778476127016 -661.25308198576602 0 -661.25308198576602 631.32190854977011 0 0 0 0 405.59395789827977 -132.20786700121903 0 -132.20786700121903 -90.793412950049969 0 0 0 0 464.16950271025416 -67.760645390144418 0 -67.760645390144418 -149.48595558137094 0 0 0 0 -221.13976064598683 -109.2127519042574 0 -109.2127519042574 706.91484107346469 0 0 0 0 659.48292398224294 -45.27244329433006 0 -45.27244329433006 -149.64489608598046 0 0 0 0 522.34157104141559 -213.74350210729381 0 -213.74350210729381 -106.4570067172881 0 0 0 0 801.11882754573344 -89.253343054794868 0 -89.253343054794868 -362.47857262840898 0 0 0 0 506.5479890625902 -574.54649662055749 0 -574.54649662055749 138.22306380790542 0 0 0 0 6.1715821627815615 6.7800574243972385 0 6.7800574243972385 -4.1622983373996076 0 0 0 0 407.09877230544953 -301.68499639224228 0 -301.68499639224228 -417.41587932782659 0 0 0 0 -196.97458168190497 268.77115936963946 0 268.77115936963946 -490.66950211373205 0 0 0 0 -5.033706995599502 -18.545689627644407 0 -18.545689627644407 -21.75650751767558 0 0 0 0 -149.86418986468925 68.458595222132317 0 68.458595222132317 79.532055477410722 0 0 0 0 92.433939227286828 -25.754569071090849 0 -25.754569071090849 -315.38315730321051 0 0 0 0 76.500056365563069 -79.486928893810727 0 -79.486928893810727 -122.57987381879047 0 0 0 0 85.424217355059227 -100.5060581407306 0 -100.5060581407306 -286.60344918895589 0 0 0 0 69.278538820809857 -9.0431509730851225 0 -9.0431509730851225 -9.3205229657176059 0 0 0 0 119.99496947988642 -37.98302410279075 0 -37.98302410279075 -44.406593457232248 0 0 0 0 235.44948444693 -40.967455317922486 0 -40.967455317922486 -118.09025473472445 0 0 0 0 51.362795196147999 -13.434134726505249 0 -13.434134726505249 -51.188833216404646 0 0 0 0 49.3251175058831 -14.816638925016377 0 -14.816638925016377 -48.392439058713535 0 0 0 0 67.90886061972374 -6.2708752492101958 0 -6.2708752492101958 -15.455799534078338 0 0 0 0 51.30467069216138 -4.848723134910415 0 -4.848723134910415 -25.900640159259638 0 0 0 0 57.906125991409169 1.8177439394938339 0 1.8177439394938339 -12.283900440012815 0 0 0 0 -10.186196722250315 39.174576760023228 0 39.174576760023228 17.430227660577657 0 0 0 0 46.09690415588976 3.8183532855747089 0 3.8183532855747089 -16.532795913975118 0 0 0 0 55.858467740144533 -15.391750137568124 0 -15.391750137568124 -70.761519612649863 0 0 0 0 8.2845885949149363 -2.967659488635249 0 -2.967659488635249 -2.7849759447945779 0 0 0 0 65.700804021087293 -1.4087362358500926 0 -1.4087362358500926 -3.2524419938951716 0 0 0 0 94.743059104799244 -39.949295446837965 0 -39.949295446837965 -17.601596428549652 0 0 0 0 46.113858375752216 -0.56774519190048522 0 -0.56774519190048522 -40.51665270166086 0 0 0 0 153.93380915885609 19.04721555192009 0 19.04721555192009 -179.36280360379351 0 0 0 0 57.010742645743164 -12.484272650806293 0 -12.484272650806293 -14.476410138948612 0 0 0 0 65.717119704229361 -21.762106144911968 0 -21.762106144911968 -29.835063778516997 0 0 0 0 -5.9127850448214279 14.290348891427755 0 14.290348891427755 -10.133767181868841 0 0 0 0 150.35319257131971 -90.445037434617007 0 -90.445037434617007 19.619565286485113 0 0 0 0 34.104187641546524 -19.354937187481305 0 -19.354937187481305 -14.803386803442045 0 0 0 0 19.383214981104175 -84.443152887309225 0 -84.443152887309225 -110.341137979005 0 0 0 0 66.292188673754936 17.268061999457132 0 17.268061999457132 -94.795129600875953 0 0 0 0 65.474830218355237 9.9062800202336803 0 9.9062800202336803 -32.897692744805681 0 0 0 0 11.683150589611614 56.69242113180735 0 56.69242113180735 69.024178301628126 0 0 0 0 83.885812030268085 -103.63203515990108 0 -103.63203515990108 -5.747875088800356 0 0 0 0 112.40633565252028 -16.612435150149395 0 -16.612435150149395 21.316869521637273 0 0 0 0 42.268819493664282 -16.105790609752468 0 -16.105790609752468 4.9487602609642458 0 0 0 0 -7.3355538848132662 -10.370314567239426 0 -10.370314567239426 7.3769167109046059 0 0 0 0 56.69701352908487 -74.396648699029356 0 -74.396648699029356 -129.19526655336813 0 0 0 0 56.411945634106814 -86.170010810505119 0 -86.170010810505119 -123.69279884115167 0 0 0 0 29.103391499726825 -60.036817665918882 0 -60.036817665918882 7.1104525662764075 0 0 0 0 60.390238707168464 -86.962750737988245 0 -86.962750737988245 -144.82962482229414 0 0 0 0 13.628223424429507 -42.847269149773638 0 -42.847269149773638 -108.29337942516577 0 0 0 0 41.566249466903145 -20.283340233416222 0 -20.283340233416222 1.1635784000224589 0 0 0 0 27.506352726514322 2.1351115130241922 0 2.1351115130241922 -6.6736631268794255 0 0 0 0 62.806769633329168 -10.574747687593117 0 -10.574747687593117 -26.352480948075026 0 0 0 0 48.872642002524259 -16.707813581328082 0 -16.707813581328082 -66.633844722324284 0 0 0 0 85.044464631719165 -66.305550298038725 0 -66.305550298038725 -60.100678676950338 0 0 0 0 42.879766675882273 -16.696187697487467 0 -16.696187697487467 6.0215406494099177 0 0 0 0 118.31840462885884 -74.106558843188395 0 -74.106558843188395 -78.186281868944178 0 0 0 0 60.353434323735236 -5.1952659091760625 0 -5.1952659091760625 -4.6392451285913356 0 0 0 0 -71.514530890042806 -49.360415176112383 0 -49.360415176112383 -77.659157147122642 0 0 0 0 187.07469537229917 -56.445491569123078 0 -56.445491569123078 -90.61720336999133 0 0 0 0 164.54393070061633 -46.020951171138222 0 -46.020951171138222 -70.744159273974219 0 0 0 0 90.452655156535911 2.1447576215196023 0 2.1447576215196023 -3.0604451367726142 0 0 0 0 46.009072694314455 31.881747503526356 0 31.881747503526356 27.965047368528758 0 0 0 0 68.06306006925297 -31.085355206777422 0 -31.085355206777422 -45.728068838663603 0 0 0 0 8.8153034058923367 41.033418356102629 0 41.033418356102629 -130.20312179523171 0 0 0 0 53.600459402986473 6.6603535482370138 0 6.6603535482370138 -11.295002350583822 0 0 0 0 25.636826287547592 -0.45846002981124911 0 -0.45846002981124911 -47.701990926914732 0 0 0 0 55.233729524307975 -7.0577262077305392 0 -7.0577262077305392 0.61066187337311284 0 0 0 0 43.928408857013771 19.647237936600508 0 19.647237936600508 -15.231545548301732 0 0 0 0 25.893464814676591 -5.8655605523892707 0 -5.8655605523892707 0.83787594848100611 0 0 0 0 4.3485229061175232 76.23377283235061 0 76.23377283235061 -29.460103935590269 0 0 0 0 114.37398369538641 99.516962717090792 0 99.516962717090792 74.144483207640405 0 0 0 0 40.633461284091027 -11.210101917276461 0 -11.210101917276461 -128.32491741347667 0 0 0 0 2.87028458639044 2.3291621297698413 0 2.3291621297698413 -1.5813425233662457 0 0 0 0 -134.17877016485727 454.1140220390439 0 454.1140220390439 411.25063570869497 0 0 0 0 9.5622646266090356 0.11549064757007343 0 0.11549064757007343 -0.47864584537380672 0 0 0 0 212.89991646380804 -169.13125484668444 0 -169.13125484668444 -13.253396085500754 0 0 0 0 178.5035029372375 -103.71202881564022 0 -103.71202881564022 -97.265915149961074 0 0 0 0 210.07777651622018 -81.527876608045517 0 -81.527876608045517 -99.905151391281379 0 0 0 0 250.06525932441582 31.694895963093586 0 31.694895963093586 -65.565829245345867 0 0 0 0 260.07155134613276 -44.940388455554512 0 -44.940388455554512 -97.098660293370358 0 0 0 0 8.2787284427176928 -23.918275290277961 0 -23.918275290277961 -56.300226358282089 0 0 0 0 68.672022644997924 -138.4408407804799 0 -138.4408407804799 -1.0134995301123126 0 0 0 0 6.2410658258522744 55.74376780985375 0 55.74376780985375 -2.9845129320492561 0 0 0 0 311.68064815877005 -161.07042818929312 0 -161.07042818929312 -98.847195330717113 0 0 0 0 260.79316553300305 -65.007468982685623 0 -65.007468982685623 -68.883073682849499 0 0 0 0 21.696612095624005 -23.846353740781979 0 -23.846353740781979 -31.241672954270541 0 0 0 0 28.771068527385069 -4.2095831520018692 0 -4.2095831520018692 36.996526791583165 0 0 0 0 13.54233708670472 38.196861182417024 0 38.196861182417024 -39.745141240719022 0 0 0 0 50.339199813497544 -2.3981398778839775 0 -2.3981398778839775 -28.119080783619665 0 0 0 0 51.168677224697603 6.8217133017926699 0 6.8217133017926699 -20.620068723258782 0 0 0 0 75.0016434451245 6.3937316921726506 0 6.3937316921726506 -19.83154360261824 0 0 0 0 69.650745637958607 -6.3416936006757396 0 -6.3416936006757396 -16.206006820075345 0 0 0 0 84.586447409259563 -5.812969566551601 0 -5.812969566551601 -25.460134142124389 0 0 0 0 68.303588923365169 6.7429075642935459 0 6.7429075642935459 -38.81909450731564 0 0 0 0 70.138027426510234 5.119204911189172 0 5.119204911189172 -31.19427184691358 0 0 0 0 65.826012697943952 -3.4779458740449627 0 -3.4779458740449627 -28.762224621679707 0 0 0 0 86.488028156803921 -7.0769782641950769 0 -7.0769782641950769 -34.582106744967632 0 0 0 0 89.802821749461145 5.8682747287618895 0 5.8682747287618895 5.3143101873138221 0 0 0 0 19.276071301992488 -1.007627354356373 0 -1.007627354356373 -17.094087728574777 0 0 0 0 39.874282923312421 13.818940449735464 0 13.818940449735464 -29.710722187354349 0 0 0 0 37.945655832363627 -3.5826587238261709 0 -3.5826587238261709 0.40700434452719492 0 0 0 0 70.107196646806187 22.321229843712899 0 22.321229843712899 -41.471665080397543 0 0 0 0 39.349104043250534 -4.1226104633247482 0 -4.1226104633247482 -3.8703728522510401 0 0 0 0 47.999450306216843 -0.49608825318260585 0 -0.49608825318260585 -0.62160450804608391 0 0 0 0 28.421486901739385 6.6766631111449577 0 6.6766631111449577 -11.602459847752568 0 0 0 0 8.6270167697575317 3.639042153700375 0 3.639042153700375 -3.508866147170874 0 0 0 0 30.004200922718155 -7.2960114241304836 0 -7.2960114241304836 -34.619986410263664 0 0 0 0 35.533620801284286 -7.6175258803213062 0 -7.6175258803213062 0.17395062205640954 0 0 0 0 68.731653604954772 98.076504219139679 0 98.076504219139679 14.765423913718251 0 0 0 0 85.602598682118696 15.666438162610575 0 15.666438162610575 12.718616349565195 0 0 0 0 -16.656453387495276 89.551047352370006 0 89.551047352370006 -54.710286805246142 0 0 0 0 17.819338910485385 -62.968690257999697 0 -62.968690257999697 -2.8750074672279879 0 0 0 0 56.50865289929731 43.185274164509835 0 43.185274164509835 -21.648068720447416 0 0 0 0 8.6523567978604632 -2.9498663312358246 0 -2.9498663312358246 -2.1144565459705547 0 0 0 0 123.4078542762436 71.463950568830114 0 71.463950568830114 -81.660974421007268 0 0 0 0 8.6435499150247779 32.659018401928734 0 32.659018401928734 34.739204585594052 0 0 0 0 20.964989613376055 -8.6113714633118352 0 -8.6113714633118352 3.1796460247866705 0 0 0 0 36.04091164271972 -9.0360072963443372 0 -9.0360072963443372 5.2151867470765865 0 0 0 0 -87.849898325614049 -14.010978597012581 0 -14.010978597012581 74.490848702691437 0 0 0 0 -132.57789697535145 209.90225798552456 0 209.90225798552456 76.808503180789558 0 0 0 0 30.604155392560816 -9.8190584907612593 0 -9.8190584907612593 5.7670164406308224 0 0 0 0 155.528753294122 -41.419091360374296 0 -41.419091360374296 -44.672030834655743 0 0 0 0 40.357800507916181 5.6995264575161855 0 5.6995264575161855 7.1738683327612307 0 0 0 0 114.60416847652778 47.042200882169709 0 47.042200882169709 -54.385228017783447 0 0 0 0 13.120506053281117 1.283090783381434 0 1.283090783381434 1.7178563339366626 0 0 0 0 265.919975602661 21.772176095104442 0 21.772176095104442 -38.863420999935443 0 0 0 0 235.16657671493522 -182.59449294274782 0 -182.59449294274782 -50.073334408942173 0 0 0 0 298.80010850251438 -68.012819760888306 0 -68.012819760888306 67.544449020591856 0 0 0 0 589.52818568185103 -31.85507748033433 0 -31.85507748033433 -38.38238109858321 0 0 0 0 351.24660969505567 297.47036785033379 0 297.47036785033379 190.24597862032533 0 0 0 0 -0.78008156220741398 -0.36287629890119089 0 -0.36287629890119089 1.1522460509461041 0 0 0 0 20.612924374936483 -24.549106384962215 0 -24.549106384962215 42.401254384955337 0 0 0 0 83.365806477515434 70.728883380023035 0 70.728883380023035 183.23593344337417 0 0 0 0 183.7753564310924 -19.878232049167764 0 -19.878232049167764 -171.85683601180062 0 0 0 0 360.85506343756788 136.54671241271717 0 136.54671241271717 -46.474925797923788 0 0 0 0 133.1263666807863 -10.851157403256366 0 -10.851157403256366 -237.4447680351459 0 0 0 0 126.14452675104621 1.8160824595051963 0 1.8160824595051963 38.780643310848973 0 0 0 0 204.4517926462081 129.21419686543322 0 129.21419686543322 -130.27925973426318 0 0 0 0 -3.5876092130434216 8.9401198783633404 0 8.9401198783633404 -2.7869401000024538 0 0 0 0 140.44910402198366 8.0587621550585027 0 8.0587621550585027 -23.670511359656302 0 0 0 0 7.1653606248799875 8.8686462587349393 0 8.8686462587349393 -6.9194477657746258 0 0 0 0 218.32163106284679 50.621225323921863 0 50.621225323921863 -184.30483994720271 0 0 0 0 -46.677473608684522 -149.54660531148966 0 -149.54660531148966 -94.062421721069313 0 0 0 0 159.14868274878063 36.569473057002142 0 36.569473057002142 -17.639970304666349 0 0 0 0 267.90585895249933 -87.548271743009082 0 -87.548271743009082 -143.95137949411765 0 0 0 0 459.58038120297715 3.0575836643765797 0 3.0575836643765797 -90.314402186144434 0 0 0 0 258.00114886749634 30.872065160056763 0 30.872065160056763 14.366600969060528 0 0 0 0 -0.13385533896262203 2.4252762358378241 0 2.4252762358378241 0.97852236801250569 0 0 0 0 172.57337295049365 -4.8282512633304577 0 -4.8282512633304577 10.789993545557763 0 0 0 0 83.296336867148057 -36.034759801959808 0 -36.034759801959808 -56.195866113460397 0 0 0 0 35.8187821220465 0.21527282706972528 0 0.21527282706972528 -6.6986885754766803 0 0 0 0 198.00440660083223 6.1975324124023246 0 6.1975324124023246 -10.182742846920519 0 0 0 0 63.89579336971309 13.348646542470952 0 13.348646542470952 -19.943836188188488 0 0 0 0 136.04400222617005 37.505659247750373 0 37.505659247750373 -23.360714595860827 0 0 0 0 88.268601811616918 -6.2889218884917568 0 -6.2889218884917568 -28.393376876830644 0 0 0 0 103.17346564574109 4.4407132553837982 0 4.4407132553837982 -25.79816794781982 0 0 0 0 42.415341165526499 -22.748302484054335 0 -22.748302484054335 -20.543561122322444 0 0 0 0 90.11691776137377 3.1622846827342528 0 3.1622846827342528 -21.660633436474654 0 0 0 0 152.42618344711082 33.321680925412693 0 33.321680925412693 -20.9063337836551 0 0 0 0 188.51785296579328 20.339462511969032 0 20.339462511969032 -13.537882627692852 0 0 0 0 94.444229759386104 43.288403258277924 0 43.288403258277924 -15.271073197210477 0 0 0 0 146.3555989196866 12.602262659053849 0 12.602262659053849 1.9219300928207304 0 0 0 0 163.39103007133235 24.328443465425835 0 24.328443465425835 -19.766172413015738 0 0 0 0 170.94195367148495 10.856248585998856 0 10.856248585998856 -18.269620529126314 0 0 0 0 18.617947177988832 -26.368847829907942 0 -26.368847829907942 -14.43067153154583 0 0 0 0 175.9111367340156 11.178613918474184 0 11.178613918474184 -19.526187977265181 0 0 0 0 101.49541127364137 11.166409605671106 0 11.166409605671106 -8.8011752684901694 0 0 0 0 88.22902534385139 -7.3736292517365882 0 -7.3736292517365882 -7.9270315592348197 0 0 0 0 57.305519620385894 4.9990196525520787 0 4.9990196525520787 -2.2826552759768219 0 0 0 0 51.457348766190989 -11.593569942057115 0 -11.593569942057115 0.38539733331163006 0 0 0 0 27.331604279115709 2.2828913338584584 0 2.2828913338584584 -2.9571301003243207 0 0 0 0 40.657711419429688 -16.00638591155348 0 -16.00638591155348 -1.1996936942673528 0 0 0 0 68.902982111008896 -10.257426026719941 0 -10.257426026719941 -22.770925121185428 0 0 0 0 75.944396916915139 4.3902335822367604 0 4.3902335822367604 6.915445953895869 0 0 0 0 80.249714476558438 -11.652562803992396 0 -11.652562803992396 -4.8099192521167424 0 0 0 0 67.665664766798727 -7.121180357185267 0 -7.121180357185267 -8.1477434625567184 0 0 0 0 24.591609096382697 -26.679883151384381 0 -26.679883151384381 -9.314931217174653 0 0 0 0 92.383880854606105 11.240467604593505 0 11.240467604593505 -9.5792287930300972 0 0 0 0 73.754879733794951 5.4637188178044198 0 5.4637188178044198 -4.7337189569378779 0 0 0 0 89.048713938806031 3.7836510340280256 0 3.7836510340280256 -11.514781401324854 0 0 0 0 72.75060444855626 0.91173049007034024 0 0.91173049007034024 -7.9622757351775135 0 0 0 0 59.704265035732533 1.1635338935307118 0 1.1635338935307118 -7.1951920276255805 0 0 0 0 56.943732715182705 3.7477974331599171 0 3.7477974331599171 -9.57701557071141 0 0 0 0 63.7917215892885 3.3398485125933348 0 3.3398485125933348 -17.91106137365523 0 0 0 0 70.430412379137124 -3.0961267060629325 0 -3.0961267060629325 -11.817943561330139 0 0 0 0 122.91895051853498 195.47016096949301 0 195.47016096949301 -750.3970554224793 0 0 0 0 24.684948468173388 466.9392152642049 0 466.9392152642049 -616.73815227333034 0 0 0 0 62.660961641111982 4.7136281965508626 0 4.7136281965508626 -2.612836263766229 0 0 0 0 -222.59330567752477 730.32812659312367 0 730.32812659312367 -383.40681328120445 0 0 0 0 -61.389328193501569 -171.45673577878551 0 -171.45673577878551 515.24932270204386 0 0 0 0 -1076.549362400714 930.00068996438904 0 930.00068996438904 458.53493426102978 0 0 0 0 -294.38485504646087 119.14412241203127 0 119.14412241203127 152.85727042933468 0 0 0 0 -37.082756829331629 165.1238285358595 0 165.1238285358595 -245.32450128544588 0 0 0 0 -67.165105336083798 188.98626162535493 0 188.98626162535493 -235.5295543040902 0 0 0 0 76.615231906296685 64.695103317990288 0 64.695103317990288 -601.50341397470402 0 0 0 0 -47.218283091235207 164.50268023689205 0 164.50268023689205 -205.84077425704891 0 0 0 0 -36.372325131605976 154.50984405241223 0 154.50984405241223 -222.87028475310581 0 0 0 0 -109.29683356103487 -64.594013130234543 0 -64.594013130234543 109.04996660036068 0 0 0 0 -72.39066837001883 10.68470276209564 0 10.68470276209564 -123.23908584832134 0 0 0 0 -16.82166740160028 -53.360012506790554 0 -53.360012506790554 -119.09948322733726 0 0 0 0 47.268085554678692 -189.51099615395833 0 -189.51099615395833 240.64234809599702 0 0 0 0 59.622993875964312 -156.92900356449263 0 -156.92900356449263 122.54608514256142 0 0 0 0 -174.08449484079028 -184.54275220623276 0 -184.54275220623276 -422.01140468396443 0 0 0 0 -55.768595070665469 -199.31309971945029 0 -199.31309971945029 -567.06765188085046 0 0 0 0 -117.13495462259743 -110.78393353840511 0 -110.78393353840511 -329.52880803747757 0 0 0 0 -169.96545295979013 0.69637041637633956 0 0.69637041637633956 -320.37205584444041 0 0 0 0 -55.768595070810989 -199.31309971916198 0 -199.31309971916198 -567.06765188058489 0 0 0 0 -55.768595070228912 -199.313099719413 0 -199.313099719413 -567.06765188084682 0 0 0 0 19.13544701889623 -164.53678149779807 0 -164.53678149779807 -603.49144923590211 0 0 0 0 38.2576798479422 -36.974878641005489 0 -36.974878641005489 -352.65448423021007 0 0 0 0 4.3578543427865952 -137.69045799779633 0 -137.69045799779633 -478.14847793046079 0 0 0 0 -13.301181602699216 -134.58338234734219 0 -134.58338234734219 -478.41191510646604 0 0 0 0 65.369734108098783 -102.36255214654375 0 -102.36255214654375 -605.38496904726935 0 0 0 0 36.925572441970871 -51.753796523705432 0 -51.753796523705432 -495.34009746442462 0 0 0 0 -24.268754894961603 -82.006690340514979 0 -82.006690340514979 -347.14728292746076 0 0 0 0 -63.494384764926508 -91.083339718078605 0 -91.083339718078605 -185.05095721045473 0 0 0 0 15.872950685065007 -73.164944819268385 0 -73.164944819268385 -347.6837668894882 0 0 0 0 15.104322533123195 -95.240522876670184 0 -95.240522876670184 -331.86098237878241 0 0 0 0 -43.639356970961671 -128.81491585513413 0 -128.81491585513413 14.393477256084225 0 0 0 0 -19.553539037093287 -99.29990247605474 0 -99.29990247605474 -183.61422029881396 0 0 0 0 -77.717996190389385 -36.943192709690265 0 -36.943192709690265 -50.796243433458585 0 0 0 0 1.4619711143022869 -60.693123125283819 0 -60.693123125283819 -84.315189980533432 0 0 0 0 -54.941097814400564 -38.697861295823714 0 -38.697861295823714 -92.459518482171916 0 0 0 0 -47.972595488303341 -112.69672844505567 0 -112.69672844505567 -163.53284725516824 0 0 0 0 -21.909416497452185 -59.099732026328638 0 -59.099732026328638 -314.20729186234757 0 0 0 0 42.017723885481246 -19.734836494567389 0 -19.734836494567389 -318.4047253719998 0 0 0 0 254.44697788062331 -60.401006020014847 0 -60.401006020014847 -398.30740477982454 0 0 0 0 34.798941088680294 -51.36329653459461 0 -51.36329653459461 -109.89043826385296 0 0 0 0 2.6706917244804345 -12.097869490657343 0 -12.097869490657343 -0.06379985031995794 0 0 0 0 79.61493680368585 94.126526859669411 0 94.126526859669411 -510.23396940101156 0 0 0 0 270.4483726896724 66.055515156521778 0 66.055515156521778 -130.61501977635362 0 0 0 0 235.63118790920544 66.966695794826194 0 66.966695794826194 -97.953195640156082 0 0 0 0 258.33236628815939 120.0793612786124 0 120.0793612786124 -29.398300121977627 0 0 0 0 215.62953674258097 48.006760383674759 0 48.006760383674759 -38.598066739115893 0 0 0 0 218.88722251418221 44.150409267873783 0 44.150409267873783 -51.12875980275885 0 0 0 0 124.95387984550325 -63.695502619916851 0 -63.695502619916851 10.15708419380735 0 0 0 0 140.71757592831091 -15.550225022238237 0 -15.550225022238237 -38.078637450329552 0 0 0 0 219.47811875857587 -11.765913164085759 0 -11.765913164085759 -129.73729285977595 0 0 0 0 690.98893984184451 -42.376227156292764 0 -42.376227156292764 -154.83409714892525 0 0 0 0 35.627209616664913 25.853456087822906 0 25.853456087822906 170.51023993765966 0 0 0 0 2.300376475444736 -3.0405891678492765 0 -3.0405891678492765 3.6797458099318465 0 0 0 0 678.71935713817948 220.44782344792998 0 220.44782344792998 111.88598506713515 0 0 0 0 240.07692172943098 -121.49386252030672 0 -121.49386252030672 272.38016046610119 0 0 0 0 48.210484702557267 -10.380208998569628 0 -10.380208998569628 -22.322147265159316 0 0 0 0 -73.41026523229084 4.7254442986782124 0 4.7254442986782124 -20.106384976099548 0 0 0 0 43.054975335748168 -75.758837821912948 0 -75.758837821912948 -69.002140010667176 0 0 0 0 23.863871720648604 -50.303667840217713 0 -50.303667840217713 -15.978724052394682 0 0 0 0 31.738963879761286 8.1006521268654978 0 8.1006521268654978 -35.235801720710697 0 0 0 0 7.8598031896365903 -0.073918035389567649 0 -0.073918035389567649 -0.13682231732799988 0 0 0 0 54.20880128899941 -49.91555655868941 0 -49.91555655868941 -21.486626088391198 0 0 0 0 171.40088305843528 5.4184608131263303 0 5.4184608131263303 -62.445434028800491 0 0 0 0 241.27981728881969 -118.90274318041494 0 -118.90274318041494 72.109563823646567 0 0 0 0 13.289502440135578 -10.79522652135654 0 -10.79522652135654 6.8640044294056004 0 0 0 0 109.27438140584854 116.52284207258822 0 116.52284207258822 28.651406728150505 0 0 0 0 238.87498003931603 186.00757101602059 0 186.00757101602059 32.477575315852846 0 0 0 0 563.41621449457307 186.51046819988596 0 186.51046819988596 -90.275331214922943 0 0 0 0 238.90503886603088 192.79671414516375 0 192.79671414516375 335.15717659706297 0 0 0 0 119.85994649722124 -155.6772092778665 0 -155.6772092778665 283.58997357400585 0 0 0 0 22.594677967819734 -23.362413210464183 0 -23.362413210464183 261.24531090752214 0 0 0 0 198.52092536386044 7.574664075941655 0 7.574664075941655 -90.745552400583392 0 0 0 0 381.31009089742292 -193.44059440449746 0 -193.44059440449746 68.218007261531966 0 0 0 0 19.743986649307772 -125.00526404462425 0 -125.00526404462425 90.577179817837532 0 0 0 0 6.5415019555803156 -30.861533368642995 0 -30.861533368642995 151.58111232036481 0 0 0 0 -16.701645966299111 -74.151808741312379 0 -74.151808741312379 84.987585859823639 0 0 0 0 -60.769835896178847 -127.42870451290696 0 -127.42870451290696 62.630438156678792 0 0 0 0 -45.609504378779093 -92.358284526939769 0 -92.358284526939769 146.00379674662145 0 0 0 0 -16.817806456951075 -37.639309356789454 0 -37.639309356789454 202.48459049726762 0 0 0 0 8.919567933990038 -72.284626636064786 0 -72.284626636064786 153.1584965699692 0 0 0 0 -31.059197942937317 -78.614525595695795 0 -78.614525595695795 174.10595916571583 0 0 0 0 143.91359118254331 -194.66460199386802 0 -194.66460199386802 94.685438960011368 0 0 0 0 118.08280571007344 -319.86170768396323 0 -319.86170768396323 224.46730687236715 0 0 0 0 -33.540074098607874 -131.33124372507564 0 -131.33124372507564 144.15426734387802 0 0 0 0 1.114992718299618 -105.08522817195535 0 -105.08522817195535 25.948038269542849 0 0 0 0 -0.67604755241336534 -87.558475758447003 0 -87.558475758447003 132.36483944733573 0 0 0 0 88.729870836250484 -176.15948654360955 0 -176.15948654360955 139.47040030846495 0 0 0 0 212.22431300488824 -137.38136204248167 0 -137.38136204248167 76.642425986479793 0 0 0 0 209.5132027787181 -104.29598220087119 0 -104.29598220087119 14.108662852067937 0 0 0 0 104.36681336896021 -75.427994683654887 0 -75.427994683654887 129.99964419108892 0 0 0 0 104.39739689650014 -88.140026753219445 0 -88.140026753219445 54.320181681554004 0 0 0 0 156.95552705251612 -37.808854815794348 0 -37.808854815794348 34.131329130116683 0 0 0 0 200.40081506883871 -67.445383338647616 0 -67.445383338647616 24.235334067845997 0 0 0 0 156.67054350907483 -41.559979375215619 0 -41.559979375215619 9.170772708979257 0 0 0 0 21.442422621191326 -10.761017889544689 0 -10.761017889544689 152.5625008305642 0 0 0 0 64.948158665851224 -3.8108554629288847 0 -3.8108554629288847 149.82093221076389 0 0 0 0 62.780854440061375 -23.308107894204795 0 -23.308107894204795 71.854197441118231 0 0 0 0 46.802437159298279 50.594036235866497 0 50.594036235866497 54.627038811375314 0 0 0 0 179.8848505497881 -22.004916387754065 0 -22.004916387754065 -18.627316911936759 0 0 0 0 -133.3937258333608 100.6966415986972 0 100.6966415986972 612.78037901748394 0 0 0 0 141.53669029174489 18.872180077274379 0 18.872180077274379 -49.376587368734818 0 0 0 0 150.82446547150903 -22.727273559697664 0 -22.727273559697664 17.057200876120987 0 0 0 0 197.45803047682421 -39.471347383420493 0 -39.471347383420493 -11.615007506286702 0 0 0 0 176.81434469286978 -44.744800376549776 0 -44.744800376549776 6.9449357857151881 0 0 0 0 175.02817008917918 -27.875557985205205 0 -27.875557985205205 -21.872941967376846 0 0 0 0 179.39737780811993 -36.927120231789331 0 -36.927120231789331 -10.34647709132696 0 0 0 0 202.50914384052885 7.3507931416008887 0 7.3507931416008887 19.40477568485187 0 0 0 0 177.23937438173016 -37.588103638687244 0 -37.588103638687244 -7.6703360471033193 0 0 0 0 2.2371001420168994 -3.8003590823753086 0 -3.8003590823753086 6.7542475882701094 0 0 0 0 466.86256609502016 -7.2140550935390593 0 -7.2140550935390593 -108.05093259370982 0 0 0 0 277.97469643909426 7.7849728523356134 0 7.7849728523356134 -102.93476933118021 0 0 0 0 156.86865980826406 -103.46896658234476 0 -103.46896658234476 -35.476606519625534 0 0 0 0 252.53217246916029 -95.658904185160168 0 -95.658904185160168 -39.984923370003798 0 0 0 0 418.78008937043342 -238.9500537967009 0 -238.9500537967009 -40.308346072502957 0 0 0 0 94.36994535328995 -231.1943231280257 0 -231.1943231280257 152.82817241346714 0 0 0 0 4.3609307906465062 -3.5013438256030724 0 -3.5013438256030724 3.4173140291538697 0 0 0 0 -58.120872295417939 -94.822648975630329 0 -94.822648975630329 81.115799028825677 0 0 0 0 1177.9644857098756 450.73897964646807 0 450.73897964646807 -247.2807449076264 0 0 0 0 1405.5675524439575 173.29434090144099 0 173.29434090144099 -619.12881306203622 0 0 0 0 46.972792174536153 1.5163226910829053 0 1.5163226910829053 -1.1916701281043487 0 0 0 0 207.38711708030314 17.948765753276348 0 17.948765753276348 -14.802507236352085 0 0 0 0 19.240351630615059 -29.088722052692063 0 -29.088722052692063 -5.7676247938271965 0 0 0 0 -70.433120334608248 -41.264419558823228 0 -41.264419558823228 65.451463249470208 0 0 0 0 18.319937219665341 -37.960594031277964 0 -37.960594031277964 -9.5290083669226853 0 0 0 0 22.056907475252956 -41.909749119957006 0 -41.909749119957006 -42.998402013924704 0 0 0 0 256.3329168666678 3.4823653876783283 0 3.4823653876783283 -44.096560438908455 0 0 0 0 27.940217059435625 -70.435813089253827 0 -70.435813089253827 -12.468259874883413 0 0 0 0 59.652365284913685 -180.17362676568786 0 -180.17362676568786 46.87179634853976 0 0 0 0 257.40002683824423 -48.582367087034413 0 -48.582367087034413 -102.43554446397775 0 0 0 0 38.265895963876211 -70.535107185953265 0 -70.535107185953265 -8.4479044530196568 0 0 0 0 205.24427965455106 -99.868693501649886 0 -99.868693501649886 -28.883220164073975 0 0 0 0 251.81073476287565 -76.318099135243983 0 -76.318099135243983 -66.516059995526007 0 0 0 0 -118.15572002070257 -144.46510569899192 0 -144.46510569899192 113.08232341642542 0 0 0 0 152.4908055512351 -41.491670384957843 0 -41.491670384957843 19.534629467029959 0 0 0 0 220.34402675803722 -81.501859382339262 0 -81.501859382339262 7.6302238411437884 0 0 0 0 230.14321776138968 -91.230227166092845 0 -91.230227166092845 -85.930048395997801 0 0 0 0 205.02667851734441 -101.96016822488946 0 -101.96016822488946 -88.980335302704134 0 0 0 0 120.90359507786343 -31.454629023284724 0 -31.454629023284724 -64.152853641438924 0 0 0 0 213.23934156459291 -38.305838221601334 0 -38.305838221601334 -68.917278784885639 0 0 0 0 19.748318959027529 -12.818184401656254 0 -12.818184401656254 -40.84582281119765 0 0 0 0 205.11866779305274 -99.769852523732879 0 -99.769852523732879 -72.436847068964198 0 0 0 0 136.8634641188255 -119.15855337428457 0 -119.15855337428457 -23.015981526907126 0 0 0 0 100.73156275367364 -52.777939564832934 0 -52.777939564832934 -39.166416790147196 0 0 0 0 103.55500911927811 -97.109417488757259 0 -97.109417488757259 -35.623638276707425 0 0 0 0 -46.841690102475695 -25.899553950569498 0 -25.899553950569498 8.7190924651113164 0 0 0 0 8.2294451753841713 -87.213478575264162 0 -87.213478575264162 15.386381124806576 0 0 0 0 44.374633801053278 -113.7952575876534 0 -113.7952575876534 28.469116303401279 0 0 0 0 79.736891101289075 -187.9803722335721 0 -187.9803722335721 53.677740017978067 0 0 0 0 288.10802326007172 -140.18390651573628 0 -140.18390651573628 -84.334242088474639 0 0 0 0 158.30859529002919 -160.36180785027591 0 -160.36180785027591 -49.948414703042545 0 0 0 0 -78.358897090911341 -224.52940897863158 0 -224.52940897863158 125.59817076851141 0 0 0 0 526.47869740739952 -225.35062117136044 0 -225.35062117136044 -77.519960847246693 0 0 0 0 123.09415119007463 -454.39492206708519 0 -454.39492206708519 64.889741548878874 0 0 0 0 15.687755906952475 -27.884050143877118 0 -27.884050143877118 -7.0330517724033363 0 0 0 0 -36.632024102459425 -257.79247877885695 0 -257.79247877885695 94.296033696347877 0 0 0 0 157.10187806247268 109.89728284918419 0 109.89728284918419 -57.291929731710724 0 0 0 0 162.89498067091336 86.157768318964827 0 86.157768318964827 -85.435298985897589 0 0 0 0 8.8803762334864587 -265.05597337119207 0 -265.05597337119207 55.227334793077716 0 0 0 0 61.17738574690884 -239.04271393294766 0 -239.04271393294766 64.490988942097829 0 0 0 0 -36.656596857472323 -217.56519326399211 0 -217.56519326399211 108.65994126893747 0 0 0 0 98.692138617043383 -199.99139461689128 0 -199.99139461689128 59.834726468874578 0 0 0 0 25.145658182329498 -182.72765959943899 0 -182.72765959943899 108.93341057606449 0 0 0 0 -7.5324116872507147 -191.8270536597629 0 -191.8270536597629 113.12008335268638 0 0 0 0 -56.961925616487861 -136.01570620567509 0 -136.01570620567509 102.24156321500959 0 0 0 0 53.564419336855281 45.294563864909605 0 45.294563864909605 -132.45796102903387 0 0 0 0 26.348862156280184 -73.427407826376609 0 -73.427407826376609 -2.916701567242459 0 0 0 0 845.12906585627934 -99.659868903743359 0 -99.659868903743359 -65.107830697837926 0 0 0 0 241.64610419073142 4.9168536961292375 0 4.9168536961292375 -58.120182053407689 0 0 0 0 26.459160783400712 -0.20687906180205573 0 -0.20687906180205573 -0.94421504040458792 0 0 0 0 129.64271813979005 5.4275968293037238 0 5.4275968293037238 -45.610329704553209 0 0 0 0 -180.42237431471585 -370.51716499272015 0 -370.51716499272015 -601.69419143731375 0 0 0 0 52.750114768125059 -17.616527354059542 0 -17.616527354059542 -26.69215523523053 0 0 0 0 190.28657208452933 -215.74730208698321 0 -215.74730208698321 -1114.9446650529767 0 0 0 0 22.807573718104379 4.9761333021327516 0 4.9761333021327516 -4.893224613218349 0 0 0 0 -104.75844586471794 349.34315760730851 0 349.34315760730851 -387.27242780339878 0 0 0 0 200.56381779231015 -33.887883808025862 0 -33.887883808025862 -694.3240888746526 0 0 0 0 197.47979744279291 37.860309585396948 0 37.860309585396948 -820.20695499649116 0 0 0 0 117.21769187302561 -195.38715099345382 0 -195.38715099345382 89.075656592467567 0 0 0 0 388.79987814012566 40.784897309212283 0 40.784897309212283 286.81466827694476 0 0 0 0 34.630165717094542 5.0764574339362412 0 5.0764574339362412 -1.943176006386222 0 0 0 0 50.873154871129032 -8.2394822560465926 0 -8.2394822560465926 -15.943913090373382 0 0 0 0 -145.3758814058092 -173.42274929392477 0 -173.42274929392477 -48.196308197665076 0 0 0 0 225.86282809369732 -398.1886655669262 0 -398.1886655669262 92.404982781269794 0 0 0 0 70.680996280297222 -59.869071283554462 0 -59.869071283554462 63.732359897127935 0 0 0 0 142.0876291921013 -33.746883434178699 0 -33.746883434178699 -251.03269522563119 0 0 0 0 -52.903969123697607 118.60963714252739 0 118.60963714252739 -182.35942596372615 0 0 0 0 134.44609286434388 41.431965086121892 0 41.431965086121892 -929.75295696539752 0 0 0 0 53.869581889477558 119.57983317014487 0 119.57983317014487 -275.68607007914983 0 0 0 0 70.993812421860639 48.164232583802004 0 48.164232583802004 -132.20615102927241 0 0 0 0 191.49760193839757 -49.864036342233419 0 -49.864036342233419 -100.45523463957647 0 0 0 0 121.75467913720357 5.016938668184828 0 5.016938668184828 -27.305726106947194 0 0 0 0 55.738772069752372 20.423565962010475 0 20.423565962010475 -0.97034357855837872 0 0 0 0 78.326625237150438 36.469711683403602 0 36.469711683403602 -133.10838937132758 0 0 0 0 119.85372049425288 12.76877152010691 0 12.76877152010691 -18.413382663712298 0 0 0 0 16.916879023716319 188.87297164677148 0 188.87297164677148 -156.08020680830668 0 0 0 0 383.33153084434161 264.93591230150935 0 264.93591230150935 41.228255485682212 0 0 0 0 -213.5557904788875 -103.02045143058763 0 -103.02045143058763 151.99692508234773 0 0 0 0 87.794838058060122 -129.35259426502972 0 -129.35259426502972 -81.835883306724327 0 0 0 0 40.256699039717205 9.3469045464997293 0 9.3469045464997293 74.490122540942139 0 0 0 0 68.083034784569463 23.621759713440497 0 23.621759713440497 -39.680328534832256 0 0 0 0 302.51365071178225 -65.369719280209495 0 -65.369719280209495 -147.44902500612443 0 0 0 0 0.90536585044081619 -1.1757137249992269 0 -1.1757137249992269 2.61213409403332 0 0 0 0 438.46791508404567 81.349537324773621 0 81.349537324773621 -91.267519285597245 0 0 0 0 -2.5397901074393303 -15.53903954043335 0 -15.53903954043335 -15.203079445054527 0 0 0 0 95.002229274745332 77.004230334739759 0 77.004230334739759 -104.85872530155962 0 0 0 0 122.18641242675355 10.880879594700559 0 10.880879594700559 -21.386911135822782 0 0 0 0 -62.325174030207563 407.21264925459491 0 407.21264925459491 -395.18417285828036 0 0 0 0 46.295430968457367 -26.219313111614611 0 -26.219313111614611 -177.77166581329402 0 0 0 0 -130.58179412217578 -37.414250492765859 0 -37.414250492765859 244.16234646748126 0 0 0 0 168.46171727834735 15.89549850842559 0 15.89549850842559 -163.32360236361819 0 0 0 0 -94.966439311334398 137.6480546099674 0 137.6480546099674 -49.477565770357614 0 0 0 0 180.12381508547696 40.264301174683169 0 40.264301174683169 -176.26101536820926 0 0 0 0 -28.279197097348515 96.846545200412038 0 96.846545200412038 32.932734305859412 0 0 0 0 41.026824528809527 14.101435986582803 0 14.101435986582803 4.7628053089893552 0 0 0 0 54.434879736189032 190.06414763606881 0 190.06414763606881 -31.191366422875035 0 0 0 0 -42.025449312961427 -90.5034920066513 0 -90.5034920066513 88.720164307784785 0 0 0 0 84.915874532300222 -18.686538157785435 0 -18.686538157785435 -116.44036852293721 0 0 0 0 14.269290904630907 -209.79176363750639 0 -209.79176363750639 47.477677862319069 0 0 0 0 3.4587827827944579 -2.9402609610515498 0 -2.9402609610515498 -5.7583592084473798 0 0 0 0 -45.909284710447537 237.14972878023286 0 237.14972878023286 -289.41096547893494 0 0 0 0 1043.8485343750799 -353.10188007368197 0 -353.10188007368197 -40.293478984953254 0 0 0 0 856.93814098459552 -396.53722227244953 0 -396.53722227244953 42.193873350169724 0 0 0 0 1403.7912661800801 -252.12628110487697 0 -252.12628110487697 55.339655217368772 0 0 0 0 823.8357185702971 -139.29786546239117 0 -139.29786546239117 67.498393839641722 0 0 0 0 502.28430000867229 -365.60804383024788 0 -365.60804383024788 259.75321515210055 0 0 0 0 69.677060641100979 -128.41411933144059 0 -128.41411933144059 162.80629208116261 0 0 0 0 392.52383204345824 -29.87981727015358 0 -29.87981727015358 -64.763542775498536 0 0 0 0 232.43127458934032 -196.45275182534124 0 -196.45275182534124 -234.20129886162795 0 0 0 0 395.42158782869228 -266.3912707334166 0 -266.3912707334166 85.758823743737594 0 0 0 0 -166.76611825457076 10.0108425543458 0 10.0108425543458 312.33072575336155 0 0 0 0 5.8235969619863113 -6.109640003157665 0 -6.109640003157665 -10.003312770697374 0 0 0 0 25.514721304787543 10.409027795304722 0 10.409027795304722 2.6012870446335148 0 0 0 0 170.64771084029053 230.35571008095394 0 230.35571008095394 -309.06085183936136 0 0 0 0 -117.71485315446625 -78.067778260620798 0 -78.067778260620798 231.88166459431613 0 0 0 0 297.45139183060382 -542.51005285958217 0 -542.51005285958217 265.5348837004949 0 0 0 0 849.93596955074463 -631.06512622449736 0 -631.06512622449736 246.84994075704344 0 0 0 0 633.1555712425843 -461.61830100404364 0 -461.61830100404364 60.644577211824071 0 0 0 0 621.65876179281622 -185.88496364621005 0 -185.88496364621005 -50.013391595403846 0 0 0 0 1045.3022658884001 -450.41084508444146 0 -450.41084508444146 -15.355598143019961 0 0 0 0 403.33307471836451 306.61456658671523 0 306.61456658671523 853.47899843892446 0 0 0 0 27.020279138465412 -29.779202935504145 0 -29.779202935504145 821.85682049807292 0 0 0 0 10.106035894567242 -1.0095465593142183 0 -1.0095465593142183 -2.4292204232206913 0 0 0 0 72.31611984931078 -149.6256950233269 0 -149.6256950233269 658.99222984760854 0 0 0 0 6.8119089642574977 -3.285167038949055 0 -3.285167038949055 -7.0100171194661876 0 0 0 0 43.644148946586938 -47.926770397474229 0 -47.926770397474229 504.98381322441492 0 0 0 0 254.69682947039837 344.48186704709406 0 344.48186704709406 586.22376263164688 0 0 0 0 236.26576979708625 212.43600231522396 0 212.43600231522396 25.477296461069272 0 0 0 0 784.0927043169504 -64.60790959085989 0 -64.60790959085989 50.540723948079176 0 0 0 0 154.92232953185157 -120.09299151675077 0 -120.09299151675077 352.83909904665052 0 0 0 0 -42.376855412352597 161.75744636733361 0 161.75744636733361 211.05653166845241 0 0 0 0 -59.828979741301737 41.12322482606487 0 41.12322482606487 -0.32707118643338617 0 0 0 0 -110.61381609455566 -16.662641065643584 0 -16.662641065643584 -108.85531446727327 0 0 0 0 -310.47838956715714 270.90293562054921 0 270.90293562054921 90.252970193217152 0 0 0 0 513.21959978480299 154.31611966040327 0 154.31611966040327 -588.32489678461206 0 0 0 0 152.66858708164364 207.32802662358154 0 207.32802662358154 -0.81212574311030039 0 0 0 0 104.6582554496963 38.997624752321855 0 38.997624752321855 -77.146751663207169 0 0 0 0 152.51778100726369 584.11330300626651 0 584.11330300626651 -624.64721112560119 0 0 0 0 115.85744084942081 6.1774925499092888 0 6.1774925499092888 -25.859814864220798 0 0 0 0 53.093192347732838 9.4043418315309282 0 9.4043418315309282 13.766585996559115 0 0 0 0 69.130579608259723 3.1515713079959369 0 3.1515713079959369 14.838114272855364 0 0 0 0 153.43597773632064 43.053212569581547 0 43.053212569581547 -6.7787896150181268 0 0 0 0 91.529463861555996 28.390130137370136 0 28.390130137370136 -10.00969832122496 0 0 0 0 130.07263845663692 16.312846055218188 0 16.312846055218188 -79.547597604919474 0 0 0 0 193.98867201207031 -20.227755962111587 0 -20.227755962111587 -42.481613633852476 0 0 0 0 98.926724152835959 -22.372035341429751 0 -22.372035341429751 -14.414236293112481 0 0 0 0 200.13038540644629 -7.8580956746841366 0 -7.8580956746841366 -18.885200150284504 0 0 0 0 150.75399200379934 -13.337041779048374 0 -13.337041779048374 3.9326193696824703 0 0 0 0 307.4307423896098 38.027956788634356 0 38.027956788634356 19.457602322934235 0 0 0 0 224.52688901426154 -93.186564734025183 0 -93.186564734025183 21.162669193549846 0 0 0 0 405.31897452673002 155.18883982909477 0 155.18883982909477 116.66321080159832 0 0 0 0 590.67939421901247 -187.20638875424879 0 -187.20638875424879 12.915689321464015 0 0 0 0 136.82258862286835 34.389795891167978 0 34.389795891167978 75.14593363376548 0 0 0 0 85.491342950277613 -624.57697253139213 0 -624.57697253139213 -578.47709544951886 0 0 0 0 34.738160516790686 -18.421208870211402 0 -18.421208870211402 8.6235128677346164 0 0 0 0 138.83992988741011 48.547958767525927 0 48.547958767525927 78.719792901619257 0 0 0 0 -25.111437292654045 48.186717469811924 0 48.186717469811924 -241.46618227359068 0 0 0 0 292.00629304514587 -0.80473619026997767 0 -0.80473619026997767 -549.35177903093245 0 0 0 0 49.399529502735248 -26.317526537460296 0 -26.317526537460296 13.025150298455735 0 0 0 0 81.836746327450328 30.103676432875151 0 30.103676432875151 40.982426312586085 0 0 0 0 75.591825404269912 -303.19474671607531 0 -303.19474671607531 -585.84489386166115 0 0 0 0 81.269344984997588 19.199517515159869 0 19.199517515159869 64.475265716314652 0 0 0 0 155.07345339446329 -24.365888076744341 0 -24.365888076744341 -117.9524531765237 0 0 0 0 129.53097037585394 -66.918152662403372 0 -66.918152662403372 -220.8813586807064 0 0 0 0 157.95077439597662 -2.1193074174771027 0 -2.1193074174771027 -209.27242348031905 0 0 0 0 157.26771908757371 44.185053223930474 0 44.185053223930474 -108.88240595614479 0 0 0 0 104.79155551992881 -53.501991320961679 0 -53.501991320961679 -102.41921174588606 0 0 0 0 147.63132624243008 -39.844691254004829 0 -39.844691254004829 -149.9928353256746 0 0 0 0 -33.400599374988815 -49.279121095765731 0 -49.279121095765731 -191.8105584523546 0 0 0 0 91.062199526451877 16.300555976436954 0 16.300555976436954 -199.07860756718492 0 0 0 0 131.5443017958678 -15.484595315739057 0 -15.484595315739057 -278.06205200806835 0 0 0 0 120.37376191133899 59.074809158486119 0 59.074809158486119 -139.26727318779012 0 0 0 0 158.44136683220859 133.9596035488803 0 133.9596035488803 -197.32937964583289 0 0 0 0 91.312061615717539 21.241500723992431 0 21.241500723992431 -237.99622688111049 0 0 0 0 241.31253156314779 160.71358378767945 0 160.71358378767945 -242.74433199849227 0 0 0 0 107.71681390816775 125.58891608303736 0 125.58891608303736 -140.2026565135493 0 0 0 0 108.44733087172972 137.18796940846113 0 137.18796940846113 -6.4571734688252036 0 0 0 0 182.64896015514387 155.02502130072071 0 155.02502130072071 20.317790875527862 0 0 0 0 249.02169392607902 130.41892896114314 0 130.41892896114314 -44.932707580408533 0 0 0 0 135.57342268299544 99.467203106089073 0 99.467203106089073 54.065278610970381 0 0 0 0 185.15242409561324 65.477910676798274 0 65.477910676798274 -158.71596554347343 0 0 0 0 162.16793022591628 106.76433765529737 0 106.76433765529737 -20.258447833262835 0 0 0 0 180.09385727733024 51.675276485695576 0 51.675276485695576 -128.59912837657794 0 0 0 0 32.544934370646359 -15.385093152971486 0 -15.385093152971486 -21.045964943734809 0 0 0 0 -23.966641855284252 -41.312942202674321 0 -41.312942202674321 -39.105388361183486 0 0 0 0 152.54381917216961 68.802303119262433 0 68.802303119262433 56.583883050961958 0 0 0 0 68.584856687295542 -60.463762681964909 0 -60.463762681964909 -98.65709112266677 0 0 0 0 431.43701911031712 -50.276165164713916 0 -50.276165164713916 -73.426882797552935 0 0 0 0 111.29840076104028 1.7404622124641378 0 1.7404622124641378 -65.255646729391628 0 0 0 0 150.07149549545284 -104.70410845030824 0 -104.70410845030824 -83.701474097893424 0 0 0 0 2.6483882065198721 -1.324490426342031 0 -1.324490426342031 -1.0445104204636886 0 0 0 0 -232.8981606618072 -104.182091399505 0 -104.182091399505 -10.115567199210091 0 0 0 0 0.71226366078553838 -81.808876718384454 0 -81.808876718384454 -35.870110896710685 0 0 0 0 -36.63703750690911 -91.742231482993702 0 -91.742231482993702 -9.4451994059254503 0 0 0 0 65.006262214108574 -44.785890347860231 0 -44.785890347860231 -105.86203873247484 0 0 0 0 85.548172501826301 -0.61202663132299762 0 -0.61202663132299762 -14.074379523719516 0 0 0 0 83.133183687332348 -27.490327652241831 0 -27.490327652241831 -15.129161335857468 0 0 0 0 43.771355941779646 -2.3734777372404423 0 -2.3734777372404423 -29.725498760686477 0 0 0 0 152.21867770348763 -0.47426875997643947 0 -0.47426875997643947 -64.745622541324792 0 0 0 0 145.03170741266513 19.354523660665109 0 19.354523660665109 -73.459218177167713 0 0 0 0 234.13974897209846 -72.830326737110227 0 -72.830326737110227 -133.35579242477615 0 0 0 0 110.22704857216678 -26.853150565652065 0 -26.853150565652065 -16.375708954390628 0 0 0 0 191.06086763058556 -164.47967245216569 0 -164.47967245216569 -103.89035986491763 0 0 0 0 168.22395346185658 -75.424964276207902 0 -75.424964276207902 -107.78382725937263 0 0 0 0 196.14337330018316 -139.60809238342699 0 -139.60809238342699 -154.5866246067817 0 0 0 0 113.25543611127068 23.023601230306667 0 23.023601230306667 -283.07104488459299 0 0 0 0 140.1354905924527 -53.372833747883305 0 -53.372833747883305 -49.547636888133638 0 0 0 0 76.401952197469654 -19.958744984342957 0 -19.958744984342957 -28.051805210528983 0 0 0 0 233.60100413908367 -163.47511180411311 0 -163.47511180411311 20.119267716921968 0 0 0 0 145.04720193027606 -250.08858609990216 0 -250.08858609990216 389.01452783563582 0 0 0 0 128.20395040567382 -55.146400561348855 0 -55.146400561348855 264.31386504694819 0 0 0 0 189.48247758709476 -142.13398256679193 0 -142.13398256679193 153.90801127464511 0 0 0 0 202.11193626365275 -142.93025752674475 0 -142.93025752674475 -75.166426540235989 0 0 0 0 196.21487994532799 -285.85345474523092 0 -285.85345474523092 159.39787204577857 0 0 0 0 188.16074209133512 -228.03552984079215 0 -228.03552984079215 143.26458190889934 0 0 0 0 157.46346317700227 -216.26635396389338 0 -216.26635396389338 153.89367516652783 0 0 0 0 165.41026640943892 -212.9480414061909 0 -212.9480414061909 50.69428197108391 0 0 0 0 213.1656121950291 147.00860900053704 0 147.00860900053704 -458.62963892475636 0 0 0 0 97.940340089320671 -49.290631651299918 0 -49.290631651299918 -126.98765175710366 0 0 0 0 250.93702337561263 -190.74264423055138 0 -190.74264423055138 -133.07738456082006 0 0 0 0 0.68601557993679307 -162.29665342587759 0 -162.29665342587759 -247.46698452318378 0 0 0 0 18.606145172307151 22.155394557067211 0 22.155394557067211 -112.41228193118104 0 0 0 0 35.443054416117093 18.075373487596067 0 18.075373487596067 -37.897137453262161 0 0 0 0 1.8407164311095414 -4.3951616406467018 0 -4.3951616406467018 -1.7331126882964236 0 0 0 0 113.62491192668676 -23.632873652544731 0 -23.632873652544731 -24.076846556366945 0 0 0 0 92.815536064680913 -31.591169390846794 0 -31.591169390846794 -14.341175250792295 0 0 0 0 35.115484425215982 34.863086192701303 0 34.863086192701303 -132.36251599605021 0 0 0 0 93.412098973036308 8.9427620788413531 0 8.9427620788413531 -30.442154648809677 0 0 0 0 191.28787632286549 140.58964935390577 0 140.58964935390577 -203.7394353653508 0 0 0 0 85.711601980712857 73.28592781662789 0 73.28592781662789 -91.002049251557509 0 0 0 0 103.92319048136636 -7.4613182450988447 0 -7.4613182450988447 -28.441011077321516 0 0 0 0 69.994420084034985 -27.207860104677508 0 -27.207860104677508 6.8048613271337715 0 0 0 0 136.39317148186092 47.894716332994221 0 47.894716332994221 -109.46160807838913 0 0 0 0 127.9621484157251 -33.952301969626205 0 -33.952301969626205 -7.9894920713963984 0 0 0 0 84.198602305048553 22.306507436707648 0 22.306507436707648 5.1051732190026087 0 0 0 0 49.349275520682568 32.29728322053802 0 32.29728322053802 3.0601612756213399 0 0 0 0 412.20253189468349 -143.82332968622541 0 -143.82332968622541 -490.54006763204495 0 0 0 0 -36.492934325173337 -163.51613357477925 0 -163.51613357477925 -169.01774858078534 0 0 0 0 761.72728146132431 -238.84549444629374 0 -238.84549444629374 -204.98949919513461 0 0 0 0 313.27333868280402 -354.16585451484207 0 -354.16585451484207 260.82523651371594 0 0 0 0 263.47303559872671 -288.8450134122395 0 -288.8450134122395 -0.68385386227419076 0 0 0 0 391.44029977622995 -542.29879733125495 0 -542.29879733125495 262.78340464693611 0 0 0 0 202.79745891943458 -465.88753160175838 0 -465.88753160175838 385.3812177642958 0 0 0 0 419.48765988679952 -674.12210040131868 0 -674.12210040131868 545.85101636334548 0 0 0 0 299.53149539866718 -524.45387447352368 0 -524.45387447352368 654.57448572213434 0 0 0 0 1602.4442619652546 284.73715984504088 0 284.73715984504088 180.77971545140281 0 0 0 0 844.14079391543055 -743.01138606679979 0 -743.01138606679979 664.66991394963043 0 0 0 0 621.98577570470661 -427.55340670597752 0 -427.55340670597752 257.55062931830253 0 0 0 0 1472.8806851898262 -336.80428149163345 0 -336.80428149163345 10.095434135836513 0 0 0 0 930.61497649154626 -90.726642738597093 0 -90.726642738597093 876.55518931845177 0 0 0 0 1025.7682115941025 -374.25127651853313 0 -374.25127651853313 104.34580438329067 0 0 0 0 678.48863239178172 -483.79879357460413 0 -483.79879357460413 493.76426066792556 0 0 0 0 476.46423658654385 -671.2979185473323 0 -671.2979185473323 349.87749471753159 0 0 0 0 514.20170189728378 -913.86065531450345 0 -913.86065531450345 295.29335946188189 0 0 0 0 1178.8725545539055 -625.42767681507235 0 -625.42767681507235 266.22510018168578 0 0 0 0 1147.3091450787324 -508.89606222830321 0 -508.89606222830321 21.224600762730461 0 0 0 0 1300.6508229150204 -598.42354485047372 0 -598.42354485047372 66.947879343691397 0 0 0 0 1128.66926875848 -519.84055461552066 0 -519.84055461552066 29.63183906750055 0 0 0 0 569.80811879389512 -768.01213340932873 0 -768.01213340932873 395.95177252463941 0 0 0 0 -539.96475422698131 -264.14797660195995 0 -264.14797660195995 180.93520128833768 0 0 0 0 133.82688137774312 -1213.2054554528404 0 -1213.2054554528404 -212.54730151384638 0 0 0 0 497.83079571241979 -745.64742847714024 0 -745.64742847714024 345.21112846748451 0 0 0 0 475.36075009508204 -674.86217671222903 0 -674.86217671222903 609.42595402543702 0 0 0 0 142.58566926172352 -971.3953524955723 0 -971.3953524955723 407.05906290622386 0 0 0 0 63.906921182475344 -585.39760482206248 0 -585.39760482206248 637.04285267764772 0 0 0 0 -103.55689313096809 -809.54502411087492 0 -809.54502411087492 855.04231551150951 0 0 0 0 385.91491763391241 -827.06159400577735 0 -827.06159400577735 794.22224243892197 0 0 0 0 35.324628240250604 -744.58419033622454 0 -744.58419033622454 1130.8753289671095 0 0 0 0 21.249527372623561 -674.85985329920391 0 -674.85985329920391 796.53372272311753 0 0 0 0 41.295205427566543 -475.63708968666606 0 -475.63708968666606 993.02865095161451 0 0 0 0 225.74783231930269 -692.29391992118417 0 -692.29391992118417 608.23274226975082 0 0 0 0 34.353469586465508 -454.8077755346967 0 -454.8077755346967 679.91812567394118 0 0 0 0 50.788764429293224 -642.65535722455024 0 -642.65535722455024 830.72902168653854 0 0 0 0 200.91711684560187 -593.12641318187673 0 -593.12641318187673 607.63910848849264 0 0 0 0 49.556822487036698 -618.11958808106374 0 -618.11958808106374 615.18039310572749 0 0 0 0 114.21800140794949 -400.067189403464 0 -400.067189403464 411.24824356847785 0 0 0 0 92.098783646768425 -435.04145000374547 0 -435.04145000374547 683.22658873947148 0 0 0 0 213.01544771823319 -425.48846297905357 0 -425.48846297905357 361.78032130478823 0 0 0 0 56.739376940735383 -520.85348052756308 0 -520.85348052756308 871.15113597235177 0 0 0 0 37.082265225268202 -265.58491050472003 0 -265.58491050472003 856.11004997300563 0 0 0 0 97.510182440848439 -339.67123983385864 0 -339.67123983385864 436.16065371479999 0 0 0 0 124.56169001097442 -195.99527626072995 0 -195.99527626072995 430.88749341562652 0 0 0 0 78.146362723520724 -144.44654181941587 0 -144.44654181941587 513.33087287128546 0 0 0 0 115.82361751099961 -97.017055739408534 0 -97.017055739408534 541.2830671244119 0 0 0 0 11.725096023961669 -154.38889716424455 0 -154.38889716424455 1094.9937560700282 0 0 0 0 -452.44616189322551 -100.83133098885082 0 -100.83133098885082 2139.0677775433396 0 0 0 0 601.6771243250987 -933.60206048534747 0 -933.60206048534747 1687.6975070718231 0 0 0 0 3238.5401884817984 -2161.8883138522287 0 -2161.8883138522287 -4093.2341997572585 0 0 0 0 -2247.7176540991641 -1465.6542188809944 0 -1465.6542188809944 3925.4932090312432 0 0 0 0 22.247678389548327 -11.089506383808953 0 -11.089506383808953 14.637387324536274 0 0 0 0 18.383133428591492 -27.338135385890929 0 -27.338135385890929 3.3493751846905475 0 0 0 0 -212.05214134432026 572.17865161193095 0 572.17865161193095 287.81158348183817 0 0 0 0 216.20867390690546 -1476.6684307282922 0 -1476.6684307282922 2349.3151980272833 0 0 0 0 3070.6114045200811 -3850.0923811727403 0 -3850.0923811727403 3313.6865723663141 0 0 0 0 5937.1977092200832 -2584.1604286869206 0 -2584.1604286869206 701.41213154961952 0 0 0 0 2507.9373603335553 -2206.5237482398679 0 -2206.5237482398679 1619.4329647613667 0 0 0 0 1173.6550581790943 -874.21396855765943 0 -874.21396855765943 897.39831583338218 0 0 0 0 3167.8470145018073 -713.76049904743854 0 -713.76049904743854 680.35206054567971 0 0 0 0 162.96828422165709 -629.29218491229676 0 -629.29218491229676 1123.3810833625107 0 0 0 0 -0.47692312081926502 -704.3821326202883 0 -704.3821326202883 1719.4591628348671 0 0 0 0 921.65396668869653 -1271.1582710988528 0 -1271.1582710988528 1205.6259676822383 0 0 0 0 383.93672423638782 -832.64375188214217 0 -832.64375188214217 878.08172403844947 0 0 0 0 739.30722374955076 -957.19791505927901 0 -957.19791505927901 522.52521079786356 0 0 0 0 967.14610895259102 -391.81200016242133 0 -391.81200016242133 70.65670734067362 0 0 0 0 2311.9749766261375 -1101.0738832789846 0 -1101.0738832789846 505.56270282088008 0 0 0 0 2281.9078630502045 -1039.432049703722 0 -1039.432049703722 381.2269172266947 0 0 0 0 1704.4456258616929 -441.19661543128638 0 -441.19661543128638 -489.3832798457629 0 0 0 0 977.05947713674686 26.49683811263094 0 26.49683811263094 -44.602431319249263 0 0 0 0 892.21316821734945 32.736855761992956 0 32.736855761992956 -41.168198558420954 0 0 0 0 4498.5112087381713 -2.5682676536608446 0 -2.5682676536608446 3.5296546088882095 0 0 0 0 3.6030888506625871 0.90082869889866402 0 0.90082869889866402 2.2162641517438089 0 0 0 0 1665.0442443782895 94.197633349820379 0 94.197633349820379 -293.43971214997146 0 0 0 0 1102.7914137815096 -280.53800105563914 0 -280.53800105563914 -534.80019301947095 0 0 0 0 3178.0954841396051 792.96546603331387 0 792.96546603331387 161.06793129435482 0 0 0 0 1024.5030156640205 155.58593678316038 0 155.58593678316038 49.969924145781533 0 0 0 0 11.944393382483955 4.929021814263379 0 4.929021814263379 -2.8541613000475738 0 0 0 0 15.371605157033628 404.84299562092218 0 404.84299562092218 -2281.630224613778 0 0 0 0 32.156589416381649 -35.859186397649083 0 -35.859186397649083 21.588638562893735 0 0 0 0 4498.5199203211523 -2.561370067072954 0 -2.561370067072954 3.5010297531842656 0 0 0 0 1166.6084525161568 1456.4077334294695 0 1456.4077334294695 -1895.6558924700857 0 0 0 0 4490.0976367492403 -1448.047985818265 0 -1448.047985818265 614.5932085324356 0 0 0 0 -2430.8479821016699 -1452.2371982766435 0 -1452.2371982766435 3185.8687994939532 0 0 0 0 5850.1614032030611 267.92520933507944 0 267.92520933507944 -84.670557306460069 0 0 0 0 1088.6675157470454 -6341.0404087911629 0 -6341.0404087911629 4528.6149397558584 0 0 0 0 14.626942264192934 -15.868434861564864 0 -15.868434861564864 14.983724790722457 0 0 0 0 1706.2566012178431 -3879.0305873940788 0 -3879.0305873940788 4312.6677119238284 0 0 0 0 4454.4333197909418 -3726.8589199218263 0 -3726.8589199218263 2373.8147120991275 0 0 0 0 4020.9691265727733 -1243.2789018651758 0 -1243.2789018651758 237.77021346735273 0 0 0 0 1235.1988377958278 -2267.9816832173537 0 -2267.9816832173537 2291.6779396909296 0 0 0 0 4495.7893016445087 -3466.3349304603153 0 -3466.3349304603153 2667.0735743915557 0 0 0 0 28.543521458827144 0.21645819774438024 0 0.21645819774438024 2.5085948922792722 0 0 0 0 2360.0233291673285 -4322.1523262953688 0 -4322.1523262953688 4497.3938548577153 0 0 0 0 841.44663005346229 1322.3132546291317 0 1322.3132546291317 863.72741908904959 0 0 0 0 4494.5700851687616 898.31768329036743 0 898.31768329036743 -495.76515513217959 0 0 0 0 374.41196703206333 -370.94395716084557 0 -370.94395716084557 114.54967149124172 0 0 0 0 186.31988638134499 82.872931825771303 0 82.872931825771303 593.84169464252716 0 0 0 0 232.92630470759468 -5.4777676870454002 0 -5.4777676870454002 -321.32856114188769 0 0 0 0 3335.7177128778421 -243.78527845883491 0 -243.78527845883491 -217.62337257130184 0 0 0 0 69.310990284076254 -3.841312097060996 0 -3.841312097060996 4.6631604848109731 0 0 0 0 508.45842046389589 -1739.7839366699181 0 -1739.7839366699181 1861.4869648591064 0 0 0 0 96.05507961308831 -277.98552058707173 0 -277.98552058707173 -16.43032809639692 0 0 0 0 97.969852658279706 13.115439197026717 0 13.115439197026717 -1.3816850388393505 0 0 0 0 90.61931098100024 -63.247846597928557 0 -63.247846597928557 38.124059727173936 0 0 0 0 186.86786266021227 -189.71709629348743 0 -189.71709629348743 225.91436055405575 0 0 0 0 -35.920209013740532 5.9954836901524686 0 5.9954836901524686 497.86651485348011 0 0 0 0 -17.172737625282025 -206.55062138876201 0 -206.55062138876201 142.91480916475848 0 0 0 0 38.733019118008087 1.2937217531161878 0 1.2937217531161878 44.020337851467048 0 0 0 0 -23.413019995947252 -196.58629963801906 0 -196.58629963801906 108.72409383093623 0 0 0 0 148.67478616692324 -192.58031770404415 0 -192.58031770404415 -53.214235972045572 0 0 0 0 100.76360812733833 -75.525029222266483 0 -75.525029222266483 45.652230084058459 0 0 0 0 143.34162460876996 -204.79736079304337 0 -204.79736079304337 286.05774780406006 0 0 0 0 25.93394121984602 -37.913538345853937 0 -37.913538345853937 73.442583198681277 0 0 0 0 68.949285748829425 55.629131348232427 0 55.629131348232427 73.970330459695504 0 0 0 0 -2.6379592050511178 3.1027944372935323 0 3.1027944372935323 1.9340594855593807 0 0 0 0 60.699939505795427 17.783339021367574 0 17.783339021367574 -0.63474404414453911 0 0 0 0 2.9997552342044571 -24.788972042276374 0 -24.788972042276374 15.665990627678031 0 0 0 0 84.905943780489906 -27.847986941518087 0 -27.847986941518087 19.254868255063911 0 0 0 0 47.393432290300552 -35.068260539996942 0 -35.068260539996942 23.044683507087093 0 0 0 0 94.225309905545146 57.953955781028128 0 57.953955781028128 -209.60518947577475 0 0 0 0 170.91983860101027 -18.390401616507233 0 -18.390401616507233 -206.64435385611128 0 0 0 0 147.82085981422097 -97.369828890205326 0 -97.369828890205326 -100.78012316931517 0 0 0 0 48.72657261941535 16.939368025001865 0 16.939368025001865 5.0511701576939911 0 0 0 0 561.12103195429881 -193.79804996711059 0 -193.79804996711059 98.520944808227 0 0 0 0 52.653493853526925 169.99199316538392 0 169.99199316538392 -437.48741128295796 0 0 0 0 4492.3916172409008 -1617.9770286154057 0 -1617.9770286154057 179.62946654500064 0 0 0 0 1218.159360320089 -237.39884763634876 0 -237.39884763634876 -136.48206448011013 0 0 0 0 1767.5961510763736 -280.14058445330392 0 -280.14058445330392 -139.78753474621899 0 0 0 0 1588.0136882938459 402.58749745169177 0 402.58749745169177 -10.50051843170273 0 0 0 0 919.39091002666828 256.7316043389585 0 256.7316043389585 28.811741888987001 0 0 0 0 2643.2186214345056 -296.13234696332967 0 -296.13234696332967 -703.50910986525469 0 0 0 0 4499.5706540629035 -97.208715680328638 0 -97.208715680328638 -1124.690024967638 0 0 0 0 2844.5319885267672 757.91678956328724 0 757.91678956328724 -1219.6708914918347 0 0 0 0 5382.6399089896004 -113.52988635980927 0 -113.52988635980927 -1340.7336068839936 0 0 0 0 1363.0692438101687 224.02012338485383 0 224.02012338485383 -887.38067275201047 0 0 0 0 447.10398366367735 -779.56032522249143 0 -779.56032522249143 -431.16795595237181 0 0 0 0 1603.1598991750798 -521.76724348720336 0 -521.76724348720336 -394.18348635390856 0 0 0 0 1030.6010993440505 -867.57379305924246 0 -867.57379305924246 68.215017374300487 0 0 0 0 1464.69908193624 -373.10044229234029 0 -373.10044229234029 -323.45996088323454 0 0 0 0 1617.6359563638707 -827.46198578765325 0 -827.46198578765325 70.549376692656779 0 0 0 0 825.39089325827808 -718.07389880103119 0 -718.07389880103119 404.72389161558203 0 0 0 0 1020.7962513265811 -944.05930089393951 0 -944.05930089393951 449.91838121961541 0 0 0 0 2654.2491015766427 -911.51557479729547 0 -911.51557479729547 116.77806433120807 0 0 0 0 1630.0561089064868 -871.30504835597355 0 -871.30504835597355 119.47714172477419 0 0 0 0 2952.913705183717 -685.21593216896144 0 -685.21593216896144 -262.77636369280816 0 0 0 0 2826.7629515260887 -190.7299566486779 0 -190.7299566486779 -846.05216953923616 0 0 0 0 4498.6759445256102 -985.52455916655458 0 -985.52455916655458 -492.3043012899987 0 0 0 0 3045.8858128671709 -1066.5331503227046 0 -1066.5331503227046 10.763365835569971 0 0 0 0 2961.0879771027503 -1237.4669026080967 0 -1237.4669026080967 430.86898680922963 0 0 0 0 1819.3659438962277 -1054.2926431209612 0 -1054.2926431209612 1495.654822280658 0 0 0 0 2485.872828471387 -853.630917361966 0 -853.630917361966 1136.519269775074 0 0 0 0 2463.210429569699 -2303.8868591018108 0 -2303.8868591018108 1518.4999843356202 0 0 0 0 4498.7125532703285 -2003.6218963417739 0 -2003.6218963417739 597.36546604624732 0 0 0 0 2465.7032430161198 -2218.7605135769081 0 -2218.7605135769081 1808.8996622607272 0 0 0 0 1.6142609855738286 -5.5482679567923299 0 -5.5482679567923299 5.4344070353462666 0 0 0 0 -1562.1072894538156 -386.59092372713485 0 -386.59092372713485 667.99795318092129 0 0 0 0 5896.4045275348617 -3106.2585887365908 0 -3106.2585887365908 1769.4048627299298 0 0 0 0 159.6895060754905 -1930.953755916014 0 -1930.953755916014 1544.0198028798588 0 0 0 0 1866.8279936313411 -1416.7560373572555 0 -1416.7560373572555 1102.2602271185065 0 0 0 0 1552.9637840863652 -739.8252689796509 0 -739.8252689796509 -344.97268801868449 0 0 0 0 1619.0103426093337 -342.82864301013592 0 -342.82864301013592 -551.32371684695136 0 0 0 0 814.4032634812902 -726.72652860747667 0 -726.72652860747667 -334.20274647751035 0 0 0 0 4500.4576599317534 -913.22365176393544 0 -913.22365176393544 437.58972674720934 0 0 0 0 56.758131842332659 -316.88259218511189 0 -316.88259218511189 -78.206913936598085 0 0 0 0 11.423094668402879 -17.793981001803189 0 -17.793981001803189 12.58762194589057 0 0 0 0 3220.1176599998871 -1850.5697585219928 0 -1850.5697585219928 1067.3243119542353 0 0 0 0 764.97552013003769 -345.37536652772974 0 -345.37536652772974 -358.62548744685682 0 0 0 0 287.48055267049131 -859.02154432134364 0 -859.02154432134364 -1006.4394594937521 0 0 0 0 716.92847462633654 -14.295948346900673 0 -14.295948346900673 -377.46209692796492 0 0 0 0 1057.5547125081794 -380.0535415430237 0 -380.0535415430237 -474.70699410517199 0 0 0 0 1478.5778620416859 -105.90806648407676 0 -105.90806648407676 -725.76573657093832 0 0 0 0 1421.9274093989661 411.89255966743201 0 411.89255966743201 -657.1538654089959 0 0 0 0 2489.0429831446527 -687.28612490679211 0 -687.28612490679211 -636.98387251079339 0 0 0 0 113.16590659091889 -587.14988520805298 0 -587.14988520805298 -497.44995534698558 0 0 0 0 97.350198183019529 -992.96559801007004 0 -992.96559801007004 1860.2141001373579 0 0 0 0 13.639947753201284 -6.2576469801079604 0 -6.2576469801079604 2.9629522944850608 0 0 0 0 2444.644431261102 -1279.612305206603 0 -1279.612305206603 686.31629653691914 0 0 0 0 1316.6329660451884 -1270.8972555930627 0 -1270.8972555930627 730.36093313604192 0 0 0 0 841.65979161772702 -731.66054753283868 0 -731.66054753283868 314.63741409854651 0 0 0 0 2.6710774916573428 -83.199090355856299 0 -83.199090355856299 83.410548739502133 0 0 0 0 7.1365578028368759 -14.098829860246582 0 -14.098829860246582 -18.427935366081805 0 0 0 0 -28.712570332696487 -35.551611058853069 0 -35.551611058853069 15.567832375236321 0 0 0 0 524.26579928076171 -197.90194675352575 0 -197.90194675352575 4.7869345834642445 0 0 0 0 106.43422817125975 -31.561656086400944 0 -31.561656086400944 353.35097362074362 0 0 0 0 65.69521234108106 -24.996500175999699 0 -24.996500175999699 -30.60511339261484 0 0 0 0 -794.55558573253802 -371.14158920874172 0 -371.14158920874172 -54.062858223051762 0 0 0 0 -156.12061093219017 -305.50639499905662 0 -305.50639499905662 -306.59834839123619 0 0 0 0 11.373632047865982 -4.7684490111211915 0 -4.7684490111211915 -11.890267258415394 0 0 0 0 33.341541445084601 -16.063573506449156 0 -16.063573506449156 -1.8797780222945619 0 0 0 0 75.436060171530698 -73.966109759657741 0 -73.966109759657741 -97.872688850488771 0 0 0 0 123.50094025506405 -115.18274155484642 0 -115.18274155484642 109.50211290489733 0 0 0 0 42.912262357977227 -16.533109401263054 0 -16.533109401263054 -2.7060813028887507 0 0 0 0 237.19462602911517 -71.602683479832308 0 -71.602683479832308 -204.65974352354738 0 0 0 0 328.61567356171145 -177.77572455296581 0 -177.77572455296581 -89.001415652943706 0 0 0 0 2077.4710523098474 -295.71705289842657 0 -295.71705289842657 149.37144967166773 0 0 0 0 1665.7416366309335 -1123.0973244646439 0 -1123.0973244646439 273.17079919568528 0 0 0 0 1552.9377563908638 435.15327629941879 0 435.15327629941879 -58.17711382673906 0 0 0 0 16.188689266038978 -5.9535626617863393 0 -5.9535626617863393 3.0328398753013257 0 0 0 0 266.65105724733939 -832.67549812791322 0 -832.67549812791322 1378.7809143539735 0 0 0 0 938.51667293973878 -452.84198705174776 0 -452.84198705174776 -28.881914284451568 0 0 0 0 2148.5864886955387 -695.66108219436592 0 -695.66108219436592 -193.01312362678152 0 0 0 0 1163.2319424036104 4.4950463501679678 0 4.4950463501679678 -210.72276899213125 0 0 0 0 116.68217878715222 -133.61099212874387 0 -133.61099212874387 -14.17295539520228 0 0 0 0 252.56844648106198 185.38062996097796 0 185.38062996097796 147.41841259317516 0 0 0 0 422.27375744732853 -193.78725077208844 0 -193.78725077208844 -147.25605988304869 0 0 0 0 364.10256863878749 42.607710536180207 0 42.607710536180207 -37.476933711294691 0 0 0 0 756.21972123962769 -459.57305920357936 0 -459.57305920357936 -422.97658480730183 0 0 0 0 480.97256009162811 -511.9157599348307 0 -511.9157599348307 -476.99651426053879 0 0 0 0 803.74652690598305 -318.75846651792199 0 -318.75846651792199 -447.35262923856499 0 0 0 0 505.30578867919394 -832.26044432406934 0 -832.26044432406934 -576.40817262356313 0 0 0 0 -658.98629159487609 -393.28209139794774 0 -393.28209139794774 -105.40809391725071 0 0 0 0 453.27346417367517 -155.66792247718161 0 -155.66792247718161 -171.28145970727269 0 0 0 0 326.81567913352046 -248.605388335692 0 -248.605388335692 -86.32828314463768 0 0 0 0 603.96392942747843 -596.70563160493521 0 -596.70563160493521 381.86136907999457 0 0 0 0 -117.81786417371768 -62.62950984258373 0 -62.62950984258373 -2.3066391336335528 0 0 0 0 -3.4126726770366531 -7.7482968341506933 0 -7.7482968341506933 -9.2922122539537249 0 0 0 0 1037.0623576938233 -667.39044882033932 0 -667.39044882033932 233.76533572603495 0 0 0 0 0.19418102845440899 -2.8086130878170081 0 -2.8086130878170081 -3.4467216563657423 0 0 0 0 1727.4454705142489 -813.67573061111636 0 -813.67573061111636 -80.141881469387954 0 0 0 0 900.2439537809696 -1199.5913039465531 0 -1199.5913039465531 -254.63289954865127 0 0 0 0 1165.1830159796991 -1015.0692986148772 0 -1015.0692986148772 -474.54710474473086 0 0 0 0 797.5580677598482 -864.2401703157916 0 -864.2401703157916 -455.35654051474842 0 0 0 0 540.75355281600787 -760.55283908689682 0 -760.55283908689682 -392.42959363448472 0 0 0 0 1077.0427647781471 -828.8880017007391 0 -828.8880017007391 -385.26389329282961 0 0 0 0 1165.8947690749192 -411.10790716791007 0 -411.10790716791007 -476.57916399631176 0 0 0 0 810.97540382965235 -402.23014379167421 0 -402.23014379167421 -474.4204594942621 0 0 0 0 980.20375630661147 -473.28543623819201 0 -473.28543623819201 -487.51585826179758 0 0 0 0 859.41324615778285 -747.88961252929425 0 -747.88961252929425 -609.00424039856762 0 0 0 0 898.697583538873 -136.4380652037396 0 -136.4380652037396 -397.73089952634518 0 0 0 0 999.22868316469339 -215.54897419010211 0 -215.54897419010211 -503.34853705232854 0 0 0 0 935.73423987395654 -252.1406003257207 0 -252.1406003257207 -515.89934601259711 0 0 0 0 1047.6659730633182 -107.6034527462192 0 -107.6034527462192 -407.53573304022575 0 0 0 0 1257.9054045038065 -247.43078867646364 0 -247.43078867646364 -503.59813302957468 0 0 0 0 742.71994315550546 -85.650942403423642 0 -85.650942403423642 -400.33642600900225 0 0 0 0 1099.6401192671183 -26.638637779238707 0 -26.638637779238707 -414.90144318655621 0 0 0 0 737.62690844197641 -37.889116057281854 0 -37.889116057281854 -376.45890117673116 0 0 0 0 362.94583107705694 -64.457307643983768 0 -64.457307643983768 -289.7893524088762 0 0 0 0 536.13104096500319 33.615343516416033 0 33.615343516416033 -302.08420438910707 0 0 0 0 232.23862091495539 -65.79552393107133 0 -65.79552393107133 -223.05297152417825 0 0 0 0 -193.4724908194039 -133.91750661293645 0 -133.91750661293645 -173.5469187845988 0 0 0 0 242.66036131606961 -106.51403021912046 0 -106.51403021912046 -346.27728955921339 0 0 0 0 371.78685278710327 -79.597340544284407 0 -79.597340544284407 -251.74517431252275 0 0 0 0 530.04841125647363 -114.83824330356038 0 -114.83824330356038 -268.34347230445019 0 0 0 0 610.23877063127293 -236.91096396552769 0 -236.91096396552769 -156.26093302370873 0 0 0 0 348.56567363817157 -186.13028194104226 0 -186.13028194104226 -153.64716354837219 0 0 0 0 303.08504280955822 -332.00117505973861 0 -332.00117505973861 146.55540073772499 0 0 0 0 462.39573754725279 -253.35479766576043 0 -253.35479766576043 -157.53737966655444 0 0 0 0 628.14756874777959 -426.48191401443512 0 -426.48191401443512 20.939995569251323 0 0 0 0 772.80299497698434 -386.86732862483211 0 -386.86732862483211 -313.64100050391016 0 0 0 0 803.24583464143507 -282.20656537024445 0 -282.20656537024445 -310.45161223966761 0 0 0 0 666.03038749946063 -167.01083524721946 0 -167.01083524721946 -393.06749670695262 0 0 0 0 814.24944182019681 -326.39140185882093 0 -326.39140185882093 -470.07460126110618 0 0 0 0 751.22838317683636 -396.32980773486776 0 -396.32980773486776 -212.20304647187868 0 0 0 0 1083.3101255637448 -513.39809901517629 0 -513.39809901517629 -230.803289495786 0 0 0 0 498.81425986929389 -470.0778813725716 0 -470.0778813725716 10.756529018783425 0 0 0 0 673.74827227554488 -674.24295072949508 0 -674.24295072949508 220.34328708929115 0 0 0 0 804.72904130507231 -641.04343573119411 0 -641.04343573119411 218.75053951867403 0 0 0 0 1061.1411045186978 -1105.158558481606 0 -1105.158558481606 1049.6722834624511 0 0 0 0 1088.6745213143295 -15.12429162169326 0 -15.12429162169326 1188.9349697095643 0 0 0 0 368.12815565422352 -639.05995701695531 0 -639.05995701695531 596.34971662520911 0 0 0 0 249.08629933740303 -404.40513407287813 0 -404.40513407287813 324.31420576164055 0 0 0 0 560.25376084307209 -237.63180967569861 0 -237.63180967569861 372.46223574807584 0 0 0 0 446.84659810408994 -133.95111893829105 0 -133.95111893829105 80.594106706010734 0 0 0 0 809.19381545337092 -103.01924248040768 0 -103.01924248040768 477.8874964763902 0 0 0 0 747.59079112229665 -505.71778283802013 0 -505.71778283802013 492.71810808210466 0 0 0 0 -16.865172797046398 39.556082288119498 0 39.556082288119498 -715.86477410139435 0 0 0 0 119.26185893111324 -135.32003903740923 0 -135.32003903740923 241.54955587558061 0 0 0 0 97.948903035678086 -249.54499534263505 0 -249.54499534263505 -40.164710121513536 0 0 0 0 379.46183030882094 -534.74918639808516 0 -534.74918639808516 91.431817574717797 0 0 0 0 1.5317353027091372 -3.254806404413749 0 -3.254806404413749 -1.9859228743995998 0 0 0 0 196.09765538498323 -507.30782258936972 0 -507.30782258936972 667.12984470256424 0 0 0 0 209.48271402642422 -548.19179321360843 0 -548.19179321360843 315.0783495608261 0 0 0 0 397.26410267534084 -507.23186418962371 0 -507.23186418962371 323.77532124790849 0 0 0 0 306.81337871196592 -375.76475992306359 0 -375.76475992306359 134.21426970473954 0 0 0 0 234.45013612846378 -449.18943327207694 0 -449.18943327207694 270.36486127081116 0 0 0 0 99.915434224807541 -376.61655034853146 0 -376.61655034853146 227.72784518594028 0 0 0 0 393.7875773923879 -288.25365427351198 0 -288.25365427351198 252.94569566681298 0 0 0 0 230.09604488387049 -313.33161214620043 0 -313.33161214620043 76.376297677048569 0 0 0 0 2.8480569848193227 -4.3457833622152435 0 -4.3457833622152435 -2.729614280099633 0 0 0 0 196.96309427615779 -331.75156850626718 0 -331.75156850626718 337.7727258346082 0 0 0 0 127.07535711035598 -190.00809313849624 0 -190.00809313849624 -545.47904644458322 0 0 0 0 19.025029876676854 -333.50613620041207 0 -333.50613620041207 131.89320193191315 0 0 0 0 61.910960121982498 -7.4307903395590529 0 -7.4307903395590529 -268.62950084912637 0 0 0 0 148.66592617836432 -246.35255542183478 0 -246.35255542183478 -557.50028131015131 0 0 0 0 322.70196206521359 -241.23455796838323 0 -241.23455796838323 -599.48890361699591 0 0 0 0 2.4620349134692674 -1.7815868351364941 0 -1.7815868351364941 -3.4275856858565712 0 0 0 0 379.23002545431154 203.63421076824545 0 203.63421076824545 -759.88764633070048 0 0 0 0 229.0596575972595 -87.168871185900002 0 -87.168871185900002 -556.70063308351587 0 0 0 0 137.5830203689693 165.24139245203133 0 165.24139245203133 -1046.3261300932902 0 0 0 0 107.22509860344871 -355.92936843777034 0 -355.92936843777034 -844.50385935740371 0 0 0 0 -282.63232236854674 -59.329408610136426 0 -59.329408610136426 -376.29857690895733 0 0 0 0 113.30127848871052 -268.09477260629802 0 -268.09477260629802 -306.31799530460864 0 0 0 0 184.45217341402895 -1.8436637322867 0 -1.8436637322867 -18.87738467352699 0 0 0 0 193.34041978445021 103.94678594118514 0 103.94678594118514 -431.0519654628464 0 0 0 0 530.16318601559033 -309.20463264281813 0 -309.20463264281813 -18.778487100002337 0 0 0 0 650.82728577731177 184.72694350149459 0 184.72694350149459 -424.50478034637456 0 0 0 0 10.868645945840399 -83.301094404832725 0 -83.301094404832725 385.72880621283855 0 0 0 0 1.9215281418197492 -1.8884860400630004 0 -1.8884860400630004 -1.0330119423748003 0 0 0 0 757.58378362708027 -572.93059328476897 0 -572.93059328476897 547.82384155050624 0 0 0 0 77.523722610141249 35.70927017119466 0 35.70927017119466 228.85856713176793 0 0 0 0 941.12044874970161 138.68093444256203 0 138.68093444256203 212.31156859774083 0 0 0 0 749.2828229375009 250.43380892466848 0 250.43380892466848 -268.69188359839177 0 0 0 0 732.38641347325756 -204.58288335644178 0 -204.58288335644178 636.68678486359045 0 0 0 0 1339.9770116231666 596.49353790480211 0 596.49353790480211 482.74319208598229 0 0 0 0 1022.8195852468813 346.3359245410436 0 346.3359245410436 294.30521164406491 0 0 0 0 845.7473257882375 266.13088823738951 0 266.13088823738951 355.90016383916191 0 0 0 0 1000.0789983379218 367.48193713244177 0 367.48193713244177 358.56361714386031 0 0 0 0 1377.5982511024558 -8.1792997418252185 0 -8.1792997418252185 147.7499462017438 0 0 0 0 439.83273152605398 -258.62697987212061 0 -258.62697987212061 104.77033507293345 0 0 0 0 43.961332538616261 -357.29204711037505 0 -357.29204711037505 296.86562201827837 0 0 0 0 260.90357450092415 -452.63565239642611 0 -452.63565239642611 251.33337283044057 0 0 0 0 149.35760981580825 -206.45127396531461 0 -206.45127396531461 33.830293724229477 0 0 0 0 227.19274875892734 -233.08026915683274 0 -233.08026915683274 21.465280620312569 0 0 0 0 554.7092215786106 -588.45730526567695 0 -588.45730526567695 36.908335637006985 0 0 0 0 9.0158504818071492 -5.9419747487939389 0 -5.9419747487939389 3.638577840823416 0 0 0 0 -379.50328576863103 -573.73642712364017 0 -573.73642712364017 40.055073508073434 0 0 0 0 28.322699753174675 -76.02627681105696 0 -76.02627681105696 -279.85475745881558 0 0 0 0 131.468948743277 -229.63598985400085 0 -229.63598985400085 -497.87165543608717 0 0 0 0 251.09013135911664 -82.389156878534777 0 -82.389156878534777 -261.10507903260623 0 0 0 0 17.666934880049666 -113.57037228472882 0 -113.57037228472882 -27.123031320350492 0 0 0 0 45.602365843660664 -143.01530460279628 0 -143.01530460279628 -242.70701796368326 0 0 0 0 16.243814426911626 -12.866094178945559 0 -12.866094178945559 6.2147672413457578 0 0 0 0 921.73596332856687 -1124.3419408501577 0 -1124.3419408501577 -73.014261818156228 0 0 0 0 -142.28281943305046 -443.53128041257105 0 -443.53128041257105 -405.43403677101765 0 0 0 0 820.82057534171327 937.0437185622518 0 937.0437185622518 -15.833986042408469 0 0 0 0 -144.78039772671764 601.17885278970141 0 601.17885278970141 571.11992649354579 0 0 0 0 867.05030290287687 128.0664614582638 0 128.0664614582638 765.81182756555381 0 0 0 0 884.89604731620057 400.04742131073363 0 400.04742131073363 49.145192112450559 0 0 0 0 1160.7743152968906 101.70890089082695 0 101.70890089082695 -70.174680264447488 0 0 0 0 1482.8030748536403 523.08633184162409 0 523.08633184162409 72.918516191861045 0 0 0 0 969.33774235137389 171.35889674303019 0 171.35889674303019 27.69405405200223 0 0 0 0 1106.0927957036038 -328.89619368282274 0 -328.89619368282274 371.1928100541129 0 0 0 0 1900.0444352881896 900.23937920451931 0 900.23937920451931 -17.118195286631817 0 0 0 0 2066.4793541686522 94.270030677208297 0 94.270030677208297 -74.266182622555334 0 0 0 0 938.16366367750743 142.46133321564116 0 142.46133321564116 -11.401806134739218 0 0 0 0 908.5608888407296 51.87193994799668 0 51.87193994799668 -29.189152326924045 0 0 0 0 743.82255861325393 39.956864207984495 0 39.956864207984495 -9.9759522280451165 0 0 0 0 756.71747985640832 7.7379442769844218 0 7.7379442769844218 70.208722755484814 0 0 0 0 973.67200599357602 89.338417739619672 0 89.338417739619672 -35.553551410514729 0 0 0 0 1021.8089744559984 60.060541745891896 0 60.060541745891896 68.378251323108657 0 0 0 0 992.46954054710841 258.96192899052625 0 258.96192899052625 199.45969159325068 0 0 0 0 1492.9494429799961 10.134074380410311 0 10.134074380410311 198.05071028185648 0 0 0 0 1018.3927492893708 212.36120382223316 0 212.36120382223316 137.09929627441397 0 0 0 0 -892.45799934366369 -167.82861790660627 0 -167.82861790660627 -574.11661601982723 0 0 0 0 1459.3525828430147 584.5764870075966 0 584.5764870075966 204.63717696024059 0 0 0 0 8.8276501172571216 -6.0314292073323941 0 -6.0314292073323941 3.2578010973026874 0 0 0 0 811.91763191347854 464.49656276091378 0 464.49656276091378 266.87349877839915 0 0 0 0 424.41295946418541 198.1059482163887 0 198.1059482163887 95.107695887194495 0 0 0 0 959.43012783161248 224.44344307791198 0 224.44344307791198 -81.347924883674636 0 0 0 0 1219.5566233955687 132.84369742523427 0 132.84369742523427 -50.468938836615962 0 0 0 0 1036.3338693322803 142.12414988601176 0 142.12414988601176 -155.05065005167125 0 0 0 0 923.48761617645505 176.71713429406975 0 176.71713429406975 -155.49204396855976 0 0 0 0 891.18602235277649 156.47409629505353 0 156.47409629505353 -145.33454046774978 0 0 0 0 878.60467021967452 249.01789416015663 0 249.01789416015663 -143.67344657097374 0 0 0 0 893.31533431502612 138.99203295521076 0 138.99203295521076 -273.55372574789908 0 0 0 0 971.79809165830375 259.3937521063844 0 259.3937521063844 -199.63366792594508 0 0 0 0 965.81610269928933 206.0853900303282 0 206.0853900303282 -235.89061387893298 0 0 0 0 912.54042991423194 176.96394166764657 0 176.96394166764657 -88.628706600637315 0 0 0 0 648.47611689499172 225.22384631610907 0 225.22384631610907 -92.34428835836593 0 0 0 0 725.16148671781229 29.856018455440839 0 29.856018455440839 -27.459528329608929 0 0 0 0 733.98032261394837 146.26888148072339 0 146.26888148072339 -55.365492681875594 0 0 0 0 637.83743733312167 117.91535762948456 0 117.91535762948456 1.3899967657446268 0 0 0 0 522.19810179980414 330.43522633936749 0 330.43522633936749 112.22061614117089 0 0 0 0 925.21269100709469 337.22378606259105 0 337.22378606259105 -49.275733771957363 0 0 0 0 917.15794285209267 692.56508449378487 0 692.56508449378487 383.90867167480457 0 0 0 0 386.59105982494657 277.85651387722402 0 277.85651387722402 95.187876745650215 0 0 0 0 199.12309742634716 63.822861281373918 0 63.822861281373918 86.833172014042248 0 0 0 0 -85.054773456373368 86.390540445828321 0 86.390540445828321 -45.366362908644092 0 0 0 0 901.18673471102375 1003.8056751259376 0 1003.8056751259376 1111.4551988195624 0 0 0 0 100.89472747661057 268.0524128058978 0 268.0524128058978 435.1283678610705 0 0 0 0 10.514227618714017 2.0215964352481279 0 2.0215964352481279 0.091291372474822191 0 0 0 0 398.21654328347358 -148.01341320768694 0 -148.01341320768694 -163.16038942742472 0 0 0 0 25.574527785361795 2.0306761372532875 0 2.0306761372532875 -0.9119940531933034 0 0 0 0 1847.3510147154448 710.61610302011024 0 710.61610302011024 143.37618345868131 0 0 0 0 1681.2153535514008 141.73312489910649 0 141.73312489910649 31.183766752372193 0 0 0 0 1326.3568244501657 -3.2802925762201127 0 -3.2802925762201127 184.05191280534748 0 0 0 0 1267.974682036438 264.90720256877398 0 264.90720256877398 41.062773693922082 0 0 0 0 1027.1316752626153 260.65944527956253 0 260.65944527956253 -116.0492384793111 0 0 0 0 1269.2939487878466 123.24225340771511 0 123.24225340771511 -38.200356280481657 0 0 0 0 1122.5795547921443 489.39397767543505 0 489.39397767543505 95.933548108530374 0 0 0 0 1000.731997604109 346.85775709545248 0 346.85775709545248 -70.69401445802697 0 0 0 0 905.9617079585114 271.54793376508621 0 271.54793376508621 -184.89587798815114 0 0 0 0 1095.5558857605211 406.70896916409856 0 406.70896916409856 -89.792545454090771 0 0 0 0 841.50374200139777 227.40136794335012 0 227.40136794335012 -202.6926752972571 0 0 0 0 979.96796575298504 158.98948744262088 0 158.98948744262088 -169.59811589903404 0 0 0 0 1513.5398290189623 288.80474731752946 0 288.80474731752946 0.47964106215662011 0 0 0 0 1148.3573651629122 -153.07867617092842 0 -153.07867617092842 84.2541304312997 0 0 0 0 850.13300428877119 115.35320265276869 0 115.35320265276869 -290.41261487800341 0 0 0 0 591.21914397447836 119.51737606359694 0 119.51737606359694 -100.68672259741814 0 0 0 0 1741.6985015940008 -367.79407353368316 0 -367.79407353368316 161.88094354313097 0 0 0 0 591.66552579779818 -0.55070626754329055 0 -0.55070626754329055 -257.55408832623425 0 0 0 0 309.21262945365743 -40.377116745876151 0 -40.377116745876151 -640.00433375852526 0 0 0 0 230.76814921555342 8.0208750678184515 0 8.0208750678184515 -185.46956819272077 0 0 0 0 684.608931270006 -122.06290468053083 0 -122.06290468053083 131.0649906273724 0 0 0 0 193.19327608810272 37.354297172379731 0 37.354297172379731 81.001595320730871 0 0 0 0 915.9518215738135 -0.45830423986477342 0 -0.45830423986477342 -59.924933635277625 0 0 0 0 755.4741780039767 105.66335289161042 0 105.66335289161042 109.27622114396067 0 0 0 0 972.46656794372393 -32.206360618145517 0 -32.206360618145517 188.73058062534193 0 0 0 0 400.9844433486287 -168.58271870823432 0 -168.58271870823432 256.80626008169452 0 0 0 0 1657.6013152645173 -1383.9504368327748 0 -1383.9504368327748 97.020693082698585 0 0 0 0 494.85111447877716 -123.67381946081389 0 -123.67381946081389 188.39522787406935 0 0 0 0 277.66406532789551 -229.58672498490625 0 -229.58672498490625 136.74605637205775 0 0 0 0 -322.94967820332386 151.4528953813747 0 151.4528953813747 -104.39813595234341 0 0 0 0 21.773443767640345 -13.807764517824864 0 -13.807764517824864 6.6170725717458048 0 0 0 0 -219.579026416337 -1104.1290784791188 0 -1104.1290784791188 55.917204119490528 0 0 0 0 5314.2108835831204 13.894093739444997 0 13.894093739444997 407.76732987835385 0 0 0 0 2015.9044922255125 2170.8837034481244 0 2170.8837034481244 -210.95317623587471 0 0 0 0 4728.1423131667107 421.13303344737233 0 421.13303344737233 -741.42025365006975 0 0 0 0 1987.0226546481717 291.01239134444631 0 291.01239134444631 80.445307802501702 0 0 0 0 1583.8877292495454 97.452961093810245 0 97.452961093810245 276.9325649651837 0 0 0 0 1063.8514980949985 82.92185026252946 0 82.92185026252946 320.98072572511319 0 0 0 0 1473.2990795394544 354.73751500614958 0 354.73751500614958 465.01886448100413 0 0 0 0 577.83476661071472 -1350.929386423601 0 -1350.929386423601 64.683257695984139 0 0 0 0 -694.13144132046727 77.389561478860287 0 77.389561478860287 847.68448153920917 0 0 0 0 34.190716317347096 -26.883585705363686 0 -26.883585705363686 14.988060034516455 0 0 0 0 -11.766945433017099 -30.176969509514606 0 -30.176969509514606 -127.78237247856259 0 0 0 0 30.962574209377635 -409.04142152362579 0 -409.04142152362579 -463.01303659088961 0 0 0 0 555.97441794801853 26.201361055454413 0 26.201361055454413 -378.50838948889862 0 0 0 0 786.71035006507009 207.92169823088074 0 207.92169823088074 -250.02004508809819 0 0 0 0 524.34057665799628 60.292908808352763 0 60.292908808352763 -233.89464706420517 0 0 0 0 438.65878236181743 64.451259554101171 0 64.451259554101171 -62.486087795444405 0 0 0 0 594.33860193804139 72.646758126655186 0 72.646758126655186 -221.99621405497032 0 0 0 0 459.25969614722999 179.6316569826036 0 179.6316569826036 -100.42011636662073 0 0 0 0 -1106.0212345536274 87.612266998494306 0 87.612266998494306 -797.0142833302034 0 0 0 0 1044.2147293532325 198.44662536634769 0 198.44662536634769 72.574769899498278 0 0 0 0 4.3078704610485374 -3.254054248147213 0 -3.254054248147213 1.5200869682643869 0 0 0 0 747.61619966341823 368.96338444036746 0 368.96338444036746 18.800931900164869 0 0 0 0 24.005242325918573 -18.74128903546324 0 -18.74128903546324 10.03467192788646 0 0 0 0 -489.66491331643192 -830.59029017697026 0 -830.59029017697026 -335.07996385833576 0 0 0 0 -571.64265730051557 -665.92338251703222 0 -665.92338251703222 -463.98299840776053 0 0 0 0 11.95589074057682 -9.8208188836574379 0 -9.8208188836574379 4.3989713461827833 0 0 0 0 149.99222047691001 -126.38727514334505 0 -126.38727514334505 -169.64618434206022 0 0 0 0 215.33692385735048 43.374487474447506 0 43.374487474447506 -216.06963088495741 0 0 0 0 750.42879814634216 134.18684113059862 0 134.18684113059862 -247.14117799549695 0 0 0 0 134.98917212780088 73.511317118192636 0 73.511317118192636 -15.175508768412328 0 0 0 0 755.68045122831199 -5.8214254088376549 0 -5.8214254088376549 -279.47262852328004 0 0 0 0 1209.081481532412 127.7118621022405 0 127.7118621022405 -301.07685531646075 0 0 0 0 1576.6052755301644 -103.74143210250259 0 -103.74143210250259 -407.63609237120079 0 0 0 0 1556.6669618214801 -64.378451005200532 0 -64.378451005200532 -137.21488638085339 0 0 0 0 1300.3238847723696 256.22631306200674 0 256.22631306200674 50.157976456829601 0 0 0 0 1186.9368462336715 11.566361827005039 0 11.566361827005039 -138.35059813728094 0 0 0 0 964.55292278270645 35.573378587942898 0 35.573378587942898 -76.326573581705816 0 0 0 0 1074.2196642059716 -748.2262921364013 0 -748.2262921364013 171.86264428586492 0 0 0 0 2456.9848967261387 -580.72583158756095 0 -580.72583158756095 -252.3408929600082 0 0 0 0 1465.9158798584031 -463.6632128469509 0 -463.6632128469509 -265.70221402814332 0 0 0 0 1493.3146276087791 -430.48982641081807 0 -430.48982641081807 -386.96552507381421 0 0 0 0 1163.7718762560835 -449.24148270376656 0 -449.24148270376656 -385.51315031854392 0 0 0 0 1452.537729706457 -833.76016782190811 0 -833.76016782190811 -275.52231234581814 0 0 0 0 958.43924541117303 -737.3783863243259 0 -737.3783863243259 -293.73063501148954 0 0 0 0 825.38074891411088 -937.76637047472354 0 -937.76637047472354 -272.97664773954648 0 0 0 0 606.24194288360013 -428.59409761739596 0 -428.59409761739596 -455.69431736056868 0 0 0 0 509.39894843485672 -524.09245722530977 0 -524.09245722530977 218.91241133584117 0 0 0 0 1103.9715461540327 -776.44666782373633 0 -776.44666782373633 -366.13038420467137 0 0 0 0 65.434207751414078 2.9208292248603982 0 2.9208292248603982 -13.230579730649314 0 0 0 0 1040.5499807422893 -1099.3619208281971 0 -1099.3619208281971 826.34869826216982 0 0 0 0 405.87650068529183 26.506044871930783 0 26.506044871930783 -1392.1220230464928 0 0 0 0 542.88512327565149 -771.82727906359651 0 -771.82727906359651 -2.2991662039092944 0 0 0 0 76.40304495319964 3.1399293733163205 0 3.1399293733163205 -17.183559080604748 0 0 0 0 1073.9227452187042 103.52464095559583 0 103.52464095559583 -1072.6888518233477 0 0 0 0 1443.4282918782119 -769.38546568640049 0 -769.38546568640049 161.21408989461543 0 0 0 0 1496.3608170092994 -929.2113268564899 0 -929.2113268564899 642.76931390864956 0 0 0 0 27.744066399279177 1.5992747082429446 0 1.5992747082429446 -4.8590469211467564 0 0 0 0 4101.6644492752312 -2881.3793601792522 0 -2881.3793601792522 1986.881224145166 0 0 0 0 1676.1729329444097 -373.73818485963363 0 -373.73818485963363 0.4127341690905979 0 0 0 0 2173.7635939844913 -592.8676812365087 0 -592.8676812365087 224.50820619314618 0 0 0 0 2278.7398996500706 2177.5216489828053 0 2177.5216489828053 -3521.5345155754931 0 0 0 0 864.17395463832509 -621.62633023502246 0 -621.62633023502246 116.23406817162936 0 0 0 0 5331.6390818213804 45.758806216998522 0 45.758806216998522 -2066.1269060631589 0 0 0 0 -59.741677961177629 -503.02272723836614 0 -503.02272723836614 102.00572255976658 0 0 0 0 -281.86956511337485 925.66136472524636 0 925.66136472524636 -582.58355833086966 0 0 0 0 1756.9363610775035 456.74778290068792 0 456.74778290068792 771.52963439196969 0 0 0 0 4221.6226118421328 53.07579876328299 0 53.07579876328299 101.20060074146261 0 0 0 0 1851.552983249414 -116.40829488557347 0 -116.40829488557347 368.62974460604289 0 0 0 0 1819.6667613634054 -366.23869943833324 0 -366.23869943833324 60.653905074423612 0 0 0 0 973.46627324448491 -382.42811244154649 0 -382.42811244154649 156.00911631605459 0 0 0 0 2850.8979880417937 -546.36845428530467 0 -546.36845428530467 -205.28804150133158 0 0 0 0 10.827434496434876 -4.5895370094188905 0 -4.5895370094188905 0.069163689865591405 0 0 0 0 4483.8241513973189 -2507.5010058997873 0 -2507.5010058997873 -734.01733647789865 0 0 0 0 2625.3283643422765 -188.9044872009257 0 -188.9044872009257 -759.07490071569259 0 0 0 0 11.279509090038971 -3.8494328431362632 0 -3.8494328431362632 -1.7794004493967899 0 0 0 0 4491.3054455367819 313.31606409966258 0 313.31606409966258 -1784.0252964217621 0 0 0 0 1211.9165041260858 -909.49967615691389 0 -909.49967615691389 -263.76002292855179 0 0 0 0 4000.5601942657231 -1414.0329777752142 0 -1414.0329777752142 -189.0870970504497 0 0 0 0 4500.8754170005559 -1990.7137125128818 0 -1990.7137125128818 474.822565637911 0 0 0 0 2375.3721119529364 -2412.4801693860099 0 -2412.4801693860099 53.192877211734633 0 0 0 0 3327.5103698332023 -1373.3314136816637 0 -1373.3314136816637 -295.32645336196413 0 0 0 0 849.3149390387407 -908.1441919860797 0 -908.1441919860797 154.90953471278794 0 0 0 0 706.10816822854395 197.73734349841629 0 197.73734349841629 -1976.9484968110287 0 0 0 0 70.599981498345642 2.7504433961571948 0 2.7504433961571948 -15.253956469943459 0 0 0 0 1431.8157505097392 -1215.5224840158785 0 -1215.5224840158785 296.91700804775473 0 0 0 0 180.52284415200847 -265.25044089453286 0 -265.25044089453286 -453.61422440657725 0 0 0 0 1046.1259367752209 -712.64522173395733 0 -712.64522173395733 -953.53362594074633 0 0 0 0 -322.39225574719967 -165.44094019338399 0 -165.44094019338399 -872.99016897227739 0 0 0 0 32.298138096091975 0.35369266882510431 0 0.35369266882510431 -5.7559371401683954 0 0 0 0 1796.1734153783837 2096.9225021121215 0 2096.9225021121215 -2603.7272290237324 0 0 0 0 4760.3506739923032 -3595.9224257644519 0 -3595.9224257644519 2629.6287233641647 0 0 0 0 4501.65072857622 11.572369522730449 0 11.572369522730449 1839.036308891217 0 0 0 0 6538.2702684598626 -2113.9862801789673 0 -2113.9862801789673 1381.0112247860454 0 0 0 0 4379.5108649681788 -1394.6397116302232 0 -1394.6397116302232 1195.478414586162 0 0 0 0 3392.9788836059743 -3154.1654707447997 0 -3154.1654707447997 2577.6640430706966 0 0 0 0 1393.5443820460177 -1783.9959565061981 0 -1783.9959565061981 1752.5843414991416 0 0 0 0 50.096543780906359 43.536840773749105 0 43.536840773749105 5.6740215811217176 0 0 0 0 -4.8871765390522341 -43.747964338763524 0 -43.747964338763524 -8.6803113873432665 0 0 0 0 20.225919175716626 67.969402487808267 0 67.969402487808267 196.77709031929282 0 0 0 0 26.870912188664079 34.976763056642262 0 34.976763056642262 38.043210343867486 0 0 0 0 -11.303966893698089 5.2670256583188007 0 5.2670256583188007 78.488508339644994 0 0 0 0 32.93799043900799 -18.470986468599065 0 -18.470986468599065 -32.321043726896903 0 0 0 0 7.7490225090901959 -5.4465975390911865 0 -5.4465975390911865 2.8394474725449435 0 0 0 0 37.556225951484521 -20.516847818469273 0 -20.516847818469273 -13.470585960189638 0 0 0 0 62.607980086671887 34.500764169884462 0 34.500764169884462 7.2149348152761377 0 0 0 0 86.755395983316703 27.559035989526478 0 27.559035989526478 -12.97618947139631 0 0 0 0 95.916837220313028 42.1351929064204 0 42.1351929064204 8.8507324819987616 0 0 0 0 -3.1711444853572175 -22.654459099072582 0 -22.654459099072582 -41.172506210327782 0 0 0 0 5.7873228963276802 -3.7328332074301045 0 -3.7328332074301045 1.864160140758947 0 0 0 0 -39.937828644673573 -1.7673514304850357 0 -1.7673514304850357 7.4559115821190289 0 0 0 0 127.99979088593682 82.207278295720812 0 82.207278295720812 -38.360506168424898 0 0 0 0 39.534232059180795 97.907745117933985 0 97.907745117933985 70.959871783026244 0 0 0 0 56.574810986392549 117.61159893375667 0 117.61159893375667 56.482900146029039 0 0 0 0 16.797765322742634 58.367859236898276 0 58.367859236898276 90.123406555594016 0 0 0 0 61.632593015005114 111.17435869357415 0 111.17435869357415 49.279234763739368 0 0 0 0 61.939782785848365 108.52116810885994 0 108.52116810885994 65.427697044002855 0 0 0 0 63.740617808318348 116.20968894513149 0 116.20968894513149 50.729440808098161 0 0 0 0 70.64567988156341 123.46825078141745 0 123.46825078141745 58.359344256995612 0 0 0 0 87.457691984600388 40.372546663440687 0 40.372546663440687 4.2379225698884895 0 0 0 0 126.67916117038112 1.3755535909058381 0 1.3755535909058381 -21.774069422783214 0 0 0 0 99.590673900092952 26.343787956933227 0 26.343787956933227 -44.496450750097495 0 0 0 0 88.601634438004112 -31.801957078047792 0 -31.801957078047792 -56.55501780402254 0 0 0 0 -91.565841280986206 91.833864034442172 0 91.833864034442172 175.82626038254213 0 0 0 0 0.17744165838527692 0.53740929271211257 0 0.53740929271211257 1.4263479857945289 0 0 0 0 80.164754362216627 -125.69442610832974 0 -125.69442610832974 68.687340114714061 0 0 0 0 338.23644632518699 186.05839926277881 0 186.05839926277881 64.153877117361702 0 0 0 0 81.60955530940555 95.666630894833276 0 95.666630894833276 109.78234873550551 0 0 0 0 101.49872007666272 157.57051367823436 0 157.57051367823436 124.64885928641286 0 0 0 0 200.76905444642762 75.478057824326314 0 75.478057824326314 11.250255041855169 0 0 0 0 8.483312220654625 10.151611518180118 0 10.151611518180118 37.615080349739173 0 0 0 0 0.91052876097546687 -0.58189340977176585 0 -0.58189340977176585 -0.49994136910846343 0 0 0 0 14.816379874802806 -1.5025074175328683 0 -1.5025074175328683 58.881776780969631 0 0 0 0 101.7488812689553 49.972631237680872 0 49.972631237680872 42.024698294277641 0 0 0 0 25.857892724539852 20.385441720282159 0 20.385441720282159 31.222141289681474 0 0 0 0 29.498156699613901 30.584171398400144 0 30.584171398400144 145.63582472918637 0 0 0 0 31.830286188182072 38.94164404618877 0 38.94164404618877 70.927333914839892 0 0 0 0 87.50444800164405 -36.837136066128025 0 -36.837136066128025 83.034046942907253 0 0 0 0 3.9835566292895237 25.690546871416245 0 25.690546871416245 65.674013945539244 0 0 0 0 27.379723406214907 24.717031849051807 0 24.717031849051807 30.881983030804918 0 0 0 0 0.7413515132853945 -0.68743458543860925 0 -0.68743458543860925 -0.30244516664606902 0 0 0 0 501.92733922624029 245.49104994251454 0 245.49104994251454 -171.8131148533684 0 0 0 0 142.28716595175501 290.15459067924633 0 290.15459067924633 50.191140315869916 0 0 0 0 229.85905609911424 304.65071389176609 0 304.65071389176609 -88.73464175999311 0 0 0 0 10.659502659145801 24.580162110460179 0 24.580162110460179 35.453729024320239 0 0 0 0 192.08505186655384 -75.005360209781884 0 -75.005360209781884 -7.5459545418116249 0 0 0 0 0.78783477121169199 2.4815411101004088 0 2.4815411101004088 3.0855516908176446 0 0 0 0 -42.9298205566447 48.953958486486449 0 48.953958486486449 338.6669885082357 0 0 0 0 43.337542667955859 12.638606992531109 0 12.638606992531109 79.235378944473524 0 0 0 0 126.63108415770694 234.85268289974351 0 234.85268289974351 297.8293739811491 0 0 0 0 311.40718377125449 -86.124017763142604 0 -86.124017763142604 355.94472212189521 0 0 0 0 169.27389772603055 178.79918030199937 0 178.79918030199937 292.91210860219371 0 0 0 0 2.6307872323814081 233.92974643243269 0 233.92974643243269 286.93104913813539 0 0 0 0 1.5316535469438861 1.8586490299185527 0 1.8586490299185527 2.0490123031108847 0 0 0 0 348.59933663406264 80.628081694360702 0 80.628081694360702 21.273604966454741 0 0 0 0 -54.05969551281305 43.744086598303227 0 43.744086598303227 214.80912658305743 0 0 0 0 522.03102298288377 36.602519388934581 0 36.602519388934581 -95.644041398413492 0 0 0 0 22.287385253432149 -21.772490892507719 0 -21.772490892507719 86.824518585049844 0 0 0 0 79.702027762468788 -39.44922063926694 0 -39.44922063926694 -69.706655774107503 0 0 0 0 4.0587786977102667 3.5824025767658156 0 3.5824025767658156 6.4452317045989229 0 0 0 0 -20.853685095970832 11.980979608859514 0 11.980979608859514 18.909158599697548 0 0 0 0 2.7091713397094281 29.747669108780315 0 29.747669108780315 -53.386300553670537 0 0 0 0 57.536094472670811 26.278802138619199 0 26.278802138619199 25.446673168546617 0 0 0 0 -17.669013451034516 47.152527421281015 0 47.152527421281015 76.298695955920493 0 0 0 0 6.9772088521276601 -44.765243161496528 0 -44.765243161496528 41.632279696321916 0 0 0 0 -18.09103035274893 -20.751471670771025 0 -20.751471670771025 19.059801400806464 0 0 0 0 45.775154528484563 -20.285615939757349 0 -20.285615939757349 -7.8438825200446445 0 0 0 0 9.1261982107753283 0.69685840270307153 0 0.69685840270307153 -16.488107765570021 0 0 0 0 14.192902218339441 -11.593768012955195 0 -11.593768012955195 -9.3582434796467169 0 0 0 0 -5.5319755422642629 3.5296218110106734 0 3.5296218110106734 11.636865787109624 0 0 0 0 -21.82583984057419 0.05390312364681904 0 0.05390312364681904 9.2361067774036201 0 0 0 0 -3.0801420555673644 -0.58575042905553687 0 -0.58575042905553687 5.3425160825640718 0 0 0 0 -4.5716928301517328 -0.75401425450394277 0 -0.75401425450394277 9.5890384100018622 0 0 0 0 -2.2717867573956028 -7.9148690317301771 0 -7.9148690317301771 7.4250051758717746 0 0 0 0 0.55211853765649721 -1.7523707395287715 0 -1.7523707395287715 5.7878086387107714 0 0 0 0 -2.0873491979165806 -2.4531308883652372 0 -2.4531308883652372 5.9753584653886174 0 0 0 0 -1.4518352151830527 0.22482172734186179 0 0.22482172734186179 10.519621127157096 0 0 0 0 -1.1497845248512704 -0.12772539887842527 0 -0.12772539887842527 2.8206432569286415 0 0 0 0 482.7578806609381 151.65539895775669 0 151.65539895775669 47.729712316891892 0 0 0 0 -2.1686613057827344 -2.1733503264715637 0 -2.1733503264715637 135.28297565989897 0 0 0 0 117.73127098051191 200.40090118110496 0 200.40090118110496 246.77614347185363 0 0 0 0 442.94372191560979 373.7642394680397 0 373.7642394680397 -195.01903148452038 0 0 0 0 0.96775374089190791 1.3973318518830524 0 1.3973318518830524 1.2703465466133279 0 0 0 0 2.9823221222807206 3.0140020284687807 0 3.0140020284687807 6.997067921982822 0 0 0 0 23.207086124166381 64.128758484955029 0 64.128758484955029 320.44803589301318 0 0 0 0 388.10974410615745 220.41345007720429 0 220.41345007720429 251.14110874726703 0 0 0 0 129.95329889093409 107.47879059295815 0 107.47879059295815 202.89873552560425 0 0 0 0 366.74027467475389 -18.864948287231755 0 -18.864948287231755 123.52686421071394 0 0 0 0 -326.03210644514184 105.43999384444459 0 105.43999384444459 200.58031728059132 0 0 0 0 190.94657670296147 -173.83754160165381 0 -173.83754160165381 23.845505175519065 0 0 0 0 639.92789164242276 -82.788396850359163 0 -82.788396850359163 18.373944556513379 0 0 0 0 -106.81949049909599 -376.18476338380447 0 -376.18476338380447 638.56767735129142 0 0 0 0 80.878496893958072 -263.97851997161126 0 -263.97851997161126 -102.08995343347306 0 0 0 0 138.78854423351004 -147.72712405721018 0 -147.72712405721018 107.13357454918787 0 0 0 0 119.01754116172378 -178.26108532333194 0 -178.26108532333194 96.392358732748562 0 0 0 0 103.92371988474042 -181.86276566856077 0 -181.86276566856077 96.122044704050268 0 0 0 0 173.24342972956947 -178.69899378797572 0 -178.69899378797572 77.729434922568203 0 0 0 0 129.65561645923299 -151.53722865172631 0 -151.53722865172631 105.41755900134865 0 0 0 0 71.924595935624893 -54.364040598051758 0 -54.364040598051758 330.15766847567124 0 0 0 0 144.19641746713023 -115.21893206153698 0 -115.21893206153698 136.676014703894 0 0 0 0 98.363531019451329 -149.1752013736359 0 -149.1752013736359 112.30185005389149 0 0 0 0 -10.467761327097833 -0.68108236886987383 0 -0.68108236886987383 11.856160195663332 0 0 0 0 -1.0248915765259881 3.3536473612049367 0 3.3536473612049367 9.9698648872792432 0 0 0 0 -8.6242996700384538 2.0197987186498194 0 2.0197987186498194 11.963305460004463 0 0 0 0 -0.55825832183472812 -5.4801623124242269 0 -5.4801623124242269 -7.2154203898488163 0 0 0 0 -1.8099168841430355 -1.0255266114301662 0 -1.0255266114301662 5.8618655678758618 0 0 0 0 -0.14437719216724076 0.19622069961317834 0 0.19622069961317834 3.0265699034536775 0 0 0 0 -3.3327969951787964 4.0442551107751115 0 4.0442551107751115 -9.5924693894978645 0 0 0 0 -0.0389116991307219 0.46254211934669343 0 0.46254211934669343 1.141009994939977 0 0 0 0 -0.33871169754638686 5.8596458622937462 0 5.8596458622937462 10.811860944252395 0 0 0 0 73.328198826813605 -109.31826816761026 0 -109.31826816761026 171.87210863812834 0 0 0 0 7.868547198624583 0.14298531210399545 0 0.14298531210399545 7.0501753454395129 0 0 0 0 -0.56819805017997282 0.84825657783622432 0 0.84825657783622432 6.4220445233676138 0 0 0 0 122.67020139668602 -155.16101103762185 0 -155.16101103762185 86.290581454306221 0 0 0 0 -9.5174584754277021 -0.46121209231296945 0 -0.46121209231296945 10.395503923797634 0 0 0 0 2.4292061860323884 7.8669413909190453 0 7.8669413909190453 2.1910681029368675 0 0 0 0 -13.335888089291984 4.5217975803018646 0 4.5217975803018646 11.055855470043511 0 0 0 0 -12.271068516507512 2.9953047268544921 0 2.9953047268544921 7.0095149575990661 0 0 0 0 -10.89906617323868 6.3046643971073593 0 6.3046643971073593 -15.432689197474431 0 0 0 0 0.062736954394495115 -13.617785701433149 0 -13.617785701433149 -24.341351579726847 0 0 0 0 -36.927199059922714 7.2207973528634426 0 7.2207973528634426 7.9026349968345215 0 0 0 0 3.5527188085623607 -10.057696259657945 0 -10.057696259657945 13.987924252069144 0 0 0 0 -40.679992400742776 -8.0610303182570036 0 -8.0610303182570036 14.191415764127228 0 0 0 0 42.911283871024352 -26.149119303611187 0 -26.149119303611187 -19.434857966356276 0 0 0 0 0.7619399160832927 -7.3354800208977622 0 -7.3354800208977622 -8.3202292687110528 0 0 0 0 -4.1836651639459888 -84.209495260477524 0 -84.209495260477524 -106.50475096266268 0 0 0 0 39.565852627485583 -9.6137744010936501 0 -9.6137744010936501 -20.284353299930444 0 0 0 0 34.156425209715962 13.616451749933049 0 13.616451749933049 -54.433049718560596 0 0 0 0 12.05695401379387 5.3206576749324768 0 5.3206576749324768 2.3449765690852438 0 0 0 0 1.3774099179136101 5.7739378183797498 0 5.7739378183797498 2.2535998906869281 0 0 0 0 5.3052903163303995 -5.1208589751722684 0 -5.1208589751722684 -0.14336062895665869 0 0 0 0 341.88370491389651 -164.08779136579415 0 -164.08779136579415 -194.38805934056876 0 0 0 0 390.37062232734752 -233.2160549797004 0 -233.2160549797004 -186.42539874109184 0 0 0 0 -6.5848150114616146 -7.3236022128793463 0 -7.3236022128793463 12.269836708741849 0 0 0 0 -1.8756778087521013 -3.1989999081199585 0 -3.1989999081199585 5.7985276857242614 0 0 0 0 -27.080134874035139 -9.9119733218612502 0 -9.9119733218612502 11.986120579510128 0 0 0 0 5.8971789789720788 -5.7112535272826221 0 -5.7112535272826221 5.6396173484781684 0 0 0 0 1.9423975575715531 -1.0567671459499053 0 -1.0567671459499053 3.5775299744773288 0 0 0 0 6.7676107768493239 2.4463427752107236 0 2.4463427752107236 9.1686558676774439 0 0 0 0 -3.5287865672144108 -7.4759828192886744 0 -7.4759828192886744 -1.261519206057983 0 0 0 0 -6.0055914859985933 -0.74658098323493505 0 -0.74658098323493505 1.7993861865888903 0 0 0 0 -2.3354213765511531 -1.8737080302236677 0 -1.8737080302236677 7.6369603347549031 0 0 0 0 -6.2145635305496398 -9.6371482693789403 0 -9.6371482693789403 6.0034414730048411 0 0 0 0 -8.1052284821344074 -3.8019216186421545 0 -3.8019216186421545 11.715913681936399 0 0 0 0 1.6830310270059101 0.72500257990816408 0 0.72500257990816408 0.26645985665591887 0 0 0 0 33.307654922187794 -203.71567627409627 0 -203.71567627409627 -59.002298612615959 0 0 0 0 16.845618749932328 17.851301562633751 0 17.851301562633751 18.991579688523643 0 0 0 0 -29.098877844211529 -13.881038957544206 0 -13.881038957544206 49.034852263910125 0 0 0 0 -3.1308413692522663 10.869302165533085 0 10.869302165533085 39.692965326790272 0 0 0 0 8.4089521682316217 -5.7957011996181507 0 -5.7957011996181507 4.894206771054006 0 0 0 0 16.024516044970369 -22.562856924792641 0 -22.562856924792641 -31.851748697209715 0 0 0 0 -16.190100233536214 -29.170236274964964 0 -29.170236274964964 12.742164557717388 0 0 0 0 117.16885167769215 42.820596114732439 0 42.820596114732439 -10.70022908693295 0 0 0 0 86.705969496426405 -0.22489598475385719 0 -0.22489598475385719 -13.725325720285735 0 0 0 0 85.305255263869185 2.9556646135484925 0 2.9556646135484925 -19.128924779663521 0 0 0 0 99.044987170418608 61.429357305200938 0 61.429357305200938 21.090010403817359 0 0 0 0 16.071230409998861 -1.690877544808572 0 -1.690877544808572 -0.99813418846269997 0 0 0 0 152.23724041107926 48.793655779003757 0 48.793655779003757 -5.5236322609816568 0 0 0 0 3.9649116678764926 -1.1846477195214788 0 -1.1846477195214788 -1.0742508504053179 0 0 0 0 156.16318220897665 28.991226581053752 0 28.991226581053752 5.7793557763493482 0 0 0 0 141.864103624579 62.953128357133494 0 62.953128357133494 20.790665577573463 0 0 0 0 8.7926338160395971 -6.5945651965400884 0 -6.5945651965400884 -2.1333687783528603 0 0 0 0 9.0218596368825956 -2.8981309785060532 0 -2.8981309785060532 -0.67619247888690293 0 0 0 0 609.22898298723157 295.25965180332605 0 295.25965180332605 207.03005577730073 0 0 0 0 142.8016150564581 45.409489944427037 0 45.409489944427037 4.3168076172769361 0 0 0 0 0.89007054113153572 -1.0915373330847942 0 -1.0915373330847942 0.33348985687634292 0 0 0 0 -29.256361069041304 295.77563936971774 0 295.77563936971774 618.54528317679296 0 0 0 0 758.67530167981749 348.48685169468536 0 348.48685169468536 145.16925184642332 0 0 0 0 47.232117819861742 -25.538438307814431 0 -25.538438307814431 -61.482507480302274 0 0 0 0 -15.941712756044581 44.814289672465293 0 44.814289672465293 68.813796829209878 0 0 0 0 19.439949420600897 -45.269900979737713 0 -45.269900979737713 -24.040379302077554 0 0 0 0 17.12889381495188 -21.986703091445861 0 -21.986703091445861 30.154659090606856 0 0 0 0 0.97998079141598282 -1.9528784704064321 0 -1.9528784704064321 -2.9526920554127587 0 0 0 0 24.806750626841676 97.761300376570603 0 97.761300376570603 137.53326556921493 0 0 0 0 21.806665157550015 -472.79918760300507 0 -472.79918760300507 47.558520659265014 0 0 0 0 5.2294756911093714 2.1972609311254701 0 2.1972609311254701 1.1228975761517539 0 0 0 0 32.274115073071698 -371.36493228299599 0 -371.36493228299599 111.01199906816669 0 0 0 0 13.649260801452328 -10.184213300152805 0 -10.184213300152805 1.2149711367073905 0 0 0 0 7.4033261042786762 -10.946718602121905 0 -10.946718602121905 1.1219420121925623 0 0 0 0 9.7777993174968287 -8.1733411249188066 0 -8.1733411249188066 -2.0613943907078465 0 0 0 0 0.18794012713146913 -7.8867250180362589 0 -7.8867250180362589 -8.4731753390368052 0 0 0 0 14.426855213489034 -41.771675014727862 0 -41.771675014727862 -43.759467469882679 0 0 0 0 5.0600741378093517 -3.2530693026307205 0 -3.2530693026307205 3.4132405079617456 0 0 0 0 7.1826493265543832 -3.5106043338749942 0 -3.5106043338749942 3.4177021816308297 0 0 0 0 1.712494866562281 -1.4723549234123396 0 -1.4723549234123396 -1.6557408661494646 0 0 0 0 8.6424446277087554 -22.473049303775916 0 -22.473049303775916 13.643128982032906 0 0 0 0 2.041088327575153 -0.1756288699941706 0 -0.1756288699941706 3.6648701941036292 0 0 0 0 2.3344451865123119 0.30434924184010015 0 0.30434924184010015 2.8546026680178329 0 0 0 0 -50.832819985182141 4.4699016223019044 0 4.4699016223019044 -90.314471154420062 0 0 0 0 1.5524535283013847 -1.8480977697157925 0 -1.8480977697157925 4.5967662642823814 0 0 0 0 72.188875291438308 -32.364525192811925 0 -32.364525192811925 -156.40672860271161 0 0 0 0 -124.13250728690764 -104.53917658861496 0 -104.53917658861496 45.297910930049511 0 0 0 0 426.934853739338 296.24059945880344 0 296.24059945880344 229.08723450393302 0 0 0 0 6.756234319886147 -5.3949388741815199 0 -5.3949388741815199 3.7499469945853172 0 0 0 0 0.24625455623083781 1.0793231650069544 0 1.0793231650069544 0.21353653773802783 0 0 0 0 724.15720837294066 200.84199969105407 0 200.84199969105407 0.0092902306450923788 0 0 0 0 398.36542571609607 132.91551474574089 0 132.91551474574089 -106.73744443450391 0 0 0 0 -21.029934389778646 -37.526414716432953 0 -37.526414716432953 62.26799775854758 0 0 0 0 -262.30341137381038 4.4132141468608097 0 4.4132141468608097 416.69187437872506 0 0 0 0 -45.398856069688918 537.9676964424234 0 537.9676964424234 648.50178607855969 0 0 0 0 -27.602503104004427 -18.622770414214642 0 -18.622770414214642 15.951652104603284 0 0 0 0 1.4380827585700899 19.335079149006905 0 19.335079149006905 52.992114322539337 0 0 0 0 -8.99035506585642 -2.2735403766210709 0 -2.2735403766210709 -62.079593474388162 0 0 0 0 -32.287597475544317 -110.02012580146197 0 -110.02012580146197 -53.348199857746749 0 0 0 0 43.62251913320506 -85.621151603007888 0 -85.621151603007888 -173.28143323758604 0 0 0 0 22.820155081135169 3.0975705339284616 0 3.0975705339284616 -4.6260246835264685 0 0 0 0 54.116345042421017 -101.6864147479655 0 -101.6864147479655 -71.330858465713504 0 0 0 0 34.356216681364458 -21.009646272708551 0 -21.009646272708551 -57.388452889756763 0 0 0 0 -6.059125590370968 -5.0796462301095744 0 -5.0796462301095744 -12.682169278942638 0 0 0 0 11.778563058200916 -0.24343945039180426 0 -0.24343945039180426 -1.06560028493324 0 0 0 0 14.351115102181211 3.9148241322745889 0 3.9148241322745889 -17.844729995528724 0 0 0 0 1.4766728891631757 -0.51108889583960604 0 -0.51108889583960604 -0.10123664565701951 0 0 0 0 5.2390557346807327 -26.6110893692221 0 -26.6110893692221 20.162392783191763 0 0 0 0 0.37238451258593841 1.2303123854933844 0 1.2303123854933844 -0.14549208709969752 0 0 0 0 19.58160409796983 -42.350543834149221 0 -42.350543834149221 -0.76060242311132242 0 0 0 0 21.723964276610786 6.1718952328114085 0 6.1718952328114085 -15.94643313850429 0 0 0 0 -0.30581181411253056 18.849646455708296 0 18.849646455708296 -23.947837176192479 0 0 0 0 99.155761102883844 -8.2819228247501542 0 -8.2819228247501542 -16.683327606089165 0 0 0 0 35.501859532741946 33.937883029566706 0 33.937883029566706 18.43011188482933 0 0 0 0 87.328601424378576 58.150186831050405 0 58.150186831050405 2.1387873240407771 0 0 0 0 -5.804103801434394 28.847103706629014 0 28.847103706629014 7.8989390422694328 0 0 0 0 64.268808581939084 -8.8988632619284544 0 -8.8988632619284544 -60.570471189872023 0 0 0 0 24.642845566678034 1.6242385654430862 0 1.6242385654430862 -5.1928913894407138 0 0 0 0 380.1492797396204 165.38341872012472 0 165.38341872012472 -22.573516819796509 0 0 0 0 539.93804598416318 313.66613199154921 0 313.66613199154921 -450.72236299688848 0 0 0 0 172.60693467944657 436.51092187309371 0 436.51092187309371 -453.37343895204913 0 0 0 0 288.47077414992964 4.26655775037068 0 4.26655775037068 -499.3054602670087 0 0 0 0 -68.823229074361734 82.273439394009586 0 82.273439394009586 -779.16036647279543 0 0 0 0 139.02020959634319 636.53057309901601 0 636.53057309901601 -1137.3683449730993 0 0 0 0 214.16398575337371 163.9818183832798 0 163.9818183832798 -1024.3195443600932 0 0 0 0 28.614721224742993 6.1653198922533363 0 6.1653198922533363 -2.2998201617033036 0 0 0 0 -547.47663622240361 279.3918519700062 0 279.3918519700062 -236.61975513370106 0 0 0 0 150.37872492184397 456.64425276310055 0 456.64425276310055 -202.19590712852252 0 0 0 0 -45.920038395357551 381.52263224185458 0 381.52263224185458 174.76632808469151 0 0 0 0 -250.4946058155474 591.65499628456905 0 591.65499628456905 162.74496725346475 0 0 0 0 487.21705384895904 660.70555402829632 0 660.70555402829632 -473.48255768176278 0 0 0 0 -110.82965881025302 968.25855216493915 0 968.25855216493915 -544.96276203066418 0 0 0 0 11.126091905561111 3.6592317977122946 0 3.6592317977122946 0.42730636603858407 0 0 0 0 836.71230010874569 -504.02389504329562 0 -504.02389504329562 459.8535188968707 0 0 0 0 1532.3729426447826 22.463320895262996 0 22.463320895262996 -130.04258031908466 0 0 0 0 669.34246967005674 24.880925696645818 0 24.880925696645818 76.14712584541121 0 0 0 0 817.70111824585183 713.17646942866986 0 713.17646942866986 214.47923042908587 0 0 0 0 1218.1744289951312 68.990412213750943 0 68.990412213750943 -14.299360653602903 0 0 0 0 -250.82971624944912 153.64958257760867 0 153.64958257760867 2.3035463544019876 0 0 0 0 5.2789807192272633 -2.54252277014578 0 -2.54252277014578 0.2548322200055857 0 0 0 0 34.910170754792489 115.88100034929681 0 115.88100034929681 -32.641107652277697 0 0 0 0 593.85830652397999 419.96771896364481 0 419.96771896364481 -177.4272114540845 0 0 0 0 15.908064148388803 -8.4058546251038706 0 -8.4058546251038706 -38.821684188740392 0 0 0 0 840.90378330729436 143.15241842492424 0 143.15241842492424 -20.313422626596321 0 0 0 0 382.87828728544991 -6.7896088496286211 0 -6.7896088496286211 14.144320464643329 0 0 0 0 18.061554045635489 6.4584056581402791 0 6.4584056581402791 -4.4902722109049762 0 0 0 0 10.511394414868278 -3.8988208311144348 0 -3.8988208311144348 -2.3941897194259569 0 0 0 0 -34.474785046302713 172.13175623092627 0 172.13175623092627 379.70878569226852 0 0 0 0 6.0750063170562498 24.57933542425701 0 24.57933542425701 -62.359856796331457 0 0 0 0 -279.62394000904897 189.862924413173 0 189.862924413173 607.99711137910708 0 0 0 0 -150.43726182595492 335.00891287601974 0 335.00891287601974 632.2380028081202 0 0 0 0 -245.16232606378617 21.095727248407002 0 21.095727248407002 426.68834802526271 0 0 0 0 -100.15538093150826 160.87615864198187 0 160.87615864198187 401.41258536226673 0 0 0 0 96.416442900066613 381.29967930212302 0 381.29967930212302 219.48195822726805 0 0 0 0 406.50200486244285 104.98165707719224 0 104.98165707719224 359.37235498968676 0 0 0 0 538.4489269638143 596.68262552967371 0 596.68262552967371 238.61626241090502 0 0 0 0 -95.68419292478734 356.27493197993113 0 356.27493197993113 787.32015296980728 0 0 0 0 -93.980230642046081 412.29168747833569 0 412.29168747833569 523.16804975431728 0 0 0 0 -120.27727723639691 287.07367230164709 0 287.07367230164709 649.95967932760277 0 0 0 0 -23.279778477124637 133.24713098508539 0 133.24713098508539 -219.91079755391681 0 0 0 0 17.634705398278356 6.9656634424729962 0 6.9656634424729962 -1.2879566319138722 0 0 0 0 165.35627448066953 200.98745844942206 0 200.98745844942206 637.3135473274989 0 0 0 0 6.4134932603417383 2.9411345386457448 0 2.9411345386457448 1.0639217484723793 0 0 0 0 286.78048871553619 697.80312129229117 0 697.80312129229117 1940.1585274538211 0 0 0 0 405.74830873028259 -64.047951187549529 0 -64.047951187549529 -473.76672183374808 0 0 0 0 1677.6592165758484 545.77884111433173 0 545.77884111433173 546.13813057275604 0 0 0 0 955.87400468937631 343.05135187976015 0 343.05135187976015 190.82282402697012 0 0 0 0 601.28546217177063 382.79453565642007 0 382.79453565642007 602.0732833271469 0 0 0 0 428.75548992061522 178.39735465401958 0 178.39735465401958 394.38060031116788 0 0 0 0 790.82083493177197 142.65638589632863 0 142.65638589632863 -21.726496239702783 0 0 0 0 88.086355674502556 -200.17461787558773 0 -200.17461787558773 121.15978729323899 0 0 0 0 1022.0725409808821 200.57007158942565 0 200.57007158942565 -294.94076784566869 0 0 0 0 112.48325813710107 88.123858709785395 0 88.123858709785395 316.01253208117612 0 0 0 0 3.84227147193684 1.6533071644887798 0 1.6533071644887798 0.64137484108733966 0 0 0 0 1343.4405903913866 666.64892149072966 0 666.64892149072966 57.65368687093428 0 0 0 0 -61.065124465960253 8.4106159864950882 0 8.4106159864950882 17.006771486292564 0 0 0 0 -3.4248127543542068 -80.993792185147981 0 -80.993792185147981 117.12553711186214 0 0 0 0 -155.1769906496047 174.50073886284719 0 174.50073886284719 176.80987687813422 0 0 0 0 83.110036054786178 210.51825408239199 0 210.51825408239199 -204.23097078430487 0 0 0 0 6.219495168301421 4.4607791449222276 0 4.4607791449222276 2.7214497422919819 0 0 0 0 -12.982002030446893 -16.734316007392636 0 -16.734316007392636 26.985095570223166 0 0 0 0 9.3953026928866166 16.410655341264629 0 16.410655341264629 -1.8660215579611759 0 0 0 0 -14.665346053981921 14.179928810238039 0 14.179928810238039 -1.8941176169382743 0 0 0 0 -23.153109738457715 27.449729707609322 0 27.449729707609322 -6.1052588486381865 0 0 0 0 -10.866596796156955 23.695677341311864 0 23.695677341311864 -24.68224295130085 0 0 0 0 -21.179383329261327 36.025735420996398 0 36.025735420996398 -16.151855911889697 0 0 0 0 -7.7411729752348037 10.297313944711391 0 10.297313944711391 -4.0464246993714141 0 0 0 0 4.710240003594663 19.365626673415591 0 19.365626673415591 -16.686806657046816 0 0 0 0 6.5215015323483385 5.5565035075536002 0 5.5565035075536002 -21.63842287326429 0 0 0 0 -1.1185986193304416 16.222294813515418 0 16.222294813515418 12.175567342352167 0 0 0 0 6.7917063536297064 10.833932526215676 0 10.833932526215676 -0.47342916867432905 0 0 0 0 0.95090207864996046 14.382314912804418 0 14.382314912804418 0.80912900371822616 0 0 0 0 4.4304971922990148 4.9394467472861976 0 4.9394467472861976 3.5671582837255746 0 0 0 0 -2.1576034571335185 9.0512048971672812 0 9.0512048971672812 13.57583272138902 0 0 0 0 -80.490896768991661 185.02176945453601 0 185.02176945453601 -96.878712789816291 0 0 0 0 -125.98655552213313 57.338165203661219 0 57.338165203661219 -33.451142313181663 0 0 0 0 -99.837513627164299 104.27856954964818 0 104.27856954964818 30.818966329356499 0 0 0 0 49.898186825455923 -46.31201455804603 0 -46.31201455804603 89.337154440850099 0 0 0 0 -128.1850037929762 86.571997156942246 0 86.571997156942246 91.569308090537106 0 0 0 0 273.45098271139432 -0.39071629952945841 0 -0.39071629952945841 18.254572588323299 0 0 0 0 272.29030708345817 -7.7549361149874585 0 -7.7549361149874585 114.48274920418817 0 0 0 0 757.64737622324537 -191.71440309801892 0 -191.71440309801892 42.742965736791575 0 0 0 0 829.87899099656715 110.61450234754119 0 110.61450234754119 56.04799749891481 0 0 0 0 120.56167096896388 19.974686344604947 0 19.974686344604947 -9.1287616301764274 0 0 0 0 101.7403743533232 21.402814769987287 0 21.402814769987287 4.5431784191334827 0 0 0 0 86.499040240058093 31.35074452906747 0 31.35074452906747 2.2948601131523674 0 0 0 0 93.963786433210771 19.050727955416789 0 19.050727955416789 18.026524119772375 0 0 0 0 77.705595215775247 11.972911295172594 0 11.972911295172594 -12.22869355513285 0 0 0 0 80.182043960259762 0.76483337462445888 0 0.76483337462445888 -6.2088859064570698 0 0 0 0 25.612147873267531 20.556893981556186 0 20.556893981556186 6.1473290435286856 0 0 0 0 -18.185725061266567 -0.021850965837188596 0 -0.021850965837188596 13.270991331941559 0 0 0 0 13.098358987626852 10.017269023492076 0 10.017269023492076 -13.037365250962125 0 0 0 0 10.965501188125927 11.510872885810841 0 11.510872885810841 -14.051355832077434 0 0 0 0 0.69512887358345665 5.3972809119053693 0 5.3972809119053693 -2.5439233250268387 0 0 0 0 -0.41249220861936919 9.4411421101170845 0 9.4411421101170845 6.3574397077871936 0 0 0 0 28.274424153234577 -1.3403603631654732 0 -1.3403603631654732 5.0174135658146497 0 0 0 0 28.228300721151754 0.85086879717096053 0 0.85086879717096053 -13.238895437852989 0 0 0 0 1.4240698110661469 19.114566171759179 0 19.114566171759179 -4.2328543543633828 0 0 0 0 51.09349702889449 14.552550963633166 0 14.552550963633166 -4.4667023021899013 0 0 0 0 15.994377091876231 10.754754570221849 0 10.754754570221849 -11.847026635558677 0 0 0 0 13.980691512464546 10.477812868621641 0 10.477812868621641 8.9576023880466664 0 0 0 0 32.14677335912711 -5.7951204151930256 0 -5.7951204151930256 0.13182444009589744 0 0 0 0 18.029269680788275 19.891926653873952 0 19.891926653873952 6.2559593223817274 0 0 0 0 27.699695488699945 0.45757388750399741 0 0.45757388750399741 26.392364694397884 0 0 0 0 43.421427904613665 -11.088928085635416 0 -11.088928085635416 14.564163437710931 0 0 0 0 40.756435148825403 4.569045334211296 0 4.569045334211296 1.0312686246797966 0 0 0 0 -1.2530748240876477 6.1488195278731155 0 6.1488195278731155 0.90423701791060829 0 0 0 0 0.36675421941617969 9.3458569590011962 0 9.3458569590011962 0.14376922370774992 0 0 0 0 -26.989396272911108 1.5850439184572451 0 1.5850439184572451 11.69482608401654 0 0 0 0 2.0037995637248969 -5.8082957802562305 0 -5.8082957802562305 -6.4444450129893767 0 0 0 0 -2.362009334730601 8.492031849337323 0 8.492031849337323 8.4095407090184651 0 0 0 0 2.2929829112127393 2.7936256975239928 0 2.7936256975239928 4.5870953672430046 0 0 0 0 11.170141778260586 3.0009891845428456 0 3.0009891845428456 -4.973040851965834 0 0 0 0 -180.30762021215924 36.292610584391696 0 36.292610584391696 58.16635034239107 0 0 0 0 -107.01154316664906 36.033087666286519 0 36.033087666286519 -37.714315348675882 0 0 0 0 16.264413793993299 5.3925561120710199 0 5.3925561120710199 -17.495373146367456 0 0 0 0 9.7464107225532643 28.285170548492829 0 28.285170548492829 -4.6769254158784008 0 0 0 0 -2.8632964727954118 0.64092555979031829 0 0.64092555979031829 1.4144950492620563 0 0 0 0 -97.428243514965288 -50.449543205829514 0 -50.449543205829514 2.4430183172266879 0 0 0 0 9.0092629890843909 6.3638096095509553 0 6.3638096095509553 4.0425772346783351 0 0 0 0 -28.478418452374171 10.541854733289142 0 10.541854733289142 28.557074628226019 0 0 0 0 351.05960420520569 14.129956878004293 0 14.129956878004293 -111.19387964625901 0 0 0 0 194.89533744283835 77.874302013108718 0 77.874302013108718 39.35491469153618 0 0 0 0 227.14520192809869 -114.85084663164798 0 -114.85084663164798 -120.34304815698147 0 0 0 0 142.40907521481859 27.056630193011529 0 27.056630193011529 17.022473650604979 0 0 0 0 27.501053748186678 15.967418694586286 0 15.967418694586286 19.833493972901351 0 0 0 0 -27.227575455077385 -64.344067930346981 0 -64.344067930346981 10.785897999704957 0 0 0 0 75.849677364050876 -50.685347691974584 0 -50.685347691974584 5.9045480952232765 0 0 0 0 77.403294894829742 10.796699280915732 0 10.796699280915732 7.1394301485761389 0 0 0 0 114.67219274039962 -14.089769121948507 0 -14.089769121948507 14.167637251326362 0 0 0 0 71.374854729503568 -12.831232704117184 0 -12.831232704117184 7.6539746047599237 0 0 0 0 167.18191524600843 84.626828458252476 0 84.626828458252476 63.649281089029841 0 0 0 0 102.45994828315452 30.023922264853809 0 30.023922264853809 32.269129641016207 0 0 0 0 293.67808028648142 171.58564000207735 0 171.58564000207735 33.026923747566187 0 0 0 0 22.021245699688734 -185.16498380850661 0 -185.16498380850661 8.2579889644890727 0 0 0 0 2.2914892306358183 -1.361375399255877 0 -1.361375399255877 0.69177801951466944 0 0 0 0 193.30321587489743 -189.05235481182524 0 -189.05235481182524 -24.380096815343109 0 0 0 0 -172.30616816674592 -159.75509819255944 0 -159.75509819255944 10.43905856663082 0 0 0 0 2.9946754046527531 1.7816125665683273 0 1.7816125665683273 1.3647310870473468 0 0 0 0 16.677345808013342 90.262141226938411 0 90.262141226938411 309.19592170010492 0 0 0 0 233.61498336131626 211.78583449994335 0 211.78583449994335 203.58611169504502 0 0 0 0 16.884583177190507 118.03474434983747 0 118.03474434983747 216.42121713146264 0 0 0 0 6.5778537463629618 22.201177215295274 0 22.201177215295274 109.22366025359565 0 0 0 0 -14.059982303013385 -10.711150538082762 0 -10.711150538082762 107.90806088360432 0 0 0 0 14.985462726326659 72.553561570827469 0 72.553561570827469 95.617717977060224 0 0 0 0 19.604197124353959 -5.8877293676214322 0 -5.8877293676214322 2.6637259898207049 0 0 0 0 20.620765223313356 37.351020806197084 0 37.351020806197084 -11.379990501804741 0 0 0 0 7.3686972383423495 4.5099231805343862 0 4.5099231805343862 2.8387773836690826 0 0 0 0 262.26051172066946 250.15998421537552 0 250.15998421537552 274.18657014235941 0 0 0 0 35.979688944818918 26.697735795631843 0 26.697735795631843 22.374321266732579 0 0 0 0 -1.953506312049285 3.659913955777256 0 3.659913955777256 12.825384749169189 0 0 0 0 24.668643082666676 -1.5914002534364045 0 -1.5914002534364045 9.5128727880858719 0 0 0 0 15.961246161197778 -5.5461894276927524 0 -5.5461894276927524 -11.696995299324499 0 0 0 0 10.024949963728432 -3.4835024560765078 0 -3.4835024560765078 10.385412540955485 0 0 0 0 -0.74842977540660627 0.45141279218663044 0 0.45141279218663044 4.7710676713938645 0 0 0 0 25.972134058334632 29.36083034866391 0 29.36083034866391 51.9215885157397 0 0 0 0 41.025318380641693 109.26482587060516 0 109.26482587060516 146.97499272747984 0 0 0 0 76.421120067272568 41.720067229828146 0 41.720067229828146 16.23285413084551 0 0 0 0 0.050769799530044679 -0.13148976621334896 0 -0.13148976621334896 2.2050848469001845 0 0 0 0 215.02517241441819 164.92043806508423 0 164.92043806508423 121.18352754609214 0 0 0 0 56.703237922178232 150.94018886107426 0 150.94018886107426 250.81905942126872 0 0 0 0 29.792727262858534 98.538397599601382 0 98.538397599601382 152.29235719309719 0 0 0 0 63.008494292233081 86.234276233544094 0 86.234276233544094 94.518646842488494 0 0 0 0 40.828237512076157 59.19991595544802 0 59.19991595544802 84.595532005436098 0 0 0 0 175.01553417577816 124.68897433399789 0 124.68897433399789 112.41527924387159 0 0 0 0 65.30420486300136 101.91422247244782 0 101.91422247244782 144.1534259112791 0 0 0 0 505.7236570881505 10.984684324126192 0 10.984684324126192 27.280670812886228 0 0 0 0 506.33823677425971 9.0459148203085533 0 9.0459148203085533 31.593453816795773 0 0 0 0 534.84519362385618 -115.53261212176733 0 -115.53261212176733 55.837756606715629 0 0 0 0 242.14119898466743 -41.119397742736169 0 -41.119397742736169 108.39436994418065 0 0 0 0 244.90640085675113 -24.52955847395765 0 -24.52955847395765 -6.4166303385234187 0 0 0 0 9.4480938929336844 40.767535546198246 0 40.767535546198246 97.866341776320951 0 0 0 0 -107.69596969451959 77.97215458192295 0 77.97215458192295 -15.70904643956942 0 0 0 0 -23.645284772777813 -21.129723871856186 0 -21.129723871856186 66.655093092017296 0 0 0 0 -269.95956764448601 -28.595039234577314 0 -28.595039234577314 109.5729817686788 0 0 0 0 47.518873474564316 -63.574990525526403 0 -63.574990525526403 128.52726762918337 0 0 0 0 17.938901301371516 22.88549661840284 0 22.88549661840284 -34.571418001040115 0 0 0 0 -209.29929358631489 -103.06438732818603 0 -103.06438732818603 171.4409250139866 0 0 0 0 239.35815125789668 49.112512078027919 0 49.112512078027919 88.170355937223576 0 0 0 0 211.01586201971804 -16.060674665203464 0 -16.060674665203464 88.367639494942409 0 0 0 0 377.95652726515254 -34.805900382159734 0 -34.805900382159734 44.280206318747332 0 0 0 0 504.23984027732513 112.9839031409856 0 112.9839031409856 1.8896069623775134 0 0 0 0 38.27529010703438 -0.4229434112550074 0 -0.4229434112550074 -9.2900023614353096 0 0 0 0 10.283562463919225 13.203471380413637 0 13.203471380413637 -0.33771258726128117 0 0 0 0 159.09117765229894 152.98169069981077 0 152.98169069981077 174.88733463446835 0 0 0 0 315.22362940668245 138.02302158672666 0 138.02302158672666 99.725091572754309 0 0 0 0 349.90690813209221 167.72801890039261 0 167.72801890039261 107.49157596315234 0 0 0 0 55.390172945779341 3.9736989028486533 0 3.9736989028486533 143.83524497259339 0 0 0 0 23.43755115508975 64.42242025695964 0 64.42242025695964 92.912031130373009 0 0 0 0 35.52860590016644 40.403655284114592 0 40.403655284114592 167.15527994108973 0 0 0 0 137.37754862668226 26.18119637937496 0 26.18119637937496 91.092472762705569 0 0 0 0 16.876623971329536 25.031802182936438 0 25.031802182936438 243.9162377653895 0 0 0 0 59.749188050334851 -22.5909475985124 0 -22.5909475985124 -36.712992028508893 0 0 0 0 39.789286787723029 -0.42002200114760058 0 -0.42002200114760058 -0.75713874343278709 0 0 0 0 111.03231729935214 0.47583903293195817 0 0.47583903293195817 -49.465987170275525 0 0 0 0 33.836613040072677 0.68077879275900699 0 0.68077879275900699 -0.96276627831396677 0 0 0 0 230.093922531516 254.29897010935264 0 254.29897010935264 246.64033594082184 0 0 0 0 -7.1534962581499713 26.676920805676446 0 26.676920805676446 133.5103081217851 0 0 0 0 46.098989866011834 -2.3154854326260632 0 -2.3154854326260632 0.11060876500101496 0 0 0 0 66.23339604803914 -0.28492701357463091 0 -0.28492701357463091 -60.764536770332825 0 0 0 0 47.671576718663573 -2.0588086527346299 0 -2.0588086527346299 -0.46199597444825258 0 0 0 0 14.430570795055246 8.8803777034974019 0 8.8803777034974019 74.53041319495216 0 0 0 0 7.3659824665519409 -20.557631767669903 0 -20.557631767669903 212.9954140826608 0 0 0 0 41.886627743777353 52.294752878642555 0 52.294752878642555 90.910312572876705 0 0 0 0 50.391439181681562 -53.866108808852182 0 -53.866108808852182 -40.286518528655506 0 0 0 0 52.015520529843343 51.197097007448207 0 51.197097007448207 72.01586209539056 0 0 0 0 41.765381151912152 1.2420067119170082 0 1.2420067119170082 -1.5206377164669758 0 0 0 0 44.304617644908376 -1.3168138732066588 0 -1.3168138732066588 -0.59771969079151632 0 0 0 0 42.579199693267583 1.6405144164721968 0 1.6405144164721968 -8.345188943300899 0 0 0 0 49.041473897334072 -2.7941796843059841 0 -2.7941796843059841 -1.1601327402535935 0 0 0 0 49.904375160881955 -2.4822300033825844 0 -2.4822300033825844 -1.6352498362815266 0 0 0 0 49.938165134844894 -3.5538494251618848 0 -3.5538494251618848 -0.89317456508715054 0 0 0 0 50.980831786742783 -4.507653615702929 0 -4.507653615702929 -0.041369242547755966 0 0 0 0 51.682314382080335 -3.1709851651625662 0 -3.1709851651625662 -0.19830901720739613 0 0 0 0 51.415592711447971 -4.1260476580021201 0 -4.1260476580021201 -2.1681612565279309 0 0 0 0 45.417789759152583 -33.730045098646507 0 -33.730045098646507 -23.251081236980966 0 0 0 0 19.556309403080377 -13.338443383030864 0 -13.338443383030864 11.915926048937479 0 0 0 0 25.998127479833784 0.91616910741671376 0 0.91616910741671376 10.512303339373169 0 0 0 0 50.079794583169075 -2.681901848473764 0 -2.681901848473764 -0.34974842620438507 0 0 0 0 91.490188604584546 -30.404979834017624 0 -30.404979834017624 -78.84723796563118 0 0 0 0 72.77821224006766 -38.228074262510489 0 -38.228074262510489 20.707033022032249 0 0 0 0 40.889545279610502 1.1771665495586827 0 1.1771665495586827 -4.3048518765511972 0 0 0 0 138.18446134985425 47.550732599467693 0 47.550732599467693 17.522966253065469 0 0 0 0 90.291528320442012 41.414700774212491 0 41.414700774212491 116.23901894267965 0 0 0 0 175.83195186361991 -41.011334398091037 0 -41.011334398091037 68.351036481703034 0 0 0 0 56.444891602528514 37.326831878837595 0 37.326831878837595 151.88340836655186 0 0 0 0 56.529303351664566 -2.4298306504575464 0 -2.4298306504575464 55.891769047032682 0 0 0 0 64.953116374716046 -40.73146476328148 0 -40.73146476328148 23.340403342901311 0 0 0 0 12.592514893236512 -47.335530846485788 0 -47.335530846485788 57.827501599286052 0 0 0 0 13.731432724569459 16.774838326397401 0 16.774838326397401 62.632753372187238 0 0 0 0 40.858707061495807 -3.6723376450941814 0 -3.6723376450941814 77.810809194158992 0 0 0 0 24.336691547796363 61.931849040289364 0 61.931849040289364 126.42300022733019 0 0 0 0 15.92894544772571 29.612559185588552 0 29.612559185588552 13.439081098989959 0 0 0 0 43.546284461408504 87.737694031750578 0 87.737694031750578 49.227740525747322 0 0 0 0 40.374462056934135 84.77559820427976 0 84.77559820427976 58.002455085549911 0 0 0 0 63.177900932132616 112.99851468147634 0 112.99851468147634 79.528596861533373 0 0 0 0 87.036671272733656 88.268119178570998 0 88.268119178570998 70.301850549448602 0 0 0 0 123.2697977219068 178.51858845666882 0 178.51858845666882 250.602588008336 0 0 0 0 385.06740588480898 59.199912285811536 0 59.199912285811536 -3.8603810118928834 0 0 0 0 390.64225928366068 37.601756633816194 0 37.601756633816194 115.40539945162625 0 0 0 0 154.16833652155765 -61.669292138534445 0 -61.669292138534445 251.10366565038231 0 0 0 0 41.399107245757477 -12.357990827260437 0 -12.357990827260437 4.34146721797282 0 0 0 0 98.559088267851621 -9.6952998397573538 0 -9.6952998397573538 -30.548850870723868 0 0 0 0 38.736650814476889 1.7125141837233144 0 1.7125141837233144 -3.7334415622461847 0 0 0 0 37.959053788528763 11.032030316594438 0 11.032030316594438 17.972260446173493 0 0 0 0 -12.694271618813218 11.686658420215522 0 11.686658420215522 -5.6647143660154029 0 0 0 0 41.167025275412016 -44.285731376659498 0 -44.285731376659498 -50.953697758981548 0 0 0 0 0.64284477156166986 0.0251542279413286 0 0.0251542279413286 -0.023802805965136287 0 0 0 0 55.163118694894365 12.896256481563341 0 12.896256481563341 14.428934623713701 0 0 0 0 0.085372418881046297 1.1428280880460306 0 1.1428280880460306 2.9089465828774617 0 0 0 0 69.09443108009873 -6.042138622511203 0 -6.042138622511203 35.687040642797172 0 0 0 0 -0.95988927396979307 55.340166836806134 0 55.340166836806134 35.538531527145267 0 0 0 0 25.598004602390574 40.554965971614592 0 40.554965971614592 -3.1542766454697357 0 0 0 0 -83.526451665631612 -12.823475983000151 0 -12.823475983000151 31.090335372379464 0 0 0 0 -32.763269049944938 34.076143528454864 0 34.076143528454864 47.908203231760012 0 0 0 0 102.74509666940139 12.030092165870627 0 12.030092165870627 -8.4476252410993737 0 0 0 0 0.0380608047213018 0.77355451083965932 0 0.77355451083965932 2.430892052843904 0 0 0 0 100.53374034399167 15.952332817127143 0 15.952332817127143 -1.7731182027829675 0 0 0 0 78.674242656692513 13.975433715759095 0 13.975433715759095 19.027563942132446 0 0 0 0 67.12647684069816 5.983365348984961 0 5.983365348984961 20.435611721602214 0 0 0 0 13.304877120179299 3.0919925273790625 0 3.0919925273790625 2.5782582402622438 0 0 0 0 -9.2125705727812601 -17.731771920531401 0 -17.731771920531401 43.778806419607506 0 0 0 0 -43.210007176428917 -48.760976899159303 0 -48.760976899159303 21.256797318460883 0 0 0 0 0.072268756528485412 0.18090651769588817 0 0.18090651769588817 0.94817277673023015 0 0 0 0 144.20454648442683 63.938630842392236 0 63.938630842392236 41.652469970824548 0 0 0 0 84.342170662726858 7.9142652520757508 0 7.9142652520757508 17.288607421244997 0 0 0 0 68.489449997876363 8.2734136036036148 0 8.2734136036036148 20.239028227464587 0 0 0 0 48.620339181332383 7.2417314715186052 0 7.2417314715186052 21.245411791323249 0 0 0 0 70.65928691465524 0.90115486713540349 0 0.90115486713540349 10.315428670821291 0 0 0 0 42.511614161339821 12.642055998083009 0 12.642055998083009 26.04884035843088 0 0 0 0 52.170259103586432 11.693698356229675 0 11.693698356229675 17.934890550117025 0 0 0 0 46.13240100198891 13.077226383215056 0 13.077226383215056 27.636114982837562 0 0 0 0 52.983041731960839 17.14950094905744 0 17.14950094905744 26.812531682687336 0 0 0 0 61.761936410697672 -4.9706918392376043 0 -4.9706918392376043 0.0088032043873356794 0 0 0 0 51.276091409745277 -4.3886216082178429 0 -4.3886216082178429 -0.11343082923689352 0 0 0 0 52.716695169659431 -4.1439839699575458 0 -4.1439839699575458 0.25746221372803624 0 0 0 0 57.193846072739689 18.775345030522615 0 18.775345030522615 26.773738899982703 0 0 0 0 39.421359672240214 -27.446064701998829 0 -27.446064701998829 -4.5258217223124575 0 0 0 0 54.279260400333442 -5.5982827556463937 0 -5.5982827556463937 -5.4745915449815614 0 0 0 0 19.719803071275237 -7.1754480984841678 0 -7.1754480984841678 47.522677110073026 0 0 0 0 115.13353194433148 -3.6515957362029354 0 -3.6515957362029354 -39.161212065938628 0 0 0 0 27.667966243578121 17.758999936672083 0 17.758999936672083 67.741482255460866 0 0 0 0 53.245570711384062 -5.3382028699816484 0 -5.3382028699816484 -4.6752195656312949 0 0 0 0 52.746923082655485 -3.295848466045193 0 -3.295848466045193 -0.21222247245845988 0 0 0 0 51.41367786246883 -4.149225793840797 0 -4.149225793840797 -1.5322774296539752 0 0 0 0 52.966345019871369 -4.7527963161990199 0 -4.7527963161990199 -1.3344520765019401 0 0 0 0 55.108251935733279 -1.403727543036966 0 -1.403727543036966 0.2086724354155951 0 0 0 0 79.896341957821278 -2.6820457583357795 0 -2.6820457583357795 -1.8746467285510819 0 0 0 0 93.224056583319907 4.9470289135412049 0 4.9470289135412049 -3.9172900436322102 0 0 0 0 45.751256304240087 29.892879113133176 0 29.892879113133176 -172.34088137711296 0 0 0 0 22.958046742360324 26.470380310975656 0 26.470380310975656 -12.600929037753975 0 0 0 0 94.201110273192171 6.6301065442240992 0 6.6301065442240992 -6.6976501261905206 0 0 0 0 45.928914762268505 34.802554249457557 0 34.802554249457557 -115.37221057971601 0 0 0 0 36.162518226466602 39.913144607112599 0 39.913144607112599 -11.785723667346549 0 0 0 0 57.453526577374134 -18.336415747801766 0 -18.336415747801766 4.1993391924414007 0 0 0 0 30.463957198080607 -0.032592978378518933 0 -0.032592978378518933 -0.25054825341170717 0 0 0 0 93.344684159150347 101.75207970479823 0 101.75207970479823 -411.12499978966298 0 0 0 0 -41.879512809333391 -87.305315724568985 0 -87.305315724568985 -8.0096869955123609 0 0 0 0 54.378759254672332 28.73081391486312 0 28.73081391486312 -220.7031654805769 0 0 0 0 -65.19773090556555 190.10438816088754 0 190.10438816088754 97.88175790443438 0 0 0 0 -5.880423551730928 133.90416608754322 0 133.90416608754322 2.0226424504508032 0 0 0 0 -6.9637611397192813 200.55875711613089 0 200.55875711613089 -235.28770694682532 0 0 0 0 -33.421641280408949 109.58231777071705 0 109.58231777071705 9.6918801776598684 0 0 0 0 2.8501238827375346 71.902062389342063 0 71.902062389342063 95.344603385169648 0 0 0 0 8.1852845230387175 66.975307750201409 0 66.975307750201409 14.049983623778644 0 0 0 0 0.33974844869226217 103.08226551300413 0 103.08226551300413 -142.29544307200877 0 0 0 0 -45.087113439105451 86.838800914643798 0 86.838800914643798 30.527721197659957 0 0 0 0 -30.249840245378437 100.06060108081692 0 100.06060108081692 36.091036648360387 0 0 0 0 -67.874607193953125 79.784694669446253 0 79.784694669446253 42.261162362632149 0 0 0 0 -78.972044711888884 10.468173707368351 0 10.468173707368351 61.090990118459558 0 0 0 0 -39.823444785026368 40.338224340692534 0 40.338224340692534 10.674854956509535 0 0 0 0 -55.218703740858473 92.123501761252555 0 92.123501761252555 46.622214945645283 0 0 0 0 -64.867033793299925 47.117187037864824 0 47.117187037864824 14.318680825457022 0 0 0 0 -65.005290723347571 38.691739892322857 0 38.691739892322857 173.77390508977487 0 0 0 0 -45.270500066544628 142.55344062101597 0 142.55344062101597 89.633440256283393 0 0 0 0 -0.16980116683407687 -32.058224045978477 0 -32.058224045978477 75.335205961075644 0 0 0 0 22.284194050553197 40.880110911748545 0 40.880110911748545 179.49443709502521 0 0 0 0 24.160971090887813 -1.3026740767656761 0 -1.3026740767656761 -1.688601793157837 0 0 0 0 -45.813161035664962 27.752450170775546 0 27.752450170775546 15.413871474729376 0 0 0 0 70.49009534358629 -104.71716500694288 0 -104.71716500694288 -134.96330402432113 0 0 0 0 2.6611015901726205 23.460724711765181 0 23.460724711765181 -5.007318659988016 0 0 0 0 -6.5032591931476986 14.761275871966738 0 14.761275871966738 -1.4947007277646964 0 0 0 0 -44.351652589462901 31.462020574403027 0 31.462020574403027 -5.3810505418791763 0 0 0 0 3.4576950977663046 2.0624106290169379 0 2.0624106290169379 0.42047731333234317 0 0 0 0 53.019719456395364 -1.1972879930818401 0 -1.1972879930818401 -2.0416458714567227 0 0 0 0 54.677190295391483 1.535390569933071 0 1.535390569933071 -10.676856863248695 0 0 0 0 52.898358819307759 -3.8806049501450213 0 -3.8806049501450213 0.28919537855568223 0 0 0 0 76.101460296747973 3.6434223448351375 0 3.6434223448351375 -6.4425864290649635 0 0 0 0 22.732123255339985 28.294971912293676 0 28.294971912293676 -10.128422311572109 0 0 0 0 81.334925607196055 -3.3285577692648012 0 -3.3285577692648012 -6.5964045136090768 0 0 0 0 2811.0173974949721 73.51920157143384 0 73.51920157143384 -335.08572378114513 0 0 0 0 19.137109537804974 -7.0705104590478953 0 -7.0705104590478953 3.0983356279044516 0 0 0 0 1994.8093280792818 723.02707141778853 0 723.02707141778853 114.60205134951576 0 0 0 0 1769.8820016835107 416.96882917022299 0 416.96882917022299 -180.73313459225378 0 0 0 0 1816.5495920121957 38.814445251424551 0 38.814445251424551 -102.23626142035039 0 0 0 0 -163.35199757427472 0.77781564968547956 0 0.77781564968547956 401.21217101250858 0 0 0 0 717.88435819940059 -57.97264374505707 0 -57.97264374505707 -0.14032598266613516 0 0 0 0 540.45345090220508 617.53485461420996 0 617.53485461420996 172.43156556250261 0 0 0 0 -548.93567470586277 -112.74568385120938 0 -112.74568385120938 -577.21516915374298 0 0 0 0 934.43665465171216 -653.52654722272791 0 -653.52654722272791 -625.09874619574214 0 0 0 0 45.863531947772969 -17.707013758441377 0 -17.707013758441377 5.7696569136952771 0 0 0 0 26.662627364861692 -212.99663332020805 0 -212.99663332020805 -189.77370747155049 0 0 0 0 -43.424249224743107 -86.955869905750902 0 -86.955869905750902 0.24246208289863119 0 0 0 0 -104.52366455912124 355.17941550264595 0 355.17941550264595 -233.71904590100303 0 0 0 0 -517.4470313158381 -188.73279463437552 0 -188.73279463437552 324.94012430429393 0 0 0 0 403.50676389355795 -464.15353960036555 0 -464.15353960036555 293.86290346127595 0 0 0 0 1174.1844107757788 -246.99446951429331 0 -246.99446951429331 -36.039738459054661 0 0 0 0 -13.680355346601573 113.77669359590527 0 113.77669359590527 276.47505567384815 0 0 0 0 395.67513049511763 142.75074937912177 0 142.75074937912177 155.36069689124224 0 0 0 0 273.59645471221302 -104.4879533734952 0 -104.4879533734952 186.36030134829036 0 0 0 0 25.199073268828215 -201.67216985268169 0 -201.67216985268169 87.430019489340111 0 0 0 0 -46.425387683120789 66.670359881125762 0 66.670359881125762 349.41040486276961 0 0 0 0 258.77614337945124 314.84645738128461 0 314.84645738128461 295.41213691317444 0 0 0 0 793.90264127854607 412.92387735367356 0 412.92387735367356 153.19361850083351 0 0 0 0 449.67603144294117 67.017881291738831 0 67.017881291738831 116.02994678771574 0 0 0 0 753.41842762245506 504.89744788871553 0 504.89744788871553 -55.650984596927174 0 0 0 0 444.71646758780116 637.97362926161713 0 637.97362926161713 542.11870935549962 0 0 0 0 731.96088848530781 826.71234181794443 0 826.71234181794443 158.70606822389982 0 0 0 0 1426.9098141066788 471.04487961001894 0 471.04487961001894 -130.80553525376035 0 0 0 0 -840.60931630992854 -296.04961564209992 0 -296.04961564209992 -116.87153410505027 0 0 0 0 3.9423719354861646 -5.1245260921970441 0 -5.1245260921970441 6.6211383130143844 0 0 0 0 -481.94205497400253 82.966811873967032 0 82.966811873967032 -67.744151482833786 0 0 0 0 -819.1114405417029 -161.93475014357278 0 -161.93475014357278 322.25485741733905 0 0 0 0 450.39595922133594 -319.43510761786797 0 -319.43510761786797 -302.0559562306604 0 0 0 0 2219.7172126198711 -139.63868711065868 0 -139.63868711065868 -387.84007087873624 0 0 0 0 607.03220650898584 -640.69255613568259 0 -640.69255613568259 -83.110597194944603 0 0 0 0 90.553980548327672 -591.02308024720321 0 -591.02308024720321 365.57506006135839 0 0 0 0 2061.0031755938253 -895.14299396470665 0 -895.14299396470665 -179.70716641154752 0 0 0 0 1551.1393415523344 145.73423198969715 0 145.73423198969715 -241.3226015577651 0 0 0 0 11.020094569745595 -11.053415910244752 0 -11.053415910244752 7.0771133477245218 0 0 0 0 1063.2738841656974 209.45252298522007 0 209.45252298522007 -249.28813680980647 0 0 0 0 605.55408395934501 171.99761179503321 0 171.99761179503321 -132.99781430871735 0 0 0 0 1014.0179936507338 -141.24347640516999 0 -141.24347640516999 -291.1895486765859 0 0 0 0 1503.2044128911948 -132.51469821166899 0 -132.51469821166899 -386.47483244296245 0 0 0 0 88.953023247144301 -642.23957465477827 0 -642.23957465477827 38.873667712275164 0 0 0 0 10.712027201950292 -13.090245551512481 0 -13.090245551512481 11.290094441787113 0 0 0 0 1158.8928386080079 -240.35818654584273 0 -240.35818654584273 998.13798249964657 0 0 0 0 1339.6230833299051 143.4433626984621 0 143.4433626984621 -331.50331300164555 0 0 0 0 417.46986627445585 262.62858017989697 0 262.62858017989697 -275.38409423028548 0 0 0 0 296.17349517654657 98.773681295893425 0 98.773681295893425 -98.433645763660024 0 0 0 0 436.69337915905635 -106.26680396746235 0 -106.26680396746235 -69.661854422886336 0 0 0 0 610.28310541303654 -79.731987978313896 0 -79.731987978313896 -116.04546188411769 0 0 0 0 624.58595224985038 118.67273945138516 0 118.67273945138516 -207.57791336418427 0 0 0 0 545.89721585344523 -334.25135710444715 0 -334.25135710444715 130.92398698720467 0 0 0 0 785.8888859389408 -380.80874479098168 0 -380.80874479098168 70.3364540752209 0 0 0 0 9.7182227180471159 -1.7336647090274084 0 -1.7336647090274084 1.0357844481363698 0 0 0 0 722.41081262318767 -326.55742107486458 0 -326.55742107486458 100.1716578812302 0 0 0 0 17.095506774290698 -108.01748755973694 0 -108.01748755973694 111.30178482027719 0 0 0 0 243.67312774586026 -241.72763173503654 0 -241.72763173503654 119.27039054938268 0 0 0 0 -224.80702269272297 -5.8881953922430625 0 -5.8881953922430625 199.44314078506022 0 0 0 0 433.76008820553398 -95.325833079556574 0 -95.325833079556574 -51.97024427751694 0 0 0 0 3.1533960054537431 1.4624076945908655 0 1.4624076945908655 -1.2001372484893684 0 0 0 0 342.011241303524 -123.87198774027479 0 -123.87198774027479 -56.765542692418876 0 0 0 0 89.245537700000568 -16.007305366037372 0 -16.007305366037372 24.820701296119751 0 0 0 0 330.07858696825133 87.823100875476484 0 87.823100875476484 17.997345755768038 0 0 0 0 322.52085294268909 74.733810861388065 0 74.733810861388065 59.484631299623743 0 0 0 0 318.42405896709533 113.66974774687424 0 113.66974774687424 4.3296732627513848 0 0 0 0 0.022701013110651758 1.6180083097973466 0 1.6180083097973466 1.517580859301443 0 0 0 0 322.05334811704233 101.49854791562393 0 101.49854791562393 34.960973757704778 0 0 0 0 319.28230244168662 118.40165766539212 0 118.40165766539212 -7.7809877705217332 0 0 0 0 328.53414344884368 115.16353594450925 0 115.16353594450925 -11.401930997480122 0 0 0 0 453.93033430528885 102.63168429686152 0 102.63168429686152 -88.792854074049501 0 0 0 0 509.6795235719037 148.85398072540647 0 148.85398072540647 -90.625017825571661 0 0 0 0 378.16454313680879 207.81603654154628 0 207.81603654154628 35.081732963772083 0 0 0 0 400.60297912270471 45.604145158728784 0 45.604145158728784 -104.89694315333236 0 0 0 0 445.36585448039841 8.7319361222292287 0 8.7319361222292287 -112.52513848753142 0 0 0 0 411.40759442114722 68.309566042606093 0 68.309566042606093 -106.60676101828903 0 0 0 0 464.09567221809993 95.988133696365367 0 95.988133696365367 -122.37094817925117 0 0 0 0 401.89535342040472 130.28138474221623 0 130.28138474221623 -141.27781942521528 0 0 0 0 485.78473837536876 95.249067003262098 0 95.249067003262098 -116.44762955446322 0 0 0 0 424.79103978676721 84.646204024027384 0 84.646204024027384 -92.933756836244356 0 0 0 0 31.455497075250605 -206.72282806030626 0 -206.72282806030626 3.6535108161269818 0 0 0 0 437.96688603873918 69.192017728618907 0 69.192017728618907 -106.90449321494771 0 0 0 0 -0.23737020253517471 -0.34482458180573872 0 -0.34482458180573872 0.6274152459822816 0 0 0 0 -23.872156261480995 26.374778883329839 0 26.374778883329839 27.513149485009972 0 0 0 0 37.934542386152316 56.812415357237313 0 56.812415357237313 24.779641145815177 0 0 0 0 42.953849139461681 27.628758981531387 0 27.628758981531387 38.828292521196943 0 0 0 0 103.46970250815502 18.540889783706305 0 18.540889783706305 7.0539350146781885 0 0 0 0 48.76908575357993 -4.4024057975379272 0 -4.4024057975379272 4.053699467661545 0 0 0 0 7.028847958870756 19.333880172528211 0 19.333880172528211 -7.9252182398760738 0 0 0 0 -0.31397197397018317 14.912122433641343 0 14.912122433641343 -8.1010994346590905 0 0 0 0 8.7848376746348436 1.0671327296842037 0 1.0671327296842037 -0.80228830115724659 0 0 0 0 -2.9716571930985083 19.802893352611008 0 19.802893352611008 -3.2761867050071487 0 0 0 0 -6.8921745476320382 18.93048367618843 0 18.93048367618843 -5.7811380739476128 0 0 0 0 -37.743448706096387 112.75518107597679 0 112.75518107597679 -116.02729195501226 0 0 0 0 0.88230396405560896 30.440774816804549 0 30.440774816804549 -7.0383803604616446 0 0 0 0 -20.194039864902152 8.4540887368652875 0 8.4540887368652875 22.072444249285809 0 0 0 0 -17.850234389426987 34.709449871515105 0 34.709449871515105 2.5771483461465152 0 0 0 0 -0.4822495912994782 15.536784313020767 0 15.536784313020767 2.1392121117360148 0 0 0 0 5.6189023896004073 31.65885769619706 0 31.65885769619706 10.523553984797502 0 0 0 0 8.872287299745949 30.379901511558302 0 30.379901511558302 9.9542150823449447 0 0 0 0 2.9626880830983282 28.837756215938882 0 28.837756215938882 11.610320835980019 0 0 0 0 7.6281419761944562 29.059712655493001 0 29.059712655493001 8.0882090665350574 0 0 0 0 7.9344804889587977 32.314003857642511 0 32.314003857642511 12.288607924306461 0 0 0 0 124.97168192017125 175.42106487680297 0 175.42106487680297 75.904638609818903 0 0 0 0 -0.19104843233219526 3.0843465918037793 0 3.0843465918037793 0.7699962683435011 0 0 0 0 -3.3922672218962759 17.957542885221642 0 17.957542885221642 3.4298884637772953 0 0 0 0 13.605733503804458 19.430648340992605 0 19.430648340992605 12.708714339160498 0 0 0 0 23.582351117314829 35.47553253197043 0 35.47553253197043 -0.50626436761376681 0 0 0 0 -168.09522216893674 -74.808728401908411 0 -74.808728401908411 -39.614066651666917 0 0 0 0 -72.484225938504096 43.389881188947356 0 43.389881188947356 -90.269445566578725 0 0 0 0 3.3457852665862049 4.5721939851528361 0 4.5721939851528361 -1.2685260891609751 0 0 0 0 10.489370350900572 30.254704795464619 0 30.254704795464619 8.5059280044265506 0 0 0 0 11.088236621897522 29.061756002998855 0 29.061756002998855 4.4037575702384402 0 0 0 0 15.207780375552829 32.074053089856648 0 32.074053089856648 6.3166686368955141 0 0 0 0 7.7742024610361113 35.300620058751278 0 35.300620058751278 13.134438371574277 0 0 0 0 20.940170976689842 40.404906309032825 0 40.404906309032825 10.686872358293385 0 0 0 0 55.900801669806242 7.7203582624530895 0 7.7203582624530895 20.946942090387495 0 0 0 0 21.353337877939339 27.590062243700999 0 27.590062243700999 11.003281094374501 0 0 0 0 24.281803279765882 4.1097287175066697 0 4.1097287175066697 -38.714107972877912 0 0 0 0 10.628107056865701 17.743607080346948 0 17.743607080346948 -2.5699500739544447 0 0 0 0 37.255436885505333 27.178502008843793 0 27.178502008843793 -7.3549271274061994 0 0 0 0 19.343919803650351 24.664955667117681 0 24.664955667117681 2.5165389210345666 0 0 0 0 3.6198452802343013 4.4442935460715347 0 4.4442935460715347 6.6680317653390997 0 0 0 0 -10.052092484416789 65.419584309823222 0 65.419584309823222 4.6439349066765772 0 0 0 0 5.6246758236849814 22.150455043151084 0 22.150455043151084 38.950337973630951 0 0 0 0 -10.382147283329687 23.603601498626006 0 23.603601498626006 44.39339628372818 0 0 0 0 3.9638435848391964 22.461666682638317 0 22.461666682638317 35.93644471167579 0 0 0 0 -1.2757035876202281 10.839945119627856 0 10.839945119627856 51.607259090078912 0 0 0 0 4.3674165845605444 15.155148996499065 0 15.155148996499065 36.897901728166936 0 0 0 0 -18.1126095745567 32.415465373662698 0 32.415465373662698 39.465484764945558 0 0 0 0 -31.646192841559241 46.144023710751753 0 46.144023710751753 7.661989873073253 0 0 0 0 -60.067531340595451 82.998952998867026 0 82.998952998867026 35.317693100238102 0 0 0 0 -74.566983530836296 40.30647015291288 0 40.30647015291288 26.617024242160369 0 0 0 0 -65.847721281490522 28.276653834431272 0 28.276653834431272 41.238809097580088 0 0 0 0 10.103491133006173 28.659772399999049 0 28.659772399999049 18.864122951341642 0 0 0 0 2.6551842967374455 10.56745466073437 0 10.56745466073437 31.235634922110751 0 0 0 0 29.890255567268468 38.726087936291606 0 38.726087936291606 26.900058013626222 0 0 0 0 58.142707136692479 16.861063354788257 0 16.861063354788257 37.454227920219637 0 0 0 0 71.971255652606487 65.420154677952723 0 65.420154677952723 14.592393821217883 0 0 0 0 42.785810127053992 40.122780464057541 0 40.122780464057541 -1.0135777568721096 0 0 0 0 6.9174661388533423 73.174051873798817 0 73.174051873798817 14.158210486973871 0 0 0 0 11.64502179720148 48.505819213938594 0 48.505819213938594 -3.0805656029046986 0 0 0 0 48.969784721943142 37.153819214992382 0 37.153819214992382 -0.93433638858459744 0 0 0 0 27.42542922579014 17.402239243185932 0 17.402239243185932 -17.862958482655813 0 0 0 0 -2.8599848877971112 14.048922385822209 0 14.048922385822209 -11.297708150170733 0 0 0 0 -101.57441126227786 78.352675424355311 0 78.352675424355311 92.664200319815336 0 0 0 0 35.547061831195606 34.409533078372078 0 34.409533078372078 8.6001310445544732 0 0 0 0 -8.5256035741714413 23.462452760986963 0 23.462452760986963 -0.9695899736795166 0 0 0 0 -0.84191583323990926 48.877821809347552 0 48.877821809347552 12.70465394904204 0 0 0 0 35.85712036822224 46.971803258461478 0 46.971803258461478 17.524874595125311 0 0 0 0 -10.749568247469142 44.313084225161674 0 44.313084225161674 21.029799013176671 0 0 0 0 19.073690226417966 24.52370697887531 0 24.52370697887531 6.6722128722612126 0 0 0 0 17.70262067172601 21.652256692178213 0 21.652256692178213 12.436256765344323 0 0 0 0 -270.87814821706706 -141.00100515227018 0 -141.00100515227018 163.59180263096459 0 0 0 0 76.177303793323517 33.044932461716826 0 33.044932461716826 -3.4486572957775934 0 0 0 0 -0.52160760819769791 1.049948718185135 0 1.049948718185135 -0.3379392436026194 0 0 0 0 41.159728074911982 9.5954677426134367 0 9.5954677426134367 0.38259201015645772 0 0 0 0 92.68195447648759 8.1668656906167598 0 8.1668656906167598 70.622944245338658 0 0 0 0 116.95054617934511 122.8235073802507 0 122.8235073802507 130.83899480820946 0 0 0 0 294.01840666960925 136.35501046827039 0 136.35501046827039 32.585561505988153 0 0 0 0 202.56322468127473 27.473753113796192 0 27.473753113796192 -26.24601202111171 0 0 0 0 326.55342031951295 114.01353661209987 0 114.01353661209987 -15.686277754348339 0 0 0 0 292.13817726657726 135.86045539983934 0 135.86045539983934 54.595041485452612 0 0 0 0 134.29491525659978 189.80334466797376 0 189.80334466797376 229.03480945832416 0 0 0 0 509.05039154260885 221.97482758360547 0 221.97482758360547 25.913991678909952 0 0 0 0 -51.638516895996872 75.532011138978305 0 75.532011138978305 -93.903517446309706 0 0 0 0 -0.42994905653310767 4.3248766772126714 0 4.3248766772126714 5.1786923507710085 0 0 0 0 134.35080662465771 25.156131319417909 0 25.156131319417909 60.66056020022279 0 0 0 0 40.332008591132762 50.027450746203954 0 50.027450746203954 101.77032437131493 0 0 0 0 3.3969471798655491 -0.084590994959398813 0 -0.084590994959398813 -1.8541463459652743 0 0 0 0 134.448961017275 57.869209557157774 0 57.869209557157774 -52.577571560001161 0 0 0 0 628.34215783844502 -271.18184968791201 0 -271.18184968791201 -39.478849669781084 0 0 0 0 690.5514197518205 224.54702759642396 0 224.54702759642396 -35.020233911336618 0 0 0 0 671.4030126787402 4.6296530694739886 0 4.6296530694739886 153.41129843263843 0 0 0 0 542.75708389960346 66.019364056921404 0 66.019364056921404 293.80341159242107 0 0 0 0 708.31083489772573 -193.86003670803893 0 -193.86003670803893 654.60439502668214 0 0 0 0 1375.6347593048631 -22.311276020777541 0 -22.311276020777541 29.507467208491107 0 0 0 0 -628.40071097578766 -1338.3038698673208 0 -1338.3038698673208 445.74447269723214 0 0 0 0 872.54458317745593 -227.43237627870076 0 -227.43237627870076 477.90274522522941 0 0 0 0 657.72827656028312 -380.30659475429957 0 -380.30659475429957 832.05447171163541 0 0 0 0 621.98977490169636 -513.4333802776855 0 -513.4333802776855 342.33425176393052 0 0 0 0 825.74521592771634 -225.50130962943513 0 -225.50130962943513 427.48765666948748 0 0 0 0 872.92310719968373 -525.53190304529926 0 -525.53190304529926 -261.9327908008745 0 0 0 0 2464.6775907299889 -692.58370900889622 0 -692.58370900889622 -245.75995860854232 0 0 0 0 -183.20563256763853 124.46198006347004 0 124.46198006347004 -84.720907298395559 0 0 0 0 97.9980491130882 432.78266643936217 0 432.78266643936217 183.52024499166873 0 0 0 0 0.84849519523940486 2.2547009408674228 0 2.2547009408674228 -9.5352924649163313 0 0 0 0 619.93427281398908 -674.80112940899198 0 -674.80112940899198 -314.88559266904758 0 0 0 0 735.78408908426536 260.78529329896162 0 260.78529329896162 84.740950043747944 0 0 0 0 1.3702624646289223 -1.2857643565825754 0 -1.2857643565825754 0.5614224396617189 0 0 0 0 892.04518686348456 466.98532732127205 0 466.98532732127205 125.61975231804354 0 0 0 0 1867.3835490049096 -362.24218286853079 0 -362.24218286853079 158.36851094422991 0 0 0 0 52.502703368154471 -549.21523602321213 0 -549.21523602321213 895.89131471790643 0 0 0 0 0.09111917170841366 -1.4939707163103435 0 -1.4939707163103435 -1.0775115245381386 0 0 0 0 1918.0899165254741 1299.9922416468055 0 1299.9922416468055 978.43489358372017 0 0 0 0 310.67642630616319 -2368.697805536392 0 -2368.697805536392 -1384.3221192572473 0 0 0 0 18.883785067344093 -6.0379255496737301 0 -6.0379255496737301 -2.0084085822406834 0 0 0 0 47.134573569618283 -11.549000360122875 0 -11.549000360122875 -9.7018642267531376 0 0 0 0 992.85056118887587 967.87941185951365 0 967.87941185951365 858.51500919430691 0 0 0 0 1106.9726629063807 579.15384720327847 0 579.15384720327847 350.33839407358209 0 0 0 0 794.91446412056393 347.3683807086943 0 347.3683807086943 343.07244420050483 0 0 0 0 813.57865264163411 438.34211005036479 0 438.34211005036479 155.74444656361811 0 0 0 0 875.5966520308375 598.31108773993651 0 598.31108773993651 255.44903336244761 0 0 0 0 412.8158419103529 -42.674443602266933 0 -42.674443602266933 423.17013951097715 0 0 0 0 883.55481240681547 76.721895550836336 0 76.721895550836336 43.42309083650548 0 0 0 0 368.3470658033475 -165.22601791814202 0 -165.22601791814202 381.1360026723072 0 0 0 0 272.96464454967645 -17.904485544842828 0 -17.904485544842828 156.69058374468341 0 0 0 0 91.611911975662224 -148.15136194435331 0 -148.15136194435331 545.16130294409527 0 0 0 0 344.9864456750347 -286.31450532192036 0 -286.31450532192036 362.6310158521328 0 0 0 0 61.124257547024172 -279.77346273572175 0 -279.77346273572175 499.95136831972718 0 0 0 0 35.793412377599452 -393.80925689861988 0 -393.80925689861988 134.20419013939409 0 0 0 0 2.7545814906770829 -256.30989133690372 0 -256.30989133690372 611.73333448045605 0 0 0 0 54.396744053447037 -122.74355983743186 0 -122.74355983743186 152.73209944351356 0 0 0 0 38.976971445270465 -168.32615021456064 0 -168.32615021456064 180.47829221075847 0 0 0 0 77.236039756331593 64.777324550328899 0 64.777324550328899 291.18559628973162 0 0 0 0 11.613591585686663 123.19799773159173 0 123.19799773159173 259.80225958906703 0 0 0 0 26.322546253737528 210.86497795263335 0 210.86497795263335 681.16551363988071 0 0 0 0 3.0584841114084611 -3.0717612654816833 0 -3.0717612654816833 2.076715515881574 0 0 0 0 5.6615552990850233 -4.5349121404746597 0 -4.5349121404746597 11.216071341679607 0 0 0 0 23.806086860548874 -46.201993193503839 0 -46.201993193503839 152.93487688137702 0 0 0 0 -143.52583644815604 -45.913249760692452 0 -45.913249760692452 42.256758514708054 0 0 0 0 -134.62793668327777 30.709253765601403 0 30.709253765601403 127.3541994956322 0 0 0 0 -31.969779184444633 111.89251048922779 0 111.89251048922779 99.574193230926539 0 0 0 0 164.52162038574988 172.9531244606018 0 172.9531244606018 188.98527148760877 0 0 0 0 62.476149956113659 -148.42726776763493 0 -148.42726776763493 510.18132261930714 0 0 0 0 9.0533025745826308 30.07918469694232 0 30.07918469694232 45.716885355705472 0 0 0 0 503.97477837384213 328.36278886762602 0 328.36278886762602 301.78503479530445 0 0 0 0 1514.7790416037715 784.22811870704504 0 784.22811870704504 305.87795670409287 0 0 0 0 1294.5737061733525 192.12251443618607 0 192.12251443618607 165.22890536420891 0 0 0 0 1912.2492844985536 -182.33177250984136 0 -182.33177250984136 312.90601473194874 0 0 0 0 4.076809217804751 6.0986922409048248 0 6.0986922409048248 9.1202416790377931 0 0 0 0 4692.6030727300094 -99.167271072447875 0 -99.167271072447875 -436.0701851630165 0 0 0 0 -2438.0006853924751 1631.7994424835802 0 1631.7994424835802 808.89911154869333 0 0 0 0 -160.03718370810384 105.97100070723445 0 105.97100070723445 743.75923386725071 0 0 0 0 1783.5408615494525 1872.2419310571022 0 1872.2419310571022 441.41113270436654 0 0 0 0 20.116313924918359 58.876554268115342 0 58.876554268115342 281.08239584036164 0 0 0 0 305.62278963691642 -244.42067434889032 0 -244.42067434889032 -433.71220149964392 0 0 0 0 543.73937821330037 -147.91623715941523 0 -147.91623715941523 -195.4932401469332 0 0 0 0 140.32000465373858 -55.421260073221674 0 -55.421260073221674 -21.187742425300712 0 0 0 0 75.866863162438676 -244.16728339368888 0 -244.16728339368888 -100.23489218666055 0 0 0 0 129.70115169922184 -42.243108238501179 0 -42.243108238501179 -22.230120829320708 0 0 0 0 904.04252593603451 93.275623458623159 0 93.275623458623159 -463.58887564257748 0 0 0 0 -15.76665587651803 -15.973215892052735 0 -15.973215892052735 10.376058409931808 0 0 0 0 181.98249432332523 64.577820463273383 0 64.577820463273383 -85.522778276035751 0 0 0 0 318.87266693060519 0.97719285314451554 0 0.97719285314451554 -63.694021168400468 0 0 0 0 552.54708292512805 169.02420577120574 0 169.02420577120574 38.628816420165094 0 0 0 0 283.50798117068189 106.77515053146226 0 106.77515053146226 125.94272183783141 0 0 0 0 809.38432681040285 183.7687962832598 0 183.7687962832598 -72.976216059936405 0 0 0 0 472.99612212445936 270.44890330462022 0 270.44890330462022 103.73967808588566 0 0 0 0 183.23791528523725 61.435270164869962 0 61.435270164869962 49.426955694145363 0 0 0 0 394.83787805604516 62.99816749539832 0 62.99816749539832 8.4856664386702505 0 0 0 0 523.34361144754439 33.604688603314614 0 33.604688603314614 -32.857850451811032 0 0 0 0 209.18252253659739 49.179086371281699 0 49.179086371281699 55.317392299844755 0 0 0 0 897.88374056930479 112.53704026935327 0 112.53704026935327 -129.01615873752576 0 0 0 0 585.66123370216883 158.94294394225022 0 158.94294394225022 -59.950715205483903 0 0 0 0 1218.053815162144 236.20316926513306 0 236.20316926513306 -201.35577385396564 0 0 0 0 1047.4614041960158 208.47768955664262 0 208.47768955664262 -201.02568189313104 0 0 0 0 1137.2188260932671 149.15190516404789 0 149.15190516404789 -338.8688545187174 0 0 0 0 857.25874353050858 293.72460167942154 0 293.72460167942154 6.7729349498094962 0 0 0 0 1418.9417143050377 280.20132037520648 0 280.20132037520648 -32.645200868897064 0 0 0 0 1818.0229585977504 -140.58730263104053 0 -140.58730263104053 -29.643252837941873 0 0 0 0 968.52324546662567 -25.425548161807001 0 -25.425548161807001 14.91658810914214 0 0 0 0 1244.0256133483908 71.378430105754518 0 71.378430105754518 -218.79839036772046 0 0 0 0 1056.0894346186979 101.7501645241407 0 101.7501645241407 -214.1679659931491 0 0 0 0 1017.7644985764637 171.95004106385721 0 171.95004106385721 -339.00363714054225 0 0 0 0 908.82482930301921 51.848193036680641 0 51.848193036680641 -83.789523569085759 0 0 0 0 23.21988981024154 31.771460793370494 0 31.771460793370494 24.965592031172505 0 0 0 0 30.703601048233395 174.28150882755247 0 174.28150882755247 -402.83233139198478 0 0 0 0 812.29950116869441 39.363487621195645 0 39.363487621195645 -71.141334832638904 0 0 0 0 61.10524840158871 -2.2035083288586321 0 -2.2035083288586321 -23.55904187263242 0 0 0 0 64.522974720421189 123.85255164003638 0 123.85255164003638 -449.53376206202574 0 0 0 0 463.10345998388948 323.43886328378335 0 323.43886328378335 130.16681349387068 0 0 0 0 138.82425387970579 -28.675712655100369 0 -28.675712655100369 -959.57828442383516 0 0 0 0 127.44662872529443 157.21625081625712 0 157.21625081625712 -444.29648168163112 0 0 0 0 84.575337614449381 212.55257604342842 0 212.55257604342842 -380.41836045592436 0 0 0 0 647.93404474649287 407.24909319095286 0 407.24909319095286 178.87206087442152 0 0 0 0 454.98669596289983 375.57417594085257 0 375.57417594085257 359.10505736485743 0 0 0 0 627.90333061186539 605.04732161581705 0 605.04732161581705 477.37030174333677 0 0 0 0 397.137342287926 -622.80748440899333 0 -622.80748440899333 -1717.5823837144676 0 0 0 0 57.720743230931845 -8.7320867592037104 0 -8.7320867592037104 -19.501583785212446 0 0 0 0 627.10895329936466 508.43372832955902 0 508.43372832955902 591.86980353921899 0 0 0 0 406.69473283387197 91.388558126968746 0 91.388558126968746 -581.63022001492573 0 0 0 0 -25.446580207280931 -1674.4931733349142 0 -1674.4931733349142 -1829.8432406253751 0 0 0 0 534.8035583381934 39.51977826375969 0 39.51977826375969 -712.54738710507172 0 0 0 0 641.28482633995009 137.89721217290798 0 137.89721217290798 -1315.3054536785762 0 0 0 0 1818.0600145886856 -1.7865022156911436 0 -1.7865022156911436 -789.77155177604209 0 0 0 0 -148.32912692599348 510.92273742056523 0 510.92273742056523 -611.62780391407478 0 0 0 0 -578.53595302913891 1179.9289886883248 0 1179.9289886883248 -603.9048861170686 0 0 0 0 14.342750526109128 22.027348036476724 0 22.027348036476724 17.637425683608932 0 0 0 0 1047.3531013396278 277.81041841674778 0 277.81041841674778 -1239.7702583689784 0 0 0 0 557.01898200745927 924.88851184658733 0 924.88851184658733 -765.54796669431926 0 0 0 0 1282.5925033307867 1488.592759895706 0 1488.592759895706 664.41041724277056 0 0 0 0 704.84674567886395 602.3739799370087 0 602.3739799370087 -591.77588096772888 0 0 0 0 27.48990015698655 1551.8374771918161 0 1551.8374771918161 557.61418967414284 0 0 0 0 -1228.2548186669301 263.81854454724544 0 263.81854454724544 -562.15803072990855 0 0 0 0 -1164.3435082741344 504.67046907056647 0 504.67046907056647 1079.1826272754906 0 0 0 0 307.30621994868216 1580.7351798009213 0 1580.7351798009213 1789.6164212059339 0 0 0 0 93.801008019247263 -1.5584041412207768 0 -1.5584041412207768 -3.806487815088019 0 0 0 0 166.17753855255432 -490.55338081066839 0 -490.55338081066839 -1488.3933055679836 0 0 0 0 533.5513434838067 400.11233247263772 0 400.11233247263772 1302.4384286711247 0 0 0 0 1053.5882692693558 2072.5452463726397 0 2072.5452463726397 4128.0383803625309 0 0 0 0 2171.1223437346052 -600.63487972982921 0 -600.63487972982921 -447.72670565825956 0 0 0 0 162.41206712647818 -942.54483785876585 0 -942.54483785876585 -352.4035146032511 0 0 0 0 31.838038704043356 0.35966806713079791 0 0.35966806713079791 0.83850062710847695 0 0 0 0 -221.81841550112586 -13.963775197681571 0 -13.963775197681571 -48.072355358588538 0 0 0 0 403.27938422432635 288.1807476575857 0 288.1807476575857 -909.88411032369731 0 0 0 0 1447.963026094294 -1188.1163093695959 0 -1188.1163093695959 917.38421387542803 0 0 0 0 2927.6191277927865 1447.4120486061029 0 1447.4120486061029 517.55178753252403 0 0 0 0 1547.7718270310434 978.4831961738455 0 978.4831961738455 2129.0862934324587 0 0 0 0 831.59337509464967 -85.551184979638379 0 -85.551184979638379 582.24524820762053 0 0 0 0 1550.7543831383955 -24.617009807289605 0 -24.617009807289605 55.446635383799276 0 0 0 0 1856.0539886398474 612.81795462300943 0 612.81795462300943 632.21097900391339 0 0 0 0 2149.9650545878976 51.614962085200659 0 51.614962085200659 -315.60798772146518 0 0 0 0 2975.5353168358997 570.20503160417138 0 570.20503160417138 -50.336429808522553 0 0 0 0 515.34852603574109 3.5265663019895328 0 3.5265663019895328 -50.657917775162787 0 0 0 0 186.37802714979625 -340.71282300130997 0 -340.71282300130997 93.224265044591448 0 0 0 0 1180.1950950793398 -427.2921462693439 0 -427.2921462693439 28.464694827399512 0 0 0 0 628.14221079724666 -10.10700484180461 0 -10.10700484180461 16.762443045229702 0 0 0 0 563.47530172257393 -108.8339594002814 0 -108.8339594002814 99.374290125178959 0 0 0 0 435.91264666963252 127.18649370519154 0 127.18649370519154 -9.9159712757036687 0 0 0 0 503.99234691902529 192.60041624863834 0 192.60041624863834 -142.94424020830047 0 0 0 0 475.7619030582282 223.08753079388771 0 223.08753079388771 -133.16949950812432 0 0 0 0 270.33585966977989 127.87228153210253 0 127.87228153210253 -169.2253963861167 0 0 0 0 346.84265309519833 68.79072006890965 0 68.79072006890965 -480.47881046520888 0 0 0 0 543.96485283230868 248.6190932007903 0 248.6190932007903 -334.48743988855858 0 0 0 0 271.10480603745964 418.79984089386562 0 418.79984089386562 -122.86339386987584 0 0 0 0 208.15618307536351 129.04140009707407 0 129.04140009707407 32.631539520252772 0 0 0 0 497.01052573337802 313.95422030917689 0 313.95422030917689 -79.749178237292654 0 0 0 0 -164.9435571508584 285.54520073658978 0 285.54520073658978 548.13328106191693 0 0 0 0 -664.41144472712767 -238.14060820395025 0 -238.14060820395025 -427.36851128404942 0 0 0 0 161.54687600981561 -9.3505218543223236 0 -9.3505218543223236 -572.50220962738058 0 0 0 0 1.3242067073462067 2.4990138320592621 0 2.4990138320592621 0.45623428846020175 0 0 0 0 1000.9190291498271 243.04697434590685 0 243.04697434590685 44.680460772409788 0 0 0 0 757.56294514925685 793.18447346292669 0 793.18447346292669 119.42850051771165 0 0 0 0 1732.9751045420271 450.67916396470628 0 450.67916396470628 -234.86673464724299 0 0 0 0 640.68554754805518 -648.82183637099661 0 -648.82183637099661 -305.36523857745669 0 0 0 0 763.64050706040871 -834.32891905115957 0 -834.32891905115957 -1715.3147940408071 0 0 0 0 -542.8949521513714 -567.87428622566404 0 -567.87428622566404 -263.15327295098353 0 0 0 0 147.21122363904385 -5.7523712061986743 0 -5.7523712061986743 -7.1647686496231238 0 0 0 0 2566.6653045286948 162.35727532705278 0 162.35727532705278 190.31674214816076 0 0 0 0 -71.370555501955096 1499.0963163259858 0 1499.0963163259858 -36.811127750663218 0 0 0 0 42.897790942981374 288.67217982181501 0 288.67217982181501 -972.11506898709558 0 0 0 0 -672.52604920536396 -3.0021752320635642 0 -3.0021752320635642 591.00798775472322 0 0 0 0 18.018359073386875 0.43020872555015899 0 0.43020872555015899 -8.2784376245586415 0 0 0 0 26.687519137747586 4.2879082979152372 0 4.2879082979152372 -4.0513662292851222 0 0 0 0 522.58821095782332 897.97701849506302 0 897.97701849506302 169.49286422702198 0 0 0 0 802.46233263076283 -63.825372636245447 0 -63.825372636245447 -1346.6208383626135 0 0 0 0 169.27096380265158 -10.144851575067221 0 -10.144851575067221 -11.213480656887164 0 0 0 0 -452.13696016272297 298.87542244567157 0 298.87542244567157 -343.8786814656396 0 0 0 0 601.64563401491614 30.704853170322167 0 30.704853170322167 269.55306687830125 0 0 0 0 453.256970311857 923.31495449124259 0 923.31495449124259 -726.98366896216248 0 0 0 0 136.48247903633455 1164.7410368008977 0 1164.7410368008977 1938.1115683113348 0 0 0 0 9.4713797738661469 -1.3742046743728906 0 -1.3742046743728906 -0.37454937196617522 0 0 0 0 10.81660535694391 -6.0725868128620277 0 -6.0725868128620277 -124.94650857631405 0 0 0 0 29.238296124928524 -2.0019958901529122 0 -2.0019958901529122 -5.7284512232139431 0 0 0 0 20.781463539169636 31.75326863016835 0 31.75326863016835 -77.934378521449617 0 0 0 0 21.155340913668624 129.71349002669035 0 129.71349002669035 -91.400088189974667 0 0 0 0 71.630609628628008 115.71648645981804 0 115.71648645981804 -218.22030317775261 0 0 0 0 40.330462538200663 -164.92556659937145 0 -164.92556659937145 -437.46514853358713 0 0 0 0 53.501233081289683 100.67224838903439 0 100.67224838903439 -210.01947732725876 0 0 0 0 125.1274588908127 157.98494850155248 0 157.98494850155248 -102.79106248077233 0 0 0 0 240.66987237425565 196.65758708058991 0 196.65758708058991 -165.27660208607904 0 0 0 0 69.127659690697328 246.92775712159778 0 246.92775712159778 -102.49396201557738 0 0 0 0 -46.159892711642897 164.88413751873145 0 164.88413751873145 -85.711665699503101 0 0 0 0 64.86270428331045 166.74786740101672 0 166.74786740101672 -100.40137546420738 0 0 0 0 -92.117689214224811 280.02673374226066 0 280.02673374226066 -135.77409792460458 0 0 0 0 -107.46837071504342 214.49721411578997 0 214.49721411578997 -172.37633208500756 0 0 0 0 -10.056267470863531 51.16269460589433 0 51.16269460589433 -180.9020261708942 0 0 0 0 131.46033194827032 188.2736359385533 0 188.2736359385533 -326.8083362144348 0 0 0 0 362.75774498350802 90.54426223687949 0 90.54426223687949 -240.44902562085883 0 0 0 0 140.46017402842517 120.84166661641262 0 120.84166661641262 -84.571794543089709 0 0 0 0 266.02014252482331 124.33405866180055 0 124.33405866180055 -70.026185243767941 0 0 0 0 188.99908604481607 247.06473994615544 0 247.06473994615544 -167.41354353576367 0 0 0 0 312.83377112072776 216.17029770461522 0 216.17029770461522 -134.66527656639073 0 0 0 0 339.93846361617034 128.28275513882818 0 128.28275513882818 -39.594463305058525 0 0 0 0 544.64036051060248 108.40703410442416 0 108.40703410442416 -121.50585453496592 0 0 0 0 754.10389247778221 -31.743918660395138 0 -31.743918660395138 -19.607219709635501 0 0 0 0 524.56704004271887 69.23039636634519 0 69.23039636634519 84.781311412817558 0 0 0 0 901.88740604613849 68.229615908687833 0 68.229615908687833 -58.766460819834492 0 0 0 0 371.38661608194525 -20.587176938738594 0 -20.587176938738594 6.7544698042553364 0 0 0 0 383.30121958475502 207.73982002640071 0 207.73982002640071 -72.809169293375362 0 0 0 0 603.11104661693753 38.917822631742126 0 38.917822631742126 -110.91817143577441 0 0 0 0 678.29933360675932 -127.74481493143998 0 -127.74481493143998 158.37533432840019 0 0 0 0 702.67491344908922 -147.04015422564797 0 -147.04015422564797 -102.20997101754291 0 0 0 0 577.74446381627058 -173.32226037547454 0 -173.32226037547454 -5.7568878615527446 0 0 0 0 403.44395730487304 64.984653767523298 0 64.984653767523298 -78.619086660437077 0 0 0 0 -13.673870618076762 34.615281856411457 0 34.615281856411457 -52.801274104612418 0 0 0 0 145.78317854041234 148.69906806336155 0 148.69906806336155 -163.82635636894076 0 0 0 0 223.02789993912302 -106.94771478561131 0 -106.94771478561131 -183.96395906741805 0 0 0 0 1497.5885417806567 -273.83918924297359 0 -273.83918924297359 -15.046535887023083 0 0 0 0 1415.6210102516343 79.089611992149457 0 79.089611992149457 -40.178825389968154 0 0 0 0 4.6115605643465187 -2.8731472395157311 0 -2.8731472395157311 2.5308499663321715 0 0 0 0 2782.1039636403584 512.19343551585939 0 512.19343551585939 -136.03732972034368 0 0 0 0 2.0200775761412615 -0.61010364836312192 0 -0.61010364836312192 0.15457212667283038 0 0 0 0 299.28972703948966 -434.43433444314383 0 -434.43433444314383 17.963174849498799 0 0 0 0 1204.8816097636154 -66.987619130181542 0 -66.987619130181542 -37.830392426744311 0 0 0 0 714.22793036613439 -51.595920558479747 0 -51.595920558479747 41.097433865260882 0 0 0 0 879.04087959532626 -257.55125296073447 0 -257.55125296073447 81.811765355424427 0 0 0 0 1869.8045432442595 267.15211115655967 0 267.15211115655967 -55.926842834354147 0 0 0 0 1059.4219770658019 -275.25919319241962 0 -275.25919319241962 105.19356730040909 0 0 0 0 925.66273499609088 169.16050717219332 0 169.16050717219332 136.62511046401869 0 0 0 0 1036.9095145630417 31.725050347105935 0 31.725050347105935 -21.386662592699395 0 0 0 0 815.43254343904846 137.6833874372301 0 137.6833874372301 137.45475408806632 0 0 0 0 636.69463534910756 -111.8255900210568 0 -111.8255900210568 54.635928768119292 0 0 0 0 1045.4848341013858 183.09571313878348 0 183.09571313878348 49.252109442413484 0 0 0 0 4.4732201582850735 -2.3034750785137987 0 -2.3034750785137987 -1.6332832450066062 0 0 0 0 1433.4324104532425 94.718350608681362 0 94.718350608681362 -245.1854208847576 0 0 0 0 1130.0710435809087 -50.454545380286447 0 -50.454545380286447 -221.86918531518063 0 0 0 0 1465.9413291324963 185.16880097963906 0 185.16880097963906 -126.68006455209468 0 0 0 0 1641.0989119811275 44.246199026785234 0 44.246199026785234 -291.56500270946475 0 0 0 0 1477.2203928718627 -17.839962609512611 0 -17.839962609512611 -241.72678655058417 0 0 0 0 2813.149024098806 808.97650196972972 0 808.97650196972972 78.06244911601091 0 0 0 0 2306.8267331401585 74.915077471170662 0 74.915077471170662 669.04769007443315 0 0 0 0 1588.1347149920693 280.43762364736671 0 280.43762364736671 -89.336874923445492 0 0 0 0 1770.0255471157579 353.53524756772094 0 353.53524756772094 -145.1795558892214 0 0 0 0 4.5449641775172154 -1.3378902809089084 0 -1.3378902809089084 -1.9364525504716938 0 0 0 0 872.24482144105423 328.42451773140942 0 328.42451773140942 -52.826622404149475 0 0 0 0 3.0316797443305745 -0.28376301765027279 0 -0.28376301765027279 -0.81171069102997162 0 0 0 0 428.92714885124587 192.36547486466685 0 192.36547486466685 -200.85197776936434 0 0 0 0 426.13430545799201 103.8287931613803 0 103.8287931613803 84.842821002421871 0 0 0 0 470.77167786666541 31.498250423723711 0 31.498250423723711 105.3425563934849 0 0 0 0 799.40812313455535 365.24254091782609 0 365.24254091782609 114.10900888926449 0 0 0 0 115.41910478302452 146.39130337283805 0 146.39130337283805 131.52458657424393 0 0 0 0 -9.8442264197947225 -58.24311777047312 0 -58.24311777047312 0.19150500036338799 0 0 0 0 11.674598914501018 -4.5847058489416099 0 -4.5847058489416099 1.0010544833805191 0 0 0 0 225.12864985259512 38.201913835179326 0 38.201913835179326 -55.857403480947411 0 0 0 0 302.52274987299461 -190.193291821505 0 -190.193291821505 -313.73435140466461 0 0 0 0 338.21067761568065 205.68254150074875 0 205.68254150074875 102.07566575368514 0 0 0 0 7.4173237308286843 -1.2510851882842928 0 -1.2510851882842928 -0.040626352093870444 0 0 0 0 2448.3267346267967 536.52259509121234 0 536.52259509121234 -58.902116092454541 0 0 0 0 2268.1836522692465 -206.19869370556171 0 -206.19869370556171 0.61003578850156315 0 0 0 0 2492.0900592204634 -183.03078512558827 0 -183.03078512558827 -272.5423020800207 0 0 0 0 2655.7045472120953 -304.49499314340153 0 -304.49499314340153 -200.28912585603831 0 0 0 0 177.54310336206254 201.98896281891084 0 201.98896281891084 30.644630106386899 0 0 0 0 -74.265194553445326 -119.39558120225709 0 -119.39558120225709 111.67311176989432 0 0 0 0 -37.215317884780234 -111.36263739238248 0 -111.36263739238248 -80.35479638295692 0 0 0 0 -50.411571286706021 -109.38703894245901 0 -109.38703894245901 -5.2259895004619139 0 0 0 0 176.21896147807274 50.887215643253626 0 50.887215643253626 49.467536722705546 0 0 0 0 295.06147052565939 -116.67613779652739 0 -116.67613779652739 -9.3234904223696731 0 0 0 0 680.47035194571072 120.95060598299548 0 120.95060598299548 58.066724682176073 0 0 0 0 951.73553618435108 -258.79325901106313 0 -258.79325901106313 -63.01769149644123 0 0 0 0 5.4064662467233688 -2.4969835527158182 0 -2.4969835527158182 0.86662546927807349 0 0 0 0 264.37790746654719 -543.06918800272615 0 -543.06918800272615 -49.738742205156427 0 0 0 0 484.85249907206889 -147.87333792332015 0 -147.87333792332015 221.12560500043463 0 0 0 0 794.85995657506282 -25.699661475059941 0 -25.699661475059941 -0.20625909016809713 0 0 0 0 213.78800965606933 35.442231253763353 0 35.442231253763353 77.416342081953417 0 0 0 0 1038.4680496876681 -310.70893870409219 0 -310.70893870409219 -112.12500350998974 0 0 0 0 1260.016403367641 41.87834591726012 0 41.87834591726012 -20.485356142940962 0 0 0 0 59.754332585856901 15.855835507703071 0 15.855835507703071 -27.989894990355875 0 0 0 0 385.37812388130988 -353.81798363938123 0 -353.81798363938123 91.739247337030662 0 0 0 0 742.81032126290665 21.754292141250488 0 21.754292141250488 -277.74448427470111 0 0 0 0 2.9112285030923886 -1.0004412815726056 0 -1.0004412815726056 0.1314436142740279 0 0 0 0 4.5649938157107499 -2.0459639090979067 0 -2.0459639090979067 0.63425445160469396 0 0 0 0 9.7083196827879874 0.90806862527756171 0 0.90806862527756171 -0.002979580221196626 0 0 0 0 34.801954730544821 -2.1223018564177174 0 -2.1223018564177174 -59.562420099772062 0 0 0 0 -8.6690802642842755 -33.875877034493804 0 -33.875877034493804 -41.244531023481443 0 0 0 0 -33.227034787851153 -65.510935568830149 0 -65.510935568830149 57.93123160092054 0 0 0 0 2.567813643631041 -1.292089488877707 0 -1.292089488877707 0.53670206479712335 0 0 0 0 -87.937564106861828 -10.36472298853414 0 -10.36472298853414 61.811718554244976 0 0 0 0 -87.358890282339416 53.507528526494539 0 53.507528526494539 -60.413717384612831 0 0 0 0 -13.961080584037518 -27.0232774449007 0 -27.0232774449007 18.803812577462963 0 0 0 0 -64.540143932767023 -22.578276186283592 0 -22.578276186283592 -26.261905706017302 0 0 0 0 -138.89984065454337 -40.999831312180305 0 -40.999831312180305 62.999619840080499 0 0 0 0 188.88329974965018 56.901765204174623 0 56.901765204174623 -229.31588520269042 0 0 0 0 131.00080455341958 -12.420978990998535 0 -12.420978990998535 -92.924737238360208 0 0 0 0 -8.7900301935856078 59.773347643560918 0 59.773347643560918 18.189401877424558 0 0 0 0 134.34005721368885 1.6188086983868857 0 1.6188086983868857 -38.775655639151751 0 0 0 0 0.83617360474266889 -0.34768543802250917 0 -0.34768543802250917 0.1583428717295986 0 0 0 0 137.39544902418584 -19.185858762275412 0 -19.185858762275412 -28.5762189712853 0 0 0 0 -7.954569953821192 -1.7948335278963263 0 -1.7948335278963263 0.88664906314818026 0 0 0 0 74.437892540037865 28.001253386711657 0 28.001253386711657 87.334408103640627 0 0 0 0 93.13941566352878 27.503560854919716 0 27.503560854919716 -14.34101395633969 0 0 0 0 326.21324163281679 70.522960889486527 0 70.522960889486527 0.61030891322722436 0 0 0 0 137.18136017030338 -71.482368503499387 0 -71.482368503499387 41.706679353456003 0 0 0 0 1041.4325378939757 278.90625789268307 0 278.90625789268307 42.343480562080849 0 0 0 0 73.297392256645253 150.67218574568406 0 150.67218574568406 323.87843753707273 0 0 0 0 210.4658147253358 9.8169503524332526 0 9.8169503524332526 -412.52116879713913 0 0 0 0 -1056.2544502583041 -388.69833077662361 0 -388.69833077662361 -404.48005151999519 0 0 0 0 576.20996541732165 296.65228185091604 0 296.65228185091604 -146.03202558463954 0 0 0 0 -41.977208487514872 -238.11782196049171 0 -238.11782196049171 96.426364934766298 0 0 0 0 206.52760806435981 -30.153697945633681 0 -30.153697945633681 -67.1105026822637 0 0 0 0 142.00171886997123 -59.964034733564233 0 -59.964034733564233 -58.303143346776679 0 0 0 0 187.02456035561045 -20.226572022163978 0 -20.226572022163978 -256.3209345007632 0 0 0 0 147.32681928592501 -4.8659280894465269 0 -4.8659280894465269 -24.428588102502509 0 0 0 0 166.04059742126265 46.496200059234639 0 46.496200059234639 -261.7669072804344 0 0 0 0 215.22100437046902 20.880584347208497 0 20.880584347208497 -336.29960388666427 0 0 0 0 172.55558991356247 2.7749168461717275 0 2.7749168461717275 -360.50764825531303 0 0 0 0 96.555813998056692 99.180714277499447 0 99.180714277499447 -339.31559353596981 0 0 0 0 144.06493393913843 124.68029000984097 0 124.68029000984097 -403.39504100372869 0 0 0 0 -7.7649285275256261 193.5927305937505 0 193.5927305937505 -375.73833369579825 0 0 0 0 88.369182971247938 80.829538165727399 0 80.829538165727399 -288.61311490828712 0 0 0 0 233.3834818881005 44.331356618894773 0 44.331356618894773 -343.199005992732 0 0 0 0 149.63198650139384 86.942936906412967 0 86.942936906412967 -358.33484913917289 0 0 0 0 153.14147458490697 29.877531803499853 0 29.877531803499853 -312.31849216028962 0 0 0 0 -525.13737614959246 637.00872723724649 0 637.00872723724649 -637.50599723637902 0 0 0 0 -493.43669173645321 517.75824246708544 0 517.75824246708544 -397.39275728549501 0 0 0 0 9.757232738517402 4.7476303689064139 0 4.7476303689064139 -9.549675031403698 0 0 0 0 97.304958733249805 52.107895130530267 0 52.107895130530267 -865.39060470766299 0 0 0 0 -13.437613944668556 334.92626022542845 0 334.92626022542845 -1581.667235641469 0 0 0 0 76.198514107381925 78.382891998661421 0 78.382891998661421 -392.13206870700463 0 0 0 0 163.97543394600234 112.65946997347443 0 112.65946997347443 -486.62808858257904 0 0 0 0 10.105976151884533 235.03825972554569 0 235.03825972554569 -488.69861388268396 0 0 0 0 -115.40591107853106 270.24401458085299 0 270.24401458085299 -382.00161886747412 0 0 0 0 -42.636936503535253 194.0712807586379 0 194.0712807586379 -326.887573233784 0 0 0 0 22.18263217056267 16.826342454380381 0 16.826342454380381 6.716002121944026 0 0 0 0 73.86994128319202 13.17450231846442 0 13.17450231846442 -208.61063424884378 0 0 0 0 -142.12045365035374 222.43815179314444 0 222.43815179314444 -243.79782612048757 0 0 0 0 -12.1764732630254 -26.88668649990359 0 -26.88668649990359 -36.364428367809523 0 0 0 0 -8.9391528332125745 -22.339293752647166 0 -22.339293752647166 -38.486944850422333 0 0 0 0 -13.335988953738706 -33.782547976004707 0 -33.782547976004707 249.45378485511219 0 0 0 0 24.057533562325261 294.44970106306613 0 294.44970106306613 67.997788432936431 0 0 0 0 136.65596164745511 -174.08057150808941 0 -174.08057150808941 -53.323775759144382 0 0 0 0 226.23787668003934 32.985412821423211 0 32.985412821423211 -72.00092336176823 0 0 0 0 39.327912110835314 26.750102042462231 0 26.750102042462231 -20.457030045591068 0 0 0 0 158.37041612080066 151.07142442322359 0 151.07142442322359 108.44132228160896 0 0 0 0 152.95182304599439 -38.728153711965433 0 -38.728153711965433 -195.0894432530884 0 0 0 0 41.061782881224644 -25.964699375913113 0 -25.964699375913113 -191.85518544424758 0 0 0 0 307.56044874098734 28.799053399145237 0 28.799053399145237 -263.04863276651645 0 0 0 0 137.98726883396739 61.791185393852288 0 61.791185393852288 -266.51407010013008 0 0 0 0 231.34182296117069 21.534996779546617 0 21.534996779546617 -329.76822222324017 0 0 0 0 14.822211701815604 10.467721602732226 0 10.467721602732226 6.8964002971975322 0 0 0 0 -38.714935564436018 214.79336695092081 0 214.79336695092081 -330.2617947029392 0 0 0 0 -123.88358814831008 143.22900211378794 0 143.22900211378794 -256.91703416570954 0 0 0 0 117.39106008149975 -18.593478276758901 0 -18.593478276758901 -63.836062896643625 0 0 0 0 2.852931979212542 2.869996180660678 0 2.869996180660678 1.4826697663073789 0 0 0 0 -49.04247254593065 80.232616585277952 0 80.232616585277952 91.580296333422723 0 0 0 0 9.747874261229299 -39.025212817410193 0 -39.025212817410193 -51.523540784896511 0 0 0 0 -52.072768681216985 -5.1305793362728238 0 -5.1305793362728238 -37.173629182110517 0 0 0 0 21.97354022867512 56.429277788867296 0 56.429277788867296 -159.94205112317525 0 0 0 0 4.7666600655993534 3.8590650240571023 0 3.8590650240571023 2.5853580336373181 0 0 0 0 304.35652569663944 46.857495344064446 0 46.857495344064446 -159.95924539008351 0 0 0 0 583.7133216811344 495.35464711035843 0 495.35464711035843 24.708190477937364 0 0 0 0 -125.10104224339011 -117.88204957808908 0 -117.88204957808908 -156.43282143502796 0 0 0 0 8.7631429938545011 4.8998873849910893 0 4.8998873849910893 1.8838071474271751 0 0 0 0 14.295239209663123 620.46338514134652 0 620.46338514134652 453.9886354521181 0 0 0 0 -745.76775088103022 -212.99821297717341 0 -212.99821297717341 376.63946872053521 0 0 0 0 -758.49445898551494 314.45235381183534 0 314.45235381183534 670.14829096281483 0 0 0 0 -45.764962682966143 36.294222609477799 0 36.294222609477799 35.464683763883301 0 0 0 0 -147.86710589421273 97.205436485819718 0 97.205436485819718 184.72083581325489 0 0 0 0 267.58196696486993 146.58816772247911 0 146.58816772247911 -114.61331494581668 0 0 0 0 573.61134416068671 253.61702268497586 0 253.61702268497586 -127.38271208721 0 0 0 0 151.50632842372579 70.420885154659658 0 70.420885154659658 10.954121119125205 0 0 0 0 201.93310982512776 54.821478607095216 0 54.821478607095216 -235.51248269779356 0 0 0 0 220.82589657692006 56.512359979149124 0 56.512359979149124 -237.82113946681858 0 0 0 0 356.63580694489065 -227.63394575432824 0 -227.63394575432824 -80.329060895196136 0 0 0 0 306.21950507294969 -119.70171129797195 0 -119.70171129797195 -289.03065632962205 0 0 0 0 108.1527958594379 -5.2188049505542153 0 -5.2188049505542153 -84.98507718050044 0 0 0 0 189.68675010655716 -83.928941582710934 0 -83.928941582710934 -13.356136034053065 0 0 0 0 181.20833174755535 -100.76176311720147 0 -100.76176311720147 84.941656311166014 0 0 0 0 26.278813503246056 -109.60813488410184 0 -109.60813488410184 1.7123804749655278 0 0 0 0 -207.05336042790441 -347.07896885745475 0 -347.07896885745475 -127.00771605320415 0 0 0 0 228.27982394053834 -125.86318324430897 0 -125.86318324430897 -14.610817196838752 0 0 0 0 223.55686885410978 -90.289602520016189 0 -90.289602520016189 -193.99766474992225 0 0 0 0 488.63373508083168 -95.652604209492438 0 -95.652604209492438 -196.65997336796448 0 0 0 0 257.47634974968969 82.906218418720243 0 82.906218418720243 -197.93517210614883 0 0 0 0 3.9207661005231174 3.7646863682453784 0 3.7646863682453784 -14.944332328031754 0 0 0 0 23.805777897752705 41.677210346908055 0 41.677210346908055 98.914301874401232 0 0 0 0 3.4718281815078456 2.4110437374459082 0 2.4110437374459082 -3.1321533218162783 0 0 0 0 276.59210241690744 21.555885766487506 0 21.555885766487506 -9.7033649121277108 0 0 0 0 -216.34205034663319 78.789174116730464 0 78.789174116730464 -19.92661750620573 0 0 0 0 -287.03892997471849 193.19991396131672 0 193.19991396131672 -42.122404628424022 0 0 0 0 -244.37743935146136 63.812903142606729 0 63.812903142606729 -11.900159922474813 0 0 0 0 -497.04334240312164 437.46542078914524 0 437.46542078914524 -278.25386740795989 0 0 0 0 -819.55497804905463 161.98015584737601 0 161.98015584737601 -27.5527990584132 0 0 0 0 -1.041829419789245 2.3730971252697657 0 2.3730971252697657 -5.1261857986028962 0 0 0 0 -0.018141868674518946 -0.32944174318700448 0 -0.32944174318700448 -0.6709614800473418 0 0 0 0 65.846594771952368 -37.531995781412377 0 -37.531995781412377 -441.16653364666013 0 0 0 0 97.977954661095282 34.075050415754006 0 34.075050415754006 -676.41762549970156 0 0 0 0 -90.083692762476858 112.06999446783801 0 112.06999446783801 -429.54865020007725 0 0 0 0 -60.945437113812659 -35.640760480701488 0 -35.640760480701488 98.419812295735781 0 0 0 0 -14.215582466451451 290.53938673349506 0 290.53938673349506 -674.77336348278777 0 0 0 0 -541.43242718825786 173.61601102341194 0 173.61601102341194 -191.57485464454277 0 0 0 0 -294.87983922724379 -152.6076784921093 0 -152.6076784921093 -336.04594682003619 0 0 0 0 -33.353687622504367 200.28182887719402 0 200.28182887719402 -687.41342494849653 0 0 0 0 -30.672528559698549 -29.003514251857155 0 -29.003514251857155 -278.97623792314891 0 0 0 0 -242.2051738841692 -77.136028684722035 0 -77.136028684722035 -40.827855207431611 0 0 0 0 -175.10806593277448 128.82939803968094 0 128.82939803968094 -199.03157072297819 0 0 0 0 -86.928076287716976 20.177637733691 0 20.177637733691 -75.385330584416707 0 0 0 0 172.00470538038644 83.786594497133478 0 83.786594497133478 -341.10704684455544 0 0 0 0 -51.592039155524617 155.17371325217439 0 155.17371325217439 -219.43253876480838 0 0 0 0 195.54972761205863 23.842510752219283 0 23.842510752219283 -248.48679956653871 0 0 0 0 171.79971769772237 81.580976350232319 0 81.580976350232319 -315.59071389329728 0 0 0 0 230.85120427189031 52.683940017472551 0 52.683940017472551 -364.9401511204062 0 0 0 0 261.3350466563279 8.9675259679307171 0 8.9675259679307171 -336.75033765291391 0 0 0 0 236.6362246730132 85.782687662215508 0 85.782687662215508 -449.53064701169023 0 0 0 0 74.815892145998077 103.92344380013226 0 103.92344380013226 -343.28370661601969 0 0 0 0 817.03230590560997 10.727252693331508 0 10.727252693331508 -159.88159454300322 0 0 0 0 4496.2991317718552 -2142.0587816254811 0 -2142.0587816254811 809.24853878359522 0 0 0 0 20.794865157790809 9.9192032810714466 0 9.9192032810714466 6.501990709906651 0 0 0 0 3866.8115763840615 -2730.6194736711109 0 -2730.6194736711109 1639.3805370945688 0 0 0 0 463.02110855426872 1464.6959979159215 0 1464.6959979159215 1306.5370801558843 0 0 0 0 584.5469359964045 -365.02517800362625 0 -365.02517800362625 -567.3024907346844 0 0 0 0 43.644399145991486 -7.6516181054528118 0 -7.6516181054528118 -4.2059812522628812 0 0 0 0 -123.89932942937594 -185.24232852573687 0 -185.24232852573687 -198.93150516708283 0 0 0 0 4486.2943653496113 2270.3805122349254 0 2270.3805122349254 -364.99381077731152 0 0 0 0 2903.5400230166051 593.38504011843315 0 593.38504011843315 -249.52181367045063 0 0 0 0 -343.0995657301537 -456.50177440752918 0 -456.50177440752918 -6.1760699280075642 0 0 0 0 317.65722844493575 -355.78382798452839 0 -355.78382798452839 -708.99904958333718 0 0 0 0 -233.56065613486862 11.786212875616002 0 11.786212875616002 433.46871258227657 0 0 0 0 46.792862345402909 -13.395734789495265 0 -13.395734789495265 -3.0783658266959106 0 0 0 0 324.00637872978405 -435.52076903313014 0 -435.52076903313014 -269.66052941209273 0 0 0 0 475.02656776462027 480.12880236153069 0 480.12880236153069 638.12222402929592 0 0 0 0 444.34199384509702 245.33931796094976 0 245.33931796094976 148.72968641109321 0 0 0 0 1803.7898098771111 557.46067463474913 0 557.46067463474913 0.24423383508583127 0 0 0 0 2242.3546726598579 940.77188591960021 0 940.77188591960021 -25.718308262150572 0 0 0 0 1163.8941145745921 296.61259049829403 0 296.61259049829403 149.46719665669571 0 0 0 0 2589.5879555936554 599.02927834427737 0 599.02927834427737 100.69099308586738 0 0 0 0 2738.0146819427027 1044.8304527982491 0 1044.8304527982491 169.46083012228155 0 0 0 0 3265.8521217676171 766.54508790957618 0 766.54508790957618 134.63381346465641 0 0 0 0 3247.7334987490322 1064.9120109995292 0 1064.9120109995292 158.68724822164813 0 0 0 0 3697.7129545388452 1171.3730870230561 0 1171.3730870230561 -71.003401483461857 0 0 0 0 3685.2929346215387 718.4742078395202 0 718.4742078395202 270.86673056812833 0 0 0 0 3218.2747167079069 1136.3327129578538 0 1136.3327129578538 -79.583152819847783 0 0 0 0 3547.1081377558585 1299.4894769181853 0 1299.4894769181853 -377.73955310804058 0 0 0 0 2735.1025048312003 1196.2829547998906 0 1196.2829547998906 -76.484916177429795 0 0 0 0 1630.234779673614 1624.714428835236 0 1624.714428835236 847.05816875677078 0 0 0 0 3134.4603328177764 1112.3045920823261 0 1112.3045920823261 -130.92438515630076 0 0 0 0 3133.2183401510943 1350.263300348252 0 1350.263300348252 -179.04302213799281 0 0 0 0 39.695901075639028 -8.8035262295295524 0 -8.8035262295295524 -3.090479370470927 0 0 0 0 1338.1596477139828 709.79166006363221 0 709.79166006363221 -197.07507394609115 0 0 0 0 1463.1126398522756 457.09430934763759 0 457.09430934763759 313.76815126811073 0 0 0 0 -169.9705310575373 -100.57396880611986 0 -100.57396880611986 -29.394505295817766 0 0 0 0 17.827048341266448 -0.89024902972536779 0 -0.89024902972536779 -1.5611883011644434 0 0 0 0 2988.9692698348663 2876.1924856328401 0 2876.1924856328401 1969.6296751641803 0 0 0 0 1080.2874446054157 426.44312596185961 0 426.44312596185961 555.9174486628408 0 0 0 0 1466.117962336546 578.39687106844872 0 578.39687106844872 84.621811005476218 0 0 0 0 3947.6086678160573 2180.0496407066412 0 2180.0496407066412 245.67291111594272 0 0 0 0 3414.7728765535721 755.96472521045666 0 755.96472521045666 -18.296363082290213 0 0 0 0 2641.6708425912657 1159.5679141194616 0 1159.5679141194616 -369.45516621342927 0 0 0 0 3320.5821768652822 1352.5756871703393 0 1352.5756871703393 -451.99063780436848 0 0 0 0 3290.1384519854037 1384.4992577788685 0 1384.4992577788685 -293.34111008558057 0 0 0 0 3759.3701909345691 1092.2428631811481 0 1092.2428631811481 -259.5132715268212 0 0 0 0 3543.9530531350028 1516.7719758149512 0 1516.7719758149512 -450.22309836330169 0 0 0 0 3140.8069283408113 1142.5431709068662 0 1142.5431709068662 -268.62210582946682 0 0 0 0 4082.9615881101927 1062.5434315115926 0 1062.5434315115926 -414.39341871467377 0 0 0 0 1349.970974637632 1616.5964750975538 0 1616.5964750975538 -42.585333523422719 0 0 0 0 2668.319199456615 1694.8157065550613 0 1694.8157065550613 -343.29425893618873 0 0 0 0 1230.4020541261125 606.92757428068796 0 606.92757428068796 -147.88518142494058 0 0 0 0 44.785670763463713 1123.2463569095221 0 1123.2463569095221 -347.30986777158023 0 0 0 0 244.55444734026969 1004.4908157399485 0 1004.4908157399485 248.78348856387436 0 0 0 0 -89.347393302276032 -331.82042066482836 0 -331.82042066482836 -1159.7212915108662 0 0 0 0 -447.7219389754755 -439.48679414818798 0 -439.48679414818798 -459.93760553767061 0 0 0 0 18.525043878293332 10.205723138990649 0 10.205723138990649 1.8414600317991487 0 0 0 0 2198.8954577034165 -512.54113838091143 0 -512.54113838091143 135.48643350153907 0 0 0 0 978.18139424227411 1187.6819267202354 0 1187.6819267202354 -142.20682834607373 0 0 0 0 3116.8656433299184 1456.1897943012882 0 1456.1897943012882 -391.64820267247364 0 0 0 0 3876.310848903071 318.69005876155836 0 318.69005876155836 -206.0821278920339 0 0 0 0 4989.7078769365326 2706.8558660722188 0 2706.8558660722188 66.780947338531405 0 0 0 0 1710.739116980898 1290.2325113702414 0 1290.2325113702414 196.6965222995932 0 0 0 0 2271.2589003224857 1729.600239231735 0 1729.600239231735 20.173476113375727 0 0 0 0 3087.6129772564163 890.90394103795234 0 890.90394103795234 -222.02382551645496 0 0 0 0 2529.3167547169433 62.349665565381429 0 62.349665565381429 -141.35863829326445 0 0 0 0 2126.6616890125442 301.12637063704597 0 301.12637063704597 -167.57534690743432 0 0 0 0 1861.5617315973504 142.14805499434442 0 142.14805499434442 -141.66720620729211 0 0 0 0 1890.9283945839852 459.95052748353601 0 459.95052748353601 -197.97713585356723 0 0 0 0 1171.8964935124386 -663.75521857047602 0 -663.75521857047602 142.10270177433813 0 0 0 0 2023.8849062098307 -127.6336979172703 0 -127.6336979172703 -126.76229825292012 0 0 0 0 747.5386565902154 18.962427714809792 0 18.962427714809792 -65.718191996626501 0 0 0 0 1519.1267920971441 367.54581040646053 0 367.54581040646053 -221.4321888342958 0 0 0 0 1441.5659386360203 -199.97594765550321 0 -199.97594765550321 -98.182157332975521 0 0 0 0 1392.1062777587504 151.10637736418812 0 151.10637736418812 -239.45633519793012 0 0 0 0 1690.7499010195606 326.0330729025502 0 326.0330729025502 -162.9579114377739 0 0 0 0 1327.0618637126172 248.99033707532024 0 248.99033707532024 -143.82425755128247 0 0 0 0 7.3362433191187435 6.694311896653943 0 6.694311896653943 -12.113056919759963 0 0 0 0 49.814332047579228 14.128708496981581 0 14.128708496981581 -9.9552816124321453 0 0 0 0 6.4509093377084294 9.5923514709076017 0 9.5923514709076017 -2.0782733474440258 0 0 0 0 -472.76815418839396 -91.388809102833804 0 -91.388809102833804 412.74354779129419 0 0 0 0 552.00979257459403 -654.06044888925067 0 -654.06044888925067 169.17346672981694 0 0 0 0 20.428145800663629 25.592606162110229 0 25.592606162110229 6.7598094585432955 0 0 0 0 27.422226956477971 29.760040742307694 0 29.760040742307694 32.747889269556225 0 0 0 0 453.4985901840555 318.27753777371817 0 318.27753777371817 -118.41179954476459 0 0 0 0 -71.396241675829515 9.9430478394006627 0 9.9430478394006627 99.564954263604363 0 0 0 0 -1.5432059833420411 2.5837897260718705 0 2.5837897260718705 -5.0255307761348984 0 0 0 0 -82.172429577409901 -47.380917390191513 0 -47.380917390191513 -32.174074603943325 0 0 0 0 -0.69515348724548232 7.4308482948687526 0 7.4308482948687526 1.2073549530851955 0 0 0 0 87.998699481278891 -12.470435058051265 0 -12.470435058051265 -40.66914437918939 0 0 0 0 54.355150449002394 32.08131053280708 0 32.08131053280708 57.143273340933604 0 0 0 0 2361.1902421282794 96.461441129843877 0 96.461441129843877 -124.53233527395469 0 0 0 0 1002.1275708189933 111.42785404018969 0 111.42785404018969 212.94671983193666 0 0 0 0 28.565789546992164 -4.6637313764813939 0 -4.6637313764813939 -15.817311396856155 0 0 0 0 5.106107940282854 5.4141303410174544 0 5.4141303410174544 3.9268324609195568 0 0 0 0 -34.713358078326564 326.47666228744242 0 326.47666228744242 185.1946859570842 0 0 0 0 2.7638392888819965 2.7058294041684121 0 2.7058294041684121 1.3455347110059557 0 0 0 0 213.39002846504445 -130.77768232382627 0 -130.77768232382627 -156.96296028787555 0 0 0 0 559.1343581371475 117.09077210355485 0 117.09077210355485 28.770548766743708 0 0 0 0 1722.1393100424466 37.973883020472314 0 37.973883020472314 26.716173129255878 0 0 0 0 1253.8452373685432 661.68663160237679 0 661.68663160237679 9.543009651711742 0 0 0 0 2136.5047598116071 306.27278705846823 0 306.27278705846823 152.35421648416047 0 0 0 0 2828.3029362117522 524.82651176286276 0 524.82651176286276 257.53104660337794 0 0 0 0 3339.4251071315375 532.21906869221948 0 532.21906869221948 228.85825874856198 0 0 0 0 3271.3628054324654 1146.6869118709549 0 1146.6869118709549 395.62253125549444 0 0 0 0 2453.4926378005039 656.58476920456815 0 656.58476920456815 499.15459664422428 0 0 0 0 2.0916785367892459 12.298410777856532 0 12.298410777856532 -0.20710920253663945 0 0 0 0 2653.8515022202992 747.92200802305854 0 747.92200802305854 -6.3022299257836494 0 0 0 0 2352.4370489896464 753.4282825692012 0 753.4282825692012 862.39751140198052 0 0 0 0 2916.2560689564925 1333.8166743046324 0 1333.8166743046324 834.83055488433638 0 0 0 0 3444.2494895680138 1322.909361961305 0 1322.909361961305 245.71026726972786 0 0 0 0 2703.7188345561008 1005.4392379008369 0 1005.4392379008369 360.6047336282632 0 0 0 0 2968.2423585053548 928.10045681324334 0 928.10045681324334 53.048735395424501 0 0 0 0 2468.6994688014383 887.36486747147001 0 887.36486747147001 203.94948221422544 0 0 0 0 2711.5562139580579 829.13151852292958 0 829.13151852292958 78.08857505332071 0 0 0 0 2807.6365402994998 1082.3797789276014 0 1082.3797789276014 299.74017392254427 0 0 0 0 3280.9914642093936 1117.2552681134482 0 1117.2552681134482 205.09776967522748 0 0 0 0 3253.4935679613409 1306.7755164295829 0 1306.7755164295829 162.58450353296394 0 0 0 0 3394.1484082966635 1084.8217156435139 0 1084.8217156435139 426.63665300548246 0 0 0 0 1398.3640482332121 547.4221881148419 0 547.4221881148419 -18.138712478048546 0 0 0 0 4864.6833440583141 1476.4519400689123 0 1476.4519400689123 -120.42025815964325 0 0 0 0 3.6538796586022428 6.7151972267232338 0 6.7151972267232338 -0.24711032388411525 0 0 0 0 4218.6165002409834 652.57159439013139 0 652.57159439013139 106.68600682559736 0 0 0 0 3763.2997245920706 1370.076056758151 0 1370.076056758151 105.64729425259793 0 0 0 0 3296.4692473714822 1248.5537345792693 0 1248.5537345792693 315.95586722862777 0 0 0 0 3977.8467838496981 1419.6085410888902 0 1419.6085410888902 225.29758420826602 0 0 0 0 2992.5613798759005 1291.8882196257655 0 1291.8882196257655 584.78583305007396 0 0 0 0 3877.4973723473813 1930.2907522739124 0 1930.2907522739124 684.67150507433689 0 0 0 0 3414.398344582296 1475.3695520543015 0 1475.3695520543015 1270.7057280196232 0 0 0 0 3597.45957284217 1096.1994497621758 0 1096.1994497621758 1127.8228468106063 0 0 0 0 3612.739144929481 1237.2201563645001 0 1237.2201563645001 598.78785541614434 0 0 0 0 3294.7823084729025 878.11816680998163 0 878.11816680998163 796.45224400509687 0 0 0 0 3943.8495197434968 406.30747253339126 0 406.30747253339126 1087.0454902942729 0 0 0 0 4400.5293280525366 2119.7639266475762 0 2119.7639266475762 2370.1409258359636 0 0 0 0 2745.6581790824421 986.68135804362191 0 986.68135804362191 611.76383903415444 0 0 0 0 3454.1196541750687 1524.8812789804708 0 1524.8812789804708 939.64094118581852 0 0 0 0 3334.0070559735905 1188.6409473095378 0 1188.6409473095378 330.30980991711385 0 0 0 0 2051.1388139824267 684.41553156802252 0 684.41553156802252 352.45102123721153 0 0 0 0 2039.2431458939973 733.23477695608403 0 733.23477695608403 152.21929379704412 0 0 0 0 2445.3910506299399 693.52563218050864 0 693.52563218050864 -2.3562916224277615 0 0 0 0 2415.1423500231595 920.66695178975976 0 920.66695178975976 382.68544378786919 0 0 0 0 3015.0466888462252 1053.408571658548 0 1053.408571658548 218.02775387996076 0 0 0 0 772.4221926422324 135.65445033189349 0 135.65445033189349 269.89795067999603 0 0 0 0 1241.6765300927891 23.217817547829455 0 23.217817547829455 -10.796017700693483 0 0 0 0 1291.3176717075403 448.76301144892591 0 448.76301144892591 317.30234483140657 0 0 0 0 -230.24095480103279 -99.3757615000535 0 -99.3757615000535 320.75845697270051 0 0 0 0 -243.85556789547263 -209.97731526992951 0 -209.97731526992951 -51.541491292910678 0 0 0 0 -318.38001803422776 307.03724869642491 0 307.03724869642491 108.0782542726804 0 0 0 0 724.77322374013602 -7.2750190514398128 0 -7.2750190514398128 132.9735916243518 0 0 0 0 -439.55618930540004 -133.21366116839818 0 -133.21366116839818 506.89777754067609 0 0 0 0 1365.353364176277 -530.73713660643625 0 -530.73713660643625 -232.10898165113645 0 0 0 0 2128.6610502062831 749.53516833499566 0 749.53516833499566 245.88773957985404 0 0 0 0 2629.212807453092 533.46696055766745 0 533.46696055766745 -40.556812610019108 0 0 0 0 1871.4428049544222 24.805394179495579 0 24.805394179495579 -273.48972567561736 0 0 0 0 12.700462476979112 8.5277386731977316 0 8.5277386731977316 3.6113976767402445 0 0 0 0 3164.9303413095622 124.80698483311176 0 124.80698483311176 -58.95807320874718 0 0 0 0 2796.0404891823418 588.66323838352787 0 588.66323838352787 37.858093569572588 0 0 0 0 2279.6148163407925 1331.869344932318 0 1331.869344932318 253.71677425257712 0 0 0 0 1367.0343267932767 1381.881488530059 0 1381.881488530059 475.34331254955623 0 0 0 0 1929.3583668018837 726.37504099138573 0 726.37504099138573 331.16643334502783 0 0 0 0 1275.0038104208961 649.91183765459732 0 649.91183765459732 536.45788129777293 0 0 0 0 2691.0819233584334 391.11055177602373 0 391.11055177602373 -2.3851513301801788 0 0 0 0 -88.15159960827441 1530.9062724149985 0 1530.9062724149985 557.74182417706606 0 0 0 0 293.80478551580745 -789.14935178308428 0 -789.14935178308428 -77.024333907512755 0 0 0 0 1577.3954348935222 -1182.1855110814236 0 -1182.1855110814236 -872.00477924915958 0 0 0 0 7.5799738222525548 -1.3512474762657405 0 -1.3512474762657405 -4.8068508648162824 0 0 0 0 2750.4584874401917 -690.06096293587382 0 -690.06096293587382 -1552.6388240765107 0 0 0 0 2786.5144510640421 1395.8941725191094 0 1395.8941725191094 311.58562181370053 0 0 0 0 1715.4921940496133 1055.9555822093334 0 1055.9555822093334 699.25682233074872 0 0 0 0 1681.1128342963057 942.72288894351743 0 942.72288894351743 -10.709204676320773 0 0 0 0 4498.4622884775663 52.16407855972362 0 52.16407855972362 -1476.1153246979538 0 0 0 0 2659.315080549306 -417.50416861677058 0 -417.50416861677058 -1395.2585883524339 0 0 0 0 3333.1942682940862 -423.5350981458713 0 -423.5350981458713 -1415.0779315978887 0 0 0 0 4499.4943963347614 -1229.9968849732261 0 -1229.9968849732261 -1127.8622197281907 0 0 0 0 1531.7633224855963 -579.44374521001737 0 -579.44374521001737 -886.97056413910195 0 0 0 0 1440.0248789691686 -206.77005808649028 0 -206.77005808649028 -701.07136277445306 0 0 0 0 21.651055159846862 10.643472544132322 0 10.643472544132322 4.7472273144155608 0 0 0 0 1766.72883198419 -358.78513593415721 0 -358.78513593415721 -1217.6979830610746 0 0 0 0 2770.5647217531077 -1113.9022184584594 0 -1113.9022184584594 -660.56186015848084 0 0 0 0 1261.2837767873862 -516.37798540410245 0 -516.37798540410245 -100.18383302327254 0 0 0 0 37.919785169161059 -2.6676995389088347 0 -2.6676995389088347 -7.7847109729330564 0 0 0 0 1967.6818649614579 -885.08346288176574 0 -885.08346288176574 950.46665184786968 0 0 0 0 3133.6762760462734 -1057.7176719545507 0 -1057.7176719545507 42.426314879748425 0 0 0 0 2633.4782711427397 -1847.7110478030643 0 -1847.7110478030643 748.08755304721626 0 0 0 0 15.496808184874737 4.634659835994853 0 4.634659835994853 -4.7614345796057975 0 0 0 0 4495.3738317271054 3222.4485048873457 0 3222.4485048873457 1848.2383617536238 0 0 0 0 1616.143232904069 -352.55804136586977 0 -352.55804136586977 -1329.0996027537365 0 0 0 0 1133.7756921423716 1571.1971103896071 0 1571.1971103896071 645.04447960316634 0 0 0 0 1748.1891677900712 1480.27882052011 0 1480.27882052011 286.14337901755135 0 0 0 0 1968.4268415814277 1272.0729748882327 0 1272.0729748882327 -47.418507675078445 0 0 0 0 23.933069562714422 5.2588127544656089 0 5.2588127544656089 -9.2661201624944027 0 0 0 0 1954.9504375257093 1313.3764694409738 0 1313.3764694409738 436.9652066330363 0 0 0 0 2263.48850275937 814.42886361970102 0 814.42886361970102 -1024.6926522235146 0 0 0 0 4493.6498470688566 1711.8652163981053 0 1711.8652163981053 -715.68290668259044 0 0 0 0 11.170005455605349 -0.72206491383101934 0 -0.72206491383101934 -5.4404658698870403 0 0 0 0 4497.1838516539283 1681.1017122851401 0 1681.1017122851401 60.287692856874507 0 0 0 0 1592.9119236414408 292.19828161417308 0 292.19828161417308 -592.62546416905877 0 0 0 0 1747.6041529437061 715.171738354534 0 715.171738354534 284.54735853640739 0 0 0 0 1933.627169362735 939.9951190026818 0 939.9951190026818 -578.96452265357698 0 0 0 0 2320.7807220911982 1183.3860730194317 0 1183.3860730194317 -502.71517975184338 0 0 0 0 1925.8621349755704 1394.025813697067 0 1394.025813697067 -413.74301853548889 0 0 0 0 1353.1050892446146 990.01780515663518 0 990.01780515663518 -57.505105917869059 0 0 0 0 1753.6756661127802 921.00409506568883 0 921.00409506568883 -47.72615615022346 0 0 0 0 1716.1114840749942 898.48815056975286 0 898.48815056975286 228.6434979044102 0 0 0 0 2330.9754559823486 812.83837655855848 0 812.83837655855848 -1213.1811741506501 0 0 0 0 2335.7838742112658 1015.8068892127912 0 1015.8068892127912 -238.26854782577357 0 0 0 0 3122.1249004718702 2670.6975044912406 0 2670.6975044912406 1504.3065106830754 0 0 0 0 559.55835910074529 621.51254949302347 0 621.51254949302347 -200.16618811200632 0 0 0 0 1258.523198807874 -540.60266936519452 0 -540.60266936519452 -1944.8884172822634 0 0 0 0 11.892878400681411 3.4162608290056227 0 3.4162608290056227 -5.2042448525907714 0 0 0 0 1823.6945580403735 1250.9690329275204 0 1250.9690329275204 530.15685848741259 0 0 0 0 1441.1493564600678 1285.9329543461142 0 1285.9329543461142 530.59963463719623 0 0 0 0 1477.0232015566871 1098.8704594954829 0 1098.8704594954829 808.22481079318072 0 0 0 0 1439.1749329266459 1057.7056963161099 0 1057.7056963161099 467.88834670163601 0 0 0 0 1334.0365428748337 1314.3388937079542 0 1314.3388937079542 595.35883035527763 0 0 0 0 1620.1766504401894 372.94263541522974 0 372.94263541522974 -210.81975562725222 0 0 0 0 175.9284551461169 -129.64216633739397 0 -129.64216633739397 231.79677943312095 0 0 0 0 696.22058231936535 150.14150311278286 0 150.14150311278286 355.08253006064979 0 0 0 0 1068.7731872641889 -122.66457648957294 0 -122.66457648957294 65.376883919836246 0 0 0 0 1551.7439266779838 329.08991993291386 0 329.08991993291386 -87.21215444120503 0 0 0 0 0.32799516883056867 7.999258417760899 0 7.999258417760899 3.0707981328060372 0 0 0 0 1261.9420268542926 557.63755611117449 0 557.63755611117449 183.37802120125207 0 0 0 0 469.69525633276498 877.72380218673004 0 877.72380218673004 317.08410386128685 0 0 0 0 2140.0728567415572 989.5301562245977 0 989.5301562245977 56.228780581075171 0 0 0 0 2329.1482288079715 973.67438012904211 0 973.67438012904211 -256.68887112342941 0 0 0 0 2550.3530643077247 324.77634067775421 0 324.77634067775421 -138.00443957391116 0 0 0 0 1495.0168362823897 634.88034583827016 0 634.88034583827016 18.254285159954861 0 0 0 0 0.67417433749449174 11.265921588886556 0 11.265921588886556 0.78805132147336643 0 0 0 0 1691.9464215832122 296.62703032105691 0 296.62703032105691 -199.33306409479019 0 0 0 0 366.4914888060157 225.71934368599807 0 225.71934368599807 206.40020652312865 0 0 0 0 681.40084899762587 178.03922134232999 0 178.03922134232999 240.46851311241926 0 0 0 0 417.19432765553938 -201.78834448374312 0 -201.78834448374312 -147.3237090166291 0 0 0 0 1044.2031949033699 -226.12429046798479 0 -226.12429046798479 -66.77160552226178 0 0 0 0 2.8128167722182269 2.4703558929655287 0 2.4703558929655287 5.4703242206039064 0 0 0 0 17.396988345581121 28.344026398160103 0 28.344026398160103 -4.3405695608075803 0 0 0 0 -17.01048584280943 -9.9501920836680142 0 -9.9501920836680142 14.214075611050305 0 0 0 0 128.97683014026552 -16.623768694352982 0 -16.623768694352982 -42.837646838246997 0 0 0 0 2.6771844969373433 5.8281919413057892 0 5.8281919413057892 2.0707881302594764 0 0 0 0 6.7374370335993774 2.7747148791788447 0 2.7747148791788447 1.3839778208364519 0 0 0 0 0.78998737904606742 2.2859081536497285 0 2.2859081536497285 1.2431372580335154 0 0 0 0 25.240184287681132 12.787746802251007 0 12.787746802251007 -2.3715585277014766 0 0 0 0 62.039029280675095 -21.606563237347189 0 -21.606563237347189 11.250449905091045 0 0 0 0 4.8223741613910533 -0.98821551245592332 0 -0.98821551245592332 7.3728574609127691 0 0 0 0 16.619390601641499 3.1008590925569024 0 3.1008590925569024 4.0687224313722368 0 0 0 0 9.2434326014481485 4.7931017330508894 0 4.7931017330508894 9.5315701511601674 0 0 0 0 14.126891146363874 -9.3859267753163351 0 -9.3859267753163351 11.829301625241362 0 0 0 0 6.422752517488366 -5.7179405791090971 0 -5.7179405791090971 10.647352643564359 0 0 0 0 5.3724480878736358 2.0343313214615364 0 2.0343313214615364 8.5840364298483109 0 0 0 0 41.87595971513997 -19.158608827237309 0 -19.158608827237309 21.258576055823141 0 0 0 0 -73.100177008149331 209.71156932116702 0 209.71156932116702 193.58377074109671 0 0 0 0 1.0994728427525473 1.6508058917549135 0 1.6508058917549135 7.2693713051111954 0 0 0 0 56.624429012322935 -23.226425886617449 0 -23.226425886617449 12.135959448286485 0 0 0 0 66.174981437332463 -3.6796751880103784 0 -3.6796751880103784 12.621361529807814 0 0 0 0 230.12811729245004 -19.803744737405509 0 -19.803744737405509 -123.09185796354512 0 0 0 0 0.42009514293505945 1.6879065370941362 0 1.6879065370941362 -0.56798540278963905 0 0 0 0 -312.89678019832354 88.98965936214654 0 88.98965936214654 76.9114397163371 0 0 0 0 1.2659543371453363 -3.669863663326538 0 -3.669863663326538 7.3566426874564064 0 0 0 0 1031.2322521520255 -99.857818329754139 0 -99.857818329754139 -32.795425449524828 0 0 0 0 273.96274721369264 170.49236043811351 0 170.49236043811351 194.05993424365221 0 0 0 0 567.87713818435441 -148.86276014763337 0 -148.86276014763337 22.223840135710134 0 0 0 0 215.83200343306817 77.989056136402496 0 77.989056136402496 119.21432131038182 0 0 0 0 -107.69616214144787 45.438695119194563 0 45.438695119194563 -17.046508472183632 0 0 0 0 67.69994129697443 -3.8675554676206048 0 -3.8675554676206048 11.192231702324534 0 0 0 0 58.432120530516841 -15.236824664554547 0 -15.236824664554547 8.811008951200165 0 0 0 0 5.0430979008155674 -6.441969312960282 0 -6.441969312960282 2.3686798419243957 0 0 0 0 -156.61947962542763 24.234469522854056 0 24.234469522854056 72.35632658014265 0 0 0 0 70.609632645835518 -154.58433131939739 0 -154.58433131939739 15.627959266888865 0 0 0 0 -138.23967176149017 -82.869013790949339 0 -82.869013790949339 -3.5485469540708436 0 0 0 0 59.063623932486678 7.9786810905127652 0 7.9786810905127652 -5.5058371857235979 0 0 0 0 52.986364941342316 -10.987215803955451 0 -10.987215803955451 -11.707455803909593 0 0 0 0 57.574505737036816 16.370351767440354 0 16.370351767440354 -2.6081984459791556 0 0 0 0 34.2722991182236 -94.94438670111731 0 -94.94438670111731 -18.789160705057157 0 0 0 0 322.49883585356292 -156.36870425611687 0 -156.36870425611687 -75.880394732108471 0 0 0 0 96.320481863251189 -22.241449564854065 0 -22.241449564854065 -147.67042602257425 0 0 0 0 33.608396161085693 -108.82268640985285 0 -108.82268640985285 169.25137058445171 0 0 0 0 441.09153298185993 141.46901182519889 0 141.46901182519889 175.15822766823931 0 0 0 0 12.127653441522853 -245.72414077612052 0 -245.72414077612052 70.311215916189212 0 0 0 0 133.89798795304762 -0.44291259628834467 0 -0.44291259628834467 -11.825781355735995 0 0 0 0 168.28150260554685 37.863087184467076 0 37.863087184467076 -54.109880262861225 0 0 0 0 196.12920953694265 76.119323712562391 0 76.119323712562391 -131.70116613783352 0 0 0 0 285.04746185717522 -243.96851065710871 0 -243.96851065710871 -315.18997052872828 0 0 0 0 110.09737786313053 38.906051155524139 0 38.906051155524139 4.6474486188351989 0 0 0 0 19.952907997754608 12.900514955293588 0 12.900514955293588 -7.239171177729558 0 0 0 0 83.984555731374712 15.960892974763738 0 15.960892974763738 21.176751450498159 0 0 0 0 80.425592471714481 43.048050526752689 0 43.048050526752689 -22.199159645879831 0 0 0 0 39.730744798620435 22.626584602188132 0 22.626584602188132 3.9079850411932284 0 0 0 0 73.028010882748276 41.834217206111347 0 41.834217206111347 11.872535128641175 0 0 0 0 35.016881497912692 16.781337885005478 0 16.781337885005478 -2.6561305853993358 0 0 0 0 -163.11142108041531 -13.068959804833867 0 -13.068959804833867 279.88793376948797 0 0 0 0 -80.941703362099361 -102.6631324522757 0 -102.6631324522757 -115.6559228254537 0 0 0 0 -9.5087622321818657 30.369543685028788 0 30.369543685028788 -4.8488608520207954 0 0 0 0 -1.1321505019075295 1.3216089904128836 0 1.3216089904128836 0.44902130877515134 0 0 0 0 9.6041439504850423 3.263549502227221 0 3.263549502227221 0.19309566275905254 0 0 0 0 7.6229367989463981 11.497927375420446 0 11.497927375420446 -7.7846999984166931 0 0 0 0 187.63610795938428 137.58524652979122 0 137.58524652979122 45.835582105809408 0 0 0 0 147.73154234321834 118.07944488987326 0 118.07944488987326 74.930941359119061 0 0 0 0 178.04711800548648 139.27086405011079 0 139.27086405011079 13.913757295670621 0 0 0 0 167.94868980802403 67.887324436624567 0 67.887324436624567 6.4858247543215839 0 0 0 0 35.821186184810358 152.689108755186 0 152.689108755186 258.50142130902259 0 0 0 0 -64.78501636760484 8.5462765075585594 0 8.5462765075585594 -34.552156421738118 0 0 0 0 57.821702055532995 8.9920392478421718 0 8.9920392478421718 -3.808663142012894 0 0 0 0 218.95548122400942 103.43343630559048 0 103.43343630559048 -236.10073488305625 0 0 0 0 -109.05249682728027 -38.998864210669353 0 -38.998864210669353 -16.734475847349131 0 0 0 0 -54.286783148025279 259.20591825707334 0 259.20591825707334 -40.475802554184838 0 0 0 0 -32.768510607875214 -95.194300445300541 0 -95.194300445300541 325.94175878351052 0 0 0 0 194.21495189391135 294.46333030664903 0 294.46333030664903 -122.82778467952721 0 0 0 0 540.90653474692954 -159.91520921454503 0 -159.91520921454503 -216.26848343278198 0 0 0 0 -2.1725817027763696 89.730347030523035 0 89.730347030523035 -251.05105848625044 0 0 0 0 140.6329995849095 2.9151615611386852 0 2.9151615611386852 -9.3479103068596068 0 0 0 0 192.33032991561049 -27.863833962594526 0 -27.863833962594526 -389.52564275747113 0 0 0 0 114.27705576174776 95.429489490189212 0 95.429489490189212 -7.0046485034529269 0 0 0 0 439.98501806575223 856.41926943403905 0 856.41926943403905 212.3820640255426 0 0 0 0 0.78866905137805077 0.50133559927397187 0 0.50133559927397187 1.8446433198401397 0 0 0 0 1884.388434367389 577.19055494470706 0 577.19055494470706 -283.02200014848404 0 0 0 0 -1123.4739483602061 364.56328839077582 0 364.56328839077582 998.58997363667595 0 0 0 0 1002.2378234428106 958.15696107094664 0 958.15696107094664 855.36892768609641 0 0 0 0 1017.1910766190122 1024.3263484778845 0 1024.3263484778845 870.03334367397485 0 0 0 0 3.1649122751979348 -0.70346702047973508 0 -0.70346702047973508 1.0625987946988893 0 0 0 0 1132.2693257551728 1244.7596530807987 0 1244.7596530807987 928.2064662600294 0 0 0 0 1469.1422285402368 1489.3458552956997 0 1489.3458552956997 798.61160399769437 0 0 0 0 932.47171156689183 1132.6455479570598 0 1132.6455479570598 1541.0894844102222 0 0 0 0 1120.1251256074247 1200.1571687998553 0 1200.1571687998553 1119.4524793487753 0 0 0 0 1456.4046562669682 1632.0252841975616 0 1632.0252841975616 1374.0275578641836 0 0 0 0 29.669155504846913 9.1108898595121843 0 9.1108898595121843 6.3673256360595261 0 0 0 0 912.71850678746705 921.63974560841007 0 921.63974560841007 1056.2286924937807 0 0 0 0 8.1812648508757775 298.62298741889833 0 298.62298741889833 137.12670471310412 0 0 0 0 233.78177583064826 69.664309420606514 0 69.664309420606514 -134.3544994807462 0 0 0 0 129.55425282858494 0.21201179050812868 0 0.21201179050812868 -7.0492263918578875 0 0 0 0 767.61389310235245 976.17286459183856 0 976.17286459183856 -204.98090106921563 0 0 0 0 559.39244382686593 -135.85235294277459 0 -135.85235294277459 -1292.3489275140964 0 0 0 0 461.21505688797333 -180.10183312718118 0 -180.10183312718118 -296.58450262898793 0 0 0 0 -273.22389115636179 470.70005141511137 0 470.70005141511137 1105.0327110130606 0 0 0 0 19.095421766702373 0.56548162238449518 0 0.56548162238449518 0.97786393838427066 0 0 0 0 -98.946042148344532 -1467.4845059558602 0 -1467.4845059558602 -335.70636747979643 0 0 0 0 46.625456888329182 -14.659800302626337 0 -14.659800302626337 14.146899939602653 0 0 0 0 1501.677217382181 1777.6774670436228 0 1777.6774670436228 2182.2348381990414 0 0 0 0 132.96001352730673 51.89777277041452 0 51.89777277041452 36.735624828861958 0 0 0 0 56.667160191665488 -0.69536710813505209 0 -0.69536710813505209 3.1500093565982872 0 0 0 0 361.15151372893888 728.27215452063729 0 728.27215452063729 -430.14434515580177 0 0 0 0 -1969.2430227556688 -297.89058927516066 0 -297.89058927516066 1208.1424214164085 0 0 0 0 4481.6297998213777 155.23903243572087 0 155.23903243572087 -188.41593373799878 0 0 0 0 132.96001352708063 -265.39540774736747 0 -265.39540774736747 499.72028770634944 0 0 0 0 4490.6348040955927 3907.8963354425273 0 3907.8963354425273 3932.6469272017571 0 0 0 0 23.044804022931061 5.3337661448151472 0 5.3337661448151472 2.1173095744126105 0 0 0 0 1775.5096848626708 1355.1874172686837 0 1355.1874172686837 1539.0440297648295 0 0 0 0 1864.9383821240772 1751.6069404001146 0 1751.6069404001146 1592.6932502823572 0 0 0 0 1508.056800050379 1333.3252823488074 0 1333.3252823488074 795.97595097280009 0 0 0 0 1782.1291177872408 1447.0963552098524 0 1447.0963552098524 832.19778836780813 0 0 0 0 4494.8172940571603 1607.1174566676614 0 1607.1174566676614 -1.1204563579859621 0 0 0 0 106.79899476630089 43.173210673347512 0 43.173210673347512 -8.9234620326490699 0 0 0 0 106.37700856465381 74.338074052333013 0 74.338074052333013 -16.720548842553882 0 0 0 0 94.318079892609717 7.3903746326440896 0 7.3903746326440896 -8.3158733296008354 0 0 0 0 79.912798079138156 38.634301297597631 0 38.634301297597631 47.462361222459094 0 0 0 0 114.22493275367015 23.361430393000319 0 23.361430393000319 -18.864232531837843 0 0 0 0 92.560951688219575 8.3000781074815038 0 8.3000781074815038 -13.545570081945446 0 0 0 0 122.56529929395765 28.320033699509054 0 28.320033699509054 -11.85692065926969 0 0 0 0 16.915299314772383 12.250633921570056 0 12.250633921570056 0.79654852391393405 0 0 0 0 65.290756504196906 15.173054239862722 0 15.173054239862722 -9.3869071572071334 0 0 0 0 39.998218841332118 8.3985824746407332 0 8.3985824746407332 -8.5539646626927741 0 0 0 0 55.66672720562201 14.95991163859253 0 14.95991163859253 -21.808390347873228 0 0 0 0 52.96825171430828 7.543058242031293 0 7.543058242031293 -13.003372719362233 0 0 0 0 39.893902310956037 14.173954151008729 0 14.173954151008729 0.34168440327280791 0 0 0 0 15.326616601139193 8.9507179852297725 0 8.9507179852297725 -18.788497905736413 0 0 0 0 45.343047653404938 13.453341456437556 0 13.453341456437556 -83.951889767256944 0 0 0 0 32.350970663363114 13.441883669214121 0 13.441883669214121 -9.8627670914102055 0 0 0 0 42.850147351273336 -9.9044481856440143 0 -9.9044481856440143 -8.4260089568115291 0 0 0 0 73.455072470096638 4.8403732234799008 0 4.8403732234799008 -25.191425346960841 0 0 0 0 19.247141295127001 -2.9623429104609329 0 -2.9623429104609329 -24.135735399361117 0 0 0 0 141.86203951667994 17.903861670835568 0 17.903861670835568 -57.274156688542689 0 0 0 0 78.071313871245366 6.3307414021231807 0 6.3307414021231807 -17.887984739648175 0 0 0 0 200.88939063003636 63.425173042146753 0 63.425173042146753 -128.2670264493471 0 0 0 0 3.6111972195864723 -9.7008212129507854 0 -9.7008212129507854 -13.420221562316295 0 0 0 0 339.08090837822965 153.75585898455256 0 153.75585898455256 -69.67480923033213 0 0 0 0 10.992212270499152 13.076974169764696 0 13.076974169764696 -16.19525731568848 0 0 0 0 -41.157399649935542 75.351338658785608 0 75.351338658785608 -39.11759778448959 0 0 0 0 -41.194206529464282 75.785859505576354 0 75.785859505576354 -40.524332603218681 0 0 0 0 -168.62241345214716 65.750712630606358 0 65.750712630606358 -26.670178744862824 0 0 0 0 -76.036318985396065 182.42549305189823 0 182.42549305189823 -41.610059736606843 0 0 0 0 87.46835934289993 -275.85792098583772 0 -275.85792098583772 399.21299681985812 0 0 0 0 819.63609567043022 33.974632971048777 0 33.974632971048777 -337.80466909801328 0 0 0 0 357.74912814755226 48.838136601316705 0 48.838136601316705 -313.41922435734307 0 0 0 0 150.65515751582279 -259.92989303180764 0 -259.92989303180764 -210.91468421001741 0 0 0 0 68.720800107432296 131.9646106697312 0 131.9646106697312 76.586945133508365 0 0 0 0 291.81612591110752 -222.5220709397382 0 -222.5220709397382 -209.46230347863536 0 0 0 0 5.5637525177661473 2.4885090555835347 0 2.4885090555835347 0.94105659004458364 0 0 0 0 2.0854501526919194 96.952956199465802 0 96.952956199465802 60.645618074110985 0 0 0 0 181.85750105744228 207.91494963934531 0 207.91494963934531 62.432957779085143 0 0 0 0 133.28002105504856 152.17642284357441 0 152.17642284357441 11.040943702393065 0 0 0 0 169.07853256951785 127.04805472085818 0 127.04805472085818 -18.624103651380665 0 0 0 0 79.168582362064626 125.14463040069586 0 125.14463040069586 -0.59384863574973679 0 0 0 0 71.089357027289225 84.540589719871718 0 84.540589719871718 8.9805201156814292 0 0 0 0 14.342594858491793 73.854451263093551 0 73.854451263093551 11.580437200629319 0 0 0 0 82.462037496588891 104.91097511897672 0 104.91097511897672 14.855517991932288 0 0 0 0 42.913230697478866 32.094155394822053 0 32.094155394822053 -12.935951168181873 0 0 0 0 -14.642795456500608 -2.4294597887766258 0 -2.4294597887766258 -48.8930607527642 0 0 0 0 14.74773571404512 32.766102996121887 0 32.766102996121887 -42.02881760608426 0 0 0 0 -41.269703354744706 76.186375828017205 0 76.186375828017205 39.050612020744438 0 0 0 0 -66.430142659519333 30.366156255262467 0 30.366156255262467 7.9327872346008235 0 0 0 0 -54.20067136803118 -32.898437855616642 0 -32.898437855616642 -74.292544437855156 0 0 0 0 7.2704398658534046 -16.981452749921914 0 -16.981452749921914 -141.6663289540603 0 0 0 0 3.3719167055096477 45.453828926038 0 45.453828926038 -76.603077424316979 0 0 0 0 22.732891482417472 42.824226049548997 0 42.824226049548997 -17.941831642696343 0 0 0 0 1.7609564014346688 1.8616576191559204 0 1.8616576191559204 -24.740865263616342 0 0 0 0 17.422533174336422 22.191593103587252 0 22.191593103587252 -56.929338916949064 0 0 0 0 -41.460543306922773 67.095470694872461 0 67.095470694872461 -85.496495813558397 0 0 0 0 22.633009619625227 11.912038253751135 0 11.912038253751135 -73.476344895195609 0 0 0 0 27.16475356958108 5.7477293264185647 0 5.7477293264185647 -56.579986237135003 0 0 0 0 112.40172201278619 -4.1638473944420866 0 -4.1638473944420866 -61.330216075692874 0 0 0 0 65.403162955510197 -45.151229421410136 0 -45.151229421410136 -67.919242445135438 0 0 0 0 69.909791384343407 -21.640731946749739 0 -21.640731946749739 -45.044110369416103 0 0 0 0 17.590645589312771 -18.877588186621665 0 -18.877588186621665 -39.149526994243274 0 0 0 0 56.299471466765681 1.9159622285541218 0 1.9159622285541218 -32.217366756172851 0 0 0 0 39.419798962684581 -11.467242727226733 0 -11.467242727226733 -17.391910465843296 0 0 0 0 67.130328927509254 7.7999550762638137 0 7.7999550762638137 -4.427206631533636 0 0 0 0 23.755905007506954 34.807916988737247 0 34.807916988737247 5.2714558307952188 0 0 0 0 53.031628993951017 24.394911865078882 0 24.394911865078882 -14.949709733121836 0 0 0 0 78.006833604158601 54.4948105549866 0 54.4948105549866 -20.637401108967509 0 0 0 0 123.62247011948784 15.97906921069918 0 15.97906921069918 -44.206479573103138 0 0 0 0 105.27404631851823 2.9990391939492724 0 2.9990391939492724 -47.348529348550869 0 0 0 0 89.222166650084546 4.7732128032740491 0 4.7732128032740491 -37.51645062525165 0 0 0 0 85.991612359706778 -10.622271767215125 0 -10.622271767215125 -26.923328162035887 0 0 0 0 94.961758214863949 -2.2980122988750509 0 -2.2980122988750509 -31.591233020607888 0 0 0 0 67.655213007950806 8.44221428254491 0 8.44221428254491 -13.117814263860282 0 0 0 0 64.705781190481503 15.780315770535026 0 15.780315770535026 -1.4660801204072413 0 0 0 0 27.686362435125545 19.842951069446798 0 19.842951069446798 3.9249043543145508 0 0 0 0 71.203857342450647 3.2677529293821408 0 3.2677529293821408 25.971285567571158 0 0 0 0 95.002797677152557 -8.7640552387053958 0 -8.7640552387053958 5.5820826386758426 0 0 0 0 72.458985295379534 -3.7776287542578757 0 -3.7776287542578757 4.9508440757253993 0 0 0 0 54.139051907804969 14.846596085574738 0 14.846596085574738 5.4596851350042499 0 0 0 0 118.65343747903535 -0.69478620454947304 0 -0.69478620454947304 25.336040819567415 0 0 0 0 47.847831200258668 22.837205821082733 0 22.837205821082733 6.0099918829362249 0 0 0 0 65.682761999189097 -2.7901371275389124 0 -2.7901371275389124 11.938618059022701 0 0 0 0 65.720322683657287 -2.4785889889818691 0 -2.4785889889818691 14.274687524453157 0 0 0 0 68.697744476026855 2.8671467270112885 0 2.8671467270112885 12.198473111553483 0 0 0 0 68.944177367142402 2.1161540900698697 0 2.1161540900698697 0.8402063543346685 0 0 0 0 67.594182855944382 -2.7610236031225668 0 -2.7610236031225668 10.114925162713462 0 0 0 0 58.019573369398131 35.494955289213522 0 35.494955289213522 18.606809779208788 0 0 0 0 66.539393368343553 28.891194670112711 0 28.891194670112711 5.8218618581663577 0 0 0 0 92.669712837872794 -2.7901529645223491 0 -2.7901529645223491 -0.50339338024127755 0 0 0 0 80.724522374330263 19.482002521031063 0 19.482002521031063 64.233918035602528 0 0 0 0 105.04852196328284 23.399596797452432 0 23.399596797452432 21.656834354372904 0 0 0 0 97.596725422300779 10.135071006539789 0 10.135071006539789 -7.582750746451957 0 0 0 0 149.93979662143829 -55.101625697150325 0 -55.101625697150325 -58.411943396740298 0 0 0 0 60.810448286771134 -0.87435157852547718 0 -0.87435157852547718 -7.3795573919726394 0 0 0 0 16.861760668168671 -3.8304043752940657 0 -3.8304043752940657 -7.749641888645697 0 0 0 0 100.75818525716386 9.1395123061218442 0 9.1395123061218442 -6.6571293902820798 0 0 0 0 347.56234346759447 -96.471755570192045 0 -96.471755570192045 26.848098080462933 0 0 0 0 70.948113259735692 10.409374224273288 0 10.409374224273288 0.96212497730760305 0 0 0 0 40.069232136824695 17.683694495857139 0 17.683694495857139 0.19065886965539802 0 0 0 0 78.845394128511543 2.6527729118914465 0 2.6527729118914465 1.1434625522698525 0 0 0 0 99.993851431368967 4.996613164917477 0 4.996613164917477 0.75614304386817821 0 0 0 0 4.0368764548988452 -0.66546554368903799 0 -0.66546554368903799 -1.643640746751581 0 0 0 0 50.551054651246091 3.4333539322941462 0 3.4333539322941462 0.78632380536601509 0 0 0 0 56.033302734635072 9.6292425126198395 0 9.6292425126198395 5.9098016401670748 0 0 0 0 58.802098592903349 10.08940104541557 0 10.08940104541557 1.3782088764421587 0 0 0 0 59.394527549913619 8.20484872168214 0 8.20484872168214 -5.1990355294126402 0 0 0 0 86.250533962484042 16.328731157430113 0 16.328731157430113 9.731721655236413 0 0 0 0 57.1222469714412 6.1990368936554887 0 6.1990368936554887 2.8626591583609979 0 0 0 0 22.341354798144948 14.084438109474462 0 14.084438109474462 5.0002743141204054 0 0 0 0 20.207673801535719 7.9108936290350584 0 7.9108936290350584 -9.8627130190926984 0 0 0 0 55.520060451981408 -2.9278538831825927 0 -2.9278538831825927 -36.894014816652998 0 0 0 0 46.572568729781779 11.777719515559056 0 11.777719515559056 -12.193033452169402 0 0 0 0 64.882325110404054 -2.3530942900935301 0 -2.3530942900935301 -2.1026316220599028 0 0 0 0 52.687569834946771 10.039116257242938 0 10.039116257242938 -6.7352701090970868 0 0 0 0 70.490351440137601 -1.5572804298167284 0 -1.5572804298167284 -6.7167855702383292 0 0 0 0 14.555414558945415 6.9537673895906575 0 6.9537673895906575 0.23431890731614458 0 0 0 0 49.418036819089991 5.9014455725310011 0 5.9014455725310011 -5.0965650286099402 0 0 0 0 -339.33374612197804 366.35955856349892 0 366.35955856349892 815.04657368920243 0 0 0 0 162.20990674257337 28.499048298706157 0 28.499048298706157 74.667933609666989 0 0 0 0 -592.81161236568005 1209.1563662300659 0 1209.1563662300659 12.681427593839658 0 0 0 0 -68.291865147039061 89.770148477609382 0 89.770148477609382 219.21937370781512 0 0 0 0 15.358793669001884 1.470773777185201 0 1.470773777185201 -4.8384740082749724 0 0 0 0 39.873129115465048 14.073084145508984 0 14.073084145508984 -3.0704965974523635 0 0 0 0 499.1435271192895 -12.658976693823433 0 -12.658976693823433 -675.05017634304954 0 0 0 0 874.66420891534653 -612.38476873300124 0 -612.38476873300124 47.512922798645832 0 0 0 0 -95.091402639212902 1277.5937941243551 0 1277.5937941243551 -757.17689605398118 0 0 0 0 380.18892357937875 -134.36070459629013 0 -134.36070459629013 -26.058561919106069 0 0 0 0 18.72907708256389 5.9849614861253713 0 5.9849614861253713 0.29264460771560152 0 0 0 0 2.8293462153797293 3.162212150389351 0 3.162212150389351 1.8440846514612241 0 0 0 0 477.47978460059676 -577.30988905400204 0 -577.30988905400204 388.83440110484548 0 0 0 0 0.95809038294856919 2.821090882497951 0 2.821090882497951 0.15000191122910486 0 0 0 0 27.811357332670013 -6.6150914352069776 0 -6.6150914352069776 -0.67210865104425466 0 0 0 0 123.7214576081733 5.6801343402770001 0 5.6801343402770001 20.465589856863971 0 0 0 0 130.74479596980382 -114.12922952684403 0 -114.12922952684403 234.55077770351727 0 0 0 0 13.542676369482422 6.8061701589232628 0 6.8061701589232628 2.163878733741214 0 0 0 0 -115.01517715974478 193.20181765306916 0 193.20181765306916 315.02522087447448 0 0 0 0 43.00826332460565 -0.72078129741102459 0 -0.72078129741102459 -2.0513775275286252 0 0 0 0 191.07895392252249 424.55695000426931 0 424.55695000426931 -412.9189188623991 0 0 0 0 -66.452600597811397 125.75511548317172 0 125.75511548317172 385.53167183926814 0 0 0 0 -1.6577795059378388 1.8976392270153895 0 1.8976392270153895 5.0716823360037093 0 0 0 0 118.07809414800431 -623.52466957756792 0 -623.52466957756792 2007.8432315226246 0 0 0 0 -156.62475850738701 1138.1022197440866 0 1138.1022197440866 156.77160704462983 0 0 0 0 -830.11541247295099 988.29637577364008 0 988.29637577364008 1580.1059211602617 0 0 0 0 66.966975712294811 -4.4814234416128453 0 -4.4814234416128453 -10.428528386992856 0 0 0 0 53.214107371592434 -15.980110134635069 0 -15.980110134635069 0.7772793063792558 0 0 0 0 74.994000326114474 5.4864304622820441 0 5.4864304622820441 13.518762870933525 0 0 0 0 233.0832125563611 -953.51705942149579 0 -953.51705942149579 990.16930041135606 0 0 0 0 867.9832022076298 -278.11309244682201 0 -278.11309244682201 -41.062891185574529 0 0 0 0 911.30833268462447 -137.05950088128196 0 -137.05950088128196 27.652586934302576 0 0 0 0 55.298163607076276 8.2294204534596247 0 8.2294204534596247 4.769559140187198 0 0 0 0 70.420474225909857 9.2409958169424158 0 9.2409958169424158 27.965703183765612 0 0 0 0 32.505851182408065 0.19422694985985522 0 0.19422694985985522 -2.0024722130108801 0 0 0 0 31.229560167659656 1.9191835530550634 0 1.9191835530550634 -9.6794116873650466 0 0 0 0 45.42108632160523 -5.8459952908701638 0 -5.8459952908701638 -2.3344858767761298 0 0 0 0 87.476295794607722 16.226508502636072 0 16.226508502636072 24.797802623802212 0 0 0 0 43.19923170298398 -14.21705998920504 0 -14.21705998920504 2.5063403427715043 0 0 0 0 -120.69675185387995 31.884698377890036 0 31.884698377890036 41.367002865097675 0 0 0 0 345.3626937388035 300.9656541885447 0 300.9656541885447 -243.34640774349646 0 0 0 0 743.82417680008075 -51.821875028087334 0 -51.821875028087334 -117.12820567264589 0 0 0 0 -120.2703319840075 242.45085058820109 0 242.45085058820109 -7.9700893848926171 0 0 0 0 179.73105527125881 131.21081964929044 0 131.21081964929044 -138.16256904191764 0 0 0 0 10.043569781628321 97.101077818801059 0 97.101077818801059 -2.1310951645850764 0 0 0 0 176.00733810677048 137.97455471119844 0 137.97455471119844 -9.1756255205878006 0 0 0 0 106.45672776957508 25.942228092919549 0 25.942228092919549 14.222863715877111 0 0 0 0 58.721838116733124 22.206543374584726 0 22.206543374584726 41.544419882716738 0 0 0 0 79.933141895548033 37.25865420711466 0 37.25865420711466 9.7299672471635859 0 0 0 0 97.586340555026254 63.440280372258371 0 63.440280372258371 10.367471787581053 0 0 0 0 145.39341138767486 15.834918997519935 0 15.834918997519935 -80.503123180531816 0 0 0 0 19.901222257139636 -3.6916565133936103 0 -3.6916565133936103 -11.341604207159056 0 0 0 0 746.80739690770133 339.64052587251547 0 339.64052587251547 -16.16788024127527 0 0 0 0 46.928128955740249 14.337389018487102 0 14.337389018487102 0.34470845868048983 0 0 0 0 47.826981301259366 11.291605986837226 0 11.291605986837226 4.4934032707733422 0 0 0 0 42.620989965420449 33.606116369481924 0 33.606116369481924 295.66587576535721 0 0 0 0 55.365590476474608 19.96908064816057 0 19.96908064816057 12.976539326803504 0 0 0 0 71.408970665564993 22.325472831543379 0 22.325472831543379 -2.8256184415877215 0 0 0 0 33.186132516063878 -4.256939708050453 0 -4.256939708050453 -2.932547798967275 0 0 0 0 170.31715691371937 150.68606278703305 0 150.68606278703305 26.490625163307413 0 0 0 0 83.100008660461754 22.88227135370812 0 22.88227135370812 13.158883071111063 0 0 0 0 166.6733182829048 69.822111718689484 0 69.822111718689484 75.555899273567775 0 0 0 0 10.298344258324803 6.1525273491047301 0 6.1525273491047301 14.006129775344018 0 0 0 0 109.5677537740371 -29.499840182141909 0 -29.499840182141909 -33.633912970450908 0 0 0 0 -83.354358196702378 -65.705742157865416 0 -65.705742157865416 34.83557765203841 0 0 0 0 -21.494011477625463 33.305661443658209 0 33.305661443658209 -1.5996837684961065 0 0 0 0 54.888439511538309 -67.57688766600495 0 -67.57688766600495 -12.7458702380045 0 0 0 0 226.03674653975759 27.888485773728576 0 27.888485773728576 15.010240975295574 0 0 0 0 196.47628729282587 36.512176877013871 0 36.512176877013871 -28.493663476070651 0 0 0 0 6.5203895256890974 -181.0015056898219 0 -181.0015056898219 -24.140453970232556 0 0 0 0 142.3757589050656 -103.25728304184832 0 -103.25728304184832 -70.453289894732819 0 0 0 0 40.999554044044764 16.196528509061693 0 16.196528509061693 33.4897081591388 0 0 0 0 40.245748923052034 -14.427523853881681 0 -14.427523853881681 -7.513359268730154 0 0 0 0 0.27494519938861117 -0.080096191966107178 0 -0.080096191966107178 1.278011333450483 0 0 0 0 3.3051876761555832 -50.533863381065444 0 -50.533863381065444 68.692226285482434 0 0 0 0 269.08717540156795 -54.293947108435191 0 -54.293947108435191 -31.697793410675331 0 0 0 0 268.81399520213597 -70.734410382637222 0 -70.734410382637222 30.766363570789053 0 0 0 0 -44.846057570597623 -17.229046920367068 0 -17.229046920367068 88.523001827372809 0 0 0 0 95.972028875490651 30.438297509175072 0 30.438297509175072 -27.136991524001616 0 0 0 0 -5.3872933126167766 3.2924556210745095 0 3.2924556210745095 17.396360162788724 0 0 0 0 31.104338443180495 10.289474943026363 0 10.289474943026363 -8.1589358132173402 0 0 0 0 199.9492055102819 -158.35044938760507 0 -158.35044938760507 64.59286023806817 0 0 0 0 24.501293163084483 -23.097963623314172 0 -23.097963623314172 95.931543380100265 0 0 0 0 207.58864660652762 -24.298718647694386 0 -24.298718647694386 -17.348993763740509 0 0 0 0 12.388603472682007 17.067316641918751 0 17.067316641918751 12.683930623135097 0 0 0 0 -10.552343400064274 15.373301959195487 0 15.373301959195487 15.356957749139383 0 0 0 0 7.1698696148014278 22.781686502781724 0 22.781686502781724 41.768920431978586 0 0 0 0 -17.642258416324694 7.0711367093502497 0 7.0711367093502497 32.206906929475963 0 0 0 0 -2.5530312254559249 89.980228720167361 0 89.980228720167361 71.634522693387225 0 0 0 0 -16.748073018181458 1.5253977139448551 0 1.5253977139448551 37.200446528764019 0 0 0 0 -3.2102189408030881 6.257848657119311 0 6.257848657119311 21.74261058066644 0 0 0 0 75.930945283427718 9.4902310752586914 0 9.4902310752586914 -7.5643370721705878 0 0 0 0 96.39394928071124 -16.243392962793564 0 -16.243392962793564 2.6111576200313493 0 0 0 0 118.08746209152741 -32.856834601359537 0 -32.856834601359537 -3.234415727179794 0 0 0 0 149.59994826205366 17.278593733918569 0 17.278593733918569 -11.459571149713213 0 0 0 0 63.389167033194099 75.110357697564154 0 75.110357697564154 23.757342599009007 0 0 0 0 6.6572846604904043 24.86586933170031 0 24.86586933170031 33.385064649626088 0 0 0 0 48.305409677108401 28.0589817876957 0 28.0589817876957 23.497545008207453 0 0 0 0 70.229800616391003 2.5148657988502237 0 2.5148657988502237 3.3208635600772141 0 0 0 0 10.094207354079117 14.616750004972914 0 14.616750004972914 24.040816321249395 0 0 0 0 57.405580035294406 2.8334509581454768 0 2.8334509581454768 3.6164760253527675 0 0 0 0 42.117256061676017 -10.626766386499412 0 -10.626766386499412 5.2224948604525707 0 0 0 0 83.92138294018514 -3.8476803054829247 0 -3.8476803054829247 -6.5970321328459249 0 0 0 0 69.542527071898803 -16.912667126072733 0 -16.912667126072733 0.72790967059063405 0 0 0 0 96.377692596870475 -2.9779109929058336 0 -2.9779109929058336 -7.7451424779392255 0 0 0 0 94.851705558128742 -6.4279203345278972 0 -6.4279203345278972 0.70075919503983641 0 0 0 0 103.52211989425996 -6.2169136111260741 0 -6.2169136111260741 -8.8659301037237128 0 0 0 0 100.35368032080441 -1.4433303275869775 0 -1.4433303275869775 -8.7666307786371362 0 0 0 0 166.97931153673562 -7.9328996468411788 0 -7.9328996468411788 -20.064441651294146 0 0 0 0 121.43684062518878 -1.3639640386500105 0 -1.3639640386500105 -16.1814019148689 0 0 0 0 90.360145576647483 -19.525324993846084 0 -19.525324993846084 -1.3504087759729373 0 0 0 0 59.661127770421444 -15.09079398551944 0 -15.09079398551944 8.6024792846501441 0 0 0 0 46.115403708827216 -18.749211502122535 0 -18.749211502122535 34.822995534530492 0 0 0 0 91.363438082447828 -28.281834910760438 0 -28.281834910760438 11.392843004776296 0 0 0 0 68.956629241147311 -11.855714492489369 0 -11.855714492489369 15.913389084028722 0 0 0 0 75.8267692051013 -31.677313630810659 0 -31.677313630810659 30.854469185908783 0 0 0 0 98.857207162913255 -47.155602573911096 0 -47.155602573911096 23.768891132587669 0 0 0 0 -1.4925024654057069 2.2499442750231964 0 2.2499442750231964 0.49839715023612641 0 0 0 0 13.629624451568816 -10.59080452143462 0 -10.59080452143462 17.226276966531259 0 0 0 0 59.201565598450543 -17.999317406883534 0 -17.999317406883534 6.3846583256818121 0 0 0 0 27.894222677045036 0.0058574205479544617 0 0.0058574205479544617 9.799508670361547 0 0 0 0 26.328625855123391 -11.195183699437621 0 -11.195183699437621 21.246572503487187 0 0 0 0 34.226710850722156 0.5631928895877536 0 0.5631928895877536 11.805844696973054 0 0 0 0 33.072076154057868 -2.9270313403972068 0 -2.9270313403972068 1.2574780899867619 0 0 0 0 24.821568396786461 -15.892340995342806 0 -15.892340995342806 6.6094748035202429 0 0 0 0 0.53074132243636996 4.0113159297302445 0 4.0113159297302445 7.1042490455165535 0 0 0 0 -0.90356027964025998 -1.3711366593328194 0 -1.3711366593328194 3.0340053371782654 0 0 0 0 2.9131186603356021 -6.165171127912501 0 -6.165171127912501 12.073329515217742 0 0 0 0 8.788877948463778 -0.32348250912343701 0 -0.32348250912343701 21.552959213808208 0 0 0 0 9.4475164786417736 -0.6790090211873121 0 -0.6790090211873121 13.90662830700785 0 0 0 0 14.247802125086309 10.294392468391379 0 10.294392468391379 27.251095125822303 0 0 0 0 26.236236836331955 -3.2608477727269474 0 -3.2608477727269474 21.227826088001166 0 0 0 0 40.39299443740947 0.78713213891387568 0 0.78713213891387568 54.20845005496858 0 0 0 0 93.371466564407456 122.79741735433231 0 122.79741735433231 37.264422947056076 0 0 0 0 67.480010963510722 -34.052719937204529 0 -34.052719937204529 70.677242301736442 0 0 0 0 12.661571561272581 6.1107784877407596 0 6.1107784877407596 1.9931728483406532 0 0 0 0 149.77607885903853 -71.38234726988253 0 -71.38234726988253 51.363906847663202 0 0 0 0 38.240455929917516 9.7015621929153895 0 9.7015621929153895 34.214422351961034 0 0 0 0 45.179470947565278 23.003741562965843 0 23.003741562965843 17.720833134248096 0 0 0 0 12.380529252623091 -4.8175212311330142 0 -4.8175212311330142 -16.213153316604235 0 0 0 0 268.65981180513336 -116.50012910770499 0 -116.50012910770499 47.539854479189216 0 0 0 0 61.114352998800115 -5.1958079549252574 0 -5.1958079549252574 -16.689520167933555 0 0 0 0 167.99683086885489 143.88324559896841 0 143.88324559896841 -23.885588333253736 0 0 0 0 14.652413730316766 -4.5105986608859894 0 -4.5105986608859894 -21.153810517555939 0 0 0 0 13.09553532370046 -3.8569347971722436 0 -3.8569347971722436 19.597738588170614 0 0 0 0 14.560913250417798 -82.673174056877542 0 -82.673174056877542 -29.746950801879564 0 0 0 0 43.683313012660903 -11.024354180882142 0 -11.024354180882142 -21.673628292045581 0 0 0 0 20.641892977033422 15.903148519220849 0 15.903148519220849 14.089395862213223 0 0 0 0 61.739394616568461 26.890008422986739 0 26.890008422986739 3.2161160873943118 0 0 0 0 30.781005794226076 47.796336339363052 0 47.796336339363052 20.082134561279076 0 0 0 0 105.56226788231288 68.448644851740255 0 68.448644851740255 16.91618766941474 0 0 0 0 136.36378219828475 35.219946175075165 0 35.219946175075165 -14.154651111496833 0 0 0 0 112.14545959874522 28.480443524613975 0 28.480443524613975 -7.5392387000632652 0 0 0 0 136.73804638787988 20.739783753808751 0 20.739783753808751 -37.947031205057101 0 0 0 0 307.38701533040148 -13.256069229207014 0 -13.256069229207014 -32.916479806330699 0 0 0 0 -12.323383316397667 79.446700758933048 0 79.446700758933048 25.418983277286316 0 0 0 0 195.30891768683796 90.841988772239802 0 90.841988772239802 -0.39445885213899601 0 0 0 0 19.86832273491018 235.92141991404378 0 235.92141991404378 652.82727193339224 0 0 0 0 713.89562932129775 268.8083901113373 0 268.8083901113373 76.212880283797858 0 0 0 0 197.91221092981868 120.77932523641675 0 120.77932523641675 69.717206515165344 0 0 0 0 82.870748484812793 -70.194809642917789 0 -70.194809642917789 78.60291576785994 0 0 0 0 220.31211149864248 -64.678214137761643 0 -64.678214137761643 48.904757914131039 0 0 0 0 377.40295032184804 42.800536391058358 0 42.800536391058358 -44.731341759641509 0 0 0 0 11.821554489913979 -90.597232811229333 0 -90.597232811229333 50.368345831034731 0 0 0 0 135.51380270660593 36.870797245841914 0 36.870797245841914 -70.482877974394796 0 0 0 0 158.322158384457 8.151599078876643 0 8.151599078876643 -34.321884860466525 0 0 0 0 116.75688901850663 76.413954122578616 0 76.413954122578616 -43.784111515758923 0 0 0 0 196.94017036364858 115.18722573503942 0 115.18722573503942 -26.784784992951245 0 0 0 0 93.239864224793564 53.709309992116687 0 53.709309992116687 -14.704478724427645 0 0 0 0 100.14930851540703 61.194232772376381 0 61.194232772376381 -8.2551719135717576 0 0 0 0 98.268731591495452 -25.160442273217996 0 -25.160442273217996 -74.898167284584304 0 0 0 0 46.584038313505516 -1.2329913171627993 0 -1.2329913171627993 -21.481936144418025 0 0 0 0 114.40972498146584 -21.621692578260308 0 -21.621692578260308 -32.25911274434884 0 0 0 0 -2.9411379938624123 -4.3532416289560558 0 -4.3532416289560558 -2.9066673916722889 0 0 0 0 78.758433478797087 87.115019927677409 0 87.115019927677409 112.41182696103832 0 0 0 0 32.524235397482698 53.530487508218982 0 53.530487508218982 39.303749748425844 0 0 0 0 120.4766042363517 58.160367453209588 0 58.160367453209588 39.140741277692825 0 0 0 0 95.212592258612858 1.2075777158155319 0 1.2075777158155319 43.661979670913638 0 0 0 0 61.776848102210351 37.28443274158991 0 37.28443274158991 11.767759313839179 0 0 0 0 64.613295957839 59.569731357192836 0 59.569731357192836 24.544672471677586 0 0 0 0 57.451291508521535 32.72768114791495 0 32.72768114791495 41.666241586980732 0 0 0 0 55.69877660907332 60.793501218351842 0 60.793501218351842 33.727715462241008 0 0 0 0 58.392628540830628 49.982766049414806 0 49.982766049414806 50.600506916864219 0 0 0 0 4.3136540968763768 7.4887871494797906 0 7.4887871494797906 11.300688160973234 0 0 0 0 51.922887374903894 8.932329214069533 0 8.932329214069533 -26.36216972875734 0 0 0 0 68.656243537989212 7.9056424192738035 0 7.9056424192738035 17.766792948303177 0 0 0 0 94.058310653839726 -1.4100133112024196 0 -1.4100133112024196 -7.1602367425327884 0 0 0 0 90.183949060969098 12.342965956038398 0 12.342965956038398 9.8160689939297754 0 0 0 0 80.781043132534251 25.856235522235352 0 25.856235522235352 -0.43352822062763607 0 0 0 0 78.457325671608487 37.645413728547837 0 37.645413728547837 21.302378787828047 0 0 0 0 49.955207127699396 36.450466995455486 0 36.450466995455486 25.050010614134521 0 0 0 0 41.736791848939902 31.978862335743202 0 31.978862335743202 44.620116834169949 0 0 0 0 52.859093074803241 12.36116650148773 0 12.36116650148773 70.492287973533848 0 0 0 0 44.086040522379335 17.662452916236987 0 17.662452916236987 56.983049569670072 0 0 0 0 51.960800366301555 21.943251435185061 0 21.943251435185061 34.284539197945293 0 0 0 0 51.937233582422778 -3.0547517674377502 0 -3.0547517674377502 28.093628663793424 0 0 0 0 39.92568420576572 0.8599681130365866 0 0.8599681130365866 43.870849528506255 0 0 0 0 58.223966933001066 23.853560017203193 0 23.853560017203193 46.30102060252932 0 0 0 0 39.299408543956815 5.2057418886065534 0 5.2057418886065534 33.626338417069292 0 0 0 0 36.537931502170977 -2.7901316693280478 0 -2.7901316693280478 28.314012614142115 0 0 0 0 58.15200019851909 -2.3780381180339418 0 -2.3780381180339418 24.476934117705866 0 0 0 0 79.931748235801933 -19.592164930278898 0 -19.592164930278898 9.9653491837019033 0 0 0 0 87.670064175181324 -9.6277703555521725 0 -9.6277703555521725 -0.72035154836859761 0 0 0 0 91.616134302792489 -27.266138102118703 0 -27.266138102118703 13.53489046610747 0 0 0 0 41.783404041547328 -39.724923794683491 0 -39.724923794683491 18.413138068603075 0 0 0 0 100.56212326158311 -50.957971117128466 0 -50.957971117128466 16.717398154471994 0 0 0 0 -12.522947163932258 -39.532372797263065 0 -39.532372797263065 38.632287664579735 0 0 0 0 -7.6762923964588481 30.157077849692008 0 30.157077849692008 -5.0742076522681145 0 0 0 0 11.148481242506705 1.8256348141062801 0 1.8256348141062801 -0.52066272451150042 0 0 0 0 24.099639227453736 -13.883775777261349 0 -13.883775777261349 18.70028379492328 0 0 0 0 35.98182562666625 11.19287788961708 0 11.19287788961708 -63.829164556460455 0 0 0 0 32.58783517773918 19.983670091138293 0 19.983670091138293 10.996108337080386 0 0 0 0 17.793311055924278 -8.54371516399965 0 -8.54371516399965 -16.166066282328529 0 0 0 0 -88.463092338381102 9.501574391684585 0 9.501574391684585 186.86500141134627 0 0 0 0 35.548171272028412 49.71465498300222 0 49.71465498300222 13.520164476366972 0 0 0 0 3.7910783919517037 2.3297427595981333 0 2.3297427595981333 -0.088374296940850527 0 0 0 0 81.366378059290582 -17.0502657630675 0 -17.0502657630675 46.660365018180073 0 0 0 0 -126.47884552562027 8.2370994209195487 0 8.2370994209195487 74.467786666803477 0 0 0 0 -32.444464051761315 76.79620302065041 0 76.79620302065041 93.724716031795651 0 0 0 0 109.33601633888611 42.208754238528854 0 42.208754238528854 -0.54951184429410205 0 0 0 0 136.81022113709332 95.502101095390572 0 95.502101095390572 101.83110471352074 0 0 0 0 87.874058806583434 -6.7465667946747487 0 -6.7465667946747487 134.53536829304721 0 0 0 0 83.590950397381675 59.378288262679689 0 59.378288262679689 76.396289382380019 0 0 0 0 45.187638567635986 51.588359926083854 0 51.588359926083854 37.398016727505478 0 0 0 0 48.099355605493656 35.61383517717924 0 35.61383517717924 7.2367776634198435 0 0 0 0 49.316860735916492 38.821236415736578 0 38.821236415736578 29.420777790356897 0 0 0 0 18.966039089574082 9.8783934505881188 0 9.8783934505881188 10.996609372807411 0 0 0 0 49.883677943194925 43.57876977818853 0 43.57876977818853 -13.074020306542025 0 0 0 0 10.805757916663424 28.303935129529236 0 28.303935129529236 13.348465804787025 0 0 0 0 -15.846689284517197 47.878694454682773 0 47.878694454682773 95.045166764215196 0 0 0 0 22.563398738625182 24.958741350340851 0 24.958741350340851 28.267169269912209 0 0 0 0 -45.520461172025534 92.058503216090685 0 92.058503216090685 3.0945301982746969 0 0 0 0 -50.168604225021227 87.921569107855248 0 87.921569107855248 168.09261502894697 0 0 0 0 -30.605747628087556 -9.3438455781308676 0 -9.3438455781308676 42.308580681494277 0 0 0 0 -31.499049556365208 -17.08241221081812 0 -17.08241221081812 93.381882025045343 0 0 0 0 -17.535627385789212 20.255366231347537 0 20.255366231347537 40.002992741201524 0 0 0 0 -17.127485723562131 14.83983356403337 0 14.83983356403337 76.784499240679679 0 0 0 0 13.067614920817931 23.027924925045845 0 23.027924925045845 29.105727739638468 0 0 0 0 -1.8651601839173964 2.2803539302745222 0 2.2803539302745222 24.183681352164399 0 0 0 0 -1.6723550435344805 0.63794936417957615 0 0.63794936417957615 37.983535868809838 0 0 0 0 0.4125990199175753 -5.1592301304533947 0 -5.1592301304533947 -1.2608967357469103 0 0 0 0 -58.138230241274869 -66.633598369028732 0 -66.633598369028732 115.05887260757231 0 0 0 0 -5.0451729953892936 -12.099761413538317 0 -12.099761413538317 14.393098345383805 0 0 0 0 0.037254768540151417 -3.3699549106131599 0 -3.3699549106131599 150.24852177878893 0 0 0 0 132.02837776087108 137.64587418464544 0 137.64587418464544 50.646530071793677 0 0 0 0 32.699849469769106 -65.930887411103868 0 -65.930887411103868 162.2726097392524 0 0 0 0 3.2670944174256249 2.2735896428165034 0 2.2735896428165034 2.7243028440837254 0 0 0 0 262.29531501702058 13.335208396121914 0 13.335208396121914 19.016828979780257 0 0 0 0 124.31388462681207 164.44097185316787 0 164.44097185316787 -107.11080743873026 0 0 0 0 -2.8399074528282995 2.3183785746358154 0 2.3183785746358154 6.5455520431840171 0 0 0 0 264.48442190729338 -25.816390399238458 0 -25.816390399238458 12.84251310178297 0 0 0 0 49.300894160813186 38.654389932734375 0 38.654389932734375 4.300867314586867 0 0 0 0 -9.0775895860497258 18.799482049227208 0 18.799482049227208 66.830788268939614 0 0 0 0 23.177603387564886 -1.6073040153141847 0 -1.6073040153141847 -16.582327733899547 0 0 0 0 0.5877145095233729 8.7176803813248398 0 8.7176803813248398 26.587374279209431 0 0 0 0 13.257253152376506 16.897246845247139 0 16.897246845247139 38.303697261117918 0 0 0 0 -33.811253738369487 112.6264175425564 0 112.6264175425564 -5.8069270432297344 0 0 0 0 -6.8076695248288104 0.33794452844570344 0 0.33794452844570344 8.8334855282919893 0 0 0 0 23.412475396224181 36.148579930386404 0 36.148579930386404 13.976701798084832 0 0 0 0 29.914173811775981 24.965878965920638 0 24.965878965920638 14.988429244850977 0 0 0 0 62.235764739787555 48.505208595360273 0 48.505208595360273 10.20087437049915 0 0 0 0 28.72501677479886 18.882312476353945 0 18.882312476353945 -15.974905294335258 0 0 0 0 15.90190516504299 56.490202458065369 0 56.490202458065369 10.561028092239212 0 0 0 0 210.19445269563585 1.1789512535995073 0 1.1789512535995073 -39.836551916670942 0 0 0 0 64.864497652073624 -0.64580371454940178 0 -0.64580371454940178 -34.485752574565595 0 0 0 0 55.326830426740344 9.5592109767967486 0 9.5592109767967486 -42.501050896524248 0 0 0 0 90.7825823282692 9.8878926761062758 0 9.8878926761062758 -50.160755605320446 0 0 0 0 53.648893181263702 -1.3173558923826931 0 -1.3173558923826931 -31.481343035282407 0 0 0 0 -0.73968481557676569 -39.796765103717917 0 -39.796765103717917 -57.935499776845973 0 0 0 0 23.322558381879219 -6.407205351346704 0 -6.407205351346704 0.74245193990240566 0 0 0 0 28.959709425551409 -12.948441420933023 0 -12.948441420933023 26.741818446023899 0 0 0 0 -9.6868480149096285 -5.8153301314407599 0 -5.8153301314407599 -42.381597740090911 0 0 0 0 58.153817266240367 1.365652929423959 0 1.365652929423959 6.0275783536435483 0 0 0 0 0.50946190638126154 -0.30878769850196619 0 -0.30878769850196619 0.56403028261768817 0 0 0 0 -1.3263792531433864 -37.706617825902413 0 -37.706617825902413 5.999055794934975 0 0 0 0 42.882403748539218 -40.138641914395066 0 -40.138641914395066 -120.65259166237956 0 0 0 0 -2.5269288133161467 -3.2690553782312541 0 -3.2690553782312541 1.5772667127250095 0 0 0 0 6.8277681725635659 -0.027502748211631456 0 -0.027502748211631456 -1.8078276761274026 0 0 0 0 -39.869362349920266 -53.924786607824899 0 -53.924786607824899 61.295807544702257 0 0 0 0 11.171924781854614 -22.029358906543166 0 -22.029358906543166 24.049909895687961 0 0 0 0 23.584529291576473 -27.284202103937787 0 -27.284202103937787 0.56905505697704939 0 0 0 0 16.044958739861613 13.262643014268178 0 13.262643014268178 26.794228989325802 0 0 0 0 12.784584363722388 9.0750717376190551 0 9.0750717376190551 36.607843483567194 0 0 0 0 6.3287781433134569 9.1184020825341321 0 9.1184020825341321 8.5515085126880184 0 0 0 0 -3.6938913668564055 -92.283560081092219 0 -92.283560081092219 83.019826806728815 0 0 0 0 22.636613815903104 -1.9878396962160956 0 -1.9878396962160956 2.5475670154564281 0 0 0 0 83.15650142717277 -31.567491815183985 0 -31.567491815183985 -17.431421862247589 0 0 0 0 106.74122060864465 -68.815889626119315 0 -68.815889626119315 -19.803010565250588 0 0 0 0 -22.776497229489905 21.241765391878062 0 21.241765391878062 -14.543174243206522 0 0 0 0 20.973538368780254 8.8878107958294379 0 8.8878107958294379 4.6709288320808131 0 0 0 0 27.864572682246944 47.273547686564598 0 47.273547686564598 -76.421599017306107 0 0 0 0 -131.61648140811303 77.21626194421242 0 77.21626194421242 -6.4323678285954884 0 0 0 0 -227.38874551081244 -58.304653295288972 0 -58.304653295288972 125.84786986999643 0 0 0 0 0.51416242089180741 -270.95077535740256 0 -270.95077535740256 81.842715513834264 0 0 0 0 60.393076753905916 -211.89105907063367 0 -211.89105907063367 -130.84842956579905 0 0 0 0 -2.8143071301310556 37.70033227382919 0 37.70033227382919 -22.198336544790436 0 0 0 0 5.5585084188572864 -1.1682593610365259 0 -1.1682593610365259 -0.25989510438335195 0 0 0 0 13.811824663353036 15.316032484019161 0 15.316032484019161 10.425004808271296 0 0 0 0 4.0778904615300462 2.9177405944864887 0 2.9177405944864887 3.0552961277403465 0 0 0 0 7.109814325215666 18.642304662850165 0 18.642304662850165 42.647724393260432 0 0 0 0 9.4051418663293589 7.851237246070923 0 7.851237246070923 51.235644264861548 0 0 0 0 0.15208490987419054 -10.517146153537972 0 -10.517146153537972 13.963619662468776 0 0 0 0 1.7551475389263942 18.490240703788913 0 18.490240703788913 43.207772609842323 0 0 0 0 -31.028603405546164 -12.515200554971102 0 -12.515200554971102 33.837963477131581 0 0 0 0 -5.0426976898670546 -1.5564002145750919 0 -1.5564002145750919 45.173575396182059 0 0 0 0 1.8082388401120966 -11.255061205189911 0 -11.255061205189911 16.865659185081089 0 0 0 0 -36.750679041000694 14.634588436022661 0 14.634588436022661 67.300741323281727 0 0 0 0 -175.25999315193621 78.699199857736176 0 78.699199857736176 308.84963234429438 0 0 0 0 -96.470265236297564 -110.00985756477735 0 -110.00985756477735 -5.9963460141491396 0 0 0 0 253.73461310980201 133.55108400790937 0 133.55108400790937 40.841346658301632 0 0 0 0 3.6576952827036564 2.256329212070205 0 2.256329212070205 0.30590042227402048 0 0 0 0 106.14818012198521 -76.513034054805075 0 -76.513034054805075 21.135208299004262 0 0 0 0 250.33326537352696 -44.342529411257146 0 -44.342529411257146 -16.365137225356875 0 0 0 0 102.91230605408327 -30.852816867168464 0 -30.852816867168464 -0.24999161353616728 0 0 0 0 -46.160792343798676 80.739485163654081 0 80.739485163654081 339.67137669457884 0 0 0 0 -2.3523151911055606 -7.147678337854245 0 -7.147678337854245 12.397492739043145 0 0 0 0 52.551690711814445 -113.06926996646419 0 -113.06926996646419 -74.769983240803413 0 0 0 0 495.86108720725315 118.74546049577521 0 118.74546049577521 -58.866863812595511 0 0 0 0 3370.9387192366812 -381.88421966560713 0 -381.88421966560713 -758.86471946625318 0 0 0 0 4502.2159142628589 -1014.6131041990948 0 -1014.6131041990948 -740.20632196958229 0 0 0 0 2623.3988891413828 -816.33571694539182 0 -816.33571694539182 -39.940939937940897 0 0 0 0 5.5209311808816395 1.2028198072634666 0 1.2028198072634666 0.75377822758871937 0 0 0 0 2486.9133607352851 -839.13693668884343 0 -839.13693668884343 -34.736703387546186 0 0 0 0 2846.0741400807565 -1359.6247047476356 0 -1359.6247047476356 -392.77720569300038 0 0 0 0 4488.0678409656011 -2123.4928191679705 0 -2123.4928191679705 -87.349016306712855 0 0 0 0 -216.52442061000329 -1690.9929406417286 0 -1690.9929406417286 1811.7514508106356 0 0 0 0 -216.80459456460085 -1281.1927624672226 0 -1281.1927624672226 1106.5007327319734 0 0 0 0 13.89158212010301 -12.585007554028152 0 -12.585007554028152 9.9535070965768924 0 0 0 0 3.9379075439825613 1.238793733298948 0 1.238793733298948 0.28647288602128995 0 0 0 0 1143.4033312954343 -927.6971869413602 0 -927.6971869413602 672.66415948124313 0 0 0 0 723.20253355504974 -176.49243551209793 0 -176.49243551209793 268.24118158061464 0 0 0 0 577.41251395882864 57.981081732145469 0 57.981081732145469 52.076346248754362 0 0 0 0 893.63316268872586 191.95245255662894 0 191.95245255662894 104.8844822547801 0 0 0 0 404.44457254351437 -28.609765950526707 0 -28.609765950526707 4.2882331189732668 0 0 0 0 888.93157414262862 19.493221644942096 0 19.493221644942096 -238.1461584091785 0 0 0 0 446.76259625466628 100.9450354991925 0 100.9450354991925 123.1180791264901 0 0 0 0 785.87936837376037 -40.245818427266244 0 -40.245818427266244 -42.826421343204444 0 0 0 0 527.88794424618391 -79.532287539820288 0 -79.532287539820288 146.08816448198689 0 0 0 0 1007.6010790279615 97.204119637262465 0 97.204119637262465 48.664361407076967 0 0 0 0 952.45562445489486 -283.1742915253941 0 -283.1742915253941 248.25269284730041 0 0 0 0 1204.9653228084571 -321.62275592009956 0 -321.62275592009956 89.653130267353163 0 0 0 0 1512.3926657345546 182.71514052513177 0 182.71514052513177 -244.35025233623492 0 0 0 0 2064.8046748974957 -518.17308675771471 0 -518.17308675771471 -34.335850670651951 0 0 0 0 4.0088670139977225 0.90766294480110332 0 0.90766294480110332 -0.75607259506736701 0 0 0 0 531.72736994496518 -76.327957576282188 0 -76.327957576282188 295.49028196787469 0 0 0 0 1466.1271320307205 341.84475819728675 0 341.84475819728675 -28.638462454248611 0 0 0 0 504.40164040564559 45.413311393497224 0 45.413311393497224 57.569082655486682 0 0 0 0 -231.55798157461686 27.568931446170154 0 27.568931446170154 135.9292112583048 0 0 0 0 -26.942040444242593 -73.740011605611159 0 -73.740011605611159 42.147996451686787 0 0 0 0 91.990020971446938 153.30382756323661 0 153.30382756323661 -14.196193846667285 0 0 0 0 42.165745020567556 103.11205178891042 0 103.11205178891042 209.56694515623516 0 0 0 0 496.24366864759213 140.100450772306 0 140.100450772306 51.28415709311696 0 0 0 0 437.55958882023879 66.243156614212808 0 66.243156614212808 3.8800462783271996 0 0 0 0 85.059268270852044 83.709639023174987 0 83.709639023174987 129.04603922249305 0 0 0 0 97.156197994328977 79.887444029274548 0 79.887444029274548 82.610152300180516 0 0 0 0 411.94761512637979 5.0247349965544004 0 5.0247349965544004 -25.625426496836553 0 0 0 0 103.51611330737524 95.127476395161494 0 95.127476395161494 -62.994178215428747 0 0 0 0 -7.5785165738731557 1.3718086824202516 0 1.3718086824202516 0.96463751349898708 0 0 0 0 135.03648973287636 171.18586404976691 0 171.18586404976691 -13.320291099236329 0 0 0 0 -173.50344137546199 129.67383863435134 0 129.67383863435134 119.53858347259802 0 0 0 0 1.8317905052595123 27.044969589367284 0 27.044969589367284 18.086138994745589 0 0 0 0 -139.68062094843481 -12.340961866701946 0 -12.340961866701946 21.042570141838297 0 0 0 0 -23.678992291093891 81.477269046047923 0 81.477269046047923 -73.468635247983912 0 0 0 0 -16.310881967932801 59.251099434572097 0 59.251099434572097 33.342049101479461 0 0 0 0 -0.05467155216022461 -2.1086526766588918 0 -2.1086526766588918 1.7422046724929103 0 0 0 0 54.40740811966316 22.966319748096396 0 22.966319748096396 10.186409881593136 0 0 0 0 -94.750361896741254 -23.640203542392126 0 -23.640203542392126 75.588465858756535 0 0 0 0 23.298254928202368 61.383740780781409 0 61.383740780781409 -20.502585236554296 0 0 0 0 -33.220996938427561 63.599055562510785 0 63.599055562510785 20.578630388544298 0 0 0 0 93.048135314646061 206.51803276583769 0 206.51803276583769 156.06255114105863 0 0 0 0 2.4037035313840533 52.199605630620056 0 52.199605630620056 118.39143258644253 0 0 0 0 8.5354839631836512 75.413035739037696 0 75.413035739037696 31.924553250608369 0 0 0 0 118.73190475154843 108.40657482661891 0 108.40657482661891 8.8432964608400653 0 0 0 0 47.536916074503097 115.04030200972102 0 115.04030200972102 33.59434769635385 0 0 0 0 78.436797072281479 61.826890706996892 0 61.826890706996892 5.1544479698107466 0 0 0 0 82.126129771466367 92.238259224884132 0 92.238259224884132 49.581320304379915 0 0 0 0 126.40749663771203 100.32669858974759 0 100.32669858974759 2.7764176582059008 0 0 0 0 128.69738976929511 108.73843975287491 0 108.73843975287491 3.0778380853062117 0 0 0 0 135.66578504841891 26.057826380930237 0 26.057826380930237 2.8203338667563003 0 0 0 0 265.43552508192806 83.9401760942892 0 83.9401760942892 -17.506126726255388 0 0 0 0 -324.39117435634398 -63.808354350528134 0 -63.808354350528134 102.44817890705872 0 0 0 0 -0.063320669259474271 -2.0629827445514479 0 -2.0629827445514479 0.95449979177767119 0 0 0 0 49.797902120109399 18.382351709446443 0 18.382351709446443 -20.209932291955116 0 0 0 0 166.099822185839 147.18504475060672 0 147.18504475060672 54.599096025724066 0 0 0 0 9.4860216237618076 32.156044168501793 0 32.156044168501793 40.476347268564915 0 0 0 0 185.60995829278545 -36.357415150273482 0 -36.357415150273482 61.547248228830995 0 0 0 0 22.391457744903164 -29.754284477203328 0 -29.754284477203328 129.15878966792297 0 0 0 0 -169.9471310707886 139.43596375282414 0 139.43596375282414 110.96815073867037 0 0 0 0 44.147622693039011 -66.120991065172575 0 -66.120991065172575 224.85313597612321 0 0 0 0 41.93157735648856 100.0792828888284 0 100.0792828888284 51.99069791793363 0 0 0 0 11.133417505363383 -3.5383968063998879 0 -3.5383968063998879 -7.6320219055976608 0 0 0 0 117.19237759872067 -73.737409575853462 0 -73.737409575853462 -100.96235607293056 0 0 0 0 0.026295499862229121 12.661955839489785 0 12.661955839489785 11.774834956419953 0 0 0 0 29.871329546091147 139.52415854101673 0 139.52415854101673 108.26525160527096 0 0 0 0 188.07071595068555 13.897819258585059 0 13.897819258585059 14.71531999175636 0 0 0 0 53.224063440695105 -4.4818662344711768 0 -4.4818662344711768 -23.377959916298089 0 0 0 0 76.972012766447733 53.470770514971719 0 53.470770514971719 0.81770409306295733 0 0 0 0 73.968070544819057 92.077176735986995 0 92.077176735986995 -5.3226068936373849 0 0 0 0 -3.2806146001967136 89.486922358833908 0 89.486922358833908 15.939184274081072 0 0 0 0 9.3581511154462973 9.9899153684387016 0 9.9899153684387016 -3.1235361136830111 0 0 0 0 60.932514701440596 21.86525380407906 0 21.86525380407906 52.612267793703722 0 0 0 0 66.453698594152229 60.010658572968623 0 60.010658572968623 27.49184082164777 0 0 0 0 359.45579750857723 -12.589354664172788 0 -12.589354664172788 -147.30185740468755 0 0 0 0 -23.153330110577372 -96.448621908398309 0 -96.448621908398309 171.22870902129307 0 0 0 0 249.03973050345303 271.93549941428091 0 271.93549941428091 56.596405507782038 0 0 0 0 129.98641803209466 99.674668396016386 0 99.674668396016386 -192.3575154781289 0 0 0 0 129.47427281025739 -102.77110994027203 0 -102.77110994027203 383.67758914813101 0 0 0 0 49.311334096179053 67.881299423390004 0 67.881299423390004 53.022542741301322 0 0 0 0 135.13153750939409 -14.999327584532921 0 -14.999327584532921 -31.175941356315889 0 0 0 0 124.42777082067187 68.04236330261665 0 68.04236330261665 33.6831240068841 0 0 0 0 102.71016966809475 61.752653909703668 0 61.752653909703668 37.72341055765537 0 0 0 0 85.350890348578105 65.527644129728515 0 65.527644129728515 71.052087606131352 0 0 0 0 59.215330182709295 184.86703077322227 0 184.86703077322227 410.35137681928063 0 0 0 0 369.41706282427185 189.08173343247176 0 189.08173343247176 80.360216571745241 0 0 0 0 4.5146607277887085 6.4619968941780819 0 6.4619968941780819 -1.1554912419474102 0 0 0 0 50.098340929183678 116.37029631972982 0 116.37029631972982 123.71501094747055 0 0 0 0 8.3589834879780938 -9.1550466632919481 0 -9.1550466632919481 -6.7575597346743335 0 0 0 0 78.073280957742099 134.1010148538744 0 134.1010148538744 134.75248727636233 0 0 0 0 74.566077475552447 165.54676622303032 0 165.54676622303032 92.972494447933514 0 0 0 0 78.089587752956504 118.75735266695355 0 118.75735266695355 0.60209329603469541 0 0 0 0 24.816503432506579 220.71962624482376 0 220.71962624482376 308.97276916677583 0 0 0 0 7.7571669769058644 157.08465794522033 0 157.08465794522033 123.23789309476797 0 0 0 0 257.01652705640754 -32.312429449949661 0 -32.312429449949661 -443.59078872969872 0 0 0 0 696.15891092652237 745.85706393845169 0 745.85706393845169 -462.03971572770206 0 0 0 0 94.29045119940929 451.74946917693205 0 451.74946917693205 505.88200489573546 0 0 0 0 72.759278098987124 332.05279723093645 0 332.05279723093645 74.723752047469361 0 0 0 0 136.0198893140805 -62.024097453638745 0 -62.024097453638745 -194.51491144825212 0 0 0 0 56.796520175028846 -17.701692246133845 0 -17.701692246133845 -8.3504474360013248 0 0 0 0 33.761757341102225 -8.7746758360826398 0 -8.7746758360826398 -4.4487993062423161 0 0 0 0 -185.27303521947033 1.2778373385763473 0 1.2778373385763473 -23.496621452092093 0 0 0 0 19.982720318221254 10.346517304681583 0 10.346517304681583 58.283687021432797 0 0 0 0 -17.501928335830598 16.915577248784416 0 16.915577248784416 256.70433844668923 0 0 0 0 6.1928169699313003 -32.067324356334041 0 -32.067324356334041 111.77321105419696 0 0 0 0 21.189271286755684 -36.827238648382036 0 -36.827238648382036 13.629182592288316 0 0 0 0 61.013254055549794 -15.785627020553832 0 -15.785627020553832 -20.79766727157228 0 0 0 0 -10.327428195889297 -111.80505718214829 0 -111.80505718214829 -39.486406236373114 0 0 0 0 22.831699035370548 24.625852624998743 0 24.625852624998743 68.040121668033862 0 0 0 0 -2.5640604819801922 8.6011433967917625 0 8.6011433967917625 6.2734097658185659 0 0 0 0 -14.038209841353819 -114.17024979294331 0 -114.17024979294331 -76.497881297221966 0 0 0 0 23.089508676843252 28.130690508166424 0 28.130690508166424 57.269795157644012 0 0 0 0 650.04640656857373 -66.394459498307242 0 -66.394459498307242 -169.81515655092778 0 0 0 0 -1.8409177926897371 0.026096362795684058 0 0.026096362795684058 -0.76415795131191278 0 0 0 0 -115.52749272731489 96.530146833949004 0 96.530146833949004 182.89246024708791 0 0 0 0 517.15811192542606 120.48723835524913 0 120.48723835524913 203.21445641359662 0 0 0 0 2084.5526524879469 201.77289633755973 0 201.77289633755973 -282.64430535598547 0 0 0 0 1885.9361419282504 678.48409285763114 0 678.48409285763114 -34.023852218681668 0 0 0 0 149.25064991528052 339.0606688239854 0 339.0606688239854 366.413796308114 0 0 0 0 173.55404877656838 -239.7093270006049 0 -239.7093270006049 104.20601565067395 0 0 0 0 -61.423138926296815 225.46106635672371 0 225.46106635672371 98.751625261522861 0 0 0 0 915.89739544378972 -589.06358107331209 0 -589.06358107331209 88.438106493782854 0 0 0 0 1917.4747041228838 1245.0401142891621 0 1245.0401142891621 585.81803519377945 0 0 0 0 1241.0953006873424 -572.15893829155891 0 -572.15893829155891 118.13778385056534 0 0 0 0 15.415045584388338 2.5734216428494241 0 2.5734216428494241 0.60178682587180365 0 0 0 0 3418.0031470731992 571.32586585942113 0 571.32586585942113 -396.75967282959493 0 0 0 0 3000.2884461183967 1225.53667342209 0 1225.53667342209 -146.03592805939448 0 0 0 0 4498.0876275565097 666.2638995445235 0 666.2638995445235 25.269438185180434 0 0 0 0 4499.0565090600794 125.53922340675629 0 125.53922340675629 -732.54760584825306 0 0 0 0 3296.8854929720692 17.11957287173999 0 17.11957287173999 -294.43530742595374 0 0 0 0 3495.1281908217861 248.6061198544065 0 248.6061198544065 -437.39580440541852 0 0 0 0 3031.9404835131572 175.72771589056219 0 175.72771589056219 -486.71367190431096 0 0 0 0 3165.1970218496745 -394.83365613943954 0 -394.83365613943954 -754.77602459737932 0 0 0 0 4486.3907160934104 -1802.6818425717495 0 -1802.6818425717495 -61.225145569610156 0 0 0 0 484.60590599321768 -413.31180349062794 0 -413.31180349062794 837.02371394571037 0 0 0 0 -29.724718854557068 179.23324860874027 0 179.23324860874027 305.86368028359448 0 0 0 0 424.74062695319481 -1486.8543457569585 0 -1486.8543457569585 858.92370005826956 0 0 0 0 4495.5688762648288 2693.1374246039286 0 2693.1374246039286 1392.2711452560716 0 0 0 0 23.554958104110625 -8.7968896511827843 0 -8.7968896511827843 4.1178635883699126 0 0 0 0 2362.7100338615855 1547.9937981167541 0 1547.9937981167541 802.59647718708095 0 0 0 0 4500.6418906973176 1394.0615428208228 0 1394.0615428208228 -287.75398705093659 0 0 0 0 2480.396111045578 897.62093968721092 0 897.62093968721092 135.40578696907926 0 0 0 0 54.058031529974755 -27.10571742283252 0 -27.10571742283252 6.4055419337069441 0 0 0 0 -499.97798197445445 -215.48322707845728 0 -215.48322707845728 -227.90837820144543 0 0 0 0 167.2590187615624 27.48120307417571 0 27.48120307417571 -429.08533779996844 0 0 0 0 702.74016192165436 777.97074227566452 0 777.97074227566452 341.23445654392776 0 0 0 0 83.094183714411884 846.34664684450252 0 846.34664684450252 -167.39688454627412 0 0 0 0 -491.42245167444889 102.71900140883679 0 102.71900140883679 923.33297790032657 0 0 0 0 61.103001541917372 -32.261527098990442 0 -32.261527098990442 4.5582194198205954 0 0 0 0 723.74791027016545 -914.77382133294668 0 -914.77382133294668 -80.706523010039746 0 0 0 0 636.20495268310697 -215.99290177836372 0 -215.99290177836372 24.001496219979344 0 0 0 0 1055.6965279618862 151.75599251395977 0 151.75599251395977 -390.2854612993533 0 0 0 0 353.55331247270806 366.52575275250047 0 366.52575275250047 -277.4601877070786 0 0 0 0 270.28596126199636 321.52783622621774 0 321.52783622621774 -75.86181153485802 0 0 0 0 565.22615257794678 160.43139539607557 0 160.43139539607557 -80.426377196651856 0 0 0 0 77.794705934218655 230.08848985394843 0 230.08848985394843 -86.709601344009798 0 0 0 0 445.41527938372656 349.42356020205762 0 349.42356020205762 -274.13303203145574 0 0 0 0 330.93733910069022 83.587721424850201 0 83.587721424850201 52.484020408949391 0 0 0 0 596.16836732909906 151.16107197108738 0 151.16107197108738 65.146364717616564 0 0 0 0 325.84514180040617 20.773108344841077 0 20.773108344841077 462.74995223085102 0 0 0 0 121.1168905408922 -42.47717317554725 0 -42.47717317554725 -35.962047627608698 0 0 0 0 341.4855199418198 177.97305662500872 0 177.97305662500872 179.08494301763346 0 0 0 0 -2.7767406513315294 0.15167844870905967 0 0.15167844870905967 -0.21994776102245583 0 0 0 0 72.63386515768434 1.5156691745376065 0 1.5156691745376065 -355.81446202370188 0 0 0 0 -44.704563807659724 250.0468689744277 0 250.0468689744277 35.704751595639834 0 0 0 0 -38.840144058254737 60.047034076142268 0 60.047034076142268 26.749841695147438 0 0 0 0 59.57309833439831 100.0359984198214 0 100.0359984198214 -11.362778005888231 0 0 0 0 -2.9862791124711165 8.3255338834660826 0 8.3255338834660826 2.3819990061065375 0 0 0 0 6.8261963917625508 68.518799469658688 0 68.518799469658688 -4.6957165165424612 0 0 0 0 59.606447956932243 20.882429520238873 0 20.882429520238873 -116.38200433825347 0 0 0 0 -22.031542417913442 31.404253876772373 0 31.404253876772373 70.778811444122994 0 0 0 0 148.28814433926163 95.417076026839823 0 95.417076026839823 91.684614313547627 0 0 0 0 99.64821828298227 -42.512769706847166 0 -42.512769706847166 -16.127185790457588 0 0 0 0 9.7864204809247255 4.7954766336401846 0 4.7954766336401846 2.8765721136059543 0 0 0 0 -26.910509358021955 146.02276067904313 0 146.02276067904313 437.97437161051039 0 0 0 0 3.7956774499641455 6.6807027128499961 0 6.6807027128499961 7.4576476781699288 0 0 0 0 222.85075683407558 229.64104937802267 0 229.64104937802267 198.90898593455449 0 0 0 0 17.530567546396924 -17.370655245806574 0 -17.370655245806574 26.729479531207289 0 0 0 0 -48.20494427813901 8.9848655418988983 0 8.9848655418988983 151.60414841291185 0 0 0 0 -30.850988728350785 57.274156762176062 0 57.274156762176062 241.39275317395504 0 0 0 0 27.608430318897344 14.010224663369765 0 14.010224663369765 5.4086825776818994 0 0 0 0 28.162996411458153 14.47982799773672 0 14.47982799773672 -17.727306867419884 0 0 0 0 26.628085328276939 17.849807446350496 0 17.849807446350496 -1.6796790413000053 0 0 0 0 58.868317130032665 58.043285572532113 0 58.043285572532113 -107.65430121978807 0 0 0 0 19.25040125155747 16.153595476211393 0 16.153595476211393 9.4730596418645021 0 0 0 0 32.703312142126379 -29.044340082018152 0 -29.044340082018152 -70.457881254718586 0 0 0 0 69.833147812609013 62.178358793729558 0 62.178358793729558 45.423724486037827 0 0 0 0 66.230013055230529 7.3853332036252652 0 7.3853332036252652 -18.015438414904565 0 0 0 0 48.48449962669838 -41.787701797492673 0 -41.787701797492673 -33.215904580191818 0 0 0 0 80.983505014752154 18.840495114982332 0 18.840495114982332 -50.419474780138444 0 0 0 0 30.967340651477571 -4.9056278108582774 0 -4.9056278108582774 -27.410570761068811 0 0 0 0 17.715030956409464 15.356073587849096 0 15.356073587849096 -45.526874792104536 0 0 0 0 18.670551010553027 14.497007814175049 0 14.497007814175049 -0.94369673281926225 0 0 0 0 22.29216236756811 13.115548696219598 0 13.115548696219598 -4.9292952455325576 0 0 0 0 18.89428009267877 14.648084880112943 0 14.648084880112943 6.369333793375036 0 0 0 0 21.975811908743253 16.433583370008421 0 16.433583370008421 -1.4814474090671865 0 0 0 0 26.901823719063181 23.137399908532068 0 23.137399908532068 11.008040549351033 0 0 0 0 22.588828595296945 31.312503396008651 0 31.312503396008651 -6.8189286871770491 0 0 0 0 15.969067926897338 19.146979677116015 0 19.146979677116015 4.1856806407360345 0 0 0 0 15.107185119803034 55.499696477932275 0 55.499696477932275 -23.631716862705247 0 0 0 0 24.392849490400451 15.494921557637214 0 15.494921557637214 5.2710423418201318 0 0 0 0 25.253086334681484 34.840736088841027 0 34.840736088841027 -4.9819800990135263 0 0 0 0 59.588459590935599 36.104953649110371 0 36.104953649110371 -15.474490903527965 0 0 0 0 5.6439098575101525 83.166151617225069 0 83.166151617225069 71.300625139940621 0 0 0 0 -8.4981988458110962 8.8322033242630251 0 8.8322033242630251 7.9364661573948752 0 0 0 0 24.251952489852556 49.427747354076246 0 49.427747354076246 -6.6283073547938329 0 0 0 0 6.3418456709107431 24.375646302815696 0 24.375646302815696 34.575541646645434 0 0 0 0 22.77888465626711 26.426647911151804 0 26.426647911151804 30.811769034758527 0 0 0 0 5.3814404185675926 11.308291677789356 0 11.308291677789356 27.094250896554513 0 0 0 0 22.813517063183099 15.645270441719049 0 15.645270441719049 22.441604511284822 0 0 0 0 29.454281421751148 30.631605776114611 0 30.631605776114611 28.695647125975484 0 0 0 0 15.568582456767217 23.155964199861955 0 23.155964199861955 26.27389202108634 0 0 0 0 36.02540731807494 34.172006485525344 0 34.172006485525344 19.26673050953832 0 0 0 0 -5.642861366826752 32.366643619608737 0 32.366643619608737 24.571095799760393 0 0 0 0 25.471042868949553 12.815123178723752 0 12.815123178723752 13.274212145142883 0 0 0 0 33.855891982519552 31.267483255094703 0 31.267483255094703 26.413314887707202 0 0 0 0 13.333157819026383 14.659570827047901 0 14.659570827047901 23.185276201494162 0 0 0 0 -446.06622866609814 -620.00437715753867 0 -620.00437715753867 665.44941426826767 0 0 0 0 -2.8756245407806844 5.227981285942608 0 5.227981285942608 20.739833133968578 0 0 0 0 -167.01661431045432 994.41995440329151 0 994.41995440329151 829.1508516252843 0 0 0 0 0.1561903505362352 4.9598671978540096 0 4.9598671978540096 24.58468406660586 0 0 0 0 15.000258063832234 6.1093158444498386 0 6.1093158444498386 17.444674632764873 0 0 0 0 -1.8166134037762802 -4.2218266064890901 0 -4.2218266064890901 5.4913413896008754 0 0 0 0 2.3926762359642453 2.7663744302488098 0 2.7663744302488098 22.28603776321188 0 0 0 0 1.7143625898495713 5.7122064103238088 0 5.7122064103238088 16.621958666669109 0 0 0 0 2.8248695993897854 12.959678830612575 0 12.959678830612575 28.861030806381677 0 0 0 0 -9.4084499466991431 -2.4692403865998029 0 -2.4692403865998029 2.7172293656889766 0 0 0 0 -10.169730657515174 114.80529472311079 0 114.80529472311079 199.00064627972489 0 0 0 0 -49.121954799203195 49.896659389636625 0 49.896659389636625 262.04071167282427 0 0 0 0 2.71510766432948 24.992119334735264 0 24.992119334735264 156.1277976183203 0 0 0 0 -8.2683079474973056 65.053511988503828 0 65.053511988503828 265.72655767830514 0 0 0 0 47.137087219252862 27.678428803639548 0 27.678428803639548 266.24673722121486 0 0 0 0 41.504502947913352 80.609865075368248 0 80.609865075368248 227.03510842740434 0 0 0 0 575.17977258985047 -184.25129529845898 0 -184.25129529845898 292.46221403479217 0 0 0 0 105.37258351874698 -12.5242572070253 0 -12.5242572070253 281.01358894480677 0 0 0 0 26.63394439505646 52.902136992311341 0 52.902136992311341 317.43375300412566 0 0 0 0 297.31966156042472 -85.571914601487151 0 -85.571914601487151 193.31245834909271 0 0 0 0 439.80799551341443 33.917640813761345 0 33.917640813761345 258.69846723053706 0 0 0 0 624.86952825475237 -238.45004250711915 0 -238.45004250711915 406.88663720687504 0 0 0 0 963.34186779549782 -102.57116870389761 0 -102.57116870389761 293.28055147383594 0 0 0 0 659.75866012121469 -169.21479557447111 0 -169.21479557447111 237.76103996637403 0 0 0 0 675.69643613385779 -301.7130697840588 0 -301.7130697840588 404.6745390211575 0 0 0 0 1058.1856069247788 -9.5357267710992062 0 -9.5357267710992062 429.25468358755165 0 0 0 0 680.04035888500403 -242.80542514720659 0 -242.80542514720659 368.03601879538951 0 0 0 0 533.21921315441841 -196.05068648525886 0 -196.05068648525886 512.4475135632506 0 0 0 0 685.9099769087843 -296.46455295926921 0 -296.46455295926921 406.50662246520596 0 0 0 0 316.43489328337637 125.65713135118463 0 125.65713135118463 159.16074311357568 0 0 0 0 768.37591251657886 -63.970300669688918 0 -63.970300669688918 120.11755902511959 0 0 0 0 34.429688661191904 61.097190272896967 0 61.097190272896967 222.87592507100351 0 0 0 0 193.59117283759406 186.85316421857965 0 186.85316421857965 199.58436655406729 0 0 0 0 -0.98925268994504023 -1.9965630066331386 0 -1.9965630066331386 2.3422860342886311 0 0 0 0 0.99119440950275362 -0.3252670359768457 0 -0.3252670359768457 3.7829197961866914 0 0 0 0 350.46425655737403 -445.44902424770936 0 -445.44902424770936 241.45086564299257 0 0 0 0 39.299369986290912 132.18849391272121 0 132.18849391272121 -116.5132538016444 0 0 0 0 750.93110774152956 -154.74737351505803 0 -154.74737351505803 -554.69721752752741 0 0 0 0 954.27610968496447 -638.31111853471543 0 -638.31111853471543 -80.56781172879343 0 0 0 0 784.06969911787564 -326.09417798279844 0 -326.09417798279844 -184.94750903132876 0 0 0 0 704.37489827058198 -724.31279023669026 0 -724.31279023669026 176.79220950471984 0 0 0 0 -232.21418119615691 885.87144053142652 0 885.87144053142652 -658.63084840077852 0 0 0 0 615.17081730955306 -1042.4525173588777 0 -1042.4525173588777 795.73366011673443 0 0 0 0 1571.5556807008707 -707.7649455166237 0 -707.7649455166237 -331.51778562566312 0 0 0 0 22.67725320055596 4.8604282664326268 0 4.8604282664326268 0.53893574569350466 0 0 0 0 557.70518591608743 -44.523554558843216 0 -44.523554558843216 -817.91452237177145 0 0 0 0 -2561.95518880286 -149.0964410644151 0 -149.0964410644151 -103.96135112526872 0 0 0 0 26.509611222144294 6.7608005568425353 0 6.7608005568425353 2.4230463474256325 0 0 0 0 74.470079444598014 -52.812607208756333 0 -52.812607208756333 -90.694080246025123 0 0 0 0 172.56117464919953 -513.64162218886486 0 -513.64162218886486 219.59469064442987 0 0 0 0 259.19847811556065 -230.45218367401947 0 -230.45218367401947 275.71240513290314 0 0 0 0 465.60088695731611 -443.07559040078303 0 -443.07559040078303 64.893288381903375 0 0 0 0 634.5251061390627 -398.03135560645148 0 -398.03135560645148 212.30626161063412 0 0 0 0 357.66881955985991 -424.52959731462818 0 -424.52959731462818 236.43100833509436 0 0 0 0 739.01710324143278 -241.27833319150773 0 -241.27833319150773 274.28703998279468 0 0 0 0 948.24013970100714 622.47518445243315 0 622.47518445243315 671.09736879675859 0 0 0 0 -81.677957300257731 -38.952560076410435 0 -38.952560076410435 509.25292987794472 0 0 0 0 486.61905002243293 -482.89586197300218 0 -482.89586197300218 -391.78417892108178 0 0 0 0 52.334904039794864 3.8313286809577036 0 3.8313286809577036 -1.4767537169144629 0 0 0 0 5853.3743714083721 452.62773344897232 0 452.62773344897232 -2137.9156464270509 0 0 0 0 -1584.1758086302598 505.61726761240618 0 505.61726761240618 1896.5164428128924 0 0 0 0 895.07686786751356 -3328.0656060232795 0 -3328.0656060232795 2910.2155563023357 0 0 0 0 4492.5916439330749 -2869.1223898817311 0 -2869.1223898817311 991.4630189300558 0 0 0 0 29.719274509643522 -1.4167483311855098 0 -1.4167483311855098 2.4367930185004698 0 0 0 0 4489.0033989220246 1414.5674815933814 0 1414.5674815933814 -452.65373312912118 0 0 0 0 1566.5463843290108 1868.3516887056069 0 1868.3516887056069 989.49030469140985 0 0 0 0 4504.3446872460581 286.67318753077603 0 286.67318753077603 -647.12807278855394 0 0 0 0 2523.1700008069965 718.68035657031407 0 718.68035657031407 -556.87436380233305 0 0 0 0 1356.2752530395737 -299.15982575749103 0 -299.15982575749103 256.70977160895393 0 0 0 0 2379.212239777783 317.15825268046223 0 317.15825268046223 127.59007689317076 0 0 0 0 1842.0121402229452 271.06447197617183 0 271.06447197617183 163.48414700303348 0 0 0 0 2044.7909182499807 -629.17864391585431 0 -629.17864391585431 280.46452688653437 0 0 0 0 990.22262609393874 -241.36792141493828 0 -241.36792141493828 307.78859588668803 0 0 0 0 2053.6452339722091 -630.81282440368659 0 -630.81282440368659 -266.15535983148823 0 0 0 0 3031.060157580765 -498.07009518947586 0 -498.07009518947586 -252.91302420445541 0 0 0 0 169.50602262826578 239.0538694909601 0 239.0538694909601 420.38668184103335 0 0 0 0 295.89058711876714 307.52203291313435 0 307.52203291313435 526.56428570722801 0 0 0 0 94.783729212271282 450.97613653283588 0 450.97613653283588 428.34705081245374 0 0 0 0 46.358677083393559 328.52215864553364 0 328.52215864553364 346.31068948390021 0 0 0 0 186.0372452034353 437.73186621525383 0 437.73186621525383 194.6386887334811 0 0 0 0 21.70079655671725 336.68470462286496 0 336.68470462286496 210.09928019264953 0 0 0 0 105.22926819670829 353.06948244325213 0 353.06948244325213 -63.716353670220997 0 0 0 0 2.6863654362678062 199.19576638312719 0 199.19576638312719 -44.966867665415521 0 0 0 0 105.65648911289099 211.83580533525992 0 211.83580533525992 80.282019029878938 0 0 0 0 12.94887113187724 375.35694696325118 0 375.35694696325118 311.30287714981114 0 0 0 0 134.25051038547826 388.91972465082563 0 388.91972465082563 39.507157244104746 0 0 0 0 66.062013687522267 359.27284363649778 0 359.27284363649778 -74.510637397169376 0 0 0 0 156.32807576413325 179.78594419931505 0 179.78594419931505 -243.52354915098931 0 0 0 0 91.144205954755307 311.49178156684229 0 311.49178156684229 143.74836371148012 0 0 0 0 242.66143217354693 316.40871560609412 0 316.40871560609412 -309.08344131725426 0 0 0 0 108.9441999996925 257.5600902814158 0 257.5600902814158 63.393849485832106 0 0 0 0 157.72108825105897 223.01769987145735 0 223.01769987145735 438.92558396618551 0 0 0 0 417.40692049519566 289.83870903052321 0 289.83870903052321 66.075125591938559 0 0 0 0 232.44963897988782 291.85183619485178 0 291.85183619485178 146.40483483526805 0 0 0 0 41.694881564661046 402.28020053092268 0 402.28020053092268 527.29874516956261 0 0 0 0 129.1907850475327 367.46730335945313 0 367.46730335945313 908.98166372893138 0 0 0 0 190.6000358419551 304.53054965839101 0 304.53054965839101 578.50420066056904 0 0 0 0 460.307793376669 401.56162008781848 0 401.56162008781848 522.02659143615028 0 0 0 0 273.34876055633504 270.09606036193327 0 270.09606036193327 719.06957886144664 0 0 0 0 -272.72517318571045 -100.84647142543236 0 -100.84647142543236 467.68859668126424 0 0 0 0 236.17191190000449 370.95769951671787 0 370.95769951671787 908.22443005847435 0 0 0 0 1.9171089897559455 2.3809147640292174 0 2.3809147640292174 -1.1510629960855887 0 0 0 0 220.65411820569716 373.91052566155395 0 373.91052566155395 988.35178152610024 0 0 0 0 55.231349020003108 -2.4462821764664113 0 -2.4462821764664113 -57.379211127186863 0 0 0 0 64.749052616112749 -51.364567874411478 0 -51.364567874411478 0.38123327604989754 0 0 0 0 23.35014113017678 -12.080749534681672 0 -12.080749534681672 59.050879021582659 0 0 0 0 55.95122015610832 -52.4701045240231 0 -52.4701045240231 28.075085137736096 0 0 0 0 92.649046157694102 464.98462570978563 0 464.98462570978563 714.22231544123179 0 0 0 0 5.0224757456691123 3.9361360599836708 0 3.9361360599836708 -2.9821566480684574 0 0 0 0 13.778913873495185 406.37312088535509 0 406.37312088535509 958.42218169915213 0 0 0 0 6.9080250366059772 11.117398587361322 0 11.117398587361322 8.784624706095201 0 0 0 0 1.4855398934159894 6.0985378378700261 0 6.0985378378700261 25.833334252808527 0 0 0 0 7.7505311172717484 14.021012129385781 0 14.021012129385781 18.6299843034285 0 0 0 0 3.8716866034179986 -1.8535978113756073 0 -1.8535978113756073 5.1889821474163895 0 0 0 0 21.679067466589913 7.0204537156951119 0 7.0204537156951119 10.627610312042179 0 0 0 0 48.553917113225907 -2.730236661467643 0 -2.730236661467643 -31.768790565826293 0 0 0 0 0.80012889067802462 3.5351859933934975 0 3.5351859933934975 16.276558181605651 0 0 0 0 20.321950813516963 -0.92151674985335319 0 -0.92151674985335319 -2.7837466735131446 0 0 0 0 22.858767324243672 7.6267117219267675 0 7.6267117219267675 7.3296268087597127 0 0 0 0 38.717298735013173 24.953839483177489 0 24.953839483177489 7.0732897709140161 0 0 0 0 3.4460224227280918 8.9288078636173225 0 8.9288078636173225 15.678546057274026 0 0 0 0 22.60583301979932 8.2226749700575965 0 8.2226749700575965 5.9254968485465724 0 0 0 0 25.93016297109574 4.7239738432695546 0 4.7239738432695546 -2.3215676281527706 0 0 0 0 22.387826170277549 8.6077968832014449 0 8.6077968832014449 6.6343893009370731 0 0 0 0 4.6890301765822677 6.7407198444590648 0 6.7407198444590648 8.22006483868347 0 0 0 0 22.097211876774963 8.4532288100099322 0 8.4532288100099322 6.9843621968175285 0 0 0 0 11.446893293341446 3.9688942927404671 0 3.9688942927404671 -4.6904748577422559 0 0 0 0 16.67216411732079 11.020793407370547 0 11.020793407370547 6.9749528349593675 0 0 0 0 3.4845959482033919 0.2011769591238135 0 0.2011769591238135 2.975983708511059 0 0 0 0 22.42707527706807 8.7467045880857768 0 8.7467045880857768 6.9085229342663297 0 0 0 0 4.9098864396000863 8.5760752128521744 0 8.5760752128521744 8.2837590818562603 0 0 0 0 12.667784430006577 8.2408277226545579 0 8.2408277226545579 -0.51754275068424249 0 0 0 0 3.8601492460381435 -3.2934534501378607 0 -3.2934534501378607 -2.8286604570926563 0 0 0 0 0.86754819187626708 -18.223776237895436 0 -18.223776237895436 -30.980813086989656 0 0 0 0 14.114355064091797 12.517719961848798 0 12.517719961848798 14.8786450717148 0 0 0 0 12.347505921541597 9.6499134915929972 0 9.6499134915929972 10.997266417173705 0 0 0 0 16.610356147683063 7.9548640066944269 0 7.9548640066944269 -2.5617357926626756 0 0 0 0 18.232482033679844 14.589855997303857 0 14.589855997303857 9.7475518915525754 0 0 0 0 30.30014226554249 19.59646364295287 0 19.59646364295287 10.651025610151919 0 0 0 0 17.698810554851661 18.744439350845823 0 18.744439350845823 4.9341767151349814 0 0 0 0 10.173346908644533 7.1409238896409981 0 7.1409238896409981 -6.4489374171476701 0 0 0 0 12.825743243724499 10.191694430349528 0 10.191694430349528 1.8773834475125639 0 0 0 0 17.993202066982121 21.559784421704933 0 21.559784421704933 8.7602272201493179 0 0 0 0 24.95129029449636 13.944096696809616 0 13.944096696809616 0.28237215571367003 0 0 0 0 11.859838748627226 20.039408340781847 0 20.039408340781847 11.371921526230835 0 0 0 0 9.7754553238773951 28.146282347959641 0 28.146282347959641 16.008059504407356 0 0 0 0 11.577979860046582 19.194157302589531 0 19.194157302589531 13.326347343103023 0 0 0 0 12.459718194295419 14.291209626491764 0 14.291209626491764 7.6254267541935405 0 0 0 0 15.210700160037959 16.189174996356996 0 16.189174996356996 8.9249449503831784 0 0 0 0 5.3792356358827078 7.3517944723797797 0 7.3517944723797797 0.84407509027229111 0 0 0 0 10.975851364455593 1.0693669184856844 0 1.0693669184856844 -1.95633247884507 0 0 0 0 -11.704098140857241 -22.04969506314319 0 -22.04969506314319 2.0163221031616558 0 0 0 0 6.3270936487815561 6.6357982793018664 0 6.6357982793018664 4.5684566039089987 0 0 0 0 3.8469824077618711 2.854819062674629 0 2.854819062674629 2.6668036644231279 0 0 0 0 5.8607186529716415 1.7520994002607466 0 1.7520994002607466 0.84485268424061388 0 0 0 0 5.032153964479221 1.5266364836506909 0 1.5266364836506909 8.091775742937898 0 0 0 0 -29.401208576979116 12.46527037622036 0 12.46527037622036 13.318516983087648 0 0 0 0 -6.9474590735796795 13.995104925987244 0 13.995104925987244 12.898627706757011 0 0 0 0 21.514447212786763 26.434801951483678 0 26.434801951483678 16.168115642072735 0 0 0 0 -7.5717920142213533 19.133810613262995 0 19.133810613262995 26.291168844281618 0 0 0 0 400.95163850838435 340.01024894058628 0 340.01024894058628 419.1314949063426 0 0 0 0 175.96833297818011 469.97776874056945 0 469.97776874056945 519.01647657196008 0 0 0 0 15.596209845054545 7.2340201129436537 0 7.2340201129436537 0.4687934674866483 0 0 0 0 0.87679870161103324 5.7356642845555967 0 5.7356642845555967 5.0521593959779381 0 0 0 0 25.245892580053805 8.1248195734317505 0 8.1248195734317505 4.3688976212251873 0 0 0 0 14.349909568632825 3.2567403611330139 0 3.2567403611330139 -2.8424241506780952 0 0 0 0 13.922725970989632 3.3585208263548338 0 3.3585208263548338 1.2559027371680713 0 0 0 0 474.31524781171902 394.15015896474915 0 394.15015896474915 199.4785914766926 0 0 0 0 7.5332291107388016 -0.020988998209539034 0 -0.020988998209539034 -3.8777466874255673 0 0 0 0 562.03062320650497 414.56600772667298 0 414.56600772667298 155.02849157678747 0 0 0 0 4.144122141580695 6.1222610155907802 0 6.1222610155907802 0.31313147449508705 0 0 0 0 0.027720837968601586 1.6647945894351253 0 1.6647945894351253 1.1308743305019604 0 0 0 0 1443.6846017522184 681.87770757699036 0 681.87770757699036 173.20575202855798 0 0 0 0 494.48918470529679 519.47776242604277 0 519.47776242604277 223.97892930817761 0 0 0 0 138.3565495066432 488.98703396690871 0 488.98703396690871 334.65717765866066 0 0 0 0 148.75128296325784 282.55019210446289 0 282.55019210446289 -35.815413473854278 0 0 0 0 71.453174426802434 406.34431234774092 0 406.34431234774092 289.91307402710027 0 0 0 0 -136.62912444067479 44.257281661666639 0 44.257281661666639 102.42394300660132 0 0 0 0 17.364314180209476 -152.16794266199986 0 -152.16794266199986 -430.06167049373471 0 0 0 0 356.15507101776893 422.4655108851166 0 422.4655108851166 91.300598429366801 0 0 0 0 379.72128385360702 297.69949627791539 0 297.69949627791539 533.96811289087964 0 0 0 0 1255.8705416544544 333.60236260843521 0 333.60236260843521 0.10413485249955556 0 0 0 0 196.82180298585445 537.64982970006349 0 537.64982970006349 64.505507795931408 0 0 0 0 778.69195116245101 716.66320356011056 0 716.66320356011056 -126.40883529069242 0 0 0 0 567.06048288373859 472.99243230701813 0 472.99243230701813 212.32251373751569 0 0 0 0 687.0512030582031 802.99580421811515 0 802.99580421811515 855.77539658058231 0 0 0 0 926.98198135156417 526.47318125910351 0 526.47318125910351 120.99683084160642 0 0 0 0 937.17291020021366 598.85888393256209 0 598.85888393256209 -153.23382367012528 0 0 0 0 558.24959817439958 343.44156485198982 0 343.44156485198982 1.4561388222805363 0 0 0 0 825.44278060055512 -594.6701757860792 0 -594.6701757860792 381.97094034594011 0 0 0 0 363.40133098745719 -248.99223044415703 0 -248.99223044415703 210.29428640689366 0 0 0 0 534.72928719324045 651.50713046707187 0 651.50713046707187 17.598899408874786 0 0 0 0 23.350970146211296 0.64855560239724852 0 0.64855560239724852 0.30752346240252443 0 0 0 0 -128.6858143776567 -26.140966195359738 0 -26.140966195359738 27.616498860625143 0 0 0 0 -9.9471058531228813 28.08802698733296 0 28.08802698733296 35.251604931851297 0 0 0 0 -37.565451947368274 -46.897872588589962 0 -46.897872588589962 -34.703251182287204 0 0 0 0 41.081206353759626 -5.5440202579984543 0 -5.5440202579984543 -9.943757969800572 0 0 0 0 2.9223743924105463 1.6342365220746018 0 1.6342365220746018 -0.8572517254802392 0 0 0 0 32.921193590023904 -24.518181454668593 0 -24.518181454668593 -35.482647528931921 0 0 0 0 30.460405996996542 24.14071099380692 0 24.14071099380692 35.755040283678682 0 0 0 0 -22.972918045517872 -1.9566700383475109 0 -1.9566700383475109 17.513178304121539 0 0 0 0 18.010840477974853 -6.1138001737053855 0 -6.1138001737053855 -10.657470552681843 0 0 0 0 6.5742472744202729 -0.70413126481813038 0 -0.70413126481813038 -3.7552457404631951 0 0 0 0 22.93012989845738 -17.326613799919869 0 -17.326613799919869 12.524187006471038 0 0 0 0 462.29954156823078 1073.9376136385072 0 1073.9376136385072 -552.11955874229898 0 0 0 0 0.47120749892064495 -1.568567060970139 0 -1.568567060970139 -0.83307882656801979 0 0 0 0 1115.9197171853448 340.95604609754446 0 340.95604609754446 -104.90918991875515 0 0 0 0 3.5759428651435314 -2.0225336762322144 0 -2.0225336762322144 4.7444614231625621 0 0 0 0 1466.2475903366867 -779.92805372301518 0 -779.92805372301518 1976.8809463984217 0 0 0 0 111.11804199321341 36.71903468898563 0 36.71903468898563 -29.878420077846386 0 0 0 0 517.17053220095113 975.52619090312146 0 975.52619090312146 -381.75647838832992 0 0 0 0 1296.9888490818994 388.73287050680665 0 388.73287050680665 -468.46064870921691 0 0 0 0 2553.4114036182582 -429.05143410896926 0 -429.05143410896926 -1183.9584123271306 0 0 0 0 2686.8983874969417 684.89193066159714 0 684.89193066159714 -2253.0807903435925 0 0 0 0 737.760019815134 1488.0778520407803 0 1488.0778520407803 -1316.9146016150298 0 0 0 0 37.627376523509156 -54.271073325297039 0 -54.271073325297039 122.52584491382731 0 0 0 0 115.21261288783626 -29.244664353207099 0 -29.244664353207099 -44.372125350098941 0 0 0 0 47.346668521247921 9.7188581694135792 0 9.7188581694135792 -11.996540156598712 0 0 0 0 -433.97151235049387 -138.23073745828788 0 -138.23073745828788 144.78715387175544 0 0 0 0 -3.4460510071195705 30.653861155328364 0 30.653861155328364 32.511923938310218 0 0 0 0 -67.946705032838508 24.861426982828561 0 24.861426982828561 -52.124643270147317 0 0 0 0 26.69630334359681 -68.04720922696697 0 -68.04720922696697 -3.2179064305091742 0 0 0 0 -0.96239369339309633 23.182003726116818 0 23.182003726116818 -29.562264342962408 0 0 0 0 -95.231610773520515 -120.6930298585994 0 -120.6930298585994 7.9335009201313369 0 0 0 0 -248.30205601236958 46.310877093768795 0 46.310877093768795 34.945015141467593 0 0 0 0 189.93793122901843 133.60146713388531 0 133.60146713388531 -1.5026352646546002 0 0 0 0 0.78770995150784984 -1.2652589988550602 0 -1.2652589988550602 5.3912867256139094 0 0 0 0 277.19860327407514 568.6616890719597 0 568.6616890719597 381.30777247388232 0 0 0 0 46.340246042585932 -301.70164595984807 0 -301.70164595984807 -204.90180752072411 0 0 0 0 219.57712230915058 18.039507704008429 0 18.039507704008429 -75.272806052282249 0 0 0 0 180.96284840420412 783.17877226807104 0 783.17877226807104 -40.30057249096717 0 0 0 0 344.62813184779952 162.97909310081559 0 162.97909310081559 463.80140727096477 0 0 0 0 452.47243334210361 472.16678478901849 0 472.16678478901849 302.74998386827428 0 0 0 0 610.00683916607522 498.27610287226344 0 498.27610287226344 -447.49069206584682 0 0 0 0 1044.5630033179041 11.698915714419854 0 11.698915714419854 -60.368767762622156 0 0 0 0 455.65803716969094 87.067939098487841 0 87.067939098487841 -42.034620130583789 0 0 0 0 391.84904026082586 85.127559466028288 0 85.127559466028288 -11.611197336114856 0 0 0 0 368.78668101932999 -4.0237963400923036 0 -4.0237963400923036 -104.21080496508239 0 0 0 0 316.72477550058647 118.05430020643371 0 118.05430020643371 -29.087298069000099 0 0 0 0 422.06321170458978 56.023369950467895 0 56.023369950467895 13.821903897649463 0 0 0 0 283.33726023139025 -32.253939789663491 0 -32.253939789663491 -11.242440976140642 0 0 0 0 -274.29908006812866 108.1937598454964 0 108.1937598454964 225.75841995743394 0 0 0 0 337.46311835850793 117.36526702523224 0 117.36526702523224 -106.14410706333729 0 0 0 0 431.90002410683519 -71.03097369945317 0 -71.03097369945317 40.962021280414774 0 0 0 0 35.630530651427762 31.668271791246298 0 31.668271791246298 -16.389603594827349 0 0 0 0 1.876799217392545 -0.75372706472353457 0 -0.75372706472353457 88.48013195713429 0 0 0 0 133.191613690753 -143.01675858827184 0 -143.01675858827184 92.58070131115494 0 0 0 0 100.46584474610427 -152.19676822783913 0 -152.19676822783913 212.30029815154558 0 0 0 0 601.96456067338659 -110.26550040747497 0 -110.26550040747497 -18.505339778977941 0 0 0 0 247.04269119374658 -65.639702625400787 0 -65.639702625400787 -26.464895360983064 0 0 0 0 281.51523099240876 -90.244679956742402 0 -90.244679956742402 -18.085906580692608 0 0 0 0 301.32773235822242 -31.676872115533115 0 -31.676872115533115 -85.7646291527833 0 0 0 0 197.20501884576515 -104.71918830450431 0 -104.71918830450431 -30.840392802670976 0 0 0 0 165.92515844923037 -48.214625945556691 0 -48.214625945556691 -123.55338998982279 0 0 0 0 68.917992489383323 -63.108245842813631 0 -63.108245842813631 -6.2690036468411563 0 0 0 0 82.017568341903825 -102.82734777561836 0 -102.82734777561836 -5.0512408991708071 0 0 0 0 153.71768090243549 -18.43417891524102 0 -18.43417891524102 -30.866567942164004 0 0 0 0 91.550881343879155 -99.267309030657998 0 -99.267309030657998 -72.184613309205815 0 0 0 0 121.96363833559735 -12.376719229260743 0 -12.376719229260743 -29.894922826017137 0 0 0 0 94.17651857612509 -41.992404412618271 0 -41.992404412618271 -50.922512749873022 0 0 0 0 69.97691500738074 -58.960897657426358 0 -58.960897657426358 8.3220531242586731 0 0 0 0 147.65463474981524 15.853059783382445 0 15.853059783382445 -31.456621316584293 0 0 0 0 262.44469180659326 415.26980166419753 0 415.26980166419753 258.23785736074024 0 0 0 0 101.04211186019893 6.4481383606762392 0 6.4481383606762392 -35.238614542249707 0 0 0 0 358.48366111353243 69.049545846843102 0 69.049545846843102 -180.56421791163393 0 0 0 0 528.82884371503314 406.0465290224538 0 406.0465290224538 -222.09497966667004 0 0 0 0 59.140817081629265 35.252741921639377 0 35.252741921639377 -9.4797455556134977 0 0 0 0 91.318731595021745 15.334298299496822 0 15.334298299496822 -35.670378115803032 0 0 0 0 92.510248769744067 15.365355864037156 0 15.365355864037156 -36.448912090756494 0 0 0 0 95.123122321281699 13.533927055032109 0 13.533927055032109 -37.58512231246641 0 0 0 0 98.154555852786871 11.707903910380992 0 11.707903910380992 -36.762981220108486 0 0 0 0 99.080340239212092 4.7280060737664371 0 4.7280060737664371 -33.554187503010326 0 0 0 0 89.216993054011255 12.492002021328517 0 12.492002021328517 -32.539580075579579 0 0 0 0 77.596405230025994 10.711338753930249 0 10.711338753930249 -31.031861682666204 0 0 0 0 91.622195911979361 7.7835999623812313 0 7.7835999623812313 -32.516379142893129 0 0 0 0 55.404454249306582 -7.5089683824153326 0 -7.5089683824153326 37.994398648946117 0 0 0 0 83.310568400884222 -5.909113776844606 0 -5.909113776844606 -26.544634087978011 0 0 0 0 68.439938533971144 0.82093223274932825 0 0.82093223274932825 -21.417270094330888 0 0 0 0 72.046989578666398 6.5704452845420747 0 6.5704452845420747 -17.546827684596792 0 0 0 0 62.065618259273563 -0.97784005792946971 0 -0.97784005792946971 -1.5773566089995006 0 0 0 0 78.856318861617183 14.81628820505648 0 14.81628820505648 -56.302293391454441 0 0 0 0 161.77659463716554 180.83555790845276 0 180.83555790845276 -958.05188017937758 0 0 0 0 66.467722260786104 26.298131291467143 0 26.298131291467143 -46.773486186237278 0 0 0 0 74.722812398904352 4.5584481293535646 0 4.5584481293535646 -35.458224730768052 0 0 0 0 83.815398508919316 26.444000533087092 0 26.444000533087092 -9.8914842214871896 0 0 0 0 -276.56378915935056 119.48290470563006 0 119.48290470563006 -1165.1439979640988 0 0 0 0 44.405581306513341 -153.06831079017684 0 -153.06831079017684 -984.05985067106303 0 0 0 0 -320.37284086040745 4.3132852064745748 0 4.3132852064745748 -651.48590040760246 0 0 0 0 79.596846004547288 13.009712980024641 0 13.009712980024641 -6.4198398857294778 0 0 0 0 15.90604337201512 45.005718119642552 0 45.005718119642552 -511.52727128934384 0 0 0 0 0.21358130326552782 167.77173861849042 0 167.77173861849042 -645.38469848858949 0 0 0 0 -106.70888294175529 69.669741842484655 0 69.669741842484655 -453.44573122143629 0 0 0 0 129.40386341988051 147.500511083932 0 147.500511083932 -928.45576042057655 0 0 0 0 50.605542121720191 120.96131797223899 0 120.96131797223899 -481.34685128849742 0 0 0 0 -36.990463344365708 184.01479295026729 0 184.01479295026729 -146.03202386182693 0 0 0 0 -55.981012146687135 245.5724345187773 0 245.5724345187773 -73.959753860217461 0 0 0 0 43.515240578843986 271.68047009332929 0 271.68047009332929 -372.55094210433163 0 0 0 0 213.9022458470572 5.1288597982747888 0 5.1288597982747888 -848.44227691717606 0 0 0 0 62.817968829498568 221.98988721259684 0 221.98988721259684 -387.53981056535849 0 0 0 0 43.202543422201416 338.10911332709838 0 338.10911332709838 -64.984678092590912 0 0 0 0 -15.437767537310719 166.91216873910707 0 166.91216873910707 -109.35156270122343 0 0 0 0 -92.636250648298301 200.84601139255392 0 200.84601139255392 -376.428003256995 0 0 0 0 332.35215032936321 297.35661696384432 0 297.35661696384432 -687.33087573819284 0 0 0 0 175.55737071459589 179.0334297154659 0 179.0334297154659 -757.39310647260936 0 0 0 0 163.50150701166422 121.13569059127803 0 121.13569059127803 -426.28969182914898 0 0 0 0 135.53287598650786 298.21892310455951 0 298.21892310455951 -309.93975247580329 0 0 0 0 157.07717955548287 144.35868714266599 0 144.35868714266599 -628.03229825279595 0 0 0 0 34.582504105157568 86.203952809841212 0 86.203952809841212 -632.95116584294146 0 0 0 0 0.99130527937956003 9.3678997837057736 0 9.3678997837057736 -2.489616120140874 0 0 0 0 380.61859503660526 20.465278436765402 0 20.465278436765402 -1385.9414953599771 0 0 0 0 274.31192069516692 324.03782027168654 0 324.03782027168654 -1076.2143096634754 0 0 0 0 52.197011511467281 180.76488789789255 0 180.76488789789255 201.08939666169681 0 0 0 0 169.70619615414762 254.97804554268805 0 254.97804554268805 46.563695518194436 0 0 0 0 249.44761974991707 231.52266002584383 0 231.52266002584383 -211.5786765355042 0 0 0 0 79.802080950335949 77.767737828909958 0 77.767737828909958 -601.06336481904873 0 0 0 0 -59.212917591867154 -177.60023298880878 0 -177.60023298880878 -645.52029509972772 0 0 0 0 -243.99806225635984 16.81997909162601 0 16.81997909162601 644.77784612341645 0 0 0 0 527.12750864240661 316.28828307110962 0 316.28828307110962 -264.93446287348524 0 0 0 0 76.387605271105713 85.241957870111946 0 85.241957870111946 57.082218880965229 0 0 0 0 296.13529558497976 398.38968007598305 0 398.38968007598305 147.28640418263967 0 0 0 0 200.46820481127361 16.641186433627809 0 16.641186433627809 -247.28875093688748 0 0 0 0 39.946133307726527 24.531163623185158 0 24.531163623185158 -9.1563584060139647 0 0 0 0 92.064870327412791 33.56696187570742 0 33.56696187570742 -94.876816016050725 0 0 0 0 60.575770267031373 11.352698859370054 0 11.352698859370054 12.656395066538636 0 0 0 0 118.99398405013562 104.64843122989532 0 104.64843122989532 222.64199698973334 0 0 0 0 129.76642265721182 98.332628346770008 0 98.332628346770008 56.033735272844361 0 0 0 0 82.955465442486457 73.879611354421286 0 73.879611354421286 127.5077725575436 0 0 0 0 137.69030326886423 27.852523868620665 0 27.852523868620665 -13.796090537955479 0 0 0 0 380.84759218188265 29.666814677438197 0 29.666814677438197 -300.9243234978785 0 0 0 0 124.89037244062268 4.3135574133464587 0 4.3135574133464587 2.988666795561123 0 0 0 0 -146.16537078504552 1.0957210263131856 0 1.0957210263131856 -16.167687663704783 0 0 0 0 534.08977770906495 285.20186163724884 0 285.20186163724884 138.55485502285137 0 0 0 0 239.74718005672548 -84.655112266421384 0 -84.655112266421384 -175.42205125776013 0 0 0 0 1000.2474959850333 194.46834871283136 0 194.46834871283136 -169.12111016540439 0 0 0 0 848.77034072979222 560.70303236716882 0 560.70303236716882 -107.31558868254797 0 0 0 0 579.97596941243683 502.52810905246815 0 502.52810905246815 217.58251693103011 0 0 0 0 873.00065138190257 799.11498613614185 0 799.11498613614185 223.18259807231152 0 0 0 0 398.70064793281199 -399.45113716102696 0 -399.45113716102696 -1006.1961206615897 0 0 0 0 605.20600025432486 450.06470869581176 0 450.06470869581176 275.8771174797912 0 0 0 0 977.84780494177539 675.24228825228511 0 675.24228825228511 -756.67365178795103 0 0 0 0 98.316235896565274 -17.935378712569999 0 -17.935378712569999 -6.8375149055778834 0 0 0 0 1733.1433135596781 951.23122556664248 0 951.23122556664248 -151.95614900090368 0 0 0 0 1180.7666123627587 360.2236276901715 0 360.2236276901715 -435.16795891592119 0 0 0 0 1079.2131726988009 790.29519689000608 0 790.29519689000608 114.02111416889068 0 0 0 0 866.98919305183881 839.74827772106278 0 839.74827772106278 107.5432430922101 0 0 0 0 919.43004411821312 1090.2655957149063 0 1090.2655957149063 1049.2821186211188 0 0 0 0 686.95488407507582 834.3919516118176 0 834.3919516118176 935.7258520947189 0 0 0 0 76.982847263901533 -11.036653281685304 0 -11.036653281685304 -4.227066949885792 0 0 0 0 1083.2030488780038 1078.8570982942001 0 1078.8570982942001 860.46186372029206 0 0 0 0 975.61340985619881 770.32605921128675 0 770.32605921128675 985.8407685296479 0 0 0 0 520.19612910162505 -2003.7241593597544 0 -2003.7241593597544 -1162.3264699221218 0 0 0 0 2478.7976999891398 2339.1946488802782 0 2339.1946488802782 2375.6442311119808 0 0 0 0 29.209366466050824 -4.9489869339062906 0 -4.9489869339062906 0.10409327316243999 0 0 0 0 -81.34496750467224 217.96817945452949 0 217.96817945452949 -443.09834024806514 0 0 0 0 754.00782287016773 14.67311566130229 0 14.67311566130229 -1779.5724271454928 0 0 0 0 989.71392109978478 -390.33412633202806 0 -390.33412633202806 -325.34771586404668 0 0 0 0 754.85100447103468 -230.8355207551067 0 -230.8355207551067 730.70415524110649 0 0 0 0 2816.7965524132633 -1383.8421299691265 0 -1383.8421299691265 -997.52422316965476 0 0 0 0 120.66857076002634 986.04759701712192 0 986.04759701712192 686.74266593159689 0 0 0 0 6.6884666173239111 5.0127850288965874 0 5.0127850288965874 -9.6671849091056608 0 0 0 0 83.437149823337677 -243.08131920441247 0 -243.08131920441247 -954.6610301929577 0 0 0 0 16.961424964014441 20.559925625922006 0 20.559925625922006 -851.84052869706102 0 0 0 0 141.67052021250856 -34.127619964117685 0 -34.127619964117685 -972.94929397851047 0 0 0 0 2.7840319974259558 3.4627581498856514 0 3.4627581498856514 -4.9435354408800158 0 0 0 0 -176.47138063980674 771.51790945333323 0 771.51790945333323 1217.349195726023 0 0 0 0 176.27744850976887 525.02436017656328 0 525.02436017656328 -86.708626076606379 0 0 0 0 654.91832010392682 31.460471564063482 0 31.460471564063482 -1667.0094370690138 0 0 0 0 -64.460160793649266 -823.23378699107343 0 -823.23378699107343 -1877.6207049795303 0 0 0 0 34.756798227492254 390.15355720616844 0 390.15355720616844 -389.63863735614541 0 0 0 0 235.26131864408126 31.92751408303252 0 31.92751408303252 -908.70365479768225 0 0 0 0 406.45368861526367 115.9102381762068 0 115.9102381762068 -310.83705818745875 0 0 0 0 423.83097110780363 327.53692277378741 0 327.53692277378741 -36.022046815338399 0 0 0 0 322.58945480712282 72.668282759566864 0 72.668282759566864 297.7707452718796 0 0 0 0 569.5316996769543 211.47531553040881 0 211.47531553040881 375.7149133641833 0 0 0 0 1085.5268815745876 -251.35242613379751 0 -251.35242613379751 323.81860145650899 0 0 0 0 960.2923363421869 -323.9275637143619 0 -323.9275637143619 342.85113953614689 0 0 0 0 247.49141409090953 -63.640113066601771 0 -63.640113066601771 320.17333511365223 0 0 0 0 1009.0890898843572 -400.11105666750427 0 -400.11105666750427 -24.163813920711618 0 0 0 0 1066.6915961110753 -225.72333393337567 0 -225.72333393337567 418.24734793414063 0 0 0 0 2483.6786325715002 -1405.932730008818 0 -1405.932730008818 576.05423430070539 0 0 0 0 8.873091886949652 -8.3093359451250492 0 -8.3093359451250492 6.5110026448261067 0 0 0 0 4604.2691779937704 449.46812509015217 0 449.46812509015217 -54.136095776546426 0 0 0 0 1888.8430369712587 166.87415994100411 0 166.87415994100411 77.117446904465396 0 0 0 0 2414.8537465225527 -210.79497547204255 0 -210.79497547204255 -61.655818665409242 0 0 0 0 1762.2988697585388 -744.46495904528911 0 -744.46495904528911 379.40222779022213 0 0 0 0 1694.8174734003369 -155.07552100605471 0 -155.07552100605471 -7.8970901664361008 0 0 0 0 1694.6435996572 -175.50992567412004 0 -175.50992567412004 188.69543360123862 0 0 0 0 1902.6732399123721 -38.082949359637496 0 -38.082949359637496 -58.513113836856064 0 0 0 0 1695.4186690191855 117.45341981119418 0 117.45341981119418 53.774640735933644 0 0 0 0 1805.2234037033777 -166.35914845586558 0 -166.35914845586558 -34.730103034677086 0 0 0 0 1719.751103371731 -51.302496475333101 0 -51.302496475333101 89.354759686768375 0 0 0 0 1729.9590309509658 -26.513010827126891 0 -26.513010827126891 -84.881230655048057 0 0 0 0 1643.3534527042502 -2.9066849885111878 0 -2.9066849885111878 -48.127587338796729 0 0 0 0 1649.3046335972904 62.939587268512696 0 62.939587268512696 -14.86157380161967 0 0 0 0 1593.6153663604782 -10.475784349177047 0 -10.475784349177047 -70.12657807726282 0 0 0 0 1715.936827238831 103.05020443912144 0 103.05020443912144 -9.9084516218354111 0 0 0 0 1781.095046745002 205.03476126462738 0 205.03476126462738 44.865696985691102 0 0 0 0 1734.6939388203245 84.104458339046687 0 84.104458339046687 -58.946776036478695 0 0 0 0 1669.1280953764217 68.902643251911286 0 68.902643251911286 -35.999683802696381 0 0 0 0 1765.4422748007055 116.13581227780196 0 116.13581227780196 -82.782545265425142 0 0 0 0 1675.4952412561033 61.951440938661108 0 61.951440938661108 -76.591700221415522 0 0 0 0 1646.7528920276527 -18.62536677828939 0 -18.62536677828939 208.44308211442831 0 0 0 0 1465.1233873003657 28.668113658713992 0 28.668113658713992 307.62011809470641 0 0 0 0 1669.7579479439592 -16.080150951405813 0 -16.080150951405813 66.510612423489874 0 0 0 0 1595.3906835559756 195.72903414997745 0 195.72903414997745 122.38133345091592 0 0 0 0 1713.5125620876934 130.88066415090179 0 130.88066415090179 113.71859656346896 0 0 0 0 1604.7952460142114 255.13982190384377 0 255.13982190384377 474.04054671276208 0 0 0 0 1451.8002040349929 45.955411828749675 0 45.955411828749675 528.8447993951213 0 0 0 0 1371.6555790140992 -57.607670973474342 0 -57.607670973474342 912.27128155968865 0 0 0 0 1403.898205660138 670.20222500300406 0 670.20222500300406 825.50221405064451 0 0 0 0 297.6252366326371 430.63911497094068 0 430.63911497094068 960.77199562432907 0 0 0 0 586.11099238094175 634.61776174193801 0 634.61776174193801 1024.2398145397333 0 0 0 0 7.7297286097558811 4.4640298714807685 0 4.4640298714807685 2.73673810023889 0 0 0 0 1713.1839540460351 503.95885480999368 0 503.95885480999368 654.64679609358245 0 0 0 0 721.27275141507198 263.31716836393957 0 263.31716836393957 607.88320114713315 0 0 0 0 1151.4117180391331 252.65857434593818 0 252.65857434593818 539.7840745065896 0 0 0 0 532.73106098796052 63.258352443325407 0 63.258352443325407 500.36103151180578 0 0 0 0 607.72320405280334 488.64779752269897 0 488.64779752269897 861.44726986476871 0 0 0 0 1467.9756998036173 -292.31120331873217 0 -292.31120331873217 325.29111032197943 0 0 0 0 1057.3437453819133 -154.08599585138018 0 -154.08599585138018 491.30425515103343 0 0 0 0 394.23957112350035 -160.62763089043619 0 -160.62763089043619 -356.34550560901516 0 0 0 0 7.5468997262463233 -4.1107449795489703 0 -4.1107449795489703 1.0754244119454341 0 0 0 0 96.646854386111954 203.27643009338863 0 203.27643009338863 181.96799780587207 0 0 0 0 145.64797871359406 -269.68935454558141 0 -269.68935454558141 -390.15644310743119 0 0 0 0 -165.57496792191523 -131.08003174711121 0 -131.08003174711121 -137.26493694027181 0 0 0 0 136.40125117132266 106.67244838552506 0 106.67244838552506 -299.94772780068524 0 0 0 0 -12.672011656384711 192.01210119913321 0 192.01210119913321 -85.592179200160899 0 0 0 0 -56.440894248680706 -208.65256121717835 0 -208.65256121717835 137.8725081103039 0 0 0 0 55.786317168884125 107.43580071012332 0 107.43580071012332 -29.409433379118127 0 0 0 0 264.48166944562399 40.954455149396381 0 40.954455149396381 -244.17858176528534 0 0 0 0 88.435645032550383 13.016676712051776 0 13.016676712051776 -31.746376860111468 0 0 0 0 64.169620504838832 -3.81019801210455 0 -3.81019801210455 -0.19103742595015127 0 0 0 0 291.83724858507776 267.37136099179224 0 267.37136099179224 -102.06222481005625 0 0 0 0 25.500746894649637 -6.1818925863590266 0 -6.1818925863590266 5.4406761067364187 0 0 0 0 41.495209198459634 -6.9942064308797853 0 -6.9942064308797853 14.362505641298185 0 0 0 0 25.045929076636384 -7.3369941814826767 0 -7.3369941814826767 7.0125359669443519 0 0 0 0 1531.1009842292406 -20.317903742283306 0 -20.317903742283306 -74.110891684595117 0 0 0 0 1525.5686084547342 3.125389504373743 0 3.125389504373743 -46.447481387840526 0 0 0 0 1365.9042126419954 -28.270984375445551 0 -28.270984375445551 -10.936213303302793 0 0 0 0 1361.9473800303822 -19.677300095096143 0 -19.677300095096143 -27.945134179652086 0 0 0 0 1134.4248186671466 8.1862332541813885 0 8.1862332541813885 49.967899346087506 0 0 0 0 5.7548899189167102 0.82644721844999935 0 0.82644721844999935 13.310023941975125 0 0 0 0 1462.9536348466063 74.431193684882601 0 74.431193684882601 -86.632485490335966 0 0 0 0 1191.7797366158047 -444.08111701557209 0 -444.08111701557209 -266.47303158493014 0 0 0 0 0.0047176025798307819 -1.600120219118855 0 -1.600120219118855 2.8518625037823733 0 0 0 0 1374.9730272053857 -35.517919930804055 0 -35.517919930804055 -31.32924971877128 0 0 0 0 1376.976179447578 -40.452327638162387 0 -40.452327638162387 -23.255798351117846 0 0 0 0 1131.7381580837227 42.042913270267945 0 42.042913270267945 -21.329612366054789 0 0 0 0 1399.285152351571 18.886374614539818 0 18.886374614539818 -49.35303717692932 0 0 0 0 1505.6074932875199 73.523861658824899 0 73.523861658824899 -88.508267313249235 0 0 0 0 1617.1384294320742 172.6008382317259 0 172.6008382317259 48.790352800661822 0 0 0 0 1640.9939386766487 63.337299029259015 0 63.337299029259015 -114.18289864041435 0 0 0 0 1399.9758082857297 26.549375684944607 0 26.549375684944607 -99.545334299969909 0 0 0 0 553.95590397124761 -14.239930435038332 0 -14.239930435038332 193.15233323589564 0 0 0 0 882.8861220972467 237.68829179415116 0 237.68829179415116 72.790853124568457 0 0 0 0 17.690158814157385 -11.001533762269247 0 -11.001533762269247 12.570879773573587 0 0 0 0 12.464336721812344 -4.1381831127463187 0 -4.1381831127463187 -0.68206357333918533 0 0 0 0 1484.1487450115965 -0.32661207196179021 0 -0.32661207196179021 7.218193678141688 0 0 0 0 1374.3679770694289 273.05780993599546 0 273.05780993599546 7.2739810299644887 0 0 0 0 25.457811028366748 -15.538010200361626 0 -15.538010200361626 7.1459651465406964 0 0 0 0 -19.251336240791716 -637.96121462395604 0 -637.96121462395604 18.463097660682251 0 0 0 0 478.59657505079304 -51.96094690901441 0 -51.96094690901441 -775.12939040000128 0 0 0 0 -990.08232477268029 -102.82911945111118 0 -102.82911945111118 107.3304786926351 0 0 0 0 501.61595385642249 -169.73450875311528 0 -169.73450875311528 -548.49411766268895 0 0 0 0 435.81100383031298 29.707615651212109 0 29.707615651212109 -584.11276279351659 0 0 0 0 133.43907183983538 187.44254816069406 0 187.44254816069406 -609.63658497104188 0 0 0 0 312.39716857690655 -8.0280885422153005 0 -8.0280885422153005 -438.77635901390022 0 0 0 0 -421.34218192258504 -589.91253920656959 0 -589.91253920656959 -648.23596841044127 0 0 0 0 19.626424799023809 -23.102244670790185 0 -23.102244670790185 16.131300440908063 0 0 0 0 1605.1846340563789 57.641950162091234 0 57.641950162091234 114.36375165180289 0 0 0 0 -222.11208247131799 -562.80538540482394 0 -562.80538540482394 -827.87006241348354 0 0 0 0 436.1218944952343 -24.930124891762716 0 -24.930124891762716 -613.51907569327659 0 0 0 0 -994.67167697198238 -1568.9770816730033 0 -1568.9770816730033 -198.40992020613339 0 0 0 0 562.02633616137609 184.40561134433119 0 184.40561134433119 -508.66649839980937 0 0 0 0 405.14063481741687 307.60746834271049 0 307.60746834271049 26.496908872712083 0 0 0 0 228.23302910517668 34.23253545669013 0 34.23253545669013 -58.015031408236609 0 0 0 0 901.89102866818575 52.620719127857228 0 52.620719127857228 -73.908075916128155 0 0 0 0 288.53424421494128 211.91595072803557 0 211.91595072803557 118.69342756528113 0 0 0 0 179.46193115949791 168.90148977741228 0 168.90148977741228 60.456508072069482 0 0 0 0 292.12713625836477 323.94059281317732 0 323.94059281317732 187.25353785065272 0 0 0 0 382.78369512574864 46.864062153981649 0 46.864062153981649 -297.95970379865867 0 0 0 0 354.33202940452975 146.60117476454343 0 146.60117476454343 -333.13423414729732 0 0 0 0 165.3089188631875 -76.947208285575016 0 -76.947208285575016 -368.06617482499496 0 0 0 0 183.42882423495757 72.104129834613559 0 72.104129834613559 -105.83861387202251 0 0 0 0 176.49644051319046 97.7706845220182 0 97.7706845220182 -146.52342998589666 0 0 0 0 -96.780771883688431 104.32599522461487 0 104.32599522461487 276.97966917224221 0 0 0 0 139.17097308472148 66.279498674920433 0 66.279498674920433 -158.20076004221164 0 0 0 0 -104.14161836795029 75.928083083777437 0 75.928083083777437 256.33786972163762 0 0 0 0 -299.82790912837663 -78.09962863461169 0 -78.09962863461169 459.37250346620567 0 0 0 0 -55.137625283841771 203.3770152754455 0 203.3770152754455 582.67779530006737 0 0 0 0 -198.29356345249107 40.005957792313893 0 40.005957792313893 596.6673314476393 0 0 0 0 -102.34127301089757 14.646470402297382 0 14.646470402297382 518.61784617463854 0 0 0 0 91.001888443948701 301.96315485889772 0 301.96315485889772 944.94012324861069 0 0 0 0 -47.155808052135399 -238.61755069401943 0 -238.61755069401943 927.58252907979386 0 0 0 0 -127.46016713503923 -65.957003430570694 0 -65.957003430570694 606.25695245374664 0 0 0 0 -382.33966281732864 -199.92494842590531 0 -199.92494842590531 603.39876577164432 0 0 0 0 2673.626963251183 -1257.9421098831024 0 -1257.9421098831024 -250.41779403646473 0 0 0 0 1495.1323854020884 799.13180258127841 0 799.13180258127841 823.89549192051891 0 0 0 0 459.75660003586381 577.27299023734213 0 577.27299023734213 656.14376007198189 0 0 0 0 531.24988839892831 349.19646325288909 0 349.19646325288909 1867.2605896480991 0 0 0 0 557.68404058093438 94.95985158682106 0 94.95985158682106 700.95350961737449 0 0 0 0 1666.7165378722057 -873.35953998272907 0 -873.35953998272907 1676.8203792380027 0 0 0 0 456.47097597982065 71.056665178381081 0 71.056665178381081 974.30288689695419 0 0 0 0 3624.225774111128 -127.70897469467127 0 -127.70897469467127 449.88605488514986 0 0 0 0 1673.0551321303283 421.6226251051321 0 421.6226251051321 512.93032905050313 0 0 0 0 958.95997504667321 -204.41186549538179 0 -204.41186549538179 207.2817688731493 0 0 0 0 819.47550081009831 -764.22423424458975 0 -764.22423424458975 884.3693848282918 0 0 0 0 418.96743935669838 -795.2793576767433 0 -795.2793576767433 29.734903706967089 0 0 0 0 922.05752668760215 18.58890877454246 0 18.58890877454246 -232.27048692690914 0 0 0 0 -331.6051023768523 -356.13400121975428 0 -356.13400121975428 639.97852493096048 0 0 0 0 -249.7466901577136 -538.08101420883213 0 -538.08101420883213 -4.2599984100133952 0 0 0 0 -284.59382636934242 -226.08240201386934 0 -226.08240201386934 145.21508780235854 0 0 0 0 108.59578795481502 -511.61621962279787 0 -511.61621962279787 143.24997913702282 0 0 0 0 127.16786982789199 -163.4153251902253 0 -163.4153251902253 366.59754999033612 0 0 0 0 -162.1689113009852 -243.97567597182478 0 -243.97567597182478 -106.13913397776196 0 0 0 0 -230.86377815011292 -759.65354060103664 0 -759.65354060103664 -211.56990279861748 0 0 0 0 88.595049813469814 -352.58905512881392 0 -352.58905512881392 -543.18343700438595 0 0 0 0 -234.35617600259138 -519.02283888471356 0 -519.02283888471356 -1133.7954580144124 0 0 0 0 -53.82703962243977 -754.32581605678843 0 -754.32581605678843 -956.83971195696904 0 0 0 0 -399.98015389009379 -165.82585222220223 0 -165.82585222220223 -437.20663538207009 0 0 0 0 0.65504481266150805 -1.2955964810130922 0 -1.2955964810130922 -1.9519035101966935 0 0 0 0 112.85210835108774 159.68358159096852 0 159.68358159096852 -678.47423388808056 0 0 0 0 -187.27584800582554 -488.83090668836485 0 -488.83090668836485 -707.04711083056736 0 0 0 0 -45.652693098341842 -195.97923504064556 0 -195.97923504064556 -103.29094528534188 0 0 0 0 -582.91930272726313 -516.93424602116079 0 -516.93424602116079 -137.95178172285159 0 0 0 0 -266.26879276454565 -290.1467055414123 0 -290.1467055414123 -5.7000028634574846 0 0 0 0 -440.90373640790494 -396.42877834042656 0 -396.42877834042656 279.20543065297534 0 0 0 0 -255.58502499664041 -439.68911724913715 0 -439.68911724913715 -111.06401193279089 0 0 0 0 -104.77681734020007 -238.58153886703894 0 -238.58153886703894 145.67877187152521 0 0 0 0 6.437170824405257 -348.00637727675348 0 -348.00637727675348 11.770118564809309 0 0 0 0 -58.984695510138408 -29.504186773985566 0 -29.504186773985566 -184.30673722595122 0 0 0 0 28.345592241916165 -135.71333202912501 0 -135.71333202912501 -295.36979008845992 0 0 0 0 3.8130525434135052 -66.037844083825803 0 -66.037844083825803 32.654015706606515 0 0 0 0 185.06001278103213 -273.92178019093399 0 -273.92178019093399 218.32148393904117 0 0 0 0 739.24906481407379 -167.41142670735644 0 -167.41142670735644 14.500679995613609 0 0 0 0 476.93138114735484 -155.37637083459686 0 -155.37637083459686 8.0073117538586303 0 0 0 0 296.57992677638504 -218.68262845724803 0 -218.68262845724803 20.218278477547756 0 0 0 0 222.37364006895586 -176.03054226887798 0 -176.03054226887798 78.674813895109764 0 0 0 0 178.86508498439071 -220.48288907983624 0 -220.48288907983624 67.100765957017757 0 0 0 0 -67.316276764402573 -194.68681089881738 0 -194.68681089881738 148.28971833157811 0 0 0 0 180.60945764303779 -142.16527659528856 0 -142.16527659528856 96.553819684231712 0 0 0 0 281.79786204599623 -109.06668534685241 0 -109.06668534685241 92.927565084364687 0 0 0 0 456.97414736679275 -41.509930802853432 0 -41.509930802853432 81.637757286592205 0 0 0 0 173.68863720854279 -125.27310361026002 0 -125.27310361026002 166.44671109374758 0 0 0 0 -73.931739450039458 -87.732545556218611 0 -87.732545556218611 203.24513484032786 0 0 0 0 -189.03644884843743 -183.80023831389144 0 -183.80023831389144 253.84827103244243 0 0 0 0 -285.64373434735899 -103.25692616836477 0 -103.25692616836477 395.17500627740992 0 0 0 0 -240.80495578812406 -108.85675236152656 0 -108.85675236152656 271.24357774185171 0 0 0 0 -296.23472587886499 -206.35577733053287 0 -206.35577733053287 373.71298206913025 0 0 0 0 -322.62956207142997 -223.24116000476192 0 -223.24116000476192 387.05834339353169 0 0 0 0 -245.6269215646098 -323.63887926789175 0 -323.63887926789175 169.65631411848676 0 0 0 0 -68.106906788736524 -197.6324792943833 0 -197.6324792943833 254.51213828469918 0 0 0 0 44.040121373209331 -27.064323263735787 0 -27.064323263735787 22.165292970058999 0 0 0 0 6.2632763439271351 -9.6587002821034318 0 -9.6587002821034318 18.494904938493569 0 0 0 0 62.478573970653088 -9.6087598637914198 0 -9.6087598637914198 7.4406272119695132 0 0 0 0 -25.630810828035465 -48.478286154282387 0 -48.478286154282387 14.655702029511303 0 0 0 0 537.59687197065796 64.371390121441436 0 64.371390121441436 11.299002600806944 0 0 0 0 464.37737110494936 51.160966936485181 0 51.160966936485181 43.411918510874784 0 0 0 0 1.8984938685378356 -9.0865166863844351 0 -9.0865166863844351 25.66258835632182 0 0 0 0 444.87291333977373 59.103358447662686 0 59.103358447662686 78.151333687482293 0 0 0 0 560.23605706183662 109.93082289550694 0 109.93082289550694 29.89515661461337 0 0 0 0 457.38520345589131 61.684698910059524 0 61.684698910059524 84.890781506746862 0 0 0 0 536.5117992512296 61.126096851993907 0 61.126096851993907 70.615409512494807 0 0 0 0 478.52082405484907 120.06402857264038 0 120.06402857264038 93.119451142069011 0 0 0 0 565.26202048142295 25.077762352541868 0 25.077762352541868 163.4510000158657 0 0 0 0 596.47538253168386 27.645739330872402 0 27.645739330872402 26.935511282425978 0 0 0 0 493.04287820177342 13.368168001417871 0 13.368168001417871 93.529733276633124 0 0 0 0 516.84782362345868 34.995968104210988 0 34.995968104210988 47.051047060988822 0 0 0 0 269.46315605401833 -118.05955186219126 0 -118.05955186219126 125.58524532564297 0 0 0 0 468.25119700079449 29.76867063384725 0 29.76867063384725 151.50809188556195 0 0 0 0 465.35081711866951 -193.05569857105729 0 -193.05569857105729 93.289268100048503 0 0 0 0 257.10528266522306 86.824472196206898 0 86.824472196206898 421.97397306365383 0 0 0 0 326.68562014621784 -16.369391994128819 0 -16.369391994128819 294.81116765898201 0 0 0 0 535.88686940090702 200.40724928671079 0 200.40724928671079 186.33300649543526 0 0 0 0 609.63100981752086 -9.8974876022211902 0 -9.8974876022211902 40.203158678192267 0 0 0 0 1079.7289025708305 93.522485084988148 0 93.522485084988148 -121.95825849743778 0 0 0 0 0.21323359460238578 -0.39674165660316163 0 -0.39674165660316163 1.9581647651267069 0 0 0 0 525.3897641258809 220.86344528675727 0 220.86344528675727 358.2990374729352 0 0 0 0 516.19173627017881 174.51175792370668 0 174.51175792370668 186.32222212877969 0 0 0 0 444.22343361492676 276.62529678262035 0 276.62529678262035 420.10926834421844 0 0 0 0 422.53127604397014 38.337858052242154 0 38.337858052242154 261.0370798372951 0 0 0 0 222.71315139759827 292.96945234807208 0 292.96945234807208 608.70888674454136 0 0 0 0 422.57138253258381 295.45558239379989 0 295.45558239379989 471.69079516621423 0 0 0 0 959.62067290230334 509.32448376720458 0 509.32448376720458 488.71076336951955 0 0 0 0 1219.4171859726339 217.97391046251141 0 217.97391046251141 321.28239871573624 0 0 0 0 918.12136003081105 594.06047128237333 0 594.06047128237333 347.57448804335036 0 0 0 0 1008.1033626090211 775.54691391871165 0 775.54691391871165 604.16912446841889 0 0 0 0 725.40927735145669 552.92366752969974 0 552.92366752969974 387.89003826119733 0 0 0 0 1120.8393677950517 751.07480156768816 0 751.07480156768816 478.21668342604244 0 0 0 0 893.31223936358583 418.83858566077834 0 418.83858566077834 232.72104098827549 0 0 0 0 6.9297743359929882 34.815489766651808 0 34.815489766651808 318.76588093917962 0 0 0 0 3.6070685114682419 103.71709200311125 0 103.71709200311125 656.74036305473965 0 0 0 0 12.111244893443654 -0.85378265409963205 0 -0.85378265409963205 -2.0942947554176499 0 0 0 0 0.2372427047045278 -0.17758345654144847 0 -0.17758345654144847 0.3832374202313531 0 0 0 0 7.5673027890631488 3.1194576796166942 0 3.1194576796166942 -2.0087822933358019 0 0 0 0 12.063136487031436 8.2024316331711233 0 8.2024316331711233 -6.3355771838041548 0 0 0 0 949.00747479579877 469.75587404776888 0 469.75587404776888 271.45872504372164 0 0 0 0 627.48685969638245 754.13760978158098 0 754.13760978158098 941.24723713098501 0 0 0 0 1170.5538573229387 709.66778084797033 0 709.66778084797033 301.24277843756863 0 0 0 0 -1.3269130823198481 2.0285664059426551 0 2.0285664059426551 4.0563532545931409 0 0 0 0 -35.652841293499478 44.143119450189943 0 44.143119450189943 -13.528996400036704 0 0 0 0 -7.8369416889327113 11.473664220236969 0 11.473664220236969 -8.9558069893100765 0 0 0 0 25.099004555426021 12.878235425793193 0 12.878235425793193 -10.992831315916341 0 0 0 0 1.3916182173998095 10.233576718313998 0 10.233576718313998 -127.57714780148308 0 0 0 0 7.4895472819569591 -1.8849782489496647 0 -1.8849782489496647 5.2632654792279965 0 0 0 0 224.21362745248916 500.90103704067951 0 500.90103704067951 95.09488583788152 0 0 0 0 -15.142648222536081 -2.5844805362121406 0 -2.5844805362121406 -334.05759128061618 0 0 0 0 810.46914495791498 39.589139670557415 0 39.589139670557415 177.66512897357461 0 0 0 0 35.965035839748452 500.51934494345733 0 500.51934494345733 555.94053003386125 0 0 0 0 -204.01798285327641 51.510202007851603 0 51.510202007851603 265.4444636491844 0 0 0 0 -47.755032039291109 261.16502418572145 0 261.16502418572145 200.8822958237688 0 0 0 0 522.0388729321603 -126.58357493759831 0 -126.58357493759831 -616.62337828758791 0 0 0 0 54.056445791153237 60.322149875865762 0 60.322149875865762 -285.88431658119089 0 0 0 0 6.5751959039874563 109.29875801222211 0 109.29875801222211 -333.25817084870141 0 0 0 0 11.788247566198663 -1.3323876379293811 0 -1.3323876379293811 -0.85379396370476535 0 0 0 0 6.3311721089776256 15.476242917297895 0 15.476242917297895 -115.87542373991164 0 0 0 0 -150.87763295106197 -224.40993331361096 0 -224.40993331361096 297.99280442003624 0 0 0 0 5.4555355151872078 -1.5731685019573813 0 -1.5731685019573813 0.27957712034405091 0 0 0 0 164.37748292859214 -410.40429317316875 0 -410.40429317316875 -59.117518479115461 0 0 0 0 623.83238235067256 -42.095365874067738 0 -42.095365874067738 -246.14785718389066 0 0 0 0 286.22043492362718 221.46047284511133 0 221.46047284511133 35.647686171257192 0 0 0 0 251.95340524433868 -35.202254269697505 0 -35.202254269697505 -244.76864132554147 0 0 0 0 306.72694586341458 70.503505275844645 0 70.503505275844645 -382.23750594820376 0 0 0 0 146.82384396437192 61.158909188450707 0 61.158909188450707 -150.12273887124138 0 0 0 0 28.899124397154058 -0.95357304735990311 0 -0.95357304735990311 -2.6565550996769929 0 0 0 0 47.257629776468093 190.50806421981451 0 190.50806421981451 -313.02352427917231 0 0 0 0 108.98744873839678 -13.720958491362808 0 -13.720958491362808 -164.88553228530509 0 0 0 0 157.44521070588962 61.481716653738658 0 61.481716653738658 -382.74941832339755 0 0 0 0 94.193799587756075 9.4252007801651416 0 9.4252007801651416 65.240189707321406 0 0 0 0 168.05282928067754 -64.520419164035047 0 -64.520419164035047 -157.67792337719493 0 0 0 0 53.437647848650158 -4.1457327867169624 0 -4.1457327867169624 45.789777241358024 0 0 0 0 132.77022959198803 -9.9824364248488564 0 -9.9824364248488564 -164.31901466316958 0 0 0 0 15.933116719243117 -102.39654240073105 0 -102.39654240073105 -400.97861520680453 0 0 0 0 110.27730564300873 -44.224211479546284 0 -44.224211479546284 -415.58570121220328 0 0 0 0 113.68050533984933 62.661270341466661 0 62.661270341466661 -342.41332054783925 0 0 0 0 -119.09390038536003 -93.445989630192344 0 -93.445989630192344 -212.96589344520544 0 0 0 0 -32.329935147674405 -229.20048178370234 0 -229.20048178370234 -27.048070729521214 0 0 0 0 -0.15696342249177064 0.45221433578222303 0 0.45221433578222303 -0.55944566035805821 0 0 0 0 -216.38937773999351 -321.13617111764779 0 -321.13617111764779 -280.39508079881216 0 0 0 0 257.90544168932229 415.45978763408175 0 415.45978763408175 166.45664301488432 0 0 0 0 -102.57505709092402 20.921296969699142 0 20.921296969699142 -159.0859821862814 0 0 0 0 -184.23152827011654 -76.628326820781695 0 -76.628326820781695 266.75851010461247 0 0 0 0 -142.7917301107309 2.6002726804456415 0 2.6002726804456415 24.825014979922344 0 0 0 0 3.3054945411349763 -148.78647668593476 0 -148.78647668593476 177.04018015959036 0 0 0 0 120.06769439176787 0.60055979262324399 0 0.60055979262324399 218.60619242968824 0 0 0 0 269.0646398488534 -294.02170306813514 0 -294.02170306813514 109.91536139217396 0 0 0 0 66.662111824418389 -62.645484441039116 0 -62.645484441039116 -148.18839854964608 0 0 0 0 -30.550196219093777 -91.695387070164543 0 -91.695387070164543 -256.4675240565557 0 0 0 0 163.02130799949373 -221.39291706365202 0 -221.39291706365202 -181.63252681749032 0 0 0 0 262.19375665888583 -8.2661577628368832 0 -8.2661577628368832 -312.55179037374546 0 0 0 0 108.14162306769049 -17.222000069042906 0 -17.222000069042906 -243.91336105903429 0 0 0 0 133.57806141850597 3.5734605046654906 0 3.5734605046654906 -311.34506209045367 0 0 0 0 60.715705228256326 -3.0646808227628561 0 -3.0646808227628561 0.48503272800103048 0 0 0 0 15.072059926063503 8.6328722640932405 0 8.6328722640932405 -3.9992530842428096 0 0 0 0 30.980561808709353 -166.72476915561356 0 -166.72476915561356 -265.77245513576418 0 0 0 0 167.74756819257891 56.632714224500887 0 56.632714224500887 -90.859168993024696 0 0 0 0 -85.914630072340515 -37.598697023565364 0 -37.598697023565364 11.136983811749815 0 0 0 0 286.11724293397856 185.23319577997427 0 185.23319577997427 10.123102197278058 0 0 0 0 -118.50133597220974 -326.2755873506253 0 -326.2755873506253 -273.93028704302196 0 0 0 0 -0.11856395456791802 0.4422672050874894 0 0.4422672050874894 -2.6642921949763902 0 0 0 0 -3.8607429437251994 71.656855644716416 0 71.656855644716416 157.96555391918582 0 0 0 0 152.31799196456996 -23.828997431248354 0 -23.828997431248354 -41.442324175466638 0 0 0 0 230.89483866239607 -84.003737231054401 0 -84.003737231054401 -328.86714430264692 0 0 0 0 29.821024688796513 -1.795869873386156 0 -1.795869873386156 1.4488138541058433 0 0 0 0 61.873554574628798 -6.5193679441518277 0 -6.5193679441518277 2.058855382050635 0 0 0 0 81.015517777319474 -22.766151833095137 0 -22.766151833095137 -43.961905197839314 0 0 0 0 78.372870702231012 -10.08653760317884 0 -10.08653760317884 -12.328110203678079 0 0 0 0 72.288846326235216 1.8238803060303326 0 1.8238803060303326 -18.548792744738876 0 0 0 0 70.003962741218857 -20.291624467118709 0 -20.291624467118709 -32.013623649268993 0 0 0 0 75.235121515950595 -8.6225444241927107 0 -8.6225444241927107 -61.557629881601315 0 0 0 0 80.189450682344614 -12.938650112099367 0 -12.938650112099367 -58.558673906438344 0 0 0 0 44.702249717871865 -4.4080885218704502 0 -4.4080885218704502 2.0983785752380371 0 0 0 0 89.840066515695071 2.1591516224107181 0 2.1591516224107181 13.044945561244731 0 0 0 0 26.26345216712798 21.587480893253087 0 21.587480893253087 159.48105965526338 0 0 0 0 9.6689997326466255 -30.647964577339735 0 -30.647964577339735 -31.164767162033968 0 0 0 0 44.244429533544462 4.6351095501995587 0 4.6351095501995587 -56.063502810558475 0 0 0 0 148.37652035424253 75.572732835020361 0 75.572732835020361 -219.00352849757655 0 0 0 0 93.00184190634377 5.1083030940294698 0 5.1083030940294698 -3.3069084094475221 0 0 0 0 22.518592236785679 -5.8800195344130746 0 -5.8800195344130746 0.90173266832105625 0 0 0 0 58.454453114129137 197.74523456499446 0 197.74523456499446 131.94665092272726 0 0 0 0 43.256155501658213 -56.17752684574225 0 -56.17752684574225 -52.401913058602076 0 0 0 0 222.53398197463684 250.01657343526676 0 250.01657343526676 -89.590776955241381 0 0 0 0 28.280042674323738 12.029746231166698 0 12.029746231166698 -8.5708141055039704 0 0 0 0 39.215485267312033 -36.460615676463931 0 -36.460615676463931 -40.287435504542373 0 0 0 0 48.509973368985811 -53.165888402185374 0 -53.165888402185374 -20.759662261427366 0 0 0 0 51.705438614546438 -0.41766589554754319 0 -0.41766589554754319 -18.104245628646822 0 0 0 0 78.725156517786672 -27.689232844937578 0 -27.689232844937578 -34.465249984335514 0 0 0 0 77.149746847630013 -16.864895366727524 0 -16.864895366727524 19.53218995892712 0 0 0 0 106.4882048872314 -30.641666597561652 0 -30.641666597561652 -12.691522802850841 0 0 0 0 103.93938660645699 -108.55350883897904 0 -108.55350883897904 -2.1581756730702182 0 0 0 0 414.14953384367982 -217.37294185044902 0 -217.37294185044902 -694.34434763983927 0 0 0 0 109.01133729802052 -10.770184723008276 0 -10.770184723008276 -4.0377482058078051 0 0 0 0 -37.39594954768836 -65.564653204427941 0 -65.564653204427941 -123.89136875966233 0 0 0 0 207.36026345002028 -82.593938358305422 0 -82.593938358305422 -491.51341711128998 0 0 0 0 93.832609934945026 -4.4170354151808571 0 -4.4170354151808571 -6.021308950131715 0 0 0 0 80.754894114113995 20.294066961478165 0 20.294066961478165 6.6512293366004087 0 0 0 0 102.32171703308268 -14.493843689999267 0 -14.493843689999267 -16.02172057356529 0 0 0 0 30.742502329768058 0.12793888634354289 0 0.12793888634354289 2.8440439588267878 0 0 0 0 145.68382674973691 -44.402158102890098 0 -44.402158102890098 -0.23301743458796409 0 0 0 0 185.05659509127145 -109.98776265027209 0 -109.98776265027209 100.38842755972291 0 0 0 0 101.86183910359098 -10.210496560819813 0 -10.210496560819813 -0.73674520082815587 0 0 0 0 130.91145233075076 -64.684535669201068 0 -64.684535669201068 -22.725139340177975 0 0 0 0 122.78330983169144 6.476775392968193 0 6.476775392968193 -3.5219611227930727 0 0 0 0 111.25856008734051 -12.000551982334068 0 -12.000551982334068 -2.8328356200628169 0 0 0 0 154.66758444510197 6.0608197011379161 0 6.0608197011379161 -59.622858319420629 0 0 0 0 169.95083542152133 -22.114294747687381 0 -22.114294747687381 4.8364801340503618 0 0 0 0 217.25136411194399 11.905629755356131 0 11.905629755356131 26.691405999536073 0 0 0 0 149.90082710813294 22.356892951606369 0 22.356892951606369 24.448175946599804 0 0 0 0 194.3942717009777 -55.833981109280103 0 -55.833981109280103 982.88489766466955 0 0 0 0 469.10807653858501 -594.81296540924995 0 -594.81296540924995 -363.66088881481664 0 0 0 0 19.950272112879588 -2.0404118986946571 0 -2.0404118986946571 -10.330644682471487 0 0 0 0 138.62497333606734 4.6291944685690396 0 4.6291944685690396 -2.4229506897700048 0 0 0 0 431.3491287120014 363.05896729817368 0 363.05896729817368 -158.99089511932834 0 0 0 0 401.41419866823708 -9.2900037077288289 0 -9.2900037077288289 -565.19261503507914 0 0 0 0 111.68820127296382 1.2551264476938968 0 1.2551264476938968 -5.2639146954258837 0 0 0 0 -73.462883973974385 -109.45169445766624 0 -109.45169445766624 202.15292470981967 0 0 0 0 52.560951412669965 -221.10104672464513 0 -221.10104672464513 371.64497118835243 0 0 0 0 8.3477749695549619 -0.13660662181349892 0 -0.13660662181349892 -0.46488168808508945 0 0 0 0 61.101678598410217 404.66850287284433 0 404.66850287284433 492.72555162890967 0 0 0 0 -3.2192317711087526 -74.190059215817655 0 -74.190059215817655 -8.6935524388336489 0 0 0 0 190.20346984377102 21.13298913052995 0 21.13298913052995 -358.18133952986318 0 0 0 0 210.61728244361439 -55.206953039404652 0 -55.206953039404652 -90.625191876308236 0 0 0 0 174.66914871928748 -379.49231366606455 0 -379.49231366606455 -286.42906762881921 0 0 0 0 102.02746212944476 35.139323506897199 0 35.139323506897199 7.5758374495635508 0 0 0 0 117.38071711488527 -17.552798490484903 0 -17.552798490484903 0.59777462148566407 0 0 0 0 154.12374222648214 -38.066491022281298 0 -38.066491022281298 28.143778941466735 0 0 0 0 18.620034350609512 -0.92329833609284151 0 -0.92329833609284151 12.356604663191369 0 0 0 0 102.89419528763392 67.954731417672974 0 67.954731417672974 -116.92835765873133 0 0 0 0 170.86092780858235 -34.592442452246587 0 -34.592442452246587 9.9430014140270941 0 0 0 0 163.86582392083801 -49.754871758490481 0 -49.754871758490481 28.396415241953946 0 0 0 0 168.66238088016689 -20.54365689592305 0 -20.54365689592305 1.7596165884042421 0 0 0 0 309.32649440888781 -32.076593928184593 0 -32.076593928184593 11.999726570233179 0 0 0 0 171.24402862599527 -38.757788287723088 0 -38.757788287723088 95.447357811064649 0 0 0 0 5.6904251141902478 26.770671738518409 0 26.770671738518409 -4.8731438600567856 0 0 0 0 32.712748138175755 35.52459703600212 0 35.52459703600212 -1.385261410087594 0 0 0 0 179.44157474473104 -26.972078602267857 0 -26.972078602267857 22.536035882789292 0 0 0 0 67.626395549974404 7.5895360704116683 0 7.5895360704116683 0.030773405308991642 0 0 0 0 183.09600825145026 -37.311106562587156 0 -37.311106562587156 18.79586112916877 0 0 0 0 57.778987056193699 16.488234513744544 0 16.488234513744544 -14.928682688200738 0 0 0 0 171.66565716065816 -41.18092521122162 0 -41.18092521122162 19.662891433641335 0 0 0 0 64.433166246526525 4.1823837003994413 0 4.1823837003994413 7.0112861628385872 0 0 0 0 66.746148603750044 0.64385271734317939 0 0.64385271734317939 5.7142668484066235 0 0 0 0 57.041775431522183 53.449597326036837 0 53.449597326036837 5.4984527240321768 0 0 0 0 29.015170817467151 6.6722975632728776 0 6.6722975632728776 1.4324082263665332 0 0 0 0 30.163407385062953 -4.0885499015976805 0 -4.0885499015976805 -0.44477722312948842 0 0 0 0 47.669141769914489 0.66983837362337795 0 0.66983837362337795 -4.9468283072853936 0 0 0 0 29.895785767294001 5.1449840325076366 0 5.1449840325076366 -17.580368661256216 0 0 0 0 37.713833562966784 13.198424028414983 0 13.198424028414983 -4.5129101791197641 0 0 0 0 96.540809765589074 -93.056137869014492 0 -93.056137869014492 -397.89859350411143 0 0 0 0 4.0109856475901324 -36.510767841464713 0 -36.510767841464713 -311.14376547799259 0 0 0 0 107.29297582079016 -69.941867451188955 0 -69.941867451188955 -482.83449207073363 0 0 0 0 -14.612014415492013 41.898659117086936 0 41.898659117086936 -499.29568348697558 0 0 0 0 66.225141236325726 -4.5472775908128824 0 -4.5472775908128824 2.579073531418544 0 0 0 0 6.4141327148678897 10.367011769947723 0 10.367011769947723 -9.2027510240986459 0 0 0 0 52.698942903502029 -69.474257990570777 0 -69.474257990570777 -633.76495377047786 0 0 0 0 53.07079331471175 1.6287161861299388 0 1.6287161861299388 -6.0452903670726545 0 0 0 0 76.791101852460997 2.3166098532446995 0 2.3166098532446995 -31.528604417024326 0 0 0 0 280.08266005001497 -456.83990237297257 0 -456.83990237297257 -133.31497422817483 0 0 0 0 101.79955412838899 23.060283092125701 0 23.060283092125701 -696.56907279340021 0 0 0 0 17.946295820615546 -10.057440228696144 0 -10.057440228696144 -4.450447654864881 0 0 0 0 66.108098814021218 3.0411015710642673 0 3.0411015710642673 -3.3358379941710155 0 0 0 0 22.145389453944517 -68.539681320991804 0 -68.539681320991804 -616.32131162234668 0 0 0 0 50.725416920235148 -36.398500916712237 0 -36.398500916712237 -449.54536998685671 0 0 0 0 94.294751697932952 -15.328504946790417 0 -15.328504946790417 -593.95475881104085 0 0 0 0 1.8382006036990788 -48.995769446114309 0 -48.995769446114309 -438.75077195007907 0 0 0 0 41.09309055673657 -118.51126496930692 0 -118.51126496930692 -508.25138567669273 0 0 0 0 47.500710631837137 -95.419629342150074 0 -95.419629342150074 -605.17056160807851 0 0 0 0 56.772133993072202 -68.263846757316514 0 -68.263846757316514 -798.17904302819306 0 0 0 0 -79.415065423410852 -37.435283750016197 0 -37.435283750016197 -418.5696920814662 0 0 0 0 -82.025826686462096 228.92320558448284 0 228.92320558448284 -776.94313251738822 0 0 0 0 -182.6392110218585 35.973183205564055 0 35.973183205564055 -588.52922285009458 0 0 0 0 31.570220568516447 -7.4467430466081908 0 -7.4467430466081908 -6.0457620954060438 0 0 0 0 411.84831533511351 1067.0141231657535 0 1067.0141231657535 -772.92512692670425 0 0 0 0 198.10670509272313 -51.52005414731866 0 -51.52005414731866 -26.728857503752806 0 0 0 0 127.38796850647742 -23.934501745601811 0 -23.934501745601811 0.083720870143084269 0 0 0 0 42.400683528911948 -5.5819336496569747 0 -5.5819336496569747 -0.30964949112379969 0 0 0 0 228.17165068918257 -21.088441069997316 0 -21.088441069997316 -346.47746944789833 0 0 0 0 57.707288691191934 -428.33208668033149 0 -428.33208668033149 122.73674582954163 0 0 0 0 -345.5525191417255 28.364595698360063 0 28.364595698360063 530.79904392460548 0 0 0 0 -175.57497033578511 -93.974603173535684 0 -93.974603173535684 -77.245706641244396 0 0 0 0 170.14468234041124 136.93440491209958 0 136.93440491209958 -1079.6104786643796 0 0 0 0 5.6338451045097031 -4.2438734256705075 0 -4.2438734256705075 -2.380485117959231 0 0 0 0 18.400611597884563 -194.99409726958629 0 -194.99409726958629 -839.57722941937072 0 0 0 0 20.933903051947709 65.928632621841871 0 65.928632621841871 -293.01028605778583 0 0 0 0 -13.384456410785788 -40.899822338667718 0 -40.899822338667718 -370.55566769770485 0 0 0 0 154.22863440936999 -165.58700579747227 0 -165.58700579747227 -150.38140702918705 0 0 0 0 244.07308525855115 -275.34439111487791 0 -275.34439111487791 100.12578123260027 0 0 0 0 154.23152802082768 44.729013646929019 0 44.729013646929019 225.57954528262871 0 0 0 0 150.28462151488202 -71.058938048060782 0 -71.058938048060782 -465.09949600805794 0 0 0 0 30.466153868874244 -193.46189093937528 0 -193.46189093937528 -246.71853118739705 0 0 0 0 106.00563216790124 -245.5701621189649 0 -245.5701621189649 -120.96505879763902 0 0 0 0 57.327324048994342 -24.445422518431087 0 -24.445422518431087 -431.43561808442342 0 0 0 0 116.12487022142159 -76.604926183278621 0 -76.604926183278621 -485.02897274585644 0 0 0 0 73.463640188943828 -146.26985442927742 0 -146.26985442927742 -354.05260101926854 0 0 0 0 99.11830557337089 -52.269177409199813 0 -52.269177409199813 -101.06745216437622 0 0 0 0 17.461548829945968 -169.9982782875876 0 -169.9982782875876 150.01287113610661 0 0 0 0 44.260353443809436 -121.20032154374323 0 -121.20032154374323 142.75199012615212 0 0 0 0 31.148601071574376 -214.24451457357992 0 -214.24451457357992 9.2684117537918951 0 0 0 0 85.519208155528759 -144.57952652335948 0 -144.57952652335948 -120.74417287828692 0 0 0 0 56.242930808191886 -71.699360429587841 0 -71.699360429587841 -249.62833604673079 0 0 0 0 105.18110187613638 -156.445113688216 0 -156.445113688216 -289.30861228247875 0 0 0 0 26.140318972073146 -125.14671405430997 0 -125.14671405430997 -114.09312080572681 0 0 0 0 520.71909830941877 -45.02787536838423 0 -45.02787536838423 -123.5475093115612 0 0 0 0 171.92633841380302 66.045961356173621 0 66.045961356173621 -62.59738426454669 0 0 0 0 -226.93480998499581 -173.00122792309003 0 -173.00122792309003 9.0324555094712196 0 0 0 0 288.94313590976526 -56.292879790526058 0 -56.292879790526058 1.7132431519439137 0 0 0 0 1.4229449451080427 0.40992658668248794 0 0.40992658668248794 -0.18052519352489771 0 0 0 0 427.89597980688268 162.52058528426755 0 162.52058528426755 -1147.8118213905716 0 0 0 0 -2.6587919743469683 -387.28246921649452 0 -387.28246921649452 731.91926469259488 0 0 0 0 -94.045852702392949 134.5947429461977 0 134.5947429461977 -341.49582364287232 0 0 0 0 326.98926481583476 50.540955720219131 0 50.540955720219131 -366.88297855718713 0 0 0 0 56.576406630672864 34.563920539781407 0 34.563920539781407 160.18384647087146 0 0 0 0 237.0259560834711 115.72576899186387 0 115.72576899186387 46.109650437396112 0 0 0 0 672.23797885209206 285.51077067323541 0 285.51077067323541 -201.62392799428142 0 0 0 0 643.79381222178927 207.43289098457217 0 207.43289098457217 -1.9629527903157395 0 0 0 0 584.98161058468395 208.00445118968321 0 208.00445118968321 -47.651556685203019 0 0 0 0 334.46648870890931 -0.68214323064756854 0 -0.68214323064756854 -210.50995407860023 0 0 0 0 432.34262722788117 288.52149856831795 0 288.52149856831795 -26.925058092467793 0 0 0 0 716.35778274115728 457.12760081963171 0 457.12760081963171 50.04489422634029 0 0 0 0 665.02228670902787 552.18579529956594 0 552.18579529956594 102.11757253507449 0 0 0 0 605.44835613841133 495.20794035310632 0 495.20794035310632 66.871079937962463 0 0 0 0 582.58737621337423 516.76200709891896 0 516.76200709891896 48.468670022366496 0 0 0 0 374.86442151119991 445.1513279537885 0 445.1513279537885 23.924372906302779 0 0 0 0 403.46527306395728 371.08923428671528 0 371.08923428671528 105.79403386706781 0 0 0 0 502.18283536955641 643.88183383392311 0 643.88183383392311 261.79031175024284 0 0 0 0 207.66220837944275 409.47211571778462 0 409.47211571778462 457.44740448632365 0 0 0 0 173.13278606496169 122.41125985306371 0 122.41125985306371 -35.944553086816995 0 0 0 0 1446.2621495616913 1091.5752265685614 0 1091.5752265685614 580.44622877181791 0 0 0 0 1365.9492594462499 602.96258445680178 0 602.96258445680178 239.71257992930987 0 0 0 0 2296.0163013720303 371.36920083614405 0 371.36920083614405 284.35247180295528 0 0 0 0 481.90930909310555 550.91910073253075 0 550.91910073253075 201.01265677283709 0 0 0 0 640.01799765441683 880.66891226410871 0 880.66891226410871 583.86139594162614 0 0 0 0 643.93253162094334 473.25996926761991 0 473.25996926761991 37.899686824935543 0 0 0 0 1380.5306506094566 540.51703810876461 0 540.51703810876461 92.258401724862779 0 0 0 0 1061.6485288727854 620.88436853853864 0 620.88436853853864 74.29251319636478 0 0 0 0 1414.9575798171063 214.77248441721304 0 214.77248441721304 -154.20158377727148 0 0 0 0 1113.4797004880675 377.38191763305394 0 377.38191763305394 -174.96115705844159 0 0 0 0 985.32391071900201 251.93112838922207 0 251.93112838922207 -150.84505667924259 0 0 0 0 736.59281998236838 277.1686157622247 0 277.1686157622247 -447.06903089800335 0 0 0 0 663.98305501425057 278.93840833212221 0 278.93840833212221 -192.67568531126744 0 0 0 0 463.60213514782663 612.91247086576323 0 612.91247086576323 -18.870123346516912 0 0 0 0 808.23795474026701 649.52544013790498 0 649.52544013790498 -20.026954680915878 0 0 0 0 611.85109509833273 504.62520564591665 0 504.62520564591665 -248.93689841042044 0 0 0 0 628.94697674641793 248.03919004165175 0 248.03919004165175 103.94885989024399 0 0 0 0 999.41544157374301 203.11831668723639 0 203.11831668723639 -452.77762678773172 0 0 0 0 479.59356753668271 178.89214683483308 0 178.89214683483308 -335.54949437339212 0 0 0 0 451.54034734611923 594.49783933647814 0 594.49783933647814 -525.72987756868156 0 0 0 0 14.498105007369759 0.31925287682145154 0 0.31925287682145154 -4.7705015461237901 0 0 0 0 -270.72712339376449 345.96611677689913 0 345.96611677689913 -337.64209919967561 0 0 0 0 14.244559663976645 8.7732305393780905 0 8.7732305393780905 -3.5681370031923674 0 0 0 0 942.15520084784657 80.217111600362443 0 80.217111600362443 -465.59574718731147 0 0 0 0 400.01324603543617 366.13307811668892 0 366.13307811668892 -67.77882059206334 0 0 0 0 930.5920799884143 164.6867606433164 0 164.6867606433164 -320.4304920643736 0 0 0 0 1124.7963549909036 116.33576376510564 0 116.33576376510564 -462.64969986793085 0 0 0 0 1114.3757832923729 75.247645153968506 0 75.247645153968506 -314.02742829644694 0 0 0 0 904.45257920463337 100.64541820667216 0 100.64541820667216 -235.24149191617448 0 0 0 0 1104.523878598513 96.462636115820715 0 96.462636115820715 -351.20011414212968 0 0 0 0 1078.8380751806581 49.871120940210375 0 49.871120940210375 -244.90469495459843 0 0 0 0 1169.7953716229022 -89.090065324535999 0 -89.090065324535999 -188.53103097045005 0 0 0 0 1055.2309899167085 18.589299157201765 0 18.589299157201765 -264.15240182966909 0 0 0 0 1232.3626622206939 50.385916111174993 0 50.385916111174993 -338.73989354379478 0 0 0 0 1167.848377734761 51.153532801617075 0 51.153532801617075 -179.81802436337694 0 0 0 0 1217.738177261941 125.31883647859968 0 125.31883647859968 -325.49001934263629 0 0 0 0 975.90571703407841 130.34511672314761 0 130.34511672314761 -308.34510491692345 0 0 0 0 511.91341831415775 60.237149937626327 0 60.237149937626327 -21.476401736713342 0 0 0 0 621.41254647049936 -29.244951272779019 0 -29.244951272779019 -124.77441359760428 0 0 0 0 830.55892749343184 -33.008172200492027 0 -33.008172200492027 -132.10011261715499 0 0 0 0 902.41413678637036 -121.60089416252129 0 -121.60089416252129 -128.52529183997831 0 0 0 0 1006.0325442629255 -93.4423235109507 0 -93.4423235109507 -129.14529286336673 0 0 0 0 449.19255955948756 -21.029048998650524 0 -21.029048998650524 -26.289619982244403 0 0 0 0 518.4128440453278 -160.34303265075255 0 -160.34303265075255 0.41403509074825706 0 0 0 0 564.59783401900495 -103.15157972625911 0 -103.15157972625911 71.989519848620148 0 0 0 0 417.84735486206046 -268.59437405404583 0 -268.59437405404583 74.410595898987594 0 0 0 0 770.45534521527588 -184.45227329944555 0 -184.45227329944555 -22.897827311828678 0 0 0 0 730.26821166293666 -268.99244336851143 0 -268.99244336851143 139.67759529878822 0 0 0 0 773.63705607946758 -196.14604599385905 0 -196.14604599385905 12.869492707122845 0 0 0 0 1022.3238946845377 -190.30069968238331 0 -190.30069968238331 -4.0206747950123827 0 0 0 0 1003.4214953998599 -121.14861233596423 0 -121.14861233596423 54.040901192280216 0 0 0 0 940.25250838730426 -178.59996820324068 0 -178.59996820324068 269.76111818571553 0 0 0 0 528.96007667173399 -290.18046263442102 0 -290.18046263442102 181.97901110179009 0 0 0 0 949.3295714893593 -185.48111727449179 0 -185.48111727449179 97.519764021173614 0 0 0 0 548.89365090921638 -129.92155767907661 0 -129.92155767907661 -0.10953750712542387 0 0 0 0 23.757434030319928 -167.11212551146392 0 -167.11212551146392 180.97467412580409 0 0 0 0 1.5321384054699081 1.4049018539651854 0 1.4049018539651854 3.1317898606003869 0 0 0 0 1796.3811070909869 63.600795215420476 0 63.600795215420476 72.179669502883826 0 0 0 0 1282.4470042499888 190.0140095924703 0 190.0140095924703 41.137041841330301 0 0 0 0 1491.1232954131119 53.317195237250871 0 53.317195237250871 -180.36514988138788 0 0 0 0 1213.3219890588662 -33.058636502258196 0 -33.058636502258196 -145.86489084099048 0 0 0 0 1125.348439498368 -206.56279783750915 0 -206.56279783750915 -48.528077317282623 0 0 0 0 1232.1816922752478 -16.840763510481338 0 -16.840763510481338 179.61287581475017 0 0 0 0 1340.7114422924751 -184.73379334306037 0 -184.73379334306037 34.540181000353186 0 0 0 0 1656.4150188478234 -160.75173843921311 0 -160.75173843921311 212.65481633534091 0 0 0 0 1328.658639239351 -195.54486225676828 0 -195.54486225676828 46.910932129397224 0 0 0 0 1303.1013119160198 -162.47390829914366 0 -162.47390829914366 150.09647627942832 0 0 0 0 1328.5764134371711 74.217408364674156 0 74.217408364674156 586.05980418109539 0 0 0 0 1689.1045536502206 -52.746333113476794 0 -52.746333113476794 959.05760171713064 0 0 0 0 1615.7813846521485 311.04828503233864 0 311.04828503233864 477.22848796495236 0 0 0 0 2411.9390294386176 1050.5588306702289 0 1050.5588306702289 1327.1563741491118 0 0 0 0 1958.9045682079595 688.18055946710592 0 688.18055946710592 826.12092518227973 0 0 0 0 1779.6360284726106 211.69684299187838 0 211.69684299187838 685.04370662153997 0 0 0 0 1756.7770564175007 297.74025336242812 0 297.74025336242812 426.91017036922312 0 0 0 0 1474.8812561291015 122.75259341947935 0 122.75259341947935 214.24331982628064 0 0 0 0 1669.2765126992308 439.50557038673833 0 439.50557038673833 465.69371532699915 0 0 0 0 1448.190034819534 171.51598102918365 0 171.51598102918365 552.74089039268438 0 0 0 0 1793.0024123631665 349.75612404144658 0 349.75612404144658 446.97564080729353 0 0 0 0 1725.1610922808468 479.25178785217759 0 479.25178785217759 524.79346870456538 0 0 0 0 1496.2160796111129 293.81750615825786 0 293.81750615825786 462.87072030238051 0 0 0 0 1714.3907740066352 400.56615320847777 0 400.56615320847777 376.20315744069467 0 0 0 0 1805.4378569561813 428.78967591585024 0 428.78967591585024 368.03210069634133 0 0 0 0 1573.1510744452389 372.83621539795786 0 372.83621539795786 427.44537827305612 0 0 0 0 2106.9394934703305 486.13431829579713 0 486.13431829579713 340.1896235909644 0 0 0 0 1797.6331364591606 388.89883828865641 0 388.89883828865641 320.00476262186385 0 0 0 0 2095.0930991832065 428.0623685795631 0 428.0623685795631 235.19391903007636 0 0 0 0 2373.7227773120103 365.55859749865704 0 365.55859749865704 199.28053206987715 0 0 0 0 2398.0303112353358 138.83941891082395 0 138.83941891082395 139.64125589087416 0 0 0 0 2419.2092162529607 150.88710063334338 0 150.88710063334338 137.25917457020114 0 0 0 0 2728.434339285463 143.11745812081995 0 143.11745812081995 112.26007287164248 0 0 0 0 2723.2212094209244 645.74413837533029 0 645.74413837533029 305.75847570402584 0 0 0 0 0.49982862439537712 -18.232829455191677 0 -18.232829455191677 62.161085285206354 0 0 0 0 83.144967991494923 116.43435393901473 0 116.43435393901473 68.230102731842408 0 0 0 0 0.26464735779995863 -2.4805461834512386 0 -2.4805461834512386 4.5253229683197596 0 0 0 0 327.76296797201212 -340.70386879340231 0 -340.70386879340231 199.87015678672105 0 0 0 0 996.22206117166206 -253.84247569141098 0 -253.84247569141098 -40.933259835569515 0 0 0 0 903.24737756684772 -122.24287904621269 0 -122.24287904621269 108.10352155647479 0 0 0 0 1182.8014262453071 24.095465054104352 0 24.095465054104352 358.65108620572391 0 0 0 0 1038.8393150868797 -239.77684897772269 0 -239.77684897772269 79.198450558160403 0 0 0 0 1303.0078805633821 117.1800631810529 0 117.1800631810529 167.21899833761563 0 0 0 0 1269.027362266148 124.10915036292499 0 124.10915036292499 375.17484098676141 0 0 0 0 1515.1467276737785 280.5886670301702 0 280.5886670301702 284.06643031460408 0 0 0 0 1412.3925316924287 315.42962249327684 0 315.42962249327684 393.60897234361983 0 0 0 0 1288.5015973311674 71.858800775725285 0 71.858800775725285 227.6393545872852 0 0 0 0 1576.3620351764839 361.4327951513169 0 361.4327951513169 328.06331381510972 0 0 0 0 1557.8353618983238 277.33000314476521 0 277.33000314476521 494.28890696721328 0 0 0 0 1529.0190403304296 417.95679038824346 0 417.95679038824346 519.80479289601863 0 0 0 0 1707.9664916929032 336.71854305602392 0 336.71854305602392 215.25036160958553 0 0 0 0 1535.825911729291 153.77159961177404 0 153.77159961177404 86.343396914751793 0 0 0 0 1309.5224203950784 62.462303602333122 0 62.462303602333122 130.45193419796124 0 0 0 0 -68.396561517482041 62.493409886481459 0 62.493409886481459 137.07666564774763 0 0 0 0 208.22457567944366 -166.00333773652983 0 -166.00333773652983 20.423484927931895 0 0 0 0 21.282417583453935 -57.319919965120789 0 -57.319919965120789 107.52603132318109 0 0 0 0 4.2789447219460897 0.10932948106855278 0 0.10932948106855278 -0.33748747823489822 0 0 0 0 18.378934294261853 -78.250423249489359 0 -78.250423249489359 102.19676621758481 0 0 0 0 1.2285556552440369 0.35666978576718122 0 0.35666978576718122 0.22801482983325272 0 0 0 0 747.38113437787251 587.96466217471607 0 587.96466217471607 143.81494221430512 0 0 0 0 -31.655065128215938 -239.31826526172335 0 -239.31826526172335 147.95070792501065 0 0 0 0 3.8408674304237138 150.11231470210839 0 150.11231470210839 209.07081588692381 0 0 0 0 1377.1672479895351 505.5256317510939 0 505.5256317510939 74.969402571503451 0 0 0 0 1521.4211474364129 357.65360416424392 0 357.65360416424392 -104.53109989476616 0 0 0 0 1667.7954798089049 357.47403569705602 0 357.47403569705602 -18.418412956994871 0 0 0 0 1544.7542648717208 195.37875932145653 0 195.37875932145653 218.64726963435533 0 0 0 0 1655.8929440891661 301.37830225543257 0 301.37830225543257 216.99677335214437 0 0 0 0 1663.7011635217677 350.40409914277029 0 350.40409914277029 245.65595189658052 0 0 0 0 1559.5060481257242 464.12679559268508 0 464.12679559268508 103.53334179162266 0 0 0 0 1646.5988804819426 419.14844204474502 0 419.14844204474502 71.042566366959363 0 0 0 0 1659.6540663195046 455.75997095376715 0 455.75997095376715 172.09751017847884 0 0 0 0 1616.714314660072 527.74515858075119 0 527.74515858075119 102.02979101457822 0 0 0 0 1533.3675462165647 497.97689964191557 0 497.97689964191557 242.3787031064312 0 0 0 0 1545.4634102283126 438.09966733625879 0 438.09966733625879 277.10360118440803 0 0 0 0 1517.2850636669464 507.54594197547158 0 507.54594197547158 240.9115875098812 0 0 0 0 1472.992744475443 606.37629946300058 0 606.37629946300058 27.721188826137222 0 0 0 0 747.07444553496316 -25.872356442829187 0 -25.872356442829187 2.2856082994658209 0 0 0 0 636.73093673214316 402.86649582874452 0 402.86649582874452 246.75059995366087 0 0 0 0 1126.3668728088887 210.73824817554487 0 210.73824817554487 -49.45097673881537 0 0 0 0 1523.0525817771413 580.10159260268028 0 580.10159260268028 156.21418813083255 0 0 0 0 1087.5787921461306 80.928280356059986 0 80.928280356059986 -80.455694604148448 0 0 0 0 446.9237633025914 105.63457124106662 0 105.63457124106662 213.62260375159167 0 0 0 0 368.71261080929253 -98.775565147185262 0 -98.775565147185262 34.97793048600397 0 0 0 0 2100.0187186071271 300.09096106066499 0 300.09096106066499 183.57789740303633 0 0 0 0 1954.9522719825036 301.87940053885723 0 301.87940053885723 274.13824524732263 0 0 0 0 2132.5374094333092 33.738350365061706 0 33.738350365061706 558.15816499751963 0 0 0 0 2011.4639615477063 272.77978317299858 0 272.77978317299858 337.76447060044302 0 0 0 0 2196.3285776863049 107.163714009861 0 107.163714009861 334.84458796345126 0 0 0 0 2359.1423105738941 104.99325991035948 0 104.99325991035948 145.6436654349709 0 0 0 0 2548.8126116609492 -131.68987459504388 0 -131.68987459504388 311.54475685661419 0 0 0 0 2167.2211540333319 287.85007625191179 0 287.85007625191179 223.98278680058502 0 0 0 0 2033.860746678838 299.41931522738741 0 299.41931522738741 236.89164536531098 0 0 0 0 1856.5567206203705 383.96549684940328 0 383.96549684940328 263.88476908158009 0 0 0 0 2047.7947030575488 405.01156318589074 0 405.01156318589074 249.6315405859059 0 0 0 0 1857.4011797829589 370.63981533330752 0 370.63981533330752 205.23830734951844 0 0 0 0 1661.2592600863136 333.11834971202734 0 333.11834971202734 304.57870443042702 0 0 0 0 1789.0520355839544 428.93667159120923 0 428.93667159120923 247.2651627554842 0 0 0 0 1722.070727197628 410.16051005525151 0 410.16051005525151 250.08712978968106 0 0 0 0 1711.2194988864067 370.31879152281908 0 370.31879152281908 104.35693928092587 0 0 0 0 1802.6800316142471 382.42403046546315 0 382.42403046546315 134.16526065780272 0 0 0 0 1757.0698655255255 444.94988306779305 0 444.94988306779305 173.62845305484916 0 0 0 0 1877.074572132231 361.73737179265299 0 361.73737179265299 190.77768755459329 0 0 0 0 1850.820147462975 419.76000968949302 0 419.76000968949302 177.42454749453736 0 0 0 0 1973.8729558548184 400.62746622911891 0 400.62746622911891 197.47642449790874 0 0 0 0 1813.3324711956666 417.55003793556898 0 417.55003793556898 232.46433871315458 0 0 0 0 1820.2419341742789 390.10202167795796 0 390.10202167795796 148.71487669552516 0 0 0 0 1830.0859277028358 413.44105594858593 0 413.44105594858593 136.03838180178263 0 0 0 0 1642.8927675995874 466.19181287578886 0 466.19181287578886 170.48775125328029 0 0 0 0 1743.647635924528 417.5393452205326 0 417.5393452205326 120.59470107380184 0 0 0 0 1719.5722021168331 427.57083042102931 0 427.57083042102931 189.92457713423573 0 0 0 0 1718.88158736938 382.86869400602359 0 382.86869400602359 143.470065788395 0 0 0 0 1771.0773749747023 325.03853420215455 0 325.03853420215455 197.12971318417476 0 0 0 0 1882.7952031245513 330.26164694023646 0 330.26164694023646 85.158380446409865 0 0 0 0 1851.9795278875208 181.915485268765 0 181.915485268765 -52.234929579622985 0 0 0 0 1745.5020365893288 232.68243506999079 0 232.68243506999079 23.466763940712553 0 0 0 0 1829.1725889363877 331.73671868337567 0 331.73671868337567 106.02993900315778 0 0 0 0 1901.553992694855 313.71611836000011 0 313.71611836000011 195.65554730937038 0 0 0 0 1963.2116991457442 368.40079448123652 0 368.40079448123652 115.56046913246973 0 0 0 0 2034.4446821794118 332.37860439777614 0 332.37860439777614 57.732103601785639 0 0 0 0 1975.1703075786372 45.374721999093026 0 45.374721999093026 -93.45993365511822 0 0 0 0 1785.5969031694742 26.064040680840208 0 26.064040680840208 -143.87553136405404 0 0 0 0 1788.7726377557265 172.97310933235349 0 172.97310933235349 -13.200161267553995 0 0 0 0 1744.6425813015521 -198.13575148311611 0 -198.13575148311611 -194.79732375067397 0 0 0 0 1746.5783529788023 87.175447303321562 0 87.175447303321562 -21.958270662580617 0 0 0 0 1265.6376108062541 -192.02666815132397 0 -192.02666815132397 -11.441206732986757 0 0 0 0 41.060055262858441 -5.9274555711267567 0 -5.9274555711267567 12.133640877804282 0 0 0 0 43.768358763296419 3.6681597791593958 0 3.6681597791593958 -6.7997601038987341 0 0 0 0 11.310617970058274 4.7936683976805057 0 4.7936683976805057 8.5106595732205292 0 0 0 0 1107.7590158139647 -161.51797878753587 0 -161.51797878753587 216.33655724938217 0 0 0 0 2191.3625981255318 373.80068212320839 0 373.80068212320839 211.17597883793314 0 0 0 0 2093.7352692931308 -965.43542719888922 0 -965.43542719888922 92.427867807436996 0 0 0 0 2253.3186793741261 277.77302618551948 0 277.77302618551948 158.75550525337712 0 0 0 0 5.7124940298146782 5.7931731454359578 0 5.7931731454359578 6.0529245046405507 0 0 0 0 2892.6046540328098 396.74970547941484 0 396.74970547941484 -69.946850771751997 0 0 0 0 12.351495221082587 -12.233919759581113 0 -12.233919759581113 0.17900159537111904 0 0 0 0 51.712166714860217 11.770028326318412 0 11.770028326318412 -7.0137648280225733 0 0 0 0 38.051837766855897 -13.746557249574835 0 -13.746557249574835 -27.496950672538333 0 0 0 0 34.487253786584915 5.5700583113634821 0 5.5700583113634821 8.4593321989996184 0 0 0 0 46.529242865315609 1.4525104897229539 0 1.4525104897229539 9.2648063573178661 0 0 0 0 13.612672335682404 0.97813439144745473 0 0.97813439144745473 -0.31237438307525167 0 0 0 0 36.975437262371997 -7.6150614875678002 0 -7.6150614875678002 11.437039862466918 0 0 0 0 82.579070564970607 35.012752569748045 0 35.012752569748045 10.132591345955007 0 0 0 0 64.215475685072306 -21.319426757027031 0 -21.319426757027031 0.26638097070645017 0 0 0 0 91.611899829018512 -11.285173352696802 0 -11.285173352696802 3.4187764672060439 0 0 0 0 72.282101352198652 1.8254121966792525 0 1.8254121966792525 11.718138844102214 0 0 0 0 101.59169310280413 8.2393774652227876 0 8.2393774652227876 -3.2263527823840832 0 0 0 0 131.77144266806863 -13.662083472374434 0 -13.662083472374434 -4.1469750634532829 0 0 0 0 -0.25707331373909881 -0.52048289216730836 0 -0.52048289216730836 0.3920370933020223 0 0 0 0 175.73475167351717 51.069845284828261 0 51.069845284828261 -7.1185500784458782 0 0 0 0 -5.3484529249071784 52.310666429623325 0 52.310666429623325 -4.0641319481255778 0 0 0 0 23.003872141987813 88.711032325754786 0 88.711032325754786 60.719907764725576 0 0 0 0 197.61646508367267 2.7694944903159922 0 2.7694944903159922 -36.504857747757342 0 0 0 0 74.810379362118567 2.7040633777859604 0 2.7040633777859604 -9.1972815865881703 0 0 0 0 197.35791623394471 -41.19375831490288 0 -41.19375831490288 -397.19597107420759 0 0 0 0 46.539233748811967 113.57826401343846 0 113.57826401343846 5.629250618034348 0 0 0 0 232.10892659075034 62.947821971362828 0 62.947821971362828 47.388324766347978 0 0 0 0 165.29222916018625 605.17356530761845 0 605.17356530761845 917.86278716879769 0 0 0 0 4396.0994887300913 676.80140757557729 0 676.80140757557729 112.33489265775279 0 0 0 0 -280.89409332280047 -28.955496065768671 0 -28.955496065768671 205.99029303321186 0 0 0 0 2.8145583902302285 2.4734764753446399 0 2.4734764753446399 12.451575614577806 0 0 0 0 -79.415841722669938 221.26257524588334 0 221.26257524588334 77.320526559557038 0 0 0 0 7.9345006753187164 13.537471768398206 0 13.537471768398206 34.021745457188487 0 0 0 0 201.55828063897206 95.270643505890803 0 95.270643505890803 -206.5732015257754 0 0 0 0 
</DataArray>
<DataArray type="Float64" Name="cross_section_updated" format="ascii">
1 1 0.011151527099877837 1 1 1 1 1 1 1 1 0.010245761046015898 1 1 1 1 1 1 1 1 1 1 1 0.0096578885772028306 1 1 1 0.01109577733248375 1 0.012228347232105211 1 1 1 1 1 1 1 0.01169350341565456 1 1 0.010616683283427193 1 1 1 1 1 1 1 1 1 1 1 1 1 1 1 1 1 1 1 0.015233537816583376 0.0099064932910898698 1 0.013293936812669091 1 1 1 1 1 1 1 1 1 1 1 1 1 1 1 1 1 1 1 1 1 1 0.0099031836363695849 1 0.016379007756749372 1 1 1 1 1 1 1 1 1 1 1 1 1 1 1 1 1 1 1 1 0.010404432612234421 0.01080489185593787 1 1 1 1 1 1 1 1 1 1 1 1 1 1 1 1 1 1 1 1 1 0.0086264181465692692 0.017724952937695486 1 0.011247255084924135 1 1 0.010105191206776432 1 1 1 1 1 0.0089648432821456681 1 0.010539113878718434 1 1 1 0.012207222613919079 1 0.016561103836809067 1 1 1 1 1 1 0.0099511445167205174 1 1 0.0096414566830349113 0.010086452778746494 1 1 0.0099962264946177742 1 1 1 1 0.01372247149209388 0.009814705624663347 1 1 1 0.0099474200264033259 1 1 1 0.0104626166060902 1 1 1 1 1 1 0.010138415121607632 1 1 1 0.013711800249108272 0.013421264776260225 1 1 0.011718982349575045 1 1 1 1 1 1 1 0.010081610924440123 1 1 1 1 1 0.010828651958905557 1 1 1 1 0.013860161145090151 1 1 0.0099115149419963279 1 1 0.0098352415086347886 1 1 1 1 1 1 1 1 1 0.016870410109974893 1 0.010266751781865962 1 1 1 0.011138966675982936 0.010479034397216397 1 0.0105870990165867 1 1 1 0.012122993097765867 1 1 1 1 0.010987333659262438 1 1 1 1 1 1 1 0.010162829602320135 1 1 1 1 1 1 1 0.013737168143803477 1 1 1 0.011471726072033225 0.017544235766387528 1 1 1 1 1 1 0.01157223215977698 1 1 1 1 1 0.010826966175164023 0.010612859339989544 0.010000489865186674 0.013476928600155189 1 1 1 1 1 1 0.010006755246346651 1 1 0.010243734991573029 1 1 0.0099858656811420941 0.012856282651076516 1 0.014033279051858354 1 1 1 0.010517480078072019 1 1 1 1 1 0.011371749717238509 1 1 0.012787822267063428 1 0.018222761581316856 1 1 1 0.027997083531535169 1 1 1 1 1 1 0.030531341086529246 1 1 1 1 1 1 1 1 1 1 1 1 1 1 1 1 0.010110429921109219 1 1 1 1 0.010100362465341649 1 1 1 1 1 1 1 1 1 1 1 1 1 1 1 1 1 1 1 1 1 1 1 1 1 1 1 1 1 1 1 1 1 1 1 1 1 1 0.0096196894670391477 1 0.0122019638745193 1 1 0.0094461596317500264 1 1 0.010087698183948182 1 1 0.017378046617224981 0.010955045022757341 1 1 1 1 0.012643999080638285 1 1 0.0085773681239204019 1 0.015389085840798554 1 1 0.018182957321960697 1 1 1 0.0099785724954467286 1 1 1 0.013521730324384706 1 1 1 1 1 1 1 1 1 1 0.0080830181075617936 1 1 1 1 1 0.009313363433988182 1 1 1 1 1 1 1 1 1 1 1 1 1 1 1 1 1 1 1 1 1 1 1 1 1 1 1 1 1 1 1 1 1 1 1 1 1 1 1 1 1 1 1 1 0.011604084965518364 1 1 1 1 1 1 1 1 1 1 1 1 1 1 1 1 1 0.014311388512558594 1 1 1 0.010571718677763291 1 1 1 1 1 0.010568004483133515 1 1 1 0.0212003837155431 1 1 1 1 1 1 1 1 0.02557947247387779 1 1 1 1 1 1 0.02672238725152061 1 1 1 0.027686157277749673 1 1 1 1 0.010747702988179456 1 1 1 0.011261202460496014 1 1 1 1 1 1 1 1 1 1 1 1 1 1 1 1 1 1 1 1 1 1 1 1 1 1 1 1 1 1 1 1 1 1 1 1 1 1 1 1 1 1 1 1 1 1 1 1 1 1 1 1 1 1 1 1 1 1 1 1 1 1 1 1 1 1 0.017998941176936796 1 0.017599178181672448 1 1 1 1 1 0.013222438077252728 1 1 1 1 1 1 1 1 1 1 1 1 1 0.01077276481041119 1 1 1 1 1 1 0.008806568659966792 1 1 0.013873922843425517 1 1 1 0.0093846994942211638 1 1 1 1 1 1 1 0.009759272265478295 1 0.0093601152345678552 1 1 1 1 1 1 1 1 1 1 1 1 1 1 1 1 1 0.010228831649737379 1 1 1 1 1 1 1 1 1 1 1 1 1 1 1 0.015140921335988725 1 1 0.0099748855476017185 1 1 1 1 1 1 1 1 1 1 0.013258156549770295 1 0.011235521662279946 1 1 1 1 1 0.0089122385036316289 1 1 1 1 1 1 0.009754543873739932 1 1 1 1 1 1 1 1 1 1 0.013617658511545437 1 1 1 1 1 1 1 1 1 1 1 1 0.010234036175280833 1 1 1 1 1 1 1 1 1 1 1 1 1 1 0.011505435029867929 1 1 1 1 1 1 0.011042821042781568 1 1 1 1 1 1 1 1 1 1 1 0.0099719734147363723 1 0.0097341773263162137 1 0.011953751019973076 1 1 1 1 1 1 1 1 1 1 1 0.013907489095864032 1 1 0.0099556231331258058 1 1 1 1 1 1 1 0.0086104709643515902 1 0.012343093881685887 1 0.0089467375334414071 1 1 0.014768671934392094 1 1 1 1 1 1 0.013289565555860118 1 1 1 1 1 1 1 1 1 1 1 1 1 1 1 1 1 1 1 1 0.0097340882386242923 1 1 1 0.010113372617273471 1 1 1 1 1 1 1 1 1 1 1 1 1 1 1 1 1 1 1 1 1 1 1 0.0076101535717214026 0.010477887845104327 1 1 1 1 1 1 1 1 1 0.011163551978922352 1 1 1 1 1 1 1 1 1 1 0.012843858087874594 1 0.0099587163358966259 1 0.0102497315763572 0.010892330731168867 1 1 1 1 0.0069432465116524645 0.012955389627121231 1 1 1 1 1 1 1 0.0099919861232460744 1 1 1 1 1 0.010013806890870024 1 1 0.010134066196193238 1 1 0.011445628941354442 0.011013192572576033 1 0.0099946351056802163 1 1 1 1 1 1 1 1 0.01207756267664393 1 1 1 1 0.011029213186267778 0.0088823151813522006 1 1 0.01122736131979658 0.013629583776801985 1 1 1 0.0092795739210618997 1 1 1 1 0.0097399669569679381 1 1 1 1 1 1 1 1 1 1 1 1 1 1 1 1 1 1 1 1 1 1 1 1 1 1 1 1 1 1 1 1 1 1 1 0.011374179645552268 1 1 1 1 1 1 1 1 1 1 1 1 1 1 1 1 1 1 1 1 1 1 1 1 1 1 1 1 1 1 1 1 1 1 1 1 1 1 1 1 1 1 1 1 1 1 1 1 1 1 1 1 1 1 1 1 1 1 1 1 1 1 1 1 1 1 1 0.011411688356988293 1 1 1 1 1 1 1 1 1 1 1 1 1 1 1 1 1 1 1 1 1 1 1 1 0.020684771136741904 1 1 1 1 1 1 1 1 1 0.0212304083286112 1 1 1 1 0.01548351735796805 1 1 1 1 1 1 1 1 1 1 1 1 1 1 1 1 1 1 1 1 1 1 1 1 1 1 1 1 1 1 1 1 1 1 1 1 1 0.024164623907329701 1 1 1 1 1 1 0.024417211357549623 1 0.010100213739370954 1 0.022126505511660954 1 1 1 1 1 0.010711579885271598 1 0.01557799869118642 1 0.014410085741950587 1 1 1 1 0.01579680366219912 0.0099988368879448293 1 0.014926990888216064 1 1 1 1 0.01536821559991779 1 1 1 1 1 0.0096969892476317446 0.009885874298664301 1 1 1 1 1 1 1 1 1 1 1 1 1 1 1 1 1 1 1 1 1 1 1 1 1 1 1 1 1 1 1 1 1 1 1 1 1 0.020998520018014995 1 0.01114264708990648 1 1 1 1 0.017745110329991362 1 1 1 1 1 1 1 1 1 1 1 1 1 1 1 1 1 1 1 1 1 1 1 1 1 1 1 1 1 1 1 1 1 1 1 1 1 1 1 1 1 1 1 1 1 1 1 1 1 1 1 1 1 1 1 1 1 1 1 1 1 1 1 1 1 1 1 1 1 1 0.010779970652206835 1 1 1 1 0.011552735462618039 1 1 1 1 1 1 1 1 1 1 1 0.010025347390036927 1 1 0.0099832046973099674 1 1 0.0098003219500492969 1 0.012330771719025153 1 1 1 1 1 1 1 0.01252860122639668 1 1 1 1 1 1 1 1 1 1 1 1 1 1 0.0096371293506125784 1 1 1 1 1 1 1 1 1 1 1 0.009161318580101524 1 1 1 1 1 1 1 1 1 0.0096806944692400115 1 1 1 1 1 1 1 1 1 1 1 1 1 1 1 1 1 1 1 1 1 1 1 1 1 1 1 1 1 1 1 1 1 0.010335059176485775 1 1 1 1 1 1 1 0.011684210478996031 1 1 0.010831401559991984 1 0.012997031387527095 1 1 1 0.011728791132791119 1 1 1 1 1 1 0.0098982455486418958 0.010016581535326686 1 1 0.008962628536060141 0.013196834754626807 1 1 1 1 1 1 1 1 1 1 1 1 1 1 1 1 1 1 1 1 1 1 1 1 1 1 0.010535176594541638 1 1 0.013196154091763137 1 1 1 1 0.010177974325583953 1 1 1 1 0.013235112165459069 1 1 1 1 1 1 1 1 1 1 0.010406531958036772 1 1 1 1 1 0.014160543965958339 0.011601248332907427 1 1 0.017485008585285615 1 1 0.0064316998197923823 1 1 1 1 0.010993249396879661 0.0077766118166752857 1 1 0.0095675823479603253 1 1 1 1 1 1 1 1 1 0.0086889858470242647 1 1 1 1 1 1 0.016742061701602001 1 1 0.020600158846185025 0.0063971793064960883 1 1 1 1 0.017369691103081474 1 1 1 1 1 1 1 1 1 1 1 1 1 1 1 1 1 1 1 1 1 1 1 1 1 0.010225524501395251 1 0.015642197212043553 1 1 0.012013160374160156 1 1 1 1 1 1 1 1 1 1 1 1 1 1 1 1 0.017548325857522095 1 0.019912085760481958 1 0.013791907770264037 1 1 1 1 1 1 1 1 1 1 1 1 1 0.012548234392479622 0.022639889090030896 1 1 1 1 1 1 1 1 1 1 1 1 1 1 1 1 1 1 1 1 1 1 1 1 1 1 1 1 1 1 1 1 1 1 1 1 1 0.01044210786613424 1 0.022013800784670832 1 1 1 0.010081765196734323 1 1 1 1 1 1 1 1 1 1 1 1 0.0092576187466073684 1 1 1 1 1 1 1 1 1 1 0.0099437609031331649 1 1 1 0.01002193351787008 1 1 1 1 1 0.010659688576512224 1 0.0073094039410385048 1 1 1 1 1 0.011997702518108055 1 1 1 1 1 1 1 1 1 1 1 1 1 1 1 1 1 1 1 1 1 1 1 1 1 1 1 1 1 1 1 1 0.0090786737162249966 1 1 0.0072065467925299317 1 1 1 1 1 1 1 1 1 1 1 1 0.010749010153821095 1 1 1 1 1 1 1 1 1 1 1 1 0.010506576049239612 1 1 1 1 1 1 1 0.012262022793045601 1 1 1 0.011513950804129333 1 1 1 0.010000688560516384 1 1 0.02200933460969343 1 1 1 1 1 1 1 1 1 1 1 1 1 1 1 1 1 0.016135930090975765 1 0.014697502547042607 0.011628225931393938 1 1 1 1 1 1 0.025527669392421876 1 0.025500175697356887 1 1 1 1 1 1 1 1 1 0.010114946361354547 1 1 1 1 1 0.010264901896074128 1 1 1 1 1 1 0.020061740683894273 1 1 1 1 1 1 1 1 1 0.016955292184334374 1 1 1 1 1 0.010082383309912367 1 1 1 1 1 1 1 1 0.010070011827719034 1 1 1 1 0.010017516239003514 1 1 1 1 0.010649297251716424 1 0.010039078072243569 1 1 0.0112347520157959 1 1 1 1 1 1 1 1 1 1 1 0.010384395355642298 1 1 1 1 1 1 1 1 1 1 1 1 1 1 1 1 1 1 1 1 1 0.01586206249585681 1 0.014293381203892778 1 1 1 1 0.011455634507632803 1 1 1 1 1 1 1 0.010440812119757158 1 1 0.01238727600260835 0.010040827407960003 1 1 1 1 1 1 1 0.0068110605790678899 1 0.016566205027018898 1 1 1 1 1 1 1 0.0074009478695265104 1 1 1 1 1 0.010497271759507289 1 1 1 1 1 1 1 1 1 1 1 1 1 1 1 1 1 1 1 1 0.023702633907777687 1 1 0.024996649433259924 1 1 1 1 1 1 1 1 1 1 1 1 1 1 1 1 1 1 1 1 1 1 1 1 1 0.011847498971481463 1 1 1 0.010070761007304814 1 1 1 1 1 1 0.011387919203890994 1 0.011012299490395337 0.013689105774131414 1 1 1 1 1 0.010370327748774468 1 1 1 1 1 1 1 1 1 1 1 1 1 1 0.01892954766955712 1 1 0.021564920624902048 1 1 1 1 1 1 1 1 1 1 1 1 1 1 1 1 1 1 1 1 1 1 1 1 0.021853235272069033 1 1 1 1 1 1 1 1 1 1 0.023668582987048672 0.017364818078069749 0.017209877708122698 1 1 1 1 1 1 1 1 1 1 1 1 1 1 1 1 1 1 1 1 1 1 0.022817359616191413 1 1 1 1 1 1 1 1 1 1 1 1 1 1 1 1 1 0.022627461016921271 1 1 1 0.010712234311316555 1 1 1 1 1 1 0.021650105706735367 1 1 1 1 1 0.011121705695322 1 1 1 1 1 1 0.011409485239831497 1 1 1 1 1 0.010630288505250718 1 1 1 1 1 1 0.011756882802215892 1 1 1 1 0.014095562601963018 1 1 1 1 1 1 1 1 0.012615211758329184 1 1 0.010931982337914896 1 1 0.0070747413703330549 1 1 1 0.0079495366056523738 1 1 1 1 1 1 1 1 1 0.011268718876523023 1 1 1 1 0.010478621154794383 1 1 1 1 1 1 0.022351110167041797 1 1 1 0.019939525375107403 1 1 1 1 1 1 1 1 1 1 1 1 1 1 0.0082273087701301723 1 0.0091885168498677047 1 0.0099887276629205546 1 0.010780218696872986 1 1 1 1 1 1 1 1 1 1 0.017123346420894914 1 1 1 1 0.019161333398594677 1 1 1 0.020636266486392604 1 1 1 1 1 0.010424454766807071 1 1 1 1 1 1 1 1 1 1 1 1 1 1 1 1 1 1 1 1 1 1 1 1 1 1 1 1 1 1 1 1 1 1 1 1 1 1 1 1 1 1 1 1 1 1 0.033242130897639055 1 1 0.032472995318442929 1 1 1 1 1 1 1 1 1 1 1 1 1 1 1 1 1 1 0.033191749424721452 1 0.032932632945911269 1 0.022706392700827863 1 1 1 1 1 1 0.021694903041414842 1 1 1 1 1 1 1 1 0.01011384997473073 1 1 0.028801308094552641 0.0097215939280246612 1 1 1 1 1 1 1 1 1 1 1 1 1 1 1 1 1 1 1 1 1 1 1 1 1 1 1 1 1 1 0.010036599104876337 1 1 0.011328051921379777 1 1 1 1 1 1 1 1 1 1 1 1 1 1 1 1 1 1 1 1 1 1 1 1 1 1 1 1 1 1 1 1 1 1 1 1 1 1 1 1 1 1 1 1 1 1 1 0.01017183659519811 0.014014279401152525 1 1 1 1 1 1 1 1 0.010074719913373081 1 1 1 0.012585094067245929 1 1 1 1 1 1 1 1 1 1 1 1 1 1 1 1 1 1 1 0.010835491020363554 1 1 1 1 1 1 1 1 1 1 1 1 1 1 1 1 1 1 1 1 1 1 1 1 1 1 1 1 1 1 1 1 1 1 1 1 1 1 1 1 1 1 1 1 1 1 1 0.013679932175726876 0.0095571792231127425 1 1 1 1 1 1 0.0093835322516402815 1 1 1 1 1 1 1 1 1 1 1 1 1 1 1 1 1 1 1 1 1 1 1 1 1 1 1 1 1 1 1 1 1 1 0.011371529053140442 1 1 0.013046551146133074 1 0.009992546155792861 1 1 1 1 1 1 1 1 1 1 1 1 1 1 1 0.010207052663537886 0.0099744029347122818 1 1 1 1 1 1 1 0.010946646206434027 0.011326537706717307 1 1 0.0097618391256664369 1 1 0.010276498439775454 1 0.010001643114431427 1 0.011797476322840839 1 1 1 1 1 1 1 1 1 1 0.010016889280778636 1 1 1 1 0.011697156834531455 0.01020454604337559 1 1 1 1 1 1 0.010745978922530673 1 1 1 1 1 1 1 1 1 0.0088651976349939654 1 1 1 0.026717087170488728 1 1 1 0.024259213957311267 1 1 1 1 1 0.021634421625448867 1 1 1 1 1 1 1 1 1 1 1 1 1 1 1 0.010666168357182967 1 1 1 1 1 1 1 1 1 1 1 1 1 1 1 1 1 1 0.0095994991217255403 0.016472053409955494 1 1 1 1 1 1 1 1 1 1 1 1 1 1 1 1 1 0.010173536502108053 1 1 1 1 1 1 1 1 1 1 1 1 1 1 1 1 0.014231708785951702 1 1 0.010515843859304458 1 1 0.011104399474480109 0.01448617974545173 1 1 0.010314847759781108 1 1 1 1 1 1 1 1 0.015521689752778296 1 1 1 0.01202720695546329 1 1 1 0.009964193611853342 1 1 1 1 0.01216936818464652 1 1 1 0.010935483367738023 0.01207902176464281 0.0091172786242434758 1 0.0092147433414071552 1 0.014125436567201562 1 0.011232237101190028 0.012092862824267463 1 1 1 0.008960392473426523 1 1 1 1 1 1 1 0.0096683393221165138 0.010033764718053074 1 1 1 1 0.010631292608942584 1 1 1 1 1 1 1 1 1 1 1 1 1 1 1 0.0098005376343053164 1 1 1 1 1 1 1 0.01305423789358303 1 1 1 1 1 1 1 1 1 1 1 1 1 1 1 1 0.011882210261972288 1 1 1 1 1 1 1 1 1 1 1 1 1 1 1 1 1 1 1 1 1 1 1 1 1 1 1 1 1 1 1 1 1 1 1 1 1 1 1 1 1 1 1 1 1 1 1 1 1 1 1 1 1 1 1 1 1 1 1 1 1 1 1 1 1 1 1 1 1 1 1 1 1 1 1 1 1 1 1 1 1 1 1 1 1 1 1 1 1 1 1 0.0093487428772346219 1 1 1 1 1 1 0.010032748672019191 1 1 1 1 1 0.0098407798654320394 1 1 1 0.012250910308216977 1 1 0.01004357297411522 0.011493504812911087 1 1 1 1 0.011427410222878472 0.011104360752992461 1 1 1 1 1 0.011791423048793076 1 1 1 1 1 1 0.011649150063373651 0.011680081605729337 0.0095214840684638199 0.010833527418745922 1 1 0.011512628697265159 1 0.010011346957870398 1 1 1 1 0.012589493662278385 1 1 1 1 1 1 1 1 1 1 1 1 1 1 1 1 1 1 1 1 1 1 1 1 1 1 1 1 1 1 0.010245659104371637 1 1 1 1 1 1 1 1 0.011895847723084607 1 0.010677546025946174 1 1 1 1 1 1 1 1 1 1 1 1 1 1 1 1 1 1 1 1 1 1 1 1 1 1 0.011572882155688724 1 1 1 1 1 1 1 1 1 1 1 1 0.013138697932649759 1 0.010499768086288087 1 1 1 1 1 1 1 1 1 1 1 1 1 1 0.011054916227545503 1 1 1 1 1 1 1 0.010310544899848501 1 1 1 1 1 1 1 1 1 1 1 1 1 1 1 1 1 1 1 1 1 1 1 1 1 1 1 1 1 1 0.014042932480612037 1 1 1 1 1 1 1 1 1 1 1 1 1 1 1 1 1 1 1 1 1 1 1 1 1 1 1 1 1 1 1 1 1 1 1 1 0.012653423278046172 0.010167776055175624 1 1 0.010000098870723702 1 1 1 1 1 1 1 1 1 1 1 1 1 1 1 1 1 1 0.010475694355419479 1 1 1 1 1 1 1 1 1 1 1 1 1 1 0.010633067755534797 1 0.010260095622560278 1 1 1 0.010088400543708347 1 1 0.010626374441035251 1 0.011718491365793393 1 0.010003468241823008 1 1 0.0099657843035262789 1 1 1 1 1 1 0.011266428386807942 0.010279742731785536 1 1 1 1 1 1 1 1 1 1 1 0.011032543872459596 1 1 1 1 1 1 1 0.010715253849326254 1 1 1 1 0.010441125592516972 1 1 1 1 0.010247556197864896 1 1 1 1 1 1 1 0.012878591925310632 1 1 1 1 0.011492116767249289 1 1 1 1 1 1 1 1 1 1 0.012508000202455625 1 1 1 0.010902197828622694 1 1 0.012002464117889472 1 0.010016207897688282 1 1 1 1 1 1 1 1 1 1 1 1 1 1 1 1 1 1 1 1 1 1 1 1 1 1 1 1 1 1 1 1 1 1 1 1 0.010723279016086086 1 1 1 1 0.011123436817598052 1 1 1 1 1 1 1 0.011239052757977198 1 0.010076155998062289 1 1 1 1 1 1 1 1 0.010119436890737413 1 1 1 1 1 1 1 1 1 1 1 0.014858965092358616 0.0139719586394811 1 1 1 1 0.012718008335499097 1 1 1 1 1 1 0.020125633988554412 1 1 0.019979745320104457 1 1 0.019724783131738019 1 1 1 1 0.010215963916136876 1 1 1 1 0.011001569894820935 1 1 1 1 1 1 1 1 0.010088390466590793 1 1 1 1 1 0.027685225170971647 0.010304354382727657 1 1 0.027723463265733016 1 1 1 1 0.027250949993914426 1 1 1 1 1 1 1 1 1 1 1 1 1 1 1 0.025455652509401395 0.026566970916595014 1 0.023870627624244321 1 1 0.026825427493856486 1 0.011712433217541458 1 1 1 0.018288272701454701 0.0099567005191134109 0.021692001649167937 1 1 1 1 0.020231542989376419 1 0.016898527544892163 0.011208972702924163 1 1 1 1 0.01039227590067133 1 1 1 1 1 0.017183634246071722 1 1 0.019473791963519615 1 1 1 1 1 1 1 1 1 1 1 1 1 1 1 1 1 1 1 1 1 1 1 1 1 1 1 1 1 1 1 1 1 1 1 1 1 1 1 1 1 1 1 1 1 1 1 1 1 1 1 1 1 1 0.01020882843177366 1 1 1 1 1 1 1 1 1 1 1 1 1 0.01059236398410323 1 0.011367706801269806 1 1 1 1 1 0.012968756669650805 0.0099400694908962708 0.014088979588490966 0.011065952826679055 1 1 1 1 1 1 1 1 1 1 1 1 1 1 1 1 1 1 1 1 0.010624426758171532 1 1 1 0.0084685625906400844 1 1 0.010605009337381541 1 1 1 1 1 1 1 1 1 1 1 1 1 1 1 1 1 1 1 1 1 1 1 1 1 1 1 1 0.014325131639534618 1 1 1 1 0.0097801683838284175 0.0094071664579558484 1 1 1 1 1 1 0.014028849656192548 0.012883395626637033 0.0098205173523410027 1 1 1 1 1 0.0099814539213098144 1 1 1 1 1 1 1 1 1 1 1 0.0099764755769938263 1 0.010244966624224187 1 1 1 1 1 1 1 1 1 1 1 0.0099672724772207223 1 1 1 1 1 1 1 1 1 1 1 0.010359277169168311 1 1 0.010625641806247574 1 1 1 1 1 1 1 1 0.010128074669134332 0.010518698956785706 1 1 1 0.010408270959032712 1 1 1 1 1 0.010582989003548711 1 0.0099318010177558563 1 0.010811829270263008 1 1 1 1 1 1 1 1 0.013242612079941131 1 1 1 1 1 0.011898654497871065 1 1 1 1 1 1 1 1 1 1 1 1 1 1 1 1 1 0.010601007230366 1 1 1 1 1 1 1 1 1 1 1 1 1 1 1 1 1 1 1 1 1 1 1 1 1 1 1 1 1 1 1 1 1 1 1 1 1 1 1 1 0.010127095546902776 1 1 0.015200011630463563 1 1 1 1 1 1 1 1 1 1 1 0.019410332915787813 1 1 1 0.010075914040248104 1 0.010856985428985572 1 1 1 1 1 0.017382319054946332 1 0.0098693186592692037 1 1 1 1 1 0.013857455966887346 1 1 0.0093966205239531982 1 1 1 0.010486448488067505 1 1 1 0.018140164501335883 0.014512711255510097 1 1 1 1 0.014307249840617625 0.013789079015882142 1 1 1 0.01270431754814412 1 1 0.014407856728806411 1 1 1 1 1 1 1 1 1 1 1 1 1 1 1 0.020448247699117954 1 1 1 0.013819926283201396 1 0.0068148828482963719 1 1 0.0069906195183718975 0.0099945149025764818 1 0.014722018602637525 1 0.015918157022175278 1 1 1 1 1 1 1 1 1 1 1 1 1 1 1 1 1 1 1 1 1 1 0.0085420276132338671 1 0.0088914015976194263 1 1 1 0.010265226316478989 1 1 1 1 1 1 1 1 1 1 1 1 1 1 1 1 1 1 1 1 1 1 1 1 1 1 1 1 1 1 1 1 1 0.01024034725325746 1 1 1 1 1 1 1 0.0095827256726509092 1 1 1 1 1 1 1 1 1 1 1 1 1 1 1 1 1 1 1 1 1 1 1 1 1 1 1 0.0099888163685317027 1 0.010168083986925328 1 1 1 1 1 1 1 0.01959758252034044 1 1 1 1 1 0.011679007766680989 0.010084264801426454 1 1 1 1 1 1 1 1 0.010572080588614403 1 0.011312796372795905 1 0.012232420626323837 1 1 1 1 1 1 1 1 1 1 1 1 0.012631473060658644 1 1 1 1 1 1 1 1 1 1 1 1 1 1 1 1 1 1 1 1 1 1 1 1 1 1 1 0.010535268762668859 1 0.010058822852710425 1 0.011786822070722942 1 1 1 1 0.014009469066372102 1 1 0.012581134187722963 1 1 1 1 1 1 1 1 1 1 1 0.010878785600307753 1 1 0.0098364844709145655 1 1 0.015687612632069789 1 1 0.013796062036818685 1 1 1 1 1 1 0.01363534209638149 0.010872551146034307 1 1 0.010904538163719937 0.0093817307728477559 1 1 1 0.011376484706750546 0.012084975754958998 1 1 0.015064222148495121 0.012445829544864111 1 0.0094257180884800302 0.010431888936910896 0.0062688360898905393 1 1 1 1 1 1 1 1 1 0.0068727689799937732 1 1 1 0.010045715018967583 1 1 1 1 1 1 1 1 1 1 1 1 1 1 1 1 1 1 1 1 1 1 1 1 1 1 1 1 1 1 1 1 1 1 1 1 1 1 1 1 0.010019843045484103 1 1 1 1 0.010780808965867968 1 1 1 0.010614243695261087 1 1 1 1 1 1 1 1 1 1 0.010169722678461873 1 1 0.010954667315263228 1 1 0.0097187410943588605 0.0095082669207937898 1 1 0.0099218390915349255 1 0.010139833094322509 1 1 1 1 1 1 1 1 1 1 1 0.0099625376436297784 1 1 1 1 1 1 0.011116143320008699 1 0.0092092706332094001 0.010438384598671285 1 0.0098110826330984786 1 0.010951137068403003 1 0.013485602552313123 0.010605238862283768 1 0.01593144962076859 1 1 1 1 1 0.01484113641541095 1 0.012180554813609761 1 1 1 1 0.011426917609025972 0.010831692131242427 1 1 1 1 0.011367700632830923 0.0099999661136632775 1 0.012472625873400462 1 1 1 1 0.010783550843262582 1 1 1 0.011647366202885692 1 0.01302496727022485 0.011464196311991191 1 1 1 0.012610877872191485 1 1 1 1 0.010720263809791101 1 1 1 1 0.01118112184892622 0.010008745780474507 1 0.0097127774567882293 1 0.011654956013963351 0.013680084616664492 1 1 1 1 1 1 1 1 0.010660242897896631 1 1 1 1 0.0094736644174867393 0.010757804063416032 1 1 0.012508295169561749 1 1 0.012982931900377014 0.0099924417935846228 1 1 1 1 1 1 0.0095948893864875769 1 1 0.016138150283419955 0.0093087302675547694 1 1 0.0099988188548870011 1 1 0.011585908973105062 1 1 0.018446849234308942 1 1 0.012728679585033584 0.0099990019144276139 1 1 1 0.011810288280631319 1 0.010690309523057525 1 0.012410367929277142 0.013862036974781651 0.0076364235395783749 1 1 0.021738144322548253 1 1 1 0.0080424859697367616 1 0.010012631418958712 1 0.010749929711552792 1 1 1 1 1 1 1 1 1 1 1 1 0.011095470509187352 1 0.010391555649187128 0.010580878009824117 1 1 1 1 1 1 1 1 1 1 1 0.011024290349937103 0.011850135048089409 1 1 1 1 1 1 1 0.011244118786818051 1 1 1 1 1 1 0.013771640093437516 1 1 1 1 1 1 1 0.0094907436177546177 1 1 1 1 1 1 1 1 1 1 1 0.010289330677971846 1 1 1 0.021270295921399739 1 1 0.020540872015035141 1 1 1 1 1 0.019635112775509739 1 1 1 1 1 1 1 1 1 1 1 1 1 1 0.018416293767517009 1 1 1 0.020282348183640227 1 1 1 0.011332195596606011 0.0097370795824814459 1 1 1 1 1 1 1 1 1 1 1 1 1 1 1 1 1 1 1 1 1 1 0.010772774464348127 1 1 1 1 1 0.0098558032072872774 1 1 1 1 1 0.010210327635699262 1 1 1 1 1 0.01123001195953534 1 1 1 1 1 0.0098397959813073116 0.016892643095383356 1 1 1 1 1 0.010199212906460607 1 1 0.011742389214876237 1 1 1 1 1 1 1 0.010023315260544455 1 1 1 1 1 0.010451298870950219 1 1 1 1 1 1 1 1 1 1 1 1 1 1 0.014240712193146954 1 0.010385843024736755 1 1 1 1 1 1 1 0.011563265050219405 1 1 0.01160553774045245 1 1 1 1 1 0.010949539770310317 1 1 1 1 1 1 1 1 1 0.012676088154825103 0.012090381134875703 1 1 1 0.014399227776892088 1 0.0092944092209331485 1 1 1 1 1 1 0.010620547129252473 1 1 1 1 1 0.0099186267557200714 1 1 0.011562894156902136 1 1 1 1 0.010180854199803101 1 1 0.0094595473292764277 1 0.010449226869027623 1 1 0.010559793269079312 1 1 0.010409415103015233 1 1 0.010668347593632728 1 1 1 1 1 0.010160746739616606 1 1 1 1 1 0.011068238733185241 1 1 1 1 1 1 1 1 1 1 1 1 1 1 0.0081074784656667495 1 1 1 1 0.0095709799098108467 1 1 1 1 1 0.010592733762451265 1 1 0.011615580108693391 1 1 1 1 0.010457004913018217 1 1 1 1 1 1 1 1 1 1 1 1 1 0.0093650038254437414 1 1 1 1 1 1 1 0.0089947574902779527 0.016580523941574454 1 0.016163169899573806 1 1 1 1 1 1 0.011889095893394125 1 1 1 1 1 0.012568845422952966 1 0.010475372867829447 1 0.012478882419637505 1 1 0.014786322834901973 1 1 1 1 1 1 1 1 1 0.010969573348425382 0.012052137823847897 1 1 1 1 1 1 1 1 0.011398434274861487 1 1 1 1 1 1 1 1 1 1 1 1 1 1 0.010737721886925922 1 1 0.011449991672054034 1 1 1 1 1 1 1 1 1 1 1 0.0097797101769709609 1 1 1 1 1 1 1 1 1 1 0.010123581981040766 1 1 0.0057544573965721737 0.010303113800043739 1 1 1 1 0.010922129871774246 1 1 1 1 1 1 1 1 1 1 1 1 1 1 1 1 1 1 1 1 1 1 1 1 1 1 1 1 1 0.010554146925939326 1 1 0.010493207315564844 1 0.010226300107829139 0.0095645319667195319 1 1 0.010265268298618511 1 1 0.010476527001042728 0.0095348241745363792 1 1 1 1 1 0.014995469729281421 1 1 0.0065358340561285453 1 1 1 1 1 1 1 1 1 0.007707513979852065 1 1 0.013650900462688506 1 1 1 1 1 1 1 1 0.0099847647383330233 1 1 1 1 1 1 1 0.0091547697680072933 1 1 1 1 1 1 1 1 1 0.011179501424538572 1 1 1 1 1 1 0.011505618291859136 1 1 1 1 1 1 0.011657863099128828 1 1 1 1 1 0.012784856828538381 0.01274315080861229 1 0.0099817737240166533 0.0094372639967073742 1 1 1 1 1 1 1 1 1 0.0111867549386385 1 1 1 1 0.013673924357754254 1 1 1 0.010429027738319734 1 1 1 1 1 1 1 0.016199061331658805 1 1 1 1 1 1 1 1 1 1 1 0.011246468272213084 1 1 1 1 1 1 1 1 1 1 1 1 1 1 1 1 1 0.010481488570503412 1 1 1 1 1 1 1 1 1 1 1 1 1 1 1 1 1 1 1 0.025025572067368853 1 1 1 1 0.023428139915955652 1 1 1 1 1 1 0.01070578319202866 1 1 0.01227712761430302 0.026611078235856844 1 1 1 1 1 0.010496108291472864 1 1 1 1 1 1 1 1 0.017969538682673137 1 1 1 1 1 1 1 1 1 1 1 1 1 1 1 1 0.02108100882449028 1 0.010448785122899578 1 1 0.019437380398019725 1 0.010944893414372433 1 1 0.018630028077957231 1 1 1 1 1 1 1 1 1 1 0.010048347676787413 1 1 1 1 1 1 1 1 1 1 1 1 1 1 1 1 1 1 1 1 1 0.01613095793046811 1 1 0.012314817019681465 1 1 1 1 0.014748310202314055 0.011246557061375631 1 1 0.015851401850966805 1 1 1 1 1 0.01079053430848426 0.010099081685346786 1 1 0.010078832514394816 1 1 1 1 0.018947338093251682 1 1 1 1 1 1 1 1 1 1 1 1 1 1 1 1 1 0.011099336014722551 1 1 0.010629324428616058 1 1 1 0.013207480734690014 1 0.0099346912265006367 1 1 1 1 0.011273618436921335 1 1 0.013573851602878027 1 1 1 1 0.012151349249260696 1 0.013184822180705089 1 1 1 1 1 1 1 1 1 1 1 1 1 1 1 1 1 1 1 1 1 1 1 1 1 1 1 1 1 1 1 1 1 1 1 1 1 1 1 1 1 1 1 1 1 1 1 1 1 1 1 1 1 1 1 1 1 1 1 1 1 1 1 1 1 1 1 1 1 1 1 1 1 1 1 1 1 1 1 1 1 1 1 1 1 0.010678294722805149 1 1 1 1 1 1 0.015766610713271741 1 0.0099341553009220374 1 1 0.011289284104456652 1 1 1 1 1 1 1 1 1 1 1 1 1 1 0.0096848488605131774 0.023957667550954329 1 1 0.010397322115573591 1 1 1 1 1 1 1 1 0.010992004464976623 1 1 0.0099740500394380639 1 1 1 1 1 0.010504113481177552 0.0099007199412275392 1 0.01808657684318455 1 1 1 1 1 1 1 1 1 1 1 1 1 1 1 0.013511127798530798 1 1 1 1 0.020325446499697759 1 0.021267371329166035 1 1 0.022549507765060851 1 1 1 1 1 1 1 1 0.012594149699253255 1 1 1 0.013648436537369661 1 1 1 1 1 1 0.014484634694814338 1 1 1 1 1 1 0.0096098037639848199 1 1 0.01004597701392918 1 1 0.015191283752851805 1 1 0.011567235236885305 1 1 1 1 1 1 1 1 0.011807726039560601 1 1 1 1 1 1 1 1 1 1 1 1 1 1 1 1 1 0.019536243228689645 1 1 1 0.0184249420983922 1 1 0.0099458406187257105 1 1 1 1 0.010490706705327913 1 0.0099575031903885499 1 1 1 1 1 1 1 1 1 1 0.010605482393049079 1 1 1 1 1 1 1 1 1 0.01209926921110702 1 1 1 0.011327356869208265 1 0.012419560662977766 1 0.0083764966361493439 1 1 1 0.016802767595573011 1 1 1 1 1 1 0.012859632449073868 1 0.012709338059928656 1 1 0.011416410773933523 1 1 1 1 1 1 1 1 0.012515791915429255 1 1 1 1 1 1 1 1 1 0.012344329015463101 1 1 1 1 1 1 1 1 1 1 0.012130315115571902 1 1 1 0.01182535888203029 1 1 1 1 1 1 1 1 1 1 1 1 1 1 1 1 1 1 1 1 0.008305023652143171 1 1 1 1 1 0.010577855404298822 1 1 1 1 1 0.0089437198838780742 1 1 1 1 1 1 1 1 0.0096887060326506531 1 1 1 1 1 1 1 1 1 1 1 1 1 1 0.0085232116138968562 1 1 1 1 1 0.0094586757018694772 1 1 1 0.010076368074316645 1 0.010127007826820553 1 1 1 1 1 1 1 1 1 0.010406888621094604 1 1 1 0.010907812287294342 1 1 0.010449814827365223 1 1 1 1 1 1 1 1 1 1 1 1 1 1 1 1 1 0.010008805058531901 1 0.010059278514316771 1 1 1 1 1 1 0.011017987427001458 1 1 1 1 1 1 1 1 1 1 1 0.010233959730474602 1 0.010682480656475517 0.0098650438176884382 1 1 1 1 1 1 1 1 1 1 1 1 1 1 1 1 1 0.010078795393951876 0.010131005104860633 1 1 1 0.0099911667456109785 1 1 0.0099558337297195598 1 1 1 1 1 0.010026259750346822 1 1 1 0.009855059774527785 1 1 1 1 0.010862139112561701 1 1 1 0.01015390213026963 1 1 1 1 1 1 1 1 1 1 1 0.01018354904026976 1 1 1 1 1 1 0.010419523504651753 1 1 1 1 1 0.010176448441406598 0.0096876822369358507 1 0.011222686139590061 1 1 1 1 0.01000397738363392 0.0093268441385801499 1 1 1 1 1 1 1 1 1 1 1 1 1 1 1 0.011272977685097458 0.010318969743771004 1 1 1 1 1 1 1 1 0.01199891450970135 1 1 1 1 1 1 1 1 1 1 1 1 1 1 1 1 1 1 1 1 0.010345318049256867 1 1 1 1 1 1 0.010123377208848773 1 1 1 1 1 1 1 1 1 1 1 1 0.012227233426815238 1 1 1 1 1 0.012466023386929037 1 1 1 0.0073250437116283125 1 1 1 0.017164357637827816 1 1 1 1 1 0.010886546945101798 1 1 1 0.010054018104250665 1 1 1 1 1 1 1 1 1 1 1 1 1 1 1 1 1 1 1 1 1 1 1 1 1 1 1 0.0094662886716206079 1 1 1 1 1 1 0.0081197773828669793 1 1 1 0.0079470959942150483 1 1 1 1 1 1 1 1 1 1 1 1 1 1 1 1 1 1 1 1 1 1 1 1 1 1 0.010278432335392216 1 1 1 1 1 1 1 1 1 0.010215862733296123 1 1 1 1 0.01015505512654344 1 1 1 1 1 1 1 1 1 1 1 1 1 0.010611042650261381 1 1 1 1 1 1 0.010315686681191941 1 1 0.010944470636281799 1 1 0.011842079304534708 1 0.013763599262863382 0.0080465844400395871 1 0.0092349361835205365 0.015351117379956808 1 1 0.0085468903463625442 0.016400622724484306 1 1 1 0.019543388876042404 1 0.020548012615655906 1 1 1 1 0.019980538180095063 1 1 1 1 1 1 0.020455392729188913 1 0.019831820552502304 1 1 1 1 1 1 1 1 1 1 1 1 1 1 0.0099832019058449638 1 1 1 1 1 1 1 0.0097816257803305003 1 1 1 1 1 1 1 0.010791994009599709 1 0.010690852314551911 1 1 1 0.0075527296192210523 1 1 1 1 0.021195139199432368 1 1 0.0086940646565955466 1 1 1 1 0.015620054506745836 0.010003865800584877 0.019772162790289115 1 1 0.020992346743726596 1 1 0.019954074675764447 1 1 1 0.020875042704910161 1 1 1 0.010325654314089805 1 1 0.010805532804568179 1 1 1 1 1 1 1 1 1 1 1 1 1 1 1 1 0.010868056986923997 1 1 1 1 1 1 1 1 1 1 1 1 1 1 1 1 1 0.010388178496445617 1 1 1 1 1 1 1 1 1 1 1 1 1 1 1 1 1 1 1 0.0097884689669123885 1 1 1 1 1 1 1 1 1 1 1 1 1 1 1 0.010608208503138896 1 1 1 1 1 1 1 1 1 1 0.0099601499375756297 1 0.010271948710410227 0.010831693683193686 1 1 0.011814352746268544 1 0.010001383577205512 1 1 0.01026275721717307 0.011703505180021098 1 1 1 1 1 1 1 1 0.010666305745615416 1 1 1 1 1 1 1 0.0095225324942903519 1 0.012529557351547579 1 0.0099723998764132335 1 1 1 1 1 1 1 1 1 1 1 1 0.0096077142278931677 1 1 1 1 1 1 1 1 1 1 1 1 1 1 1 1 0.011625438940178381 1 1 1 1 1 0.010515310237692407 0.011777466480996687 1 1 1 1 1 1 0.0099843162490137142 1 1 0.010169416984018732 1 1 0.010513022964838099 1 0.0096533894831194421 1 1 1 1 1 1 1 1 1 0.0091565268290731937 0.010572002841304665 1 1 1 1 0.010167459664486775 1 0.0088765550602720317 1 1 1 1 1 1 1 1 1 1 1 1 1 1 1 1 1 0.012144555134524816 1 0.0092384740476508641 1 1 1 1 1 1 1 1 1 1 0.010190249213251186 1 0.0112641188192727 1 1 1 1 1 1 1 1 1 1 1 1 1 1 1 0.010452810320202257 1 1 1 1 1 1 1 1 1 1 1 1 1 1 1 1 1 1 1 1 1 1 1 1 1 1 1 1 1 1 1 1 1 0.014193503690717896 1 1 0.015360884812658085 1 1 1 1 1 1 0.016383328553455923 1 1 1 1 1 1 1 1 1 1 1 1 1 1 0.019599814524034941 1 1 1 1 0.011736134446540189 1 1 1 1 1 1 1 1 1 1 1 1 1 1 1 1 1 1 1 1 1 1 1 1 1 1 1 1 1 1 1 1 1 1 1 1 0.014775652480453486 1 1 1 1 1 1 1 0.016387597963155757 1 1 1 0.018584825145567998 1 0.019592727166776597 1 1 1 1 1 1 1 1 1 0.017175997637288345 1 1 1 0.013053681614386345 0.022690806637341007 1 1 1 1 1 1 1 1 1 1 1 0.0097836146989147173 1 1 0.0099238694405933726 0.023595203341749561 1 1 1 1 1 1 1 1 0.019180888566212115 1 1 1 1 1 1 0.0099041884964036452 1 1 1 1 0.019427659830920506 1 1 0.018551243991396273 1 1 0.016415185149519833 1 1 1 1 1 1 1 1 1 1 0.012290390824314597 1 1 0.012981517822249194 1 1 0.012501808024769055 0.0083891908258934 0.0098993443603311079 0.0099986318487824376 1 1 1 0.015117344714424882 1 0.0095327697323381415 1 1 1 1 1 1 1 1 1 1 1 0.0081090095229664864 1 1 0.010654038717855772 1 1 1 1 0.012399365918682135 1 1 1 1 1 1 1 1 1 1 1 1 1 1 1 0.012089538479504294 1 1 0.012474515367668441 1 0.014724548263567575 0.011709576701596435 1 1 1 1 1 1 1 0.0099567228258461843 1 0.013240712452264904 1 0.014477992560572184 1 1 1 1 1 1 1 1 1 1 1 1 1 1 1 1 0.016575231065237318 1 1 1 1 0.0085598386086911723 1 1 0.013294028713192699 0.008919249562603343 1 0.010891176548068022 1 1 1 1 1 0.011656954988179357 1 0.011669480829489775 1 1 1 1 1 1 1 1 0.012936946060964098 1 0.010021309102566192 0.010138077831341293 1 1 1 1 1 1 1 1 1 0.010997186280022433 1 1 1 1 1 1 1 1 1 1 1 1 1 0.010116682813634856 0.010693059190707854 1 1 1 0.017182167586301787 0.010320608126224269 1 1 1 0.012661104201806359 1 0.0093238965838118928 1 1 1 1 0.010007302268280073 1 1 1 1 1 1 1 1 1 1 1 0.014807351925434073 1 1 1 1 1 1 1 1 1 1 1 1 1 1 0.0099503675782481385 1 1 1 0.011960724327205323 1 0.0106024478925497 1 1 1 1 1 0.010033716610617987 1 0.017430491799394952 1 0.011586264965155737 1 1 1 1 0.011490658420294467 0.010561912197770223 1 1 1 1 0.0084669765527209812 0.010010255404580727 1 1 0.011364771380493015 1 0.010691429316983312 1 1 1 0.0045022051576060988 1 1 1 1 1 1 1 1 1 0.010030252925241437 1 1 1 1 1 1 1 1 1 1 1 1 1 1 1 1 0.013445715933152327 0.011240340238275626 1 1 0.011524977642015806 1 1 1 1 1 1 1 1 1 0.011643232268113982 1 1 1 1 1 1 1 0.014655252125676237 1 1 1 1 1 1 1 1 1 1 1 1 1 1 1 0.009358628279301914 1 1 1 1 1 1 1 1 1 1 1 1 1 1 0.011272342295666196 1 1 0.0099451680980812279 1 1 1 1 1 1 1 1 1 1 1 0.00996158129381783 1 1 0.0067476988457405521 1 1 1 1 0.016702698570092173 1 1 1 1 0.015782180383444817 1 0.014397589106032577 1 0.013778845807861876 1 0.0098492666090019432 0.012124087401640619 0.0085846711116783266 1 1 0.014760728461161953 1 0.010027560578476459 1 0.0084796531710313594 1 1 1 1 1 1 0.014794078194761529 0.010021414528145716 1 1 0.010099231715573639 1 1 0.014964774921133284 0.011976528380199235 1 1 1 0.013342748873676508 1 0.015392926179354602 1 1 1 1 1 1 1 0.013856521963685711 1 0.014916214342853852 0.01013371569034156 0.012707589082188196 1 1 1 0.0099161993802793155 1 0.010870285785382499 1 1 1 1 1 1 1 1 1 1 1 1 1 1 1 1 1 1 1 1 1 1 1 1 1 1 1 0.01381475201378881 0.01451915537712423 0.010857599981222144 0.010108205525116029 1 0.013023509543206246 1 1 1 1 0.017173240475365541 0.0099983205024700133 1 1 0.012443832643713189 1 1 1 0.013384904022293361 1 1 1 0.010735951485795819 1 1 1 1 1 0.010021639032087411 1 1 1 1 1 1 1 0.010046686433625766 1 0.0099485673555717996 1 1 1 1 1 1 0.0099324679593075609 1 1 0.0097924849567480633 1 0.013263589444653296 1 1 1 0.01008484631825581 1 1 1 0.017930431565838349 1 1 1 0.010589631792895283 1 1 1 1 1 1 1 1 1 1 1 0.011130422364371192 1 1 1 1 1 1 1 1 1 1 0.016283443733440789 1 1 1 1 1 1 1 1 1 1 1 1 1 1 1 1 1 1 1 1 1 1 1 1 1 1 1 1 1 1 1 1 1 1 1 1 1 1 1 1 0.009971282710734844 1 1 1 1 1 1 1 1 1 1 1 0.010553775446005137 1 1 0.0083974257111168252 1 1 1 1 0.010004025554904561 0.016240184848250974 1 1 0.01201497548971725 1 1 1 1 1 1 1 1 1 1 1 1 1 1 1 1 1 1 1 1 1 1 1 1 1 1 1 1 1 1 1 1 1 1 1 1 1 1 1 1 1 1 1 0.010871750050013628 1 1 1 1 1 1 0.010725527333102112 1 1 1 1 1 0.0099718065616084591 1 0.01054206683427565 1 1 0.011487541923091172 1 1 0.011915364461056533 1 1 1 1 1 1 1 1 1 1 1 1 1 1 1 1 1 1 1 1 1 1 1 0.0090748055089625509 1 1 1 1 1 1 1 1 1 1 1 0.01251369668100509 1 1 0.0099323602947866563 0.0058543482121739317 1 1 1 0.0094247534530773683 1 1 1 1 1 0.013032253672360286 0.014836992782394323 1 1 1 1 1 1 1 1 1 0.019517630012908068 0.016131599016621721 1 0.020175800500610162 1 1 1 1 1 1 1 0.010317974604008488 1 1 1 0.020147455422390312 1 1 1 1 1 1 1 0.014498227868455685 1 1 1 1 0.009805226907300308 1 1 1 1 1 1 1 1 1 1 1 0.0095571921674350892 0.012857403580465991 1 1 1 1 1 1 1 1 1 0.010927497876628237 1 0.0099730042801179607 1 1 1 1 1 1 1 1 1 1 1 1 1 0.019172601323915704 1 1 1 1 1 1 1 1 1 1 1 1 1 1 1 0.01440763057212294 1 1 1 0.016298830234338299 1 1 1 1 1 1 1 1 1 1 1 1 1 1 1 1 1 1 1 1 1 1 1 1 0.011847898570586952 1 1 1 1 1 1 0.01000521674025116 1 1 1 1 0.013154275397324767 0.014072363004641991 0.010584168294415233 1 1 1 0.019839241726334729 1 1 1 1 1 1 1 1 1 1 1 1 1 1 1 1 1 1 1 1 0.010003551536312671 0.010034932131662108 1 0.014526407848510338 1 0.019303899100695764 1 0.0074146309591431314 0.017069178108548719 0.017725804677871361 1 1 1 1 1 1 1 1 1 1 1 1 1 1 1 1 1 1 1 1 1 1 1 1 1 1 1 1 1 1 1 1 1 1 1 1 1 1 1 1 1 1 1 1 1 1 1 1 1 1 1 1 1 1 1 1 1 0.012911342786419699 0.0098962636243624356 1 1 1 1 1 1 1 1 1 1 1 1 1 1 1 1 1 1 1 0.010178016324088247 1 1 1 1 0.0098741324635629596 1 0.015484961377101763 1 1 1 1 1 1 0.012848555359871226 1 1 1 1 1 0.012560866093212678 1 1 1 1 1 1 1 0.015919713064102257 1 1 1 0.022479371367921934 1 1 1 1 1 1 0.024572377820889887 1 1 1 0.0098468150922201899 0.016246676098827552 0.0095441179904363002 1 1 1 1 1 0.015344043051818733 1 1 1 1 1 1 1 1 1 1 1 1 1 1 1 1 1 1 1 1 1 1 1 1 1 1 1 1 1 1 1 0.010387426309574458 1 1 1 1 1 1 1 1 1 0.010778768450965853 1 1 1 1 1 1 1 1 1 1 0.011566236560748924 1 1 1 1 0.00767518547627467 1 1 1 1 1 1 0.0087189567793777515 0.013822187156049503 1 1 0.014756203793200442 1 1 1 1 1 0.011799340025167665 1 1 1 1 1 1 1 1 1 1 1 1 1 1 1 1 1 0.0087661856604883265 1 0.0095522523765690232 1 1 1 1 1 1 1 1 1 1 1 1 1 1 1 1 1 1 1 1 1 1 1 1 1 1 1 1 1 1 1 1 1 1 1 1 1 1 1 1 1 1 1 1 1 1 1 1 1 1 1 0.0099076757970770826 1 1 1 1 1 1 1 1 0.0099470913771120273 1 1 1 1 1 1 0.0099096044988293552 1 1 1 1 1 1 1 1 1 1 1 0.01003941558003494 1 1 1 1 1 1 1 1 1 1 1 1 1 1 1 1 0.011197844566371082 1 1 1 1 1 1 0.012354461084098295 1 1 1 1 1 1 1 1 1 1 1 1 1 1 1 1 1 1 1 1 1 1 1 0.011176344356754454 1 1 1 1 1 1 1 1 1 1 1 1 1 1 1 1 1 1 1 1 1 1 1 1 0.010972970475497015 1 0.01244595187613888 1 1 1 1 1 1 1 1 1 1 1 1 1 1 1 1 1 1 1 1 1 1 1 1 1 1 1 1 1 1 0.01271707416478678 1 1 1 1 1 1 1 1 1 1 0.015037087959416493 1 1 1 1 1 1 1 1 1 1 0.010601647237586709 1 0.013496358151384162 1 1 0.011758263755313896 1 1 1 1 1 1 1 1 1 1 1 1 1 1 1 1 1 1 1 1 1 1 0.01516087888686557 1 1 1 0.015968428603739863 1 1 1 0.012232832541321022 1 1 1 1 1 1 1 1 1 1 1 1 1 1 0.01122005830698216 1 1 0.011226801487338962 1 1 1 1 1 1 1 1 0.01551574764084445 1 1 1 1 0.012475365382649144 1 1 1 1 1 1 1 1 1 1 1 1 1 0.011076724869668222 1 1 1 1 1 0.01075797202123039 1 1 1 1 1 1 1 1 1 1 1 1 1 1 0.010143145323208983 1 1 1 1 1 1 0.010111950588597332 1 1 1 1 1 1 1 1 0.010084243871096358 1 1 1 1 1 0.0099603424147667527 1 1 1 1 1 1 0.010357217587711142 1 1 1 1 1 0.010899311556405443 1 1 1 1 1 1 1 1 1 1 1 0.01016710298871662 1 1 1 0.0097968236461603436 0.010424388373991369 0.0099847872411905417 1 1 1 1 0.010226162065993546 0.01085676406128621 1 1 1 1 1 1 1 1 1 1 1 1 1 1 1 1 1 1 1 1 1 0.010300965684430355 0.010264408060562967 1 0.010008210819501411 1 1 1 0.010588876737103251 1 1 1 1 1 1 1 1 0.012003596830169114 1 1 0.0087634042536373705 1 1 1 0.011411479673828141 1 0.010534281900699825 1 1 1 0.010078564349222949 1 1 0.010145135906458373 1 1 1 0.010317148721907058 1 1 0.0099979071870642724 1 1 1 1 0.011246607938425551 1 1 1 1 1 1 1 1 0.010060286932237861 1 1 1 0.010980253267189891 1 1 0.010147771655449458 1 1 1 1 1 1 0.0097499578502266114 1 1 0.010605244687245143 1 1 1 1 0.0088609766659286694 1 1 1 0.0098790672591005345 1 0.010312426690218646 1 1 0.010104212314553045 1 1 1 0.011043002697176561 0.0099454302276655235 1 1 1 1 1 1 1 1 1 1 0.011843510067260053 1 1 1 0.011165152631180349 1 0.010001128209180019 1 0.010057079452475588 1 1 1 1 1 1 1 1 0.012089296079212747 1 1 1 1 1 1 1 0.012724405485017347 1 1 1 1 1 1 0.011188460655036918 1 1 1 1 1 1 0.01049913866065522 1 1 1 1 1 0.011217533948659514 0.010978401312359914 1 1 1 1 1 1 1 1 1 1 1 1 1 0.011864962824948727 1 0.010685992791208972 1 1 1 1 1 1 1 1 1 1 0.010449765715084623 1 1 1 1 1 0.010916930038834621 1 1 1 1 1 1 1 1 1 1 1 1 0.010839399444586111 1 1 1 1 1 1 1 1 1 1 1 1 1 1 1 1 1 1 1 1 0.0096452136516019492 1 1 1 1 1 1 1 1 1 1 1 1 0.0099706356890289644 1 1 1 0.010716785635624726 0.010403068865300033 1 1 1 1 1 0.0098659751403856813 1 0.011335030952047929 1 1 1 1 1 1 1 1 1 1 1 1 1 1 1 0.010286164085609513 1 1 0.010413857724633657 1 1 1 1 1 1 1 1 0.011014953399751892 1 1 1 1 1 1 0.010463348130074735 1 1 1 0.010221032459143027 1 1 1 1 1 1 1 1 1 1 1 1 1 1 1 1 1 1 1 1 1 1 1 1 1 1 1 1 1 1 1 1 1 1 0.013908037305613762 1 0.013293368769712641 1 1 1 1 0.014727126533650541 1 1 1 1 1 1 0.014376041564425859 1 1 1 1 1 0.015152005934578966 1 1 1 1 0.014980883813953454 1 1 1 1 1 1 1 1 1 1 1 1 1 1 1 1 1 1 1 1 1 1 1 1 1 1 1 1 0.010054726476226031 1 0.010291979932155181 1 1 1 1 1 1 0.010243822703866583 1 1 1 1 1 1 0.010094988094920366 1 1 1 1 1 1 1 1 1 1 1 0.015281781379658216 1 1 1 1 1 1 1 0.015259796541308976 1 1 1 1 1 1 0.010723543062149185 1 1 0.010001507459984765 0.016249661358076602 1 1 1 1 1 1 1 1 1 1 1 1 1 1 1 1 1 1 1 1 1 1 0.012400170865799143 1 1 1 0.0089424173900445256 1 0.0099716748943453996 0.015223432894705173 1 1 1 0.011054081236678989 1 1 0.012177230880114048 1 1 1 1 1 1 1 1 0.01524741659069944 1 1 1 1 1 1 1 1 1 1 1 1 1 1 1 1 1 1 1 0.011011478421113436 1 1 1 1 1 1 1 1 0.011642771931414629 1 1 1 1 1 0.012138400150586707 1 1 1 1 1 1 1 1 1 0.01100312996366385 1 1 1 1 1 0.010139155826563238 1 1 1 1 1 0.01013671553859961 1 1 1 1 1 1 1 1 1 1 1 1 1 1 1 0.010032733460869308 1 1 1 1 1 1 1 0.010084361370905593 1 0.0086524113852420072 1 1 1 1 1 1 1 1 1 1 1 0.010329107520526685 0.0095884805487627244 0.013060924590153766 1 1 1 0.0097081068239684952 1 1 1 1 1 1 1 1 1 1 1 0.010110496918892403 1 0.014938346424383428 1 1 1 0.014121123129527485 1 1 1 1 1 1 0.013253092891723601 1 1 1 1 1 1 1 1 0.0087040474160438516 1 1 0.0077182466853990342 1 1 1 1 0.013362231375899611 1 1 0.0099230083022434998 1 1 1 1 1 1 1 1 1 1 0.010477326084616736 1 1 0.010282712708963797 1 1 1 1 1 1 1 1 1 1 1 1 1 1 1 1 0.0090280981210086944 1 1 0.010210651867293266 1 1 1 0.0099060942660731954 1 1 0.011733660638276501 0.013827416345014547 1 1 1 1 1 1 1 1 1 1 1 1 1 1 1 1 1 1 1 0.010556271273763313 0.011326253606944874 1 1 1 1 1 1 1 1 1 1 1 0.01125029840848157 1 1 1 1 1 1 1 1 1 0.020421108987395808 1 0.0099644847960863037 1 1 1 1 1 1 1 1 1 1 1 1 1 1 1 1 1 1 1 1 1 1 1 0.014559697695024689 1 1 0.013360046471614151 1 1 1 1 1 1 1 1 1 0.013904494756369706 1 1 1 1 1 1 1 1 0.013168560831787156 1 1 1 1 1 1 1 1 0.01889949639843283 1 1 1 1 1 0.012991664880271522 1 1 1 1 1 1 1 1 1 1 1 1 1 1 1 1 1 1 1 1 1 1 1 1 1 1 1 0.0098422644839531379 1 1 1 1 1 1 0.024112959235909729 1 1 1 1 0.010524958713011984 1 1 1 0.026374142403025776 1 1 1 1 0.010957235830993374 1 0.012832624957399411 1 1 1 1 1 1 1 1 1 1 1 1 1 1 1 1 1 1 1 1 1 1 1 1 1 1 1 1 1 1 1 1 1 1 1 1 0.010515850201941351 1 0.010083387937106588 1 1 1 1 1 1 1 1 1 1 1 0.010080189159002301 1 1 1 1 1 1 1 1 1 0.0099883865833972855 1 0.0099915853615015673 1 1 1 1 1 1 0.011276565290523427 1 1 1 0.010641518107127032 1 1 1 1 1 1 1 1 1 1 1 1 0.010636483640447197 1 1 1 1 1 1 1 1 1 0.010323384126881219 0.010538905224218985 1 1 1 1 0.01031305000256999 1 1 1 1 1 1 1 1 1 0.010097528905232217 1 1 1 1 1 1 1 1 1 1 1 1 1 1 1 1 1 1 1 1 1 1 1 1 1 1 1 1 0.008963572511721864 1 1 1 1 1 1 1 0.013289164539545595 1 1 1 1 1 1 1 1 1 1 1 1 1 1 1 0.012190990332961074 1 1 1 0.010438527823002086 1 1 1 1 0.010756548240664202 1 1 1 0.011096201712887471 1 1 1 1 1 1 1 1 1 1 1 1 1 1 1 1 1 1 1 1 1 0.008444749845110875 1 0.0099213684555049739 1 1 1 1 1 1 0.0094388645366241183 0.00991933988700224 1 1 1 1 1 1 1 1 1 1 1 1 1 1 1 1 1 1 1 1 1 1 0.012340603041955431 1 1 1 0.013725638562828289 1 1 1 1 1 1 0.014505309039316946 1 1 1 1 1 1 1 1 1 1 1 1 1 1 1 1 1 1 0.013580267658690942 1 1 1 0.011329642512464481 1 1 1 1 1 1 1 1 1 1 1 1 1 1 1 1 1 1 1 0.01231879928523915 1 1 1 1 1 1 1 1 1 1 1 1 1 1 1 1 1 1 1 1 0.0086640810526726168 1 0.0097979737824910283 1 1 0.013918957209870797 1 1 1 0.0094443017545050266 1 0.010125221651217044 1 1 1 1 1 0.010722172974698626 1 0.010309183016995644 1 1 1 1 1 1 1 1 1 0.0096896363451407421 1 1 1 1 1 1 1 1 1 1 1 1 1 1 0.0098209405076744895 1 1 1 1 1 1 1 1 1 1 1 1 1 1 1 1 1 1 1 1 1 1 1 1 1 1 1 1 1 1 1 1 0.011658035375330795 1 1 1 1 1 1 1 1 1 1 0.009992510368603779 1 1 1 1 1 1 1 1 1 1 0.012365176226063031 1 1 1 0.011189161176435182 1 1 1 0.010646275270950769 1 1 1 1 1 0.011114682714325357 1 1 1 0.009992235513860203 1 1 1 1 1 1 1 1 1 1 1 1 1 1 0.010469637294815579 1 1 1 1 1 1 1 1 1 1 0.010112581041240749 1 1 1 1 1 1 0.0098102747942908665 1 1 1 1 1 0.010668600610132927 1 1 1 0.010242457736676747 0.010083349956851929 0.010328760891451991 0.012041589266618852 1 1 1 1 0.01139473709556219 0.011061278038608784 1 1 1 0.010764666294716081 1 1 1 0.0099442217787277833 1 0.01073344228561523 1 1 1 1 1 1 1 0.0098802998427934136 1 1 1 0.015222519992434652 0.01097729453181513 1 1 1 1 1 1 1 0.022660936253470557 1 1 1 1 0.0087855374186933399 1 1 1 1 0.013344116128911964 1 1 0.0070090683647425663 0.010044656651231531 0.01001958958711883 0.0086103814926307646 1 1 1 1 1 1 0.015693085247696619 1 1 1 1 1 1 1 0.023164329282459532 1 1 1 0.010171002084416125 1 1 1 1 0.01028473464982187 1 1 1 1 1 0.010924832247589628 1 1 1 0.022244491155346671 1 1 1 1 0.011901110262632899 1 0.014550977424257471 1 1 0.015422557430421629 1 1 1 1 1 0.0119615378058798 1 1 1 1 1 1 1 0.018578443256984767 1 1 0.018344736470640464 1 0.0098227209218255639 1 0.013379705004248892 1 1 1 0.0091061312216227722 1 1 1 1 0.0077102078073926182 1 1 1 0.0089002859729747294 1 0.0095501920337202218 1 1 1 1 1 1 1 1 1 1 0.01065767388988538 1 1 1 1 1 1 1 1 1 1 1 1 1 1 1 1 1 1 1 1 1 1 1 1 1 1 1 1 1 1 1 1 1 1 1 1 1 1 1 0.01320993247100017 1 1 1 1 1 0.014389170952697329 1 1 1 1 1 1 1 1 1 1 0.018772068197653612 1 1 0.0097804900027605064 1 1 1 0.01145973012423498 1 1 0.010000442827519527 0.014647953982374944 1 1 1 1 1 0.011506416343586841 0.0097778434671394829 1 1 1 1 1 0.011401500162698881 0.014879653823283892 1 1 1 1 0.0098010820984582477 0.013855826909317356 1 1 1 1 1 0.010527927617673526 1 0.010070949647327937 1 1 1 0.011292480656449874 1 0.014299903439290565 1 1 0.010437686394091704 1 1 1 0.016719382110494046 0.014455874208143435 1 1 1 1 1 1 0.013244294445415361 1 0.013054618406345421 1 0.013829482339540488 1 1 1 1 1 1 1 1 1 1 1 1 0.010892565514495516 1 1 1 1 1 1 0.012048685606199294 1 1 1 0.011256184779898825 0.017682447286547231 1 1 1 1 1 1 1 0.012991283672918416 0.009638282930119757 0.010028234473135066 1 1 1 1 1 0.011079319570708113 1 1 1 1 1 1 1 1 1 1 0.011713880427871382 1 1 1 1 1 1 1 1 1 1 1 1 1 1 1 1 1 1 1 1 1 1 1 1 1 1 0.0099961951535456756 1 1 1 1 1 1 1 1 0.0099970149624617304 0.011335268718539501 1 1 1 1 1 1 1 0.01019891534804643 1 1 1 1 1 0.012979201286815739 1 1 1 1 0.012401901193338963 1 1 1 1 1 1 1 1 1 1 1 1 1 1 1 1 1 1 1 1 1 1 1 1 0.011587575339234745 1 0.010039792721932637 1 1 1 1 1 1 1 1 1 0.01001176175939225 0.013112185472009128 1 1 1 1 1 1 1 1 1 1 1 1 1 1 1 1 1 1 1 1 1 1 1 0.011116958935444479 1 1 1 1 1 1 0.009946535444173751 1 1 1 1 1 1 1 1 1 0.017942588908981892 0.011908216911018846 1 1 1 0.014914628557105746 1 1 1 1 1 1 0.014180362963029805 1 1 0.0099357378311024473 1 1 1 1 1 0.010096758829615598 1 1 0.010007489956250492 1 1 1 1 0.012446510743464846 1 1 0.0099632465694254966 1 1 1 1 1 1 1 1 1 1 1 0.011020780701771028 1 1 1 0.010073499095758255 1 1 0.0099994238402664349 0.0099893937788573355 1 1 1 1 1 0.011295589162699184 1 0.012164094120394084 1 1 1 0.012485785316523492 1 1 1 1 1 1 0.010564380460291909 1 0.010212331731684543 1 1 0.011442838448156448 1 1 1 0.011717535607450629 1 1 1 1 0.010368416743539617 1 1 1 1 0.010907732381339068 1 1 1 1 1 0.010233056146575638 1 1 1 1 1 0.012455926194688046 0.010172118897793564 1 1 1 1 1 1 1 1 1 1 1 1 1 1 0.01006093724878207 1 1 1 1 1 1 1 1 1 1 1 1 1 0.010117938878272326 1 1 0.012538941343879643 1 1 1 0.010174442104552376 1 1 1 1 1 1 1 1 1 1 1 1 1 1 1 1 0.01009566683663456 0.012323802644889808 1 0.014908994667794925 1 1 1 1 1 0.010034975984410596 1 0.010017591147906587 1 1 0.012175308437795155 1 1 1 0.010002194529383886 1 1 1 1 1 1 1 1 1 1 1 1 1 1 0.010331238124565618 1 0.010987543288158824 1 1 1 1 1 1 1 1 1 1 0.014389543221503695 0.013502369912798604 1 1 1 1 1 0.013838042042415826 1 1 0.0092426934267053028 1 1 1 0.0098331144511984211 1 1 1 1 1 1 1 1 1 1 0.011483489553711559 1 1 1 1 1 1 1 1 1 1 1 1 1 0.01232146139957329 1 1 1 0.01587521723976151 1 1 1 1 1 0.016677060784995923 1 1 1 1 1 1 1 1 1 1 1 1 1 0.0097487740312454888 1 1 1 1 0.0091926437473029907 1 1 1 1 1 0.011223960105175816 1 0.011076449639631837 1 1 1 1 0.013438014693360763 1 1 1 0.013098457061110678 1 1 1 1 1 1 1 1 0.010909575621736445 0.012853015012781278 1 0.014216564210865481 1 0.010076465260529126 1 0.013294916633772025 1 1 1 0.008765545651555573 1 1 1 1 1 1 1 1 0.012062263929922063 1 1 1 1 0.011934622523497774 1 1 1 0.010244299115973216 1 0.011783378211659666 1 0.0094336440036579729 1 1 1 1 1 1 1 1 1 1 1 1 1 1 1 1 1 1 1 1 1 1 1 0.0099774787808506338 0.01016752027974354 1 1 1 1 1 1 1 1 1 0.012358457333503476 1 1 0.012825975755365643 1 1 1 1 1 1 1 1 1 1 0.015235682265757059 1 1 1 1 0.012881156361657868 1 1 1 1 1 1 1 1 1 1 1 1 1 1 1 1 1 1 1 1 1 1 1 1 1 1 1 1 1 1 1 1 1 1 1 1 1 0.0099683038421952246 1 1 1 1 1 1 0.010086093120827292 1 1 1 1 0.01064001987307802 1 1 1 0.011761528931067343 1 1 0.011366562105579694 1 0.011849766582281235 1 0.010676410853244325 1 0.01059628850993128 1 0.010291565940066768 1 1 1 0.0097585887901795454 1 1 1 0.01082198454249296 1 1 1 0.010272677525155946 0.010070640566070868 1 0.009865883876596147 1 1 0.012919102180876411 1 1 0.0099269383402053289 1 1 1 0.010607116846918976 0.010053265861692157 1 1 0.0085968626192669366 1 0.012405899323161084 1 1 1 0.010380021720835476 1 0.010921917569295623 1 1 0.0098358791614588607 1 0.010855698806400131 0.010181665186869419 1 1 1 1 1 1 1 1 1 1 1 1 1 1 1 1 1 1 1 1 0.012335939238764054 1 0.0131758023820673 1 1 0.0098841520017360525 1 1 1 1 0.0098811739325386019 1 1 0.0099511110898448992 1 0.010611836739290063 1 1 1 1 1 1 1 1 1 1 1 0.012874645934504662 1 1 1 1 1 1 0.010549739574595421 1 1 1 1 1 1 1 1 1 1 1 1 1 1 1 1 1 1 1 1 1 1 1 1 1 1 1 1 1 0.02254438980375113 1 1 1 1 0.019147051028062748 1 1 1 1 0.012826766625776276 1 1 1 1 1 1 1 1 1 1 1 1 0.016204740058290593 1 1 1 1 1 1 1 1 0.017978689765371255 1 1 1 1 1 1 1 1 1 1 1 1 1 1 1 1 1 1 1 0.010113143505620589 1 1 1 1 1 1 1 1 1 1 1 1 0.010734482542947316 1 0.014440686584016857 1 0.024221608349934295 1 1 1 0.020188779753700731 1 1 1 1 1 1 1 1 1 1 0.019445570031338122 1 1 1 1 1 1 0.017192413668839959 1 1 1 1 0.012812952147099389 1 1 1 1 1 1 0.0098520296851588862 1 1 1 0.0097992359747850737 1 1 1 1 1 1 1 1 1 1 1 1 1 1 1 1 0.011422810898143225 1 1 1 1 1 1 1 1 1 1 1 1 1 1 1 1 1 1 1 1 1 1 1 1 1 1 1 1 1 1 1 0.011012620178052697 1 1 1 1 1 1 1 1 0.010948428450735806 1 1 1 1 1 1 1 1 1 0.016433794405463768 1 1 1 0.012619631920012269 1 1 1 1 1 0.011339820811644391 1 1 0.01003085048611408 1 1 1 1 1 1 1 1 1 1 0.011003002274521749 0.0098522893286626979 1 1 0.012497046403609657 1 1 1 1 1 1 1 1 0.013683659135802788 1 1 1 1 1 1 1 1 1 1 1 1 1 1 1 1 1 1 1 1 1 1 1 1 1 1 1 1 1 1 1 1 1 1 1 1 1 1 1 1 1 1 1 1 1 1 1 1 1 1 1 0.009756620352197997 1 1 1 1 1 1 1 1 1 1 1 1 1 1 1 1 1 1 1 1 1 1 1 1 1 1 1 1 1 1 1 1 0.012079489490847492 1 1 1 1 0.012761575130591405 1 1 1 1 1 1 1 1 1 1 1 1 1 1 1 1 1 0.010106557529790394 1 1 1 1 1 1 1 1 1 1 1 1 1 1 1 1 0.010015898414756709 0.010204042615146066 0.0091848841533458195 1 1 1 0.010343668026605312 1 1 0.011457659876922443 1 0.010426077878778053 1 1 1 1 1 1 1 1 1 0.011167007900823755 1 1 0.010589152496524932 1 1 1 1 1 1 0.0097391225669668739 1 1 1 1 1 1 1 1 1 1 1 1 0.0099215745293603011 1 1 1 1 1 1 1 1 1 1 1 1 1 1 0.016078506323355137 0.009805828812581581 1 1 1 1 1 0.0098315729119044151 1 1 1 0.012720148933614337 0.016255407941252478 1 1 1 1 1 1 0.01419408703738792 1 1 1 1 1 0.019135151022705542 0.012361283143604402 1 1 1 0.010002526219525989 1 1 1 1 1 1 1 1 0.020576751588455712 1 1 0.018819374975219579 1 1 0.01094644787605421 1 1 0.020285808191343756 1 1 0.02124801293372134 1 1 1 1 1 1 0.008953721165324403 1 1 1 0.021055484870663534 1 1 0.010724564228805997 1 1 1 1 1 1 0.021752776371852228 1 0.01122499904411552 1 1 1 1 1 1 0.0074584035390536235 0.013662860698434301 1 1 1 0.011599248736406539 1 1 1 1 1 0.012440767304954029 0.010790174824121167 1 0.01410730388652112 1 1 1 1 1 0.0099513712517888958 1 0.014742268774281621 1 1 1 0.01137067468481473 1 1 1 1 1 1 1 1 1 1 1 0.009643464785650032 1 1 0.023016096709858311 0.0099076284933314156 1 1 1 1 1 0.010389054258805042 1 1 1 1 1 1 1 1 1 1 1 1 1 1 1 1 1 1 1 1 1 1 1 1 0.010151579530633149 1 1 1 1 1 1 1 1 1 1 1 1 1 1 1 1 1 1 1 1 1 1 1 1 1 1 1 1 1 1 1 1 1 1 1 1 1 1 1 1 0.0097802579337425005 1 0.0099648190710688155 1 1 1 1 1 1 1 1 1 1 1 1 1 1 1 1 1 1 1 1 1 1 1 1 1 1 1 1 1 1 1 1 1 0.010073438598447169 1 1 1 1 1 1 1 1 1 1 1 1 1 1 1 1 1 1 1 1 1 1 1 1 1 1 1 1 1 1 1 1 1 1 1 1 0.010022213929539761 1 1 1 1 1 1 1 1 1 1 1 1 1 1 1 1 1 1 1 0.010369310886764554 1 0.010101473239809922 1 1 1 1 1 1 1 1 1 1 1 1 1 1 1 1 1 1 1 1 1 1 1 1 1 1 1 1 1 1 1 1 1 1 1 1 1 1 1 1 1 1 1 1 1 1 1 1 1 1 1 1 1 1 1 1 1 1 1 1 1 1 1 1 1 1 1 1 0.010968982170829849 1 1 1 1 0.010258682474019851 1 1 0.01405758054204964 1 1 1 0.010224842019790015 1 1 1 1 1 1 1 0.010068073389878151 1 1 1 1 0.016657204118260563 1 1 1 1 1 1 0.011290131045552843 1 0.013686491188238887 1 
</DataArray>
</CellData>
</Piece>
</UnstructuredGrid>
</VTKFile>
